*SPEF "ieee 1481-1999"
*DESIGN "S_EF_DAC8"
*DATE "08:22:26 Wednesday May 14, 2025"
*VENDOR "The OpenROAD Project"
*PROGRAM "OpenROAD"
*VERSION "87af90f72f3f9be1fdfa1d886f0dd8d8b8f34694"
*DESIGN_FLOW "NAME_SCOPE LOCAL" "PIN_CAP NONE"
*DIVIDER /
*DELIMITER :
*BUS_DELIMITER []
*T_UNIT 1 NS
*C_UNIT 1 PF
*R_UNIT 1 OHM
*L_UNIT 1 HENRY

*NAME_MAP
*1 net197
*2 ENABLE_top
*3 FrameData[0]
*4 FrameData[10]
*5 FrameData[11]
*6 FrameData[12]
*7 FrameData[13]
*8 FrameData[14]
*9 FrameData[15]
*10 FrameData[16]
*11 FrameData[17]
*12 FrameData[18]
*13 FrameData[19]
*14 FrameData[1]
*15 FrameData[20]
*16 FrameData[21]
*17 FrameData[22]
*18 FrameData[23]
*19 FrameData[24]
*20 FrameData[25]
*21 FrameData[26]
*22 FrameData[27]
*23 FrameData[28]
*24 FrameData[29]
*25 FrameData[2]
*26 FrameData[30]
*27 FrameData[31]
*28 FrameData[3]
*29 FrameData[4]
*30 FrameData[5]
*31 FrameData[6]
*32 FrameData[7]
*33 FrameData[8]
*34 FrameData[9]
*35 FrameData_O[0]
*36 FrameData_O[10]
*37 FrameData_O[11]
*38 FrameData_O[12]
*39 FrameData_O[13]
*40 FrameData_O[14]
*41 FrameData_O[15]
*42 FrameData_O[16]
*43 FrameData_O[17]
*44 FrameData_O[18]
*45 FrameData_O[19]
*46 FrameData_O[1]
*47 FrameData_O[20]
*48 FrameData_O[21]
*49 FrameData_O[22]
*50 FrameData_O[23]
*51 FrameData_O[24]
*52 FrameData_O[25]
*53 FrameData_O[26]
*54 FrameData_O[27]
*55 FrameData_O[28]
*56 FrameData_O[29]
*57 FrameData_O[2]
*58 FrameData_O[30]
*59 FrameData_O[31]
*60 FrameData_O[3]
*61 FrameData_O[4]
*62 FrameData_O[5]
*63 FrameData_O[6]
*64 FrameData_O[7]
*65 FrameData_O[8]
*66 FrameData_O[9]
*67 FrameStrobe[0]
*68 FrameStrobe[10]
*69 FrameStrobe[11]
*70 FrameStrobe[12]
*71 FrameStrobe[13]
*72 FrameStrobe[14]
*73 FrameStrobe[15]
*74 FrameStrobe[16]
*75 FrameStrobe[17]
*76 FrameStrobe[18]
*77 FrameStrobe[19]
*78 FrameStrobe[1]
*79 FrameStrobe[2]
*80 FrameStrobe[3]
*81 FrameStrobe[4]
*82 FrameStrobe[5]
*83 FrameStrobe[6]
*84 FrameStrobe[7]
*85 FrameStrobe[8]
*86 FrameStrobe[9]
*87 FrameStrobe_O[0]
*88 FrameStrobe_O[10]
*89 FrameStrobe_O[11]
*90 FrameStrobe_O[12]
*91 FrameStrobe_O[13]
*92 FrameStrobe_O[14]
*93 FrameStrobe_O[15]
*94 FrameStrobe_O[16]
*95 FrameStrobe_O[17]
*96 FrameStrobe_O[18]
*97 FrameStrobe_O[19]
*98 FrameStrobe_O[1]
*99 FrameStrobe_O[2]
*100 FrameStrobe_O[3]
*101 FrameStrobe_O[4]
*102 FrameStrobe_O[5]
*103 FrameStrobe_O[6]
*104 FrameStrobe_O[7]
*105 FrameStrobe_O[8]
*106 FrameStrobe_O[9]
*107 N1BEG[0]
*108 N1BEG[1]
*109 N1BEG[2]
*110 N1BEG[3]
*111 N2BEG[0]
*112 N2BEG[1]
*113 N2BEG[2]
*114 N2BEG[3]
*115 N2BEG[4]
*116 N2BEG[5]
*117 N2BEG[6]
*118 N2BEG[7]
*119 N2BEGb[0]
*120 N2BEGb[1]
*121 N2BEGb[2]
*122 N2BEGb[3]
*123 N2BEGb[4]
*124 N2BEGb[5]
*125 N2BEGb[6]
*126 N2BEGb[7]
*127 N4BEG[0]
*128 N4BEG[10]
*129 N4BEG[11]
*130 N4BEG[12]
*131 N4BEG[13]
*132 N4BEG[14]
*133 N4BEG[15]
*134 N4BEG[1]
*135 N4BEG[2]
*136 N4BEG[3]
*137 N4BEG[4]
*138 N4BEG[5]
*139 N4BEG[6]
*140 N4BEG[7]
*141 N4BEG[8]
*142 N4BEG[9]
*143 NN4BEG[0]
*144 NN4BEG[10]
*145 NN4BEG[11]
*146 NN4BEG[12]
*147 NN4BEG[13]
*148 NN4BEG[14]
*149 NN4BEG[15]
*150 NN4BEG[1]
*151 NN4BEG[2]
*152 NN4BEG[3]
*153 NN4BEG[4]
*154 NN4BEG[5]
*155 NN4BEG[6]
*156 NN4BEG[7]
*157 NN4BEG[8]
*158 NN4BEG[9]
*159 S1END[0]
*160 S1END[1]
*161 S1END[2]
*162 S1END[3]
*163 S2END[0]
*164 S2END[1]
*165 S2END[2]
*166 S2END[3]
*167 S2END[4]
*168 S2END[5]
*169 S2END[6]
*170 S2END[7]
*171 S2MID[0]
*172 S2MID[1]
*173 S2MID[2]
*174 S2MID[3]
*175 S2MID[4]
*176 S2MID[5]
*177 S2MID[6]
*178 S2MID[7]
*179 S4END[0]
*180 S4END[10]
*181 S4END[11]
*182 S4END[12]
*183 S4END[13]
*184 S4END[14]
*185 S4END[15]
*186 S4END[1]
*187 S4END[2]
*188 S4END[3]
*189 S4END[4]
*190 S4END[5]
*191 S4END[6]
*192 S4END[7]
*193 S4END[8]
*194 S4END[9]
*195 SS4END[0]
*196 SS4END[10]
*197 SS4END[11]
*198 SS4END[12]
*199 SS4END[13]
*200 SS4END[14]
*201 SS4END[15]
*202 SS4END[1]
*203 SS4END[2]
*204 SS4END[3]
*205 SS4END[4]
*206 SS4END[5]
*207 SS4END[6]
*208 SS4END[7]
*209 SS4END[8]
*210 SS4END[9]
*211 UserCLK
*212 UserCLKo
*213 VALUE_top0
*214 VALUE_top1
*215 VALUE_top2
*216 VALUE_top3
*217 VALUE_top4
*218 VALUE_top5
*219 VALUE_top6
*220 VALUE_top7
*223 Inst_S_EF_DAC8_ConfigMem\.Inst_frame0_bit0\.Q
*224 Inst_S_EF_DAC8_ConfigMem\.Inst_frame0_bit1\.Q
*225 Inst_S_EF_DAC8_ConfigMem\.Inst_frame0_bit10\.Q
*226 Inst_S_EF_DAC8_ConfigMem\.Inst_frame0_bit11\.Q
*227 Inst_S_EF_DAC8_ConfigMem\.Inst_frame0_bit12\.Q
*228 Inst_S_EF_DAC8_ConfigMem\.Inst_frame0_bit13\.Q
*229 Inst_S_EF_DAC8_ConfigMem\.Inst_frame0_bit14\.Q
*230 Inst_S_EF_DAC8_ConfigMem\.Inst_frame0_bit15\.Q
*231 Inst_S_EF_DAC8_ConfigMem\.Inst_frame0_bit16\.Q
*232 Inst_S_EF_DAC8_ConfigMem\.Inst_frame0_bit17\.Q
*233 Inst_S_EF_DAC8_ConfigMem\.Inst_frame0_bit18\.Q
*234 Inst_S_EF_DAC8_ConfigMem\.Inst_frame0_bit19\.Q
*235 Inst_S_EF_DAC8_ConfigMem\.Inst_frame0_bit2\.Q
*236 Inst_S_EF_DAC8_ConfigMem\.Inst_frame0_bit20\.Q
*237 Inst_S_EF_DAC8_ConfigMem\.Inst_frame0_bit21\.Q
*238 Inst_S_EF_DAC8_ConfigMem\.Inst_frame0_bit22\.Q
*239 Inst_S_EF_DAC8_ConfigMem\.Inst_frame0_bit23\.Q
*240 Inst_S_EF_DAC8_ConfigMem\.Inst_frame0_bit24\.Q
*241 Inst_S_EF_DAC8_ConfigMem\.Inst_frame0_bit25\.Q
*242 Inst_S_EF_DAC8_ConfigMem\.Inst_frame0_bit26\.Q
*243 Inst_S_EF_DAC8_ConfigMem\.Inst_frame0_bit27\.Q
*244 Inst_S_EF_DAC8_ConfigMem\.Inst_frame0_bit28\.Q
*245 Inst_S_EF_DAC8_ConfigMem\.Inst_frame0_bit29\.Q
*246 Inst_S_EF_DAC8_ConfigMem\.Inst_frame0_bit3\.Q
*247 Inst_S_EF_DAC8_ConfigMem\.Inst_frame0_bit30\.Q
*248 Inst_S_EF_DAC8_ConfigMem\.Inst_frame0_bit31\.Q
*249 Inst_S_EF_DAC8_ConfigMem\.Inst_frame0_bit4\.Q
*250 Inst_S_EF_DAC8_ConfigMem\.Inst_frame0_bit5\.Q
*251 Inst_S_EF_DAC8_ConfigMem\.Inst_frame0_bit6\.Q
*252 Inst_S_EF_DAC8_ConfigMem\.Inst_frame0_bit7\.Q
*253 Inst_S_EF_DAC8_ConfigMem\.Inst_frame0_bit8\.Q
*254 Inst_S_EF_DAC8_ConfigMem\.Inst_frame0_bit9\.Q
*255 Inst_S_EF_DAC8_ConfigMem\.Inst_frame1_bit14\.Q
*256 Inst_S_EF_DAC8_ConfigMem\.Inst_frame1_bit15\.Q
*257 Inst_S_EF_DAC8_ConfigMem\.Inst_frame1_bit16\.Q
*258 Inst_S_EF_DAC8_ConfigMem\.Inst_frame1_bit17\.Q
*259 Inst_S_EF_DAC8_ConfigMem\.Inst_frame1_bit18\.Q
*260 Inst_S_EF_DAC8_ConfigMem\.Inst_frame1_bit19\.Q
*261 Inst_S_EF_DAC8_ConfigMem\.Inst_frame1_bit20\.Q
*262 Inst_S_EF_DAC8_ConfigMem\.Inst_frame1_bit21\.Q
*263 Inst_S_EF_DAC8_ConfigMem\.Inst_frame1_bit22\.Q
*264 Inst_S_EF_DAC8_ConfigMem\.Inst_frame1_bit23\.Q
*265 Inst_S_EF_DAC8_ConfigMem\.Inst_frame1_bit24\.Q
*266 Inst_S_EF_DAC8_ConfigMem\.Inst_frame1_bit25\.Q
*267 Inst_S_EF_DAC8_ConfigMem\.Inst_frame1_bit26\.Q
*268 Inst_S_EF_DAC8_ConfigMem\.Inst_frame1_bit27\.Q
*269 Inst_S_EF_DAC8_ConfigMem\.Inst_frame1_bit28\.Q
*270 Inst_S_EF_DAC8_ConfigMem\.Inst_frame1_bit29\.Q
*271 Inst_S_EF_DAC8_ConfigMem\.Inst_frame1_bit30\.Q
*272 Inst_S_EF_DAC8_ConfigMem\.Inst_frame1_bit31\.Q
*273 Inst_S_EF_DAC8_switch_matrix\.N2BEG0
*274 Inst_S_EF_DAC8_switch_matrix\.N2BEG1
*275 Inst_S_EF_DAC8_switch_matrix\.N2BEG2
*276 Inst_S_EF_DAC8_switch_matrix\.N2BEG3
*277 Inst_S_EF_DAC8_switch_matrix\.N2BEG4
*278 Inst_S_EF_DAC8_switch_matrix\.N2BEG5
*279 Inst_S_EF_DAC8_switch_matrix\.N2BEG6
*280 Inst_S_EF_DAC8_switch_matrix\.N2BEG7
*281 Inst_S_EF_DAC8_switch_matrix\.N2BEGb0
*282 Inst_S_EF_DAC8_switch_matrix\.N2BEGb1
*283 Inst_S_EF_DAC8_switch_matrix\.N2BEGb2
*284 Inst_S_EF_DAC8_switch_matrix\.N2BEGb3
*285 Inst_S_EF_DAC8_switch_matrix\.N2BEGb4
*286 Inst_S_EF_DAC8_switch_matrix\.N2BEGb5
*287 Inst_S_EF_DAC8_switch_matrix\.N2BEGb6
*288 Inst_S_EF_DAC8_switch_matrix\.N2BEGb7
*289 _000_
*290 _001_
*291 net1
*292 net10
*293 net100
*294 net101
*295 net102
*296 net103
*297 net104
*298 net105
*299 net106
*300 net107
*301 net108
*302 net109
*303 net11
*304 net110
*305 net111
*306 net112
*307 net113
*308 net114
*309 net115
*310 net116
*311 net117
*312 net118
*313 net119
*314 net12
*315 net120
*316 net121
*317 net122
*318 net123
*319 net124
*320 net125
*321 net126
*322 net127
*323 net128
*324 net129
*325 net13
*326 net130
*327 net131
*328 net132
*329 net133
*330 net134
*331 net135
*332 net136
*333 net137
*334 net138
*335 net139
*336 net14
*337 net140
*338 net141
*339 net142
*340 net143
*341 net144
*342 net145
*343 net146
*344 net147
*345 net148
*346 net149
*347 net15
*348 net150
*349 net151
*350 net152
*351 net153
*352 net154
*353 net155
*354 net156
*355 net157
*356 net158
*357 net159
*358 net16
*359 net160
*360 net161
*361 net162
*362 net163
*363 net164
*364 net165
*365 net166
*366 net167
*367 net168
*368 net169
*369 net17
*370 net170
*371 net171
*372 net172
*373 net173
*374 net174
*375 net175
*376 net176
*377 net177
*378 net178
*379 net179
*380 net18
*381 net180
*382 net181
*383 net182
*384 net183
*385 net184
*386 net185
*387 net186
*388 net187
*389 net188
*390 net189
*391 net19
*392 net190
*393 net191
*394 net192
*395 net193
*396 net194
*397 net195
*398 net196
*399 net2
*400 net20
*401 net21
*402 net22
*403 net23
*404 net24
*405 net25
*406 net26
*407 net27
*408 net28
*409 net29
*410 net3
*411 net30
*412 net31
*413 net32
*414 net33
*415 net34
*416 net35
*417 net36
*418 net37
*419 net38
*420 net39
*421 net4
*422 net40
*423 net41
*424 net42
*425 net43
*426 net44
*427 net45
*428 net46
*429 net47
*430 net48
*431 net49
*432 net5
*433 net50
*434 net51
*435 net52
*436 net53
*437 net54
*438 net55
*439 net56
*440 net57
*441 net58
*442 net59
*443 net6
*444 net60
*445 net61
*446 net62
*447 net63
*448 net64
*449 net65
*450 net66
*451 net67
*452 net68
*453 net69
*454 net7
*455 net70
*456 net71
*457 net72
*458 net73
*459 net74
*460 net75
*461 net76
*462 net77
*463 net78
*464 net79
*465 net8
*466 net80
*467 net81
*468 net82
*469 net83
*470 net84
*471 net85
*472 net86
*473 net87
*474 net88
*475 net89
*476 net9
*477 net90
*478 net91
*479 net92
*480 net93
*481 net94
*482 net95
*483 net96
*484 net97
*485 net98
*486 net99
*487 ANTENNA_1
*488 ANTENNA_10
*489 ANTENNA_11
*490 ANTENNA_12
*491 ANTENNA_13
*492 ANTENNA_14
*493 ANTENNA_2
*494 ANTENNA_3
*495 ANTENNA_4
*496 ANTENNA_5
*497 ANTENNA_6
*498 ANTENNA_7
*499 ANTENNA_8
*500 ANTENNA_9
*501 FILLER_0_101
*502 FILLER_0_104
*503 FILLER_0_107
*504 FILLER_0_110
*505 FILLER_0_113
*506 FILLER_0_116
*507 FILLER_0_119
*508 FILLER_0_122
*509 FILLER_0_125
*510 FILLER_0_128
*511 FILLER_0_131
*512 FILLER_0_134
*513 FILLER_0_137
*514 FILLER_0_141
*515 FILLER_0_144
*516 FILLER_0_147
*517 FILLER_0_150
*518 FILLER_0_153
*519 FILLER_0_156
*520 FILLER_0_159
*521 FILLER_0_162
*522 FILLER_0_165
*523 FILLER_0_169
*524 FILLER_0_172
*525 FILLER_0_175
*526 FILLER_0_178
*527 FILLER_0_181
*528 FILLER_0_184
*529 FILLER_0_187
*530 FILLER_0_190
*531 FILLER_0_193
*532 FILLER_0_197
*533 FILLER_0_200
*534 FILLER_0_203
*535 FILLER_0_206
*536 FILLER_0_209
*537 FILLER_0_212
*538 FILLER_0_215
*539 FILLER_0_218
*540 FILLER_0_221
*541 FILLER_0_225
*542 FILLER_0_228
*543 FILLER_0_231
*544 FILLER_0_234
*545 FILLER_0_237
*546 FILLER_0_240
*547 FILLER_0_243
*548 FILLER_0_246
*549 FILLER_0_249
*550 FILLER_0_253
*551 FILLER_0_256
*552 FILLER_0_259
*553 FILLER_0_262
*554 FILLER_0_265
*555 FILLER_0_268
*556 FILLER_0_27
*557 FILLER_0_271
*558 FILLER_0_274
*559 FILLER_0_277
*560 FILLER_0_281
*561 FILLER_0_284
*562 FILLER_0_287
*563 FILLER_0_290
*564 FILLER_0_293
*565 FILLER_0_296
*566 FILLER_0_299
*567 FILLER_0_302
*568 FILLER_0_305
*569 FILLER_0_309
*570 FILLER_0_312
*571 FILLER_0_315
*572 FILLER_0_318
*573 FILLER_0_33
*574 FILLER_0_339
*575 FILLER_0_36
*576 FILLER_0_41
*577 FILLER_0_44
*578 FILLER_0_47
*579 FILLER_0_53
*580 FILLER_0_57
*581 FILLER_0_60
*582 FILLER_0_65
*583 FILLER_0_68
*584 FILLER_0_71
*585 FILLER_0_77
*586 FILLER_0_80
*587 FILLER_0_83
*588 FILLER_0_89
*589 FILLER_0_92
*590 FILLER_0_95
*591 FILLER_10_138
*592 FILLER_10_148
*593 FILLER_10_195
*594 FILLER_10_218
*595 FILLER_10_22
*596 FILLER_10_221
*597 FILLER_10_25
*598 FILLER_10_253
*599 FILLER_10_256
*600 FILLER_10_259
*601 FILLER_10_29
*602 FILLER_10_305
*603 FILLER_10_313
*604 FILLER_10_316
*605 FILLER_10_319
*606 FILLER_10_32
*607 FILLER_10_322
*608 FILLER_10_325
*609 FILLER_10_328
*610 FILLER_10_35
*611 FILLER_10_38
*612 FILLER_10_41
*613 FILLER_10_44
*614 FILLER_10_47
*615 FILLER_10_85
*616 FILLER_10_92
*617 FILLER_11_113
*618 FILLER_11_160
*619 FILLER_11_187
*620 FILLER_11_194
*621 FILLER_11_200
*622 FILLER_11_222
*623 FILLER_11_250
*624 FILLER_11_26
*625 FILLER_11_297
*626 FILLER_11_307
*627 FILLER_11_32
*628 FILLER_11_321
*629 FILLER_11_324
*630 FILLER_11_327
*631 FILLER_11_35
*632 FILLER_11_57
*633 FILLER_11_85
*634 FILLER_11_94
*635 FILLER_1_102
*636 FILLER_1_105
*637 FILLER_1_108
*638 FILLER_1_111
*639 FILLER_1_113
*640 FILLER_1_116
*641 FILLER_1_126
*642 FILLER_1_149
*643 FILLER_1_165
*644 FILLER_1_202
*645 FILLER_1_205
*646 FILLER_1_220
*647 FILLER_1_223
*648 FILLER_1_243
*649 FILLER_1_246
*650 FILLER_1_249
*651 FILLER_1_26
*652 FILLER_1_264
*653 FILLER_1_287
*654 FILLER_1_29
*655 FILLER_1_290
*656 FILLER_1_293
*657 FILLER_1_296
*658 FILLER_1_299
*659 FILLER_1_302
*660 FILLER_1_305
*661 FILLER_1_308
*662 FILLER_1_311
*663 FILLER_1_314
*664 FILLER_1_317
*665 FILLER_1_32
*666 FILLER_1_320
*667 FILLER_1_323
*668 FILLER_1_326
*669 FILLER_1_329
*670 FILLER_1_337
*671 FILLER_1_35
*672 FILLER_1_38
*673 FILLER_1_41
*674 FILLER_1_44
*675 FILLER_1_48
*676 FILLER_1_52
*677 FILLER_1_55
*678 FILLER_1_57
*679 FILLER_1_60
*680 FILLER_1_63
*681 FILLER_1_66
*682 FILLER_1_69
*683 FILLER_1_72
*684 FILLER_1_75
*685 FILLER_1_78
*686 FILLER_1_81
*687 FILLER_1_84
*688 FILLER_1_87
*689 FILLER_1_90
*690 FILLER_1_93
*691 FILLER_1_96
*692 FILLER_1_99
*693 FILLER_2_100
*694 FILLER_2_103
*695 FILLER_2_106
*696 FILLER_2_123
*697 FILLER_2_136
*698 FILLER_2_139
*699 FILLER_2_165
*700 FILLER_2_194
*701 FILLER_2_197
*702 FILLER_2_201
*703 FILLER_2_22
*704 FILLER_2_220
*705 FILLER_2_223
*706 FILLER_2_246
*707 FILLER_2_25
*708 FILLER_2_268
*709 FILLER_2_274
*710 FILLER_2_29
*711 FILLER_2_306
*712 FILLER_2_312
*713 FILLER_2_315
*714 FILLER_2_318
*715 FILLER_2_321
*716 FILLER_2_324
*717 FILLER_2_327
*718 FILLER_2_330
*719 FILLER_2_333
*720 FILLER_2_35
*721 FILLER_2_62
*722 FILLER_2_65
*723 FILLER_2_68
*724 FILLER_2_71
*725 FILLER_2_76
*726 FILLER_2_79
*727 FILLER_2_82
*728 FILLER_2_85
*729 FILLER_2_88
*730 FILLER_2_91
*731 FILLER_2_94
*732 FILLER_2_97
*733 FILLER_3_13
*734 FILLER_3_146
*735 FILLER_3_151
*736 FILLER_3_16
*737 FILLER_3_165
*738 FILLER_3_19
*739 FILLER_3_202
*740 FILLER_3_205
*741 FILLER_3_208
*742 FILLER_3_211
*743 FILLER_3_214
*744 FILLER_3_217
*745 FILLER_3_22
*746 FILLER_3_223
*747 FILLER_3_225
*748 FILLER_3_228
*749 FILLER_3_233
*750 FILLER_3_236
*751 FILLER_3_239
*752 FILLER_3_25
*753 FILLER_3_253
*754 FILLER_3_256
*755 FILLER_3_261
*756 FILLER_3_264
*757 FILLER_3_274
*758 FILLER_3_277
*759 FILLER_3_28
*760 FILLER_3_281
*761 FILLER_3_286
*762 FILLER_3_289
*763 FILLER_3_292
*764 FILLER_3_295
*765 FILLER_3_298
*766 FILLER_3_301
*767 FILLER_3_304
*768 FILLER_3_307
*769 FILLER_3_31
*770 FILLER_3_310
*771 FILLER_3_315
*772 FILLER_3_318
*773 FILLER_3_321
*774 FILLER_3_324
*775 FILLER_3_327
*776 FILLER_3_330
*777 FILLER_3_333
*778 FILLER_3_34
*779 FILLER_3_37
*780 FILLER_3_40
*781 FILLER_3_43
*782 FILLER_3_47
*783 FILLER_3_50
*784 FILLER_3_53
*785 FILLER_3_60
*786 FILLER_3_63
*787 FILLER_3_66
*788 FILLER_3_69
*789 FILLER_3_72
*790 FILLER_3_75
*791 FILLER_3_80
*792 FILLER_3_83
*793 FILLER_3_89
*794 FILLER_3_92
*795 FILLER_3_95
*796 FILLER_3_98
*797 FILLER_4_12
*798 FILLER_4_126
*799 FILLER_4_139
*800 FILLER_4_15
*801 FILLER_4_153
*802 FILLER_4_156
*803 FILLER_4_159
*804 FILLER_4_162
*805 FILLER_4_165
*806 FILLER_4_168
*807 FILLER_4_171
*808 FILLER_4_18
*809 FILLER_4_193
*810 FILLER_4_197
*811 FILLER_4_21
*812 FILLER_4_224
*813 FILLER_4_227
*814 FILLER_4_230
*815 FILLER_4_233
*816 FILLER_4_236
*817 FILLER_4_239
*818 FILLER_4_24
*819 FILLER_4_256
*820 FILLER_4_259
*821 FILLER_4_262
*822 FILLER_4_265
*823 FILLER_4_27
*824 FILLER_4_278
*825 FILLER_4_281
*826 FILLER_4_284
*827 FILLER_4_287
*828 FILLER_4_29
*829 FILLER_4_290
*830 FILLER_4_293
*831 FILLER_4_296
*832 FILLER_4_299
*833 FILLER_4_302
*834 FILLER_4_305
*835 FILLER_4_309
*836 FILLER_4_312
*837 FILLER_4_315
*838 FILLER_4_318
*839 FILLER_4_32
*840 FILLER_4_321
*841 FILLER_4_324
*842 FILLER_4_327
*843 FILLER_4_330
*844 FILLER_4_333
*845 FILLER_4_336
*846 FILLER_4_35
*847 FILLER_4_38
*848 FILLER_4_41
*849 FILLER_4_44
*850 FILLER_4_47
*851 FILLER_4_50
*852 FILLER_4_53
*853 FILLER_4_56
*854 FILLER_4_59
*855 FILLER_4_62
*856 FILLER_4_65
*857 FILLER_4_68
*858 FILLER_4_71
*859 FILLER_4_74
*860 FILLER_4_80
*861 FILLER_4_83
*862 FILLER_4_85
*863 FILLER_4_88
*864 FILLER_4_91
*865 FILLER_5_107
*866 FILLER_5_110
*867 FILLER_5_113
*868 FILLER_5_116
*869 FILLER_5_119
*870 FILLER_5_13
*871 FILLER_5_145
*872 FILLER_5_16
*873 FILLER_5_160
*874 FILLER_5_163
*875 FILLER_5_166
*876 FILLER_5_19
*877 FILLER_5_190
*878 FILLER_5_193
*879 FILLER_5_196
*880 FILLER_5_221
*881 FILLER_5_237
*882 FILLER_5_24
*883 FILLER_5_240
*884 FILLER_5_243
*885 FILLER_5_246
*886 FILLER_5_27
*887 FILLER_5_272
*888 FILLER_5_275
*889 FILLER_5_278
*890 FILLER_5_281
*891 FILLER_5_284
*892 FILLER_5_287
*893 FILLER_5_290
*894 FILLER_5_293
*895 FILLER_5_296
*896 FILLER_5_299
*897 FILLER_5_30
*898 FILLER_5_303
*899 FILLER_5_306
*900 FILLER_5_309
*901 FILLER_5_312
*902 FILLER_5_315
*903 FILLER_5_320
*904 FILLER_5_323
*905 FILLER_5_326
*906 FILLER_5_329
*907 FILLER_5_33
*908 FILLER_5_332
*909 FILLER_5_335
*910 FILLER_5_36
*911 FILLER_5_39
*912 FILLER_5_42
*913 FILLER_5_45
*914 FILLER_5_48
*915 FILLER_5_51
*916 FILLER_5_54
*917 FILLER_5_57
*918 FILLER_5_60
*919 FILLER_5_63
*920 FILLER_5_66
*921 FILLER_5_69
*922 FILLER_5_72
*923 FILLER_6_100
*924 FILLER_6_103
*925 FILLER_6_129
*926 FILLER_6_132
*927 FILLER_6_135
*928 FILLER_6_138
*929 FILLER_6_141
*930 FILLER_6_176
*931 FILLER_6_19
*932 FILLER_6_212
*933 FILLER_6_215
*934 FILLER_6_218
*935 FILLER_6_231
*936 FILLER_6_234
*937 FILLER_6_237
*938 FILLER_6_24
*939 FILLER_6_240
*940 FILLER_6_243
*941 FILLER_6_246
*942 FILLER_6_249
*943 FILLER_6_27
*944 FILLER_6_286
*945 FILLER_6_289
*946 FILLER_6_29
*947 FILLER_6_293
*948 FILLER_6_296
*949 FILLER_6_299
*950 FILLER_6_302
*951 FILLER_6_305
*952 FILLER_6_309
*953 FILLER_6_312
*954 FILLER_6_315
*955 FILLER_6_318
*956 FILLER_6_32
*957 FILLER_6_321
*958 FILLER_6_324
*959 FILLER_6_327
*960 FILLER_6_330
*961 FILLER_6_333
*962 FILLER_6_336
*963 FILLER_6_35
*964 FILLER_6_38
*965 FILLER_6_41
*966 FILLER_6_44
*967 FILLER_6_47
*968 FILLER_6_50
*969 FILLER_6_53
*970 FILLER_6_56
*971 FILLER_6_59
*972 FILLER_6_62
*973 FILLER_6_65
*974 FILLER_6_68
*975 FILLER_6_71
*976 FILLER_6_74
*977 FILLER_6_77
*978 FILLER_6_80
*979 FILLER_6_83
*980 FILLER_6_85
*981 FILLER_6_88
*982 FILLER_6_91
*983 FILLER_6_97
*984 FILLER_7_110
*985 FILLER_7_113
*986 FILLER_7_116
*987 FILLER_7_119
*988 FILLER_7_133
*989 FILLER_7_136
*990 FILLER_7_143
*991 FILLER_7_16
*992 FILLER_7_19
*993 FILLER_7_193
*994 FILLER_7_196
*995 FILLER_7_199
*996 FILLER_7_202
*997 FILLER_7_205
*998 FILLER_7_208
*999 FILLER_7_211
*1000 FILLER_7_214
*1001 FILLER_7_217
*1002 FILLER_7_22
*1003 FILLER_7_220
*1004 FILLER_7_223
*1005 FILLER_7_240
*1006 FILLER_7_243
*1007 FILLER_7_246
*1008 FILLER_7_25
*1009 FILLER_7_271
*1010 FILLER_7_274
*1011 FILLER_7_277
*1012 FILLER_7_28
*1013 FILLER_7_281
*1014 FILLER_7_284
*1015 FILLER_7_287
*1016 FILLER_7_290
*1017 FILLER_7_293
*1018 FILLER_7_296
*1019 FILLER_7_299
*1020 FILLER_7_302
*1021 FILLER_7_305
*1022 FILLER_7_308
*1023 FILLER_7_31
*1024 FILLER_7_311
*1025 FILLER_7_314
*1026 FILLER_7_317
*1027 FILLER_7_320
*1028 FILLER_7_325
*1029 FILLER_7_328
*1030 FILLER_7_331
*1031 FILLER_7_334
*1032 FILLER_7_337
*1033 FILLER_7_34
*1034 FILLER_7_37
*1035 FILLER_7_40
*1036 FILLER_7_43
*1037 FILLER_7_46
*1038 FILLER_7_49
*1039 FILLER_7_52
*1040 FILLER_7_55
*1041 FILLER_7_57
*1042 FILLER_7_60
*1043 FILLER_7_63
*1044 FILLER_7_66
*1045 FILLER_7_69
*1046 FILLER_7_72
*1047 FILLER_7_75
*1048 FILLER_7_78
*1049 FILLER_7_81
*1050 FILLER_7_84
*1051 FILLER_7_87
*1052 FILLER_7_90
*1053 FILLER_7_93
*1054 FILLER_8_113
*1055 FILLER_8_139
*1056 FILLER_8_16
*1057 FILLER_8_19
*1058 FILLER_8_195
*1059 FILLER_8_197
*1060 FILLER_8_200
*1061 FILLER_8_203
*1062 FILLER_8_206
*1063 FILLER_8_209
*1064 FILLER_8_212
*1065 FILLER_8_215
*1066 FILLER_8_218
*1067 FILLER_8_22
*1068 FILLER_8_221
*1069 FILLER_8_25
*1070 FILLER_8_256
*1071 FILLER_8_278
*1072 FILLER_8_281
*1073 FILLER_8_284
*1074 FILLER_8_287
*1075 FILLER_8_29
*1076 FILLER_8_290
*1077 FILLER_8_293
*1078 FILLER_8_296
*1079 FILLER_8_299
*1080 FILLER_8_302
*1081 FILLER_8_305
*1082 FILLER_8_309
*1083 FILLER_8_312
*1084 FILLER_8_315
*1085 FILLER_8_318
*1086 FILLER_8_32
*1087 FILLER_8_321
*1088 FILLER_8_324
*1089 FILLER_8_327
*1090 FILLER_8_330
*1091 FILLER_8_333
*1092 FILLER_8_336
*1093 FILLER_8_35
*1094 FILLER_8_38
*1095 FILLER_8_41
*1096 FILLER_8_44
*1097 FILLER_8_47
*1098 FILLER_8_71
*1099 FILLER_8_74
*1100 FILLER_8_77
*1101 FILLER_8_80
*1102 FILLER_8_83
*1103 FILLER_9_110
*1104 FILLER_9_128
*1105 FILLER_9_14
*1106 FILLER_9_160
*1107 FILLER_9_17
*1108 FILLER_9_181
*1109 FILLER_9_186
*1110 FILLER_9_191
*1111 FILLER_9_195
*1112 FILLER_9_198
*1113 FILLER_9_20
*1114 FILLER_9_201
*1115 FILLER_9_207
*1116 FILLER_9_210
*1117 FILLER_9_213
*1118 FILLER_9_216
*1119 FILLER_9_23
*1120 FILLER_9_26
*1121 FILLER_9_284
*1122 FILLER_9_29
*1123 FILLER_9_32
*1124 FILLER_9_329
*1125 FILLER_9_337
*1126 FILLER_9_35
*1127 FILLER_9_38
*1128 FILLER_9_41
*1129 FILLER_9_44
*1130 FILLER_9_47
*1131 FILLER_9_50
*1132 FILLER_9_53
*1133 FILLER_9_57
*1134 FILLER_9_60
*1135 FILLER_9_65
*1136 FILLER_9_70
*1137 FILLER_9_73
*1138 FILLER_9_88
*1139 PHY_EDGE_ROW_0_Left_12
*1140 PHY_EDGE_ROW_0_Right_0
*1141 PHY_EDGE_ROW_10_Left_22
*1142 PHY_EDGE_ROW_10_Right_10
*1143 PHY_EDGE_ROW_11_Left_23
*1144 PHY_EDGE_ROW_11_Right_11
*1145 PHY_EDGE_ROW_1_Left_13
*1146 PHY_EDGE_ROW_1_Right_1
*1147 PHY_EDGE_ROW_2_Left_14
*1148 PHY_EDGE_ROW_2_Right_2
*1149 PHY_EDGE_ROW_3_Left_15
*1150 PHY_EDGE_ROW_3_Right_3
*1151 PHY_EDGE_ROW_4_Left_16
*1152 PHY_EDGE_ROW_4_Right_4
*1153 PHY_EDGE_ROW_5_Left_17
*1154 PHY_EDGE_ROW_5_Right_5
*1155 PHY_EDGE_ROW_6_Left_18
*1156 PHY_EDGE_ROW_6_Right_6
*1157 PHY_EDGE_ROW_7_Left_19
*1158 PHY_EDGE_ROW_7_Right_7
*1159 PHY_EDGE_ROW_8_Left_20
*1160 PHY_EDGE_ROW_8_Right_8
*1161 PHY_EDGE_ROW_9_Left_21
*1162 PHY_EDGE_ROW_9_Right_9
*1163 S_EF_DAC8_191
*1164 TAP_TAPCELL_ROW_0_24
*1165 TAP_TAPCELL_ROW_0_25
*1166 TAP_TAPCELL_ROW_0_26
*1167 TAP_TAPCELL_ROW_0_27
*1168 TAP_TAPCELL_ROW_0_28
*1169 TAP_TAPCELL_ROW_0_29
*1170 TAP_TAPCELL_ROW_0_30
*1171 TAP_TAPCELL_ROW_0_31
*1172 TAP_TAPCELL_ROW_0_32
*1173 TAP_TAPCELL_ROW_0_33
*1174 TAP_TAPCELL_ROW_0_34
*1175 TAP_TAPCELL_ROW_0_35
*1176 TAP_TAPCELL_ROW_10_90
*1177 TAP_TAPCELL_ROW_10_91
*1178 TAP_TAPCELL_ROW_10_92
*1179 TAP_TAPCELL_ROW_10_93
*1180 TAP_TAPCELL_ROW_10_94
*1181 TAP_TAPCELL_ROW_10_95
*1182 TAP_TAPCELL_ROW_11_100
*1183 TAP_TAPCELL_ROW_11_101
*1184 TAP_TAPCELL_ROW_11_102
*1185 TAP_TAPCELL_ROW_11_103
*1186 TAP_TAPCELL_ROW_11_104
*1187 TAP_TAPCELL_ROW_11_105
*1188 TAP_TAPCELL_ROW_11_106
*1189 TAP_TAPCELL_ROW_11_107
*1190 TAP_TAPCELL_ROW_11_96
*1191 TAP_TAPCELL_ROW_11_97
*1192 TAP_TAPCELL_ROW_11_98
*1193 TAP_TAPCELL_ROW_11_99
*1194 TAP_TAPCELL_ROW_1_36
*1195 TAP_TAPCELL_ROW_1_37
*1196 TAP_TAPCELL_ROW_1_38
*1197 TAP_TAPCELL_ROW_1_39
*1198 TAP_TAPCELL_ROW_1_40
*1199 TAP_TAPCELL_ROW_1_41
*1200 TAP_TAPCELL_ROW_2_42
*1201 TAP_TAPCELL_ROW_2_43
*1202 TAP_TAPCELL_ROW_2_44
*1203 TAP_TAPCELL_ROW_2_45
*1204 TAP_TAPCELL_ROW_2_46
*1205 TAP_TAPCELL_ROW_2_47
*1206 TAP_TAPCELL_ROW_3_48
*1207 TAP_TAPCELL_ROW_3_49
*1208 TAP_TAPCELL_ROW_3_50
*1209 TAP_TAPCELL_ROW_3_51
*1210 TAP_TAPCELL_ROW_3_52
*1211 TAP_TAPCELL_ROW_3_53
*1212 TAP_TAPCELL_ROW_4_54
*1213 TAP_TAPCELL_ROW_4_55
*1214 TAP_TAPCELL_ROW_4_56
*1215 TAP_TAPCELL_ROW_4_57
*1216 TAP_TAPCELL_ROW_4_58
*1217 TAP_TAPCELL_ROW_4_59
*1218 TAP_TAPCELL_ROW_5_60
*1219 TAP_TAPCELL_ROW_5_61
*1220 TAP_TAPCELL_ROW_5_62
*1221 TAP_TAPCELL_ROW_5_63
*1222 TAP_TAPCELL_ROW_5_64
*1223 TAP_TAPCELL_ROW_5_65
*1224 TAP_TAPCELL_ROW_6_66
*1225 TAP_TAPCELL_ROW_6_67
*1226 TAP_TAPCELL_ROW_6_68
*1227 TAP_TAPCELL_ROW_6_69
*1228 TAP_TAPCELL_ROW_6_70
*1229 TAP_TAPCELL_ROW_6_71
*1230 TAP_TAPCELL_ROW_7_72
*1231 TAP_TAPCELL_ROW_7_73
*1232 TAP_TAPCELL_ROW_7_74
*1233 TAP_TAPCELL_ROW_7_75
*1234 TAP_TAPCELL_ROW_7_76
*1235 TAP_TAPCELL_ROW_7_77
*1236 TAP_TAPCELL_ROW_8_78
*1237 TAP_TAPCELL_ROW_8_79
*1238 TAP_TAPCELL_ROW_8_80
*1239 TAP_TAPCELL_ROW_8_81
*1240 TAP_TAPCELL_ROW_8_82
*1241 TAP_TAPCELL_ROW_8_83
*1242 TAP_TAPCELL_ROW_9_84
*1243 TAP_TAPCELL_ROW_9_85
*1244 TAP_TAPCELL_ROW_9_86
*1245 TAP_TAPCELL_ROW_9_87
*1246 TAP_TAPCELL_ROW_9_88
*1247 TAP_TAPCELL_ROW_9_89
*1248 _002_
*1249 _003_
*1250 _004_
*1251 _005_
*1252 _006_
*1253 _007_
*1254 _008_
*1255 _009_
*1256 _010_
*1257 _011_
*1258 _012_
*1259 _013_
*1260 _014_
*1261 _015_
*1262 _016_
*1263 _017_
*1264 _018_
*1265 _019_
*1266 _020_
*1267 _021_
*1268 _022_
*1269 _023_
*1270 _024_
*1271 _025_
*1272 _026_
*1273 _027_
*1274 _028_
*1275 _029_
*1276 _030_
*1277 _031_
*1278 _032_
*1279 _033_
*1280 _034_
*1281 _035_
*1282 _036_
*1283 _037_
*1284 _038_
*1285 _039_
*1286 _040_
*1287 _041_
*1288 _042_
*1289 _043_
*1290 _044_
*1291 _045_
*1292 _046_
*1293 _047_
*1294 _048_
*1295 _049_
*1296 _050_
*1297 _051_
*1298 _052_
*1299 _053_
*1300 _054_
*1301 _055_
*1302 _056_
*1303 _057_
*1304 _058_
*1305 _059_
*1306 _060_
*1307 _061_
*1308 _062_
*1309 _063_
*1310 _064_
*1311 _065_
*1312 _066_
*1313 _067_
*1314 _068_
*1315 _069_
*1316 _070_
*1317 _071_
*1318 _072_
*1319 _073_
*1320 _074_
*1321 _075_
*1322 _076_
*1323 _077_
*1324 _078_
*1325 _080_
*1326 _081_
*1327 _082_
*1328 _083_
*1329 _084_
*1330 _085_
*1331 _086_
*1332 _087_
*1333 _088_
*1334 _089_
*1335 _090_
*1336 _091_
*1337 _092_
*1338 _093_
*1339 _094_
*1340 _095_
*1341 _096_
*1342 _097_
*1343 _098_
*1344 _099_
*1345 _100_
*1346 _101_
*1347 _102_
*1348 _103_
*1349 _104_
*1350 _105_
*1351 _106_
*1352 _107_
*1353 _108_
*1354 _109_
*1355 _110_
*1356 _111_
*1357 _112_
*1358 _113_
*1359 _114_
*1360 _115_
*1361 _116_
*1362 _117_
*1363 _118_
*1364 _119_
*1365 _120_
*1366 _121_
*1367 _122_
*1368 _123_
*1369 _124_
*1370 _125_
*1371 _126_
*1372 _127_
*1373 _128_
*1374 _129_
*1375 _130_
*1376 _131_
*1377 _132_
*1378 _133_
*1379 _134_
*1380 _135_
*1381 _136_
*1382 _137_
*1383 _138_
*1384 _139_
*1385 _140_
*1386 _141_
*1387 _142_
*1388 _143_
*1389 _144_
*1390 _145_
*1391 _146_
*1392 _147_
*1393 _148_
*1394 _149_
*1395 _150_
*1396 _151_
*1397 _152_
*1398 _153_
*1399 _154_
*1400 _155_
*1401 _156_
*1402 _157_
*1403 _158_
*1404 _159_
*1405 _160_
*1406 _161_
*1407 _162_
*1408 _163_
*1409 _164_
*1410 _165_
*1411 _166_
*1412 _167_
*1413 _168_
*1414 _169_
*1415 _170_
*1416 _171_
*1417 _172_
*1418 _173_
*1419 _174_
*1420 _175_
*1421 _176_
*1422 _177_
*1423 _178_
*1424 _179_
*1425 _180_
*1426 _181_
*1427 _182_
*1428 _183_
*1429 _184_
*1430 fanout20
*1431 fanout21
*1432 fanout22
*1433 fanout23
*1434 fanout24
*1435 fanout25
*1436 input1
*1437 input10
*1438 input11
*1439 input12
*1440 input13
*1441 input14
*1442 input15
*1443 input16
*1444 input17
*1445 input18
*1446 input19
*1447 input2
*1448 input20
*1449 input21
*1450 input22
*1451 input23
*1452 input24
*1453 input25
*1454 input26
*1455 input27
*1456 input28
*1457 input29
*1458 input3
*1459 input30
*1460 input31
*1461 input32
*1462 input33
*1463 input34
*1464 input35
*1465 input36
*1466 input37
*1467 input38
*1468 input39
*1469 input4
*1470 input40
*1471 input41
*1472 input42
*1473 input43
*1474 input44
*1475 input45
*1476 input46
*1477 input47
*1478 input48
*1479 input49
*1480 input5
*1481 input50
*1482 input51
*1483 input52
*1484 input53
*1485 input54
*1486 input55
*1487 input56
*1488 input57
*1489 input58
*1490 input59
*1491 input6
*1492 input60
*1493 input61
*1494 input62
*1495 input63
*1496 input64
*1497 input65
*1498 input66
*1499 input67
*1500 input68
*1501 input69
*1502 input7
*1503 input70
*1504 input71
*1505 input72
*1506 input73
*1507 input74
*1508 input75
*1509 input76
*1510 input8
*1511 input9
*1512 output100
*1513 output101
*1514 output102
*1515 output103
*1516 output104
*1517 output105
*1518 output106
*1519 output107
*1520 output108
*1521 output109
*1522 output110
*1523 output111
*1524 output112
*1525 output113
*1526 output114
*1527 output115
*1528 output116
*1529 output117
*1530 output118
*1531 output119
*1532 output120
*1533 output121
*1534 output122
*1535 output123
*1536 output124
*1537 output125
*1538 output126
*1539 output127
*1540 output128
*1541 output129
*1542 output130
*1543 output131
*1544 output132
*1545 output133
*1546 output134
*1547 output135
*1548 output136
*1549 output137
*1550 output138
*1551 output139
*1552 output140
*1553 output141
*1554 output142
*1555 output143
*1556 output144
*1557 output145
*1558 output146
*1559 output147
*1560 output148
*1561 output149
*1562 output150
*1563 output151
*1564 output152
*1565 output153
*1566 output154
*1567 output155
*1568 output156
*1569 output157
*1570 output158
*1571 output159
*1572 output160
*1573 output161
*1574 output162
*1575 output163
*1576 output164
*1577 output165
*1578 output166
*1579 output167
*1580 output168
*1581 output169
*1582 output170
*1583 output171
*1584 output172
*1585 output173
*1586 output174
*1587 output175
*1588 output176
*1589 output177
*1590 output178
*1591 output179
*1592 output180
*1593 output181
*1594 output182
*1595 output183
*1596 output184
*1597 output185
*1598 output186
*1599 output187
*1600 output188
*1601 output189
*1602 output190
*1603 output77
*1604 output78
*1605 output79
*1606 output80
*1607 output81
*1608 output82
*1609 output83
*1610 output84
*1611 output85
*1612 output86
*1613 output87
*1614 output88
*1615 output89
*1616 output90
*1617 output91
*1618 output92
*1619 output93
*1620 output94
*1621 output95
*1622 output96
*1623 output97
*1624 output98
*1625 output99

*PORTS
Co O
ENABLE_top O
FrameData[0] I
FrameData[10] I
FrameData[11] I
FrameData[12] I
FrameData[13] I
FrameData[14] I
FrameData[15] I
FrameData[16] I
FrameData[17] I
FrameData[18] I
FrameData[19] I
FrameData[1] I
FrameData[20] I
FrameData[21] I
FrameData[22] I
FrameData[23] I
FrameData[24] I
FrameData[25] I
FrameData[26] I
FrameData[27] I
FrameData[28] I
FrameData[29] I
FrameData[2] I
FrameData[30] I
FrameData[31] I
FrameData[3] I
FrameData[4] I
FrameData[5] I
FrameData[6] I
FrameData[7] I
FrameData[8] I
FrameData[9] I
FrameData_O[0] O
FrameData_O[10] O
FrameData_O[11] O
FrameData_O[12] O
FrameData_O[13] O
FrameData_O[14] O
FrameData_O[15] O
FrameData_O[16] O
FrameData_O[17] O
FrameData_O[18] O
FrameData_O[19] O
FrameData_O[1] O
FrameData_O[20] O
FrameData_O[21] O
FrameData_O[22] O
FrameData_O[23] O
FrameData_O[24] O
FrameData_O[25] O
FrameData_O[26] O
FrameData_O[27] O
FrameData_O[28] O
FrameData_O[29] O
FrameData_O[2] O
FrameData_O[30] O
FrameData_O[31] O
FrameData_O[3] O
FrameData_O[4] O
FrameData_O[5] O
FrameData_O[6] O
FrameData_O[7] O
FrameData_O[8] O
FrameData_O[9] O
FrameStrobe[0] I
FrameStrobe[10] I
FrameStrobe[11] I
FrameStrobe[12] I
FrameStrobe[13] I
FrameStrobe[14] I
FrameStrobe[15] I
FrameStrobe[16] I
FrameStrobe[17] I
FrameStrobe[18] I
FrameStrobe[19] I
FrameStrobe[1] I
FrameStrobe[2] I
FrameStrobe[3] I
FrameStrobe[4] I
FrameStrobe[5] I
FrameStrobe[6] I
FrameStrobe[7] I
FrameStrobe[8] I
FrameStrobe[9] I
FrameStrobe_O[0] O
FrameStrobe_O[10] O
FrameStrobe_O[11] O
FrameStrobe_O[12] O
FrameStrobe_O[13] O
FrameStrobe_O[14] O
FrameStrobe_O[15] O
FrameStrobe_O[16] O
FrameStrobe_O[17] O
FrameStrobe_O[18] O
FrameStrobe_O[19] O
FrameStrobe_O[1] O
FrameStrobe_O[2] O
FrameStrobe_O[3] O
FrameStrobe_O[4] O
FrameStrobe_O[5] O
FrameStrobe_O[6] O
FrameStrobe_O[7] O
FrameStrobe_O[8] O
FrameStrobe_O[9] O
N1BEG[0] O
N1BEG[1] O
N1BEG[2] O
N1BEG[3] O
N2BEG[0] O
N2BEG[1] O
N2BEG[2] O
N2BEG[3] O
N2BEG[4] O
N2BEG[5] O
N2BEG[6] O
N2BEG[7] O
N2BEGb[0] O
N2BEGb[1] O
N2BEGb[2] O
N2BEGb[3] O
N2BEGb[4] O
N2BEGb[5] O
N2BEGb[6] O
N2BEGb[7] O
N4BEG[0] O
N4BEG[10] O
N4BEG[11] O
N4BEG[12] O
N4BEG[13] O
N4BEG[14] O
N4BEG[15] O
N4BEG[1] O
N4BEG[2] O
N4BEG[3] O
N4BEG[4] O
N4BEG[5] O
N4BEG[6] O
N4BEG[7] O
N4BEG[8] O
N4BEG[9] O
NN4BEG[0] O
NN4BEG[10] O
NN4BEG[11] O
NN4BEG[12] O
NN4BEG[13] O
NN4BEG[14] O
NN4BEG[15] O
NN4BEG[1] O
NN4BEG[2] O
NN4BEG[3] O
NN4BEG[4] O
NN4BEG[5] O
NN4BEG[6] O
NN4BEG[7] O
NN4BEG[8] O
NN4BEG[9] O
S1END[0] I
S1END[1] I
S1END[2] I
S1END[3] I
S2END[0] I
S2END[1] I
S2END[2] I
S2END[3] I
S2END[4] I
S2END[5] I
S2END[6] I
S2END[7] I
S2MID[0] I
S2MID[1] I
S2MID[2] I
S2MID[3] I
S2MID[4] I
S2MID[5] I
S2MID[6] I
S2MID[7] I
S4END[0] I
S4END[10] I
S4END[11] I
S4END[12] I
S4END[13] I
S4END[14] I
S4END[15] I
S4END[1] I
S4END[2] I
S4END[3] I
S4END[4] I
S4END[5] I
S4END[6] I
S4END[7] I
S4END[8] I
S4END[9] I
SS4END[0] I
SS4END[10] I
SS4END[11] I
SS4END[12] I
SS4END[13] I
SS4END[14] I
SS4END[15] I
SS4END[1] I
SS4END[2] I
SS4END[3] I
SS4END[4] I
SS4END[5] I
SS4END[6] I
SS4END[7] I
SS4END[8] I
SS4END[9] I
UserCLK I
UserCLKo O
VALUE_top0 O
VALUE_top1 O
VALUE_top2 O
VALUE_top3 O
VALUE_top4 O
VALUE_top5 O
VALUE_top6 O
VALUE_top7 O

*D_NET *1 0.00406143
*CONN
*P Co O
*I *1163:LO O *D sky130_fd_sc_hd__conb_1
*CAP
1 Co 0.000752766
2 *1163:LO 0.000752766
3 Co NN4BEG[13] 0.000395627
4 Co NN4BEG[14] 0.000211205
5 Co NN4BEG[15] 0.00020089
6 Co *1253:A0 1.88605e-05
7 Co *1260:A0 1.77665e-05
8 Co *1260:A1 2.49909e-05
9 Co *1264:S0 3.48658e-05
10 Co *1462:A 0.00020089
11 Co *1463:A 0
12 Co *1464:A 0.000213139
13 Co *1465:A 2.3917e-05
14 Co *1580:A 0.000270245
15 Co *1593:A 6.15207e-05
16 Co *343:32 0.000107334
17 Co *403:86 0.000156142
18 Co *463:40 0.000519498
19 Co *463:56 9.90036e-05
*RES
1 *1163:LO Co 27.61 
*END

*D_NET *2 0.00126542
*CONN
*P ENABLE_top O
*I *1603:X O *D sky130_fd_sc_hd__buf_2
*CAP
1 ENABLE_top 0.000589411
2 *1603:X 0.000589411
3 ENABLE_top *351:24 0
4 ENABLE_top *415:16 8.65961e-05
*RES
1 *1603:X ENABLE_top 12.885 
*END

*D_NET *3 0.00217016
*CONN
*P FrameData[0] I
*I *1436:A I *D sky130_fd_sc_hd__dlymetal6s2s_1
*CAP
1 FrameData[0] 0.000678385
2 *1436:A 0.000678385
3 *1436:A VALUE_top0 0.000446363
4 *1436:A VALUE_top1 1.77665e-05
5 *1436:A *1439:A 0.000262662
6 *1436:A *1455:A 8.65961e-05
7 *1436:A *414:10 0
*RES
1 FrameData[0] *1436:A 14.1901 
*END

*D_NET *4 0.00136015
*CONN
*P FrameData[10] I
*I *1447:A I *D sky130_fd_sc_hd__buf_1
*CAP
1 FrameData[10] 0.000312784
2 *1447:A 0.000312784
3 *1447:A VALUE_top0 1.00941e-05
4 *1447:A *1458:A 0.000232028
5 *1447:A *1459:A 0
6 *1447:A *1460:A 2.29222e-05
7 *1447:A *1461:A 0.000469538
8 *1447:A *1469:A 0
9 *1447:A *1595:A 0
*RES
1 FrameData[10] *1447:A 9.0053 
*END

*D_NET *5 0.00157585
*CONN
*P FrameData[11] I
*I *1458:A I *D sky130_fd_sc_hd__buf_1
*CAP
1 FrameData[11] 0.000432663
2 *1458:A 0.000432663
3 *1458:A *1459:A 0
4 *1458:A *1469:A 0.000305052
5 *1458:A *1480:A 0.000173439
6 *1458:A *1491:A 0
7 *1458:A *1510:A 0
8 *1458:A *421:10 0
9 *1458:A *432:40 0
10 *1447:A *1458:A 0.000232028
*RES
1 FrameData[11] *1458:A 10.6836 
*END

*D_NET *6 0.00127881
*CONN
*P FrameData[12] I
*I *1469:A I *D sky130_fd_sc_hd__buf_1
*CAP
1 FrameData[12] 0.000272184
2 *1469:A 0.000272184
3 *1469:A *1461:A 0
4 *1469:A *1480:A 0.000429391
5 *1469:A *1510:A 0
6 *1447:A *1469:A 0
7 *1458:A *1469:A 0.000305052
*RES
1 FrameData[12] *1469:A 8.69203 
*END

*D_NET *7 0.00111006
*CONN
*P FrameData[13] I
*I *1480:A I *D sky130_fd_sc_hd__buf_1
*CAP
1 FrameData[13] 0.000159158
2 *1480:A 0.000159158
3 *1480:A *1461:A 0
4 *1480:A *1491:A 0.000188914
5 *1458:A *1480:A 0.000173439
6 *1469:A *1480:A 0.000429391
*RES
1 FrameData[13] *1480:A 7.58377 
*END

*D_NET *8 0.000893539
*CONN
*P FrameData[14] I
*I *1491:A I *D sky130_fd_sc_hd__dlymetal6s2s_1
*CAP
1 FrameData[14] 0.000278278
2 *1491:A 0.000278278
3 *1491:A *1502:A 9.81149e-05
4 *1491:A *1510:A 4.99538e-05
5 *1458:A *1491:A 0
6 *1480:A *1491:A 0.000188914
*RES
1 FrameData[14] *1491:A 7.83877 
*END

*D_NET *9 0.000956653
*CONN
*P FrameData[15] I
*I *1502:A I *D sky130_fd_sc_hd__dlymetal6s2s_1
*CAP
1 FrameData[15] 0.000380211
2 *1502:A 0.000380211
3 *1502:A *1437:A 0
4 *1502:A *1510:A 9.81149e-05
5 *1491:A *1502:A 9.81149e-05
*RES
1 FrameData[15] *1502:A 10.0057 
*END

*D_NET *10 0.00181749
*CONN
*P FrameData[16] I
*I *1510:A I *D sky130_fd_sc_hd__buf_1
*CAP
1 FrameData[16] 0.000707832
2 *1510:A 0.000707832
3 *1510:A *1405:A 1.85048e-05
4 *1510:A *1440:A 0
5 *1510:A *1511:A 0.000235256
6 *1510:A *432:40 0
7 *1458:A *1510:A 0
8 *1469:A *1510:A 0
9 *1491:A *1510:A 4.99538e-05
10 *1502:A *1510:A 9.81149e-05
*RES
1 FrameData[16] *1510:A 6.4841 
*END

*D_NET *11 0.00185737
*CONN
*P FrameData[17] I
*I *1511:A I *D sky130_fd_sc_hd__buf_1
*CAP
1 FrameData[17] 0.000459372
2 *1511:A 0.000459372
3 *1511:A *1437:A 0.000428053
4 *1511:A *1438:A 0
5 *1511:A *1440:A 0
6 *1511:A *292:16 0.000275313
7 *1510:A *1511:A 0.000235256
*RES
1 FrameData[17] *1511:A 11.9903 
*END

*D_NET *12 0.00100487
*CONN
*P FrameData[18] I
*I *1437:A I *D sky130_fd_sc_hd__dlymetal6s2s_1
*CAP
1 FrameData[18] 0.000214376
2 *1437:A 0.000214376
3 *1437:A *1438:A 9.81149e-05
4 *1437:A *1440:A 4.99538e-05
5 *1502:A *1437:A 0
6 *1511:A *1437:A 0.000428053
*RES
1 FrameData[18] *1437:A 7.83877 
*END

*D_NET *13 0.00102865
*CONN
*P FrameData[19] I
*I *1438:A I *D sky130_fd_sc_hd__dlymetal6s2s_1
*CAP
1 FrameData[19] 0.000353758
2 *1438:A 0.000353758
3 *1438:A *1440:A 0.000223015
4 *1438:A *1442:A 0
5 *1438:A *1443:A 0
6 *1437:A *1438:A 9.81149e-05
7 *1511:A *1438:A 0
*RES
1 FrameData[19] *1438:A 10.0057 
*END

*D_NET *14 0.00273064
*CONN
*P FrameData[1] I
*I *1439:A I *D sky130_fd_sc_hd__dlymetal6s2s_1
*CAP
1 FrameData[1] 0.00037861
2 *1439:A 0.00037861
3 *1439:A VALUE_top0 0.000497032
4 *1439:A *1451:A 0.000678968
5 *1439:A *1454:A 0.000218419
6 *1439:A *1456:A 0.000160635
7 *1439:A *415:12 0.000155701
8 *1436:A *1439:A 0.000262662
*RES
1 FrameData[1] *1439:A 15.6336 
*END

*D_NET *15 0.00160895
*CONN
*P FrameData[20] I
*I *1440:A I *D sky130_fd_sc_hd__buf_1
*CAP
1 FrameData[20] 0.000446748
2 *1440:A 0.000446748
3 *1440:A *1441:A 0.000280084
4 *1440:A *303:24 0.000162404
5 *1437:A *1440:A 4.99538e-05
6 *1438:A *1440:A 0.000223015
7 *1510:A *1440:A 0
8 *1511:A *1440:A 0
*RES
1 FrameData[20] *1440:A 10.2468 
*END

*D_NET *16 0.00169822
*CONN
*P FrameData[21] I
*I *1441:A I *D sky130_fd_sc_hd__buf_1
*CAP
1 FrameData[21] 0.000484041
2 *1441:A 0.000484041
3 *1441:A *1442:A 0.000450054
4 *1441:A *1445:A 0
5 *1440:A *1441:A 0.000280084
*RES
1 FrameData[21] *1441:A 10.8318 
*END

*D_NET *17 0.001375
*CONN
*P FrameData[22] I
*I *1442:A I *D sky130_fd_sc_hd__clkbuf_2
*CAP
1 FrameData[22] 0.000246495
2 *1442:A 0.000246495
3 *1442:A *1443:A 0.000431954
4 *1442:A *1445:A 0
5 *1442:A *358:40 0
6 *1438:A *1442:A 0
7 *1441:A *1442:A 0.000450054
*RES
1 FrameData[22] *1442:A 9.2453 
*END

*D_NET *18 0.00105061
*CONN
*P FrameData[23] I
*I *1443:A I *D sky130_fd_sc_hd__clkbuf_2
*CAP
1 FrameData[23] 0.000213259
2 *1443:A 0.000213259
3 *1443:A *1444:A 0.000192142
4 *1438:A *1443:A 0
5 *1442:A *1443:A 0.000431954
*RES
1 FrameData[23] *1443:A 7.67377 
*END

*D_NET *19 0.000988895
*CONN
*P FrameData[24] I
*I *1444:A I *D sky130_fd_sc_hd__dlymetal6s2s_1
*CAP
1 FrameData[24] 0.000236923
2 *1444:A 0.000236923
3 *1444:A *1445:A 0.000274616
4 *1444:A *1446:A 4.82919e-05
5 *1444:A *1449:A 0
6 *1443:A *1444:A 0.000192142
*RES
1 FrameData[24] *1444:A 7.83877 
*END

*D_NET *20 0.00167989
*CONN
*P FrameData[25] I
*I *1445:A I *D sky130_fd_sc_hd__buf_1
*CAP
1 FrameData[25] 0.000297334
2 *1445:A 0.000297334
3 *1445:A *1446:A 0.000692342
4 *1445:A *369:16 0.000118265
5 *1441:A *1445:A 0
6 *1442:A *1445:A 0
7 *1444:A *1445:A 0.000274616
*RES
1 FrameData[25] *1445:A 9.8101 
*END

*D_NET *21 0.00215598
*CONN
*P FrameData[26] I
*I *1446:A I *D sky130_fd_sc_hd__buf_1
*CAP
1 FrameData[26] 0.000488514
2 *1446:A 0.000488514
3 *1446:A *1448:A 0.000325091
4 *1446:A *369:16 3.94196e-05
5 *1446:A *380:12 7.38069e-05
6 *1444:A *1446:A 4.82919e-05
7 *1445:A *1446:A 0.000692342
*RES
1 FrameData[26] *1446:A 11.9834 
*END

*D_NET *22 0.00238601
*CONN
*P FrameData[27] I
*I *1448:A I *D sky130_fd_sc_hd__buf_1
*CAP
1 FrameData[27] 0.000358543
2 *1448:A 0.000358543
3 *1448:A *1449:A 0.000238876
4 *1448:A *1450:A 0.000305907
5 *1448:A *1453:A 0.000799046
6 *1446:A *1448:A 0.000325091
*RES
1 FrameData[27] *1448:A 12.5084 
*END

*D_NET *23 0.00111852
*CONN
*P FrameData[28] I
*I *1449:A I *D sky130_fd_sc_hd__dlymetal6s2s_1
*CAP
1 FrameData[28] 0.000252332
2 *1449:A 0.000252332
3 *1449:A *1450:A 0.00027551
4 *1449:A *1453:A 9.94734e-05
5 *1444:A *1449:A 0
6 *1448:A *1449:A 0.000238876
*RES
1 FrameData[28] *1449:A 8.60377 
*END

*D_NET *24 0.00197276
*CONN
*P FrameData[29] I
*I *1450:A I *D sky130_fd_sc_hd__dlymetal6s2s_1
*CAP
1 FrameData[29] 0.000494327
2 *1450:A 0.000494327
3 *1450:A *1452:A 0.000302548
4 *1450:A *1453:A 0.000100144
5 *1450:A *407:10 0
6 *1448:A *1450:A 0.000305907
7 *1449:A *1450:A 0.00027551
*RES
1 FrameData[29] *1450:A 12.2551 
*END

*D_NET *25 0.0032533
*CONN
*P FrameData[2] I
*I *1451:A I *D sky130_fd_sc_hd__buf_1
*CAP
1 FrameData[2] 0.000988863
2 *1451:A 0.000988863
3 *1451:A *1454:A 0.000238929
4 *1451:A *1455:A 3.62776e-05
5 *1451:A *1456:A 0.000156445
6 *1451:A *1457:A 1.92979e-05
7 *1451:A *314:12 2.75145e-05
8 *1451:A *415:12 0.000118137
9 *1439:A *1451:A 0.000678968
*RES
1 FrameData[2] *1451:A 19.7522 
*END

*D_NET *26 0.0024854
*CONN
*P FrameData[30] I
*I *1452:A I *D sky130_fd_sc_hd__buf_1
*CAP
1 FrameData[30] 0.000905559
2 *1452:A 0.000905559
3 *1452:A *1453:A 0.000259434
4 *1452:A *406:10 0
5 *1452:A *408:18 0.000112299
6 *1450:A *1452:A 0.000302548
*RES
1 FrameData[30] *1452:A 11.5039 
*END

*D_NET *27 0.00319042
*CONN
*P FrameData[31] I
*I *1453:A I *D sky130_fd_sc_hd__buf_1
*CAP
1 FrameData[31] 0.000966162
2 *1453:A 0.000966162
3 *1453:A *407:10 0
4 *1448:A *1453:A 0.000799046
5 *1449:A *1453:A 9.94734e-05
6 *1450:A *1453:A 0.000100144
7 *1452:A *1453:A 0.000259434
*RES
1 FrameData[31] *1453:A 19.6236 
*END

*D_NET *28 0.00277619
*CONN
*P FrameData[3] I
*I *1454:A I *D sky130_fd_sc_hd__buf_1
*CAP
1 FrameData[3] 0.000739862
2 *1454:A 0.000739862
3 *1454:A VALUE_top0 9.51334e-05
4 *1454:A *1455:A 0.000251476
5 *1454:A *1457:A 6.44934e-05
6 *1454:A *1459:A 0.00014905
7 *1454:A *1460:A 0.00016062
8 *1454:A *1461:A 1.21865e-05
9 *1454:A *416:28 2.11084e-05
10 *1454:A *417:24 8.50512e-05
11 *1439:A *1454:A 0.000218419
12 *1451:A *1454:A 0.000238929
*RES
1 FrameData[3] *1454:A 19.402 
*END

*D_NET *29 0.00102963
*CONN
*P FrameData[4] I
*I *1455:A I *D sky130_fd_sc_hd__dlymetal6s2s_1
*CAP
1 FrameData[4] 0.000271977
2 *1455:A 0.000271977
3 *1455:A *1456:A 9.81149e-05
4 *1455:A *1457:A 1.32141e-05
5 *1455:A *1459:A 0
6 *1436:A *1455:A 8.65961e-05
7 *1451:A *1455:A 3.62776e-05
8 *1454:A *1455:A 0.000251476
*RES
1 FrameData[4] *1455:A 7.83877 
*END

*D_NET *30 0.00117176
*CONN
*P FrameData[5] I
*I *1456:A I *D sky130_fd_sc_hd__dlymetal6s2s_1
*CAP
1 FrameData[5] 0.000297607
2 *1456:A 0.000297607
3 *1456:A *1457:A 0.000161348
4 *1439:A *1456:A 0.000160635
5 *1451:A *1456:A 0.000156445
6 *1455:A *1456:A 9.81149e-05
*RES
1 FrameData[5] *1456:A 10.0057 
*END

*D_NET *31 0.00244945
*CONN
*P FrameData[6] I
*I *1457:A I *D sky130_fd_sc_hd__buf_1
*CAP
1 FrameData[6] 0.000687143
2 *1457:A 0.000687143
3 *1457:A *1459:A 0.00060988
4 *1457:A *1460:A 0.000167561
5 *1457:A *417:24 3.93698e-05
6 *1451:A *1457:A 1.92979e-05
7 *1454:A *1457:A 6.44934e-05
8 *1455:A *1457:A 1.32141e-05
9 *1456:A *1457:A 0.000161348
*RES
1 FrameData[6] *1457:A 15.434 
*END

*D_NET *32 0.00198778
*CONN
*P FrameData[7] I
*I *1459:A I *D sky130_fd_sc_hd__buf_1
*CAP
1 FrameData[7] 0.000436983
2 *1459:A 0.000436983
3 *1459:A VALUE_top0 0.000127062
4 *1459:A *1460:A 0.000227825
5 *1459:A *1595:A 0
6 *1447:A *1459:A 0
7 *1454:A *1459:A 0.00014905
8 *1455:A *1459:A 0
9 *1457:A *1459:A 0.00060988
10 *1458:A *1459:A 0
*RES
1 FrameData[7] *1459:A 10.9801 
*END

*D_NET *33 0.00106186
*CONN
*P FrameData[8] I
*I *1460:A I *D sky130_fd_sc_hd__dlymetal6s2s_1
*CAP
1 FrameData[8] 0.000192409
2 *1460:A 0.000192409
3 *1460:A *1461:A 9.81149e-05
4 *1447:A *1460:A 2.29222e-05
5 *1454:A *1460:A 0.00016062
6 *1457:A *1460:A 0.000167561
7 *1459:A *1460:A 0.000227825
*RES
1 FrameData[8] *1460:A 8.41223 
*END

*D_NET *34 0.00170916
*CONN
*P FrameData[9] I
*I *1461:A I *D sky130_fd_sc_hd__buf_1
*CAP
1 FrameData[9] 0.000458591
2 *1461:A 0.000458591
3 *1461:A VALUE_top0 0.000163204
4 *1461:A *399:26 4.89295e-05
5 *1447:A *1461:A 0.000469538
6 *1454:A *1461:A 1.21865e-05
7 *1460:A *1461:A 9.81149e-05
8 *1469:A *1461:A 0
9 *1480:A *1461:A 0
*RES
1 FrameData[9] *1461:A 12.9907 
*END

*D_NET *35 0.00250068
*CONN
*P FrameData_O[0] O
*I *1604:X O *D sky130_fd_sc_hd__buf_2
*CAP
1 FrameData_O[0] 0.000922899
2 *1604:X 0.000922899
3 FrameData_O[0] FrameData_O[1] 0.000464158
4 FrameData_O[0] FrameData_O[2] 0
5 FrameData_O[0] FrameData_O[6] 1.88904e-05
6 FrameData_O[0] *499:DIODE 1.92979e-05
7 FrameData_O[0] *1375:A 0
8 FrameData_O[0] *1376:A 0
9 FrameData_O[0] *1519:A 0.000134508
10 FrameData_O[0] *1521:A 1.80324e-05
*RES
1 *1604:X FrameData_O[0] 13.8612 
*END

*D_NET *36 0.00153285
*CONN
*P FrameData_O[10] O
*I *1605:X O *D sky130_fd_sc_hd__buf_2
*CAP
1 FrameData_O[10] 0.000380844
2 *1605:X 0.000380844
3 FrameData_O[10] FrameData_O[11] 0.000344446
4 FrameData_O[10] FrameData_O[14] 0
5 FrameData_O[10] FrameData_O[6] 0
6 FrameData_O[10] FrameData_O[9] 0.000353743
7 FrameData_O[10] *487:DIODE 4.66108e-05
8 FrameData_O[10] *1516:A 7.96104e-06
9 FrameData_O[10] *1520:A 1.83975e-05
*RES
1 *1605:X FrameData_O[10] 6.01623 
*END

*D_NET *37 0.00119512
*CONN
*P FrameData_O[11] O
*I *1606:X O *D sky130_fd_sc_hd__buf_2
*CAP
1 FrameData_O[11] 0.000262347
2 *1606:X 0.000262347
3 FrameData_O[11] FrameData_O[12] 0.000235521
4 FrameData_O[11] FrameData_O[13] 2.32525e-05
5 FrameData_O[11] *1376:A 6.72027e-05
6 FrameData_O[10] FrameData_O[11] 0.000344446
*RES
1 *1606:X FrameData_O[11] 5.7849 
*END

*D_NET *38 0.00131528
*CONN
*P FrameData_O[12] O
*I *1607:X O *D sky130_fd_sc_hd__buf_2
*CAP
1 FrameData_O[12] 0.000422119
2 *1607:X 0.000422119
3 FrameData_O[12] FrameData_O[13] 0.000235521
4 FrameData_O[11] FrameData_O[12] 0.000235521
*RES
1 *1607:X FrameData_O[12] 8.4803 
*END

*D_NET *39 0.00110342
*CONN
*P FrameData_O[13] O
*I *1608:X O *D sky130_fd_sc_hd__buf_2
*CAP
1 FrameData_O[13] 0.000234929
2 *1608:X 0.000234929
3 FrameData_O[13] FrameData_O[14] 0.000353743
4 FrameData_O[13] *1376:A 2.10433e-05
5 FrameData_O[11] FrameData_O[13] 2.32525e-05
6 FrameData_O[12] FrameData_O[13] 0.000235521
*RES
1 *1608:X FrameData_O[13] 5.2749 
*END

*D_NET *40 0.00149856
*CONN
*P FrameData_O[14] O
*I *1609:X O *D sky130_fd_sc_hd__buf_2
*CAP
1 FrameData_O[14] 0.000368814
2 *1609:X 0.000368814
3 FrameData_O[14] FrameData_O[15] 0.000344446
4 FrameData_O[14] FrameData_O[18] 0
5 FrameData_O[14] *1516:A 7.96104e-06
6 FrameData_O[14] *1607:A 2.10556e-05
7 FrameData_O[14] *477:26 3.37302e-05
8 FrameData_O[10] FrameData_O[14] 0
9 FrameData_O[13] FrameData_O[14] 0.000353743
*RES
1 *1609:X FrameData_O[14] 6.01623 
*END

*D_NET *41 0.00114185
*CONN
*P FrameData_O[15] O
*I *1610:X O *D sky130_fd_sc_hd__buf_2
*CAP
1 FrameData_O[15] 0.000245807
2 *1610:X 0.000245807
3 FrameData_O[15] FrameData_O[16] 0.000235521
4 FrameData_O[15] FrameData_O[17] 2.61475e-05
5 FrameData_O[15] *1376:A 4.4123e-05
6 FrameData_O[14] FrameData_O[15] 0.000344446
*RES
1 *1610:X FrameData_O[15] 5.5299 
*END

*D_NET *42 0.00133667
*CONN
*P FrameData_O[16] O
*I *1611:X O *D sky130_fd_sc_hd__buf_2
*CAP
1 FrameData_O[16] 0.000408212
2 *1611:X 0.000408212
3 FrameData_O[16] FrameData_O[17] 0.000235521
4 FrameData_O[16] *1612:A 4.92062e-05
5 FrameData_O[15] FrameData_O[16] 0.000235521
*RES
1 *1611:X FrameData_O[16] 8.4803 
*END

*D_NET *43 0.00110142
*CONN
*P FrameData_O[17] O
*I *1612:X O *D sky130_fd_sc_hd__buf_2
*CAP
1 FrameData_O[17] 0.000234093
2 *1612:X 0.000234093
3 FrameData_O[17] FrameData_O[18] 0.000350523
4 FrameData_O[17] *1376:A 2.10433e-05
5 FrameData_O[15] FrameData_O[17] 2.61475e-05
6 FrameData_O[16] FrameData_O[17] 0.000235521
*RES
1 *1612:X FrameData_O[17] 5.2749 
*END

*D_NET *44 0.00135387
*CONN
*P FrameData_O[18] O
*I *1613:X O *D sky130_fd_sc_hd__buf_2
*CAP
1 FrameData_O[18] 0.000309737
2 *1613:X 0.000309737
3 FrameData_O[18] FrameData_O[19] 0.000344446
4 FrameData_O[18] FrameData_O[23] 0
5 FrameData_O[18] *1516:A 1.88656e-05
6 FrameData_O[18] *1612:A 2.05641e-05
7 FrameData_O[14] FrameData_O[18] 0
8 FrameData_O[17] FrameData_O[18] 0.000350523
*RES
1 *1613:X FrameData_O[18] 5.50797 
*END

*D_NET *45 0.00113585
*CONN
*P FrameData_O[19] O
*I *1614:X O *D sky130_fd_sc_hd__buf_2
*CAP
1 FrameData_O[19] 0.000248847
2 *1614:X 0.000248847
3 FrameData_O[19] FrameData_O[20] 0.000235521
4 FrameData_O[19] FrameData_O[21] 2.61475e-05
5 FrameData_O[19] *1376:A 1.93765e-05
6 FrameData_O[19] *1614:A 1.26626e-05
7 FrameData_O[18] FrameData_O[19] 0.000344446
*RES
1 *1614:X FrameData_O[19] 5.5299 
*END

*D_NET *46 0.00257938
*CONN
*P FrameData_O[1] O
*I *1615:X O *D sky130_fd_sc_hd__buf_2
*CAP
1 FrameData_O[1] 0.000617941
2 *1615:X 0.000617941
3 FrameData_O[1] FrameData_O[2] 0.000578833
4 FrameData_O[1] FrameData_O[3] 4.85754e-05
5 FrameData_O[1] *487:DIODE 3.86745e-05
6 FrameData_O[1] *1374:A 0.000161098
7 FrameData_O[1] *1375:A 0
8 FrameData_O[1] *299:40 5.21615e-05
9 FrameData_O[0] FrameData_O[1] 0.000464158
*RES
1 *1615:X FrameData_O[1] 9.44197 
*END

*D_NET *47 0.00132558
*CONN
*P FrameData_O[20] O
*I *1616:X O *D sky130_fd_sc_hd__buf_2
*CAP
1 FrameData_O[20] 0.000379205
2 *1616:X 0.000379205
3 FrameData_O[20] FrameData_O[21] 0.000235521
4 FrameData_O[20] *1614:A 0
5 FrameData_O[20] *1617:A 8.65905e-05
6 FrameData_O[20] *484:48 9.53428e-06
7 FrameData_O[19] FrameData_O[20] 0.000235521
*RES
1 *1616:X FrameData_O[20] 9.0953 
*END

*D_NET *48 0.0012035
*CONN
*P FrameData_O[21] O
*I *1617:X O *D sky130_fd_sc_hd__buf_2
*CAP
1 FrameData_O[21] 0.000272026
2 *1617:X 0.000272026
3 FrameData_O[21] FrameData_O[22] 0.000350523
4 FrameData_O[21] *1614:A 4.72538e-05
5 FrameData_O[19] FrameData_O[21] 2.61475e-05
6 FrameData_O[20] FrameData_O[21] 0.000235521
*RES
1 *1617:X FrameData_O[21] 6.0399 
*END

*D_NET *49 0.00113215
*CONN
*P FrameData_O[22] O
*I *1618:X O *D sky130_fd_sc_hd__buf_2
*CAP
1 FrameData_O[22] 0.000214255
2 *1618:X 0.000214255
3 FrameData_O[22] FrameData_O[23] 0.000344446
4 FrameData_O[22] *1614:A 8.66976e-06
5 FrameData_O[21] FrameData_O[22] 0.000350523
*RES
1 *1618:X FrameData_O[22] 5.2749 
*END

*D_NET *50 0.00160895
*CONN
*P FrameData_O[23] O
*I *1619:X O *D sky130_fd_sc_hd__buf_2
*CAP
1 FrameData_O[23] 0.000405416
2 *1619:X 0.000405416
3 FrameData_O[23] FrameData_O[24] 0.000192142
4 FrameData_O[23] FrameData_O[25] 4.89043e-05
5 FrameData_O[23] FrameData_O[26] 0
6 FrameData_O[23] FrameData_O[27] 0
7 FrameData_O[23] *1612:A 0.000108647
8 FrameData_O[23] *1614:A 0.000103983
9 FrameData_O[18] FrameData_O[23] 0
10 FrameData_O[22] FrameData_O[23] 0.000344446
*RES
1 *1619:X FrameData_O[23] 6.52797 
*END

*D_NET *51 0.00103204
*CONN
*P FrameData_O[24] O
*I *1620:X O *D sky130_fd_sc_hd__buf_2
*CAP
1 FrameData_O[24] 0.000298483
2 *1620:X 0.000298483
3 FrameData_O[24] FrameData_O[25] 0.000188922
4 FrameData_O[24] FrameData_O[28] 5.40119e-05
5 FrameData_O[23] FrameData_O[24] 0.000192142
*RES
1 *1620:X FrameData_O[24] 7.67377 
*END

*D_NET *52 0.00128187
*CONN
*P FrameData_O[25] O
*I *1621:X O *D sky130_fd_sc_hd__buf_2
*CAP
1 FrameData_O[25] 0.000308483
2 *1621:X 0.000308483
3 FrameData_O[25] FrameData_O[26] 0.000386345
4 FrameData_O[25] FrameData_O[27] 2.69493e-05
5 FrameData_O[25] FrameData_O[28] 0
6 FrameData_O[25] *1614:A 1.37812e-05
7 FrameData_O[23] FrameData_O[25] 4.89043e-05
8 FrameData_O[24] FrameData_O[25] 0.000188922
*RES
1 *1621:X FrameData_O[25] 6.5499 
*END

*D_NET *53 0.00217388
*CONN
*P FrameData_O[26] O
*I *1622:X O *D sky130_fd_sc_hd__buf_2
*CAP
1 FrameData_O[26] 0.000545162
2 *1622:X 0.000545162
3 FrameData_O[26] FrameData_O[27] 0.000402132
4 FrameData_O[26] *1513:A 0.000270093
5 FrameData_O[26] *1621:A 2.49909e-05
6 FrameData_O[23] FrameData_O[26] 0
7 FrameData_O[25] FrameData_O[26] 0.000386345
*RES
1 *1622:X FrameData_O[26] 10.5232 
*END

*D_NET *54 0.00197922
*CONN
*P FrameData_O[27] O
*I *1623:X O *D sky130_fd_sc_hd__buf_2
*CAP
1 FrameData_O[27] 0.000496033
2 *1623:X 0.000496033
3 FrameData_O[27] FrameData_O[28] 0.000212429
4 FrameData_O[27] FrameData_O[29] 5.86124e-05
5 FrameData_O[27] *1614:A 0.000148431
6 FrameData_O[27] *1620:A 0.000138599
7 FrameData_O[23] FrameData_O[27] 0
8 FrameData_O[25] FrameData_O[27] 2.69493e-05
9 FrameData_O[26] FrameData_O[27] 0.000402132
*RES
1 *1623:X FrameData_O[27] 9.09643 
*END

*D_NET *55 0.00187456
*CONN
*P FrameData_O[28] O
*I *1624:X O *D sky130_fd_sc_hd__buf_2
*CAP
1 FrameData_O[28] 0.000684778
2 *1624:X 0.000684778
3 FrameData_O[28] FrameData_O[29] 0.000212429
4 FrameData_O[28] *1614:A 0
5 FrameData_O[28] *1618:A 2.61299e-05
6 FrameData_O[24] FrameData_O[28] 5.40119e-05
7 FrameData_O[25] FrameData_O[28] 0
8 FrameData_O[27] FrameData_O[28] 0.000212429
*RES
1 *1624:X FrameData_O[28] 13.357 
*END

*D_NET *56 0.00250258
*CONN
*P FrameData_O[29] O
*I *1625:X O *D sky130_fd_sc_hd__buf_2
*CAP
1 FrameData_O[29] 0.000688695
2 *1625:X 0.000688695
3 FrameData_O[29] FrameData_O[30] 0.000480566
4 FrameData_O[29] FrameData_O[31] 0.000191788
5 FrameData_O[29] *1564:A 0.000181792
6 FrameData_O[29] *1614:A 0
7 FrameData_O[27] FrameData_O[29] 5.86124e-05
8 FrameData_O[28] FrameData_O[29] 0.000212429
*RES
1 *1625:X FrameData_O[29] 9.5441 
*END

*D_NET *57 0.00219283
*CONN
*P FrameData_O[2] O
*I *1512:X O *D sky130_fd_sc_hd__buf_2
*CAP
1 FrameData_O[2] 0.000419012
2 *1512:X 0.000419012
3 FrameData_O[2] FrameData_O[3] 0.000578833
4 FrameData_O[2] *1375:A 0.000197143
5 FrameData_O[0] FrameData_O[2] 0
6 FrameData_O[1] FrameData_O[2] 0.000578833
*RES
1 *1512:X FrameData_O[2] 7.95583 
*END

*D_NET *58 0.00184725
*CONN
*P FrameData_O[30] O
*I *1513:X O *D sky130_fd_sc_hd__buf_2
*CAP
1 FrameData_O[30] 0.000378799
2 *1513:X 0.000378799
3 FrameData_O[30] FrameData_O[31] 0.000484474
4 FrameData_O[30] *294:38 0.000124613
5 FrameData_O[29] FrameData_O[30] 0.000480566
*RES
1 *1513:X FrameData_O[30] 8.1745 
*END

*D_NET *59 0.0021558
*CONN
*P FrameData_O[31] O
*I *1514:X O *D sky130_fd_sc_hd__buf_2
*CAP
1 FrameData_O[31] 0.000702052
2 *1514:X 0.000702052
3 FrameData_O[31] *1564:A 7.54397e-05
4 FrameData_O[29] FrameData_O[31] 0.000191788
5 FrameData_O[30] FrameData_O[31] 0.000484474
*RES
1 *1514:X FrameData_O[31] 9.48583 
*END

*D_NET *60 0.00231615
*CONN
*P FrameData_O[3] O
*I *1515:X O *D sky130_fd_sc_hd__buf_2
*CAP
1 FrameData_O[3] 0.00053132
2 *1515:X 0.00053132
3 FrameData_O[3] FrameData_O[4] 0.000215648
4 FrameData_O[3] FrameData_O[5] 3.56902e-05
5 FrameData_O[3] FrameData_O[6] 0
6 FrameData_O[3] *487:DIODE 0.000123885
7 FrameData_O[3] *499:DIODE 0.00013103
8 FrameData_O[3] *1375:A 1.4548e-05
9 FrameData_O[3] *299:40 0.000105304
10 FrameData_O[1] FrameData_O[3] 4.85754e-05
11 FrameData_O[2] FrameData_O[3] 0.000578833
*RES
1 *1515:X FrameData_O[3] 7.1689 
*END

*D_NET *61 0.00216918
*CONN
*P FrameData_O[4] O
*I *1516:X O *D sky130_fd_sc_hd__buf_2
*CAP
1 FrameData_O[4] 0.000600304
2 *1516:X 0.000600304
3 FrameData_O[4] FrameData_O[5] 0.000212429
4 FrameData_O[4] FrameData_O[7] 0
5 FrameData_O[4] FrameData_O[8] 0.000400828
6 FrameData_O[4] *1376:A 0
7 FrameData_O[4] *1516:A 0.000139663
8 FrameData_O[3] FrameData_O[4] 0.000215648
*RES
1 *1516:X FrameData_O[4] 14.842 
*END

*D_NET *62 0.00108966
*CONN
*P FrameData_O[5] O
*I *1517:X O *D sky130_fd_sc_hd__buf_2
*CAP
1 FrameData_O[5] 0.000235327
2 *1517:X 0.000235327
3 FrameData_O[5] FrameData_O[6] 0.000349844
4 FrameData_O[5] *1376:A 2.10433e-05
5 FrameData_O[3] FrameData_O[5] 3.56902e-05
6 FrameData_O[4] FrameData_O[5] 0.000212429
*RES
1 *1517:X FrameData_O[5] 5.2749 
*END

*D_NET *63 0.00136668
*CONN
*P FrameData_O[6] O
*I *1518:X O *D sky130_fd_sc_hd__buf_2
*CAP
1 FrameData_O[6] 0.000319505
2 *1518:X 0.000319505
3 FrameData_O[6] FrameData_O[7] 0.000340547
4 FrameData_O[6] *499:DIODE 8.80658e-06
5 FrameData_O[6] *1521:A 9.58678e-06
6 FrameData_O[0] FrameData_O[6] 1.88904e-05
7 FrameData_O[10] FrameData_O[6] 0
8 FrameData_O[3] FrameData_O[6] 0
9 FrameData_O[5] FrameData_O[6] 0.000349844
*RES
1 *1518:X FrameData_O[6] 5.50797 
*END

*D_NET *64 0.00116629
*CONN
*P FrameData_O[7] O
*I *1519:X O *D sky130_fd_sc_hd__buf_2
*CAP
1 FrameData_O[7] 0.000263374
2 *1519:X 0.000263374
3 FrameData_O[7] FrameData_O[8] 0.000231622
4 FrameData_O[7] FrameData_O[9] 2.32525e-05
5 FrameData_O[7] *1376:A 4.4123e-05
6 FrameData_O[4] FrameData_O[7] 0
7 FrameData_O[6] FrameData_O[7] 0.000340547
*RES
1 *1519:X FrameData_O[7] 5.5299 
*END

*D_NET *65 0.00155743
*CONN
*P FrameData_O[8] O
*I *1520:X O *D sky130_fd_sc_hd__buf_2
*CAP
1 FrameData_O[8] 0.00034668
2 *1520:X 0.00034668
3 FrameData_O[8] FrameData_O[9] 0.000231622
4 FrameData_O[4] FrameData_O[8] 0.000400828
5 FrameData_O[7] FrameData_O[8] 0.000231622
*RES
1 *1520:X FrameData_O[8] 8.4803 
*END

*D_NET *66 0.00113108
*CONN
*P FrameData_O[9] O
*I *1521:X O *D sky130_fd_sc_hd__buf_2
*CAP
1 FrameData_O[9] 0.00025071
2 *1521:X 0.00025071
3 FrameData_O[9] *1376:A 2.10433e-05
4 FrameData_O[10] FrameData_O[9] 0.000353743
5 FrameData_O[7] FrameData_O[9] 2.32525e-05
6 FrameData_O[8] FrameData_O[9] 0.000231622
*RES
1 *1521:X FrameData_O[9] 5.2749 
*END

*D_NET *67 0.0240207
*CONN
*P FrameStrobe[0] I
*I *1435:A I *D sky130_fd_sc_hd__dlymetal6s2s_1
*I *1433:A I *D sky130_fd_sc_hd__dlymetal6s2s_1
*I *1434:A I *D sky130_fd_sc_hd__clkbuf_2
*CAP
1 FrameStrobe[0] 0.00240868
2 *1435:A 0.000940522
3 *1433:A 0.000785568
4 *1434:A 5.37148e-05
5 *67:38 0.00302281
6 *67:13 0.00375912
7 *1433:A NN4BEG[15] 0
8 *1433:A *1257:S0 2.68464e-05
9 *1433:A *1465:A 9.97985e-05
10 *1433:A *1557:A 0.00039908
11 *1433:A *1575:A 0.000739457
12 *1433:A *1581:A 0.000231734
13 *1433:A *1583:A 0.000136456
14 *1433:A *1587:A 4.66108e-05
15 *1433:A *293:12 0.000457176
16 *1433:A *310:40 4.05129e-06
17 *1433:A *426:26 0.000173958
18 *1433:A *456:54 3.63701e-06
19 *1433:A *461:30 3.99991e-05
20 *1434:A *1387:A 1.19928e-05
21 *1434:A *404:10 2.68526e-05
22 *1435:A *1265:A2 0.000449214
23 *1435:A *1338:A 4.66108e-05
24 *1435:A *1401:A 6.1357e-05
25 *1435:A *1402:A 4.66108e-05
26 *1435:A *1468:A 1.66925e-05
27 *1435:A *1489:A 0.000390161
28 *1435:A *1490:A 1.51915e-05
29 *1435:A *1492:A 0.000138174
30 *1435:A *1557:A 0.000112013
31 *1435:A *1575:A 9.25666e-05
32 *1435:A *261:36 0.00015639
33 *1435:A *343:28 0.000128978
34 *1435:A *367:12 8.95327e-05
35 *1435:A *429:22 0.000161676
36 *1435:A *445:24 0.000228276
37 *1435:A *449:12 2.8531e-05
38 *1435:A *450:16 4.66108e-05
39 *1435:A *453:24 0.000924035
40 *1435:A *466:28 0.00044682
41 *1435:A *479:30 0.000963032
42 *67:13 *1256:A2 1.39525e-05
43 *67:13 *291:22 0.000398081
44 *67:13 *347:66 0.000516035
45 *67:13 *399:26 0
46 *67:13 *415:16 0.0014082
47 *67:13 *419:22 0.000349811
48 *67:13 *443:34 0.000217523
49 *67:38 *496:DIODE 0.0011491
50 *67:38 *498:DIODE 0.000190028
51 *67:38 *1256:A2 4.25999e-05
52 *67:38 *1422:A 0.000116399
53 *67:38 *1582:A 0.000161836
54 *67:38 *1604:A 5.81547e-05
55 *67:38 *1605:A 2.38557e-05
56 *67:38 *1616:A 0
57 *67:38 *404:10 0.000137052
58 *67:38 *415:22 0.000122085
59 *67:38 *418:22 0.00058431
60 *67:38 *419:22 3.00015e-05
61 *67:38 *477:26 0.000591101
*RES
1 FrameStrobe[0] *67:13 39.805 
2 *67:13 *1434:A 4.395 
3 *67:13 *67:38 7.89297 
4 *67:38 *1433:A 14.6717 
5 *67:38 *1435:A 38.9012 
*END

*D_NET *68 0.00415971
*CONN
*P FrameStrobe[10] I
*I *1367:A I *D sky130_fd_sc_hd__clkbuf_1
*CAP
1 FrameStrobe[10] 0.000952378
2 *1367:A 0.000952378
3 *1367:A *1364:A 0.000995641
4 *1367:A *1370:A 0.000502075
5 *1367:A *1540:A 4.13249e-05
6 *1367:A *299:40 0
7 *1367:A *300:12 0.000298958
8 *1367:A *344:12 2.73498e-05
9 *1367:A *443:42 0.000389606
*RES
1 FrameStrobe[10] *1367:A 31.87 
*END

*D_NET *69 0.00376668
*CONN
*P FrameStrobe[11] I
*I *1368:A I *D sky130_fd_sc_hd__clkbuf_1
*CAP
1 FrameStrobe[11] 0.00120288
2 *1368:A 0.00120288
3 *1368:A *1258:S0 0.00027042
4 *1368:A *1265:S1 2.65814e-06
5 *1368:A *1293:D 4.66108e-05
6 *1368:A *1293:GATE 4.66108e-05
7 *1368:A *1307:D 0
8 *1368:A *1315:D 0.000213058
9 *1368:A *1362:A 0.000196376
10 *1368:A *1364:A 4.80285e-05
11 *1368:A *1429:A 0
12 *1368:A *1524:A 5.12969e-06
13 *1368:A *1536:A 0.000197531
14 *1368:A *1540:A 2.78445e-05
15 *1368:A *1541:A 0.000110211
16 *1368:A *351:24 0.000196451
*RES
1 FrameStrobe[11] *1368:A 25.62 
*END

*D_NET *70 0.00368722
*CONN
*P FrameStrobe[12] I
*I *1369:A I *D sky130_fd_sc_hd__clkbuf_1
*CAP
1 FrameStrobe[12] 0.00106489
2 *1369:A 0.00106489
3 *1369:A *491:DIODE 0.000781497
4 *1369:A *1271:A0 0
5 *1369:A *1359:A 8.35068e-05
6 *1369:A *1365:A 2.28415e-05
7 *1369:A *1366:A 0
8 *1369:A *1370:A 5.68108e-05
9 *1369:A *1386:A 3.93553e-05
10 *1369:A *1534:A 0.000122797
11 *1369:A *1535:A 6.07106e-05
12 *1369:A *1536:A 0
13 *1369:A *1537:A 0.000135973
14 *1369:A *1538:A 0.00018769
15 *1369:A *1539:A 2.05571e-05
16 *1369:A *1608:A 4.57056e-05
*RES
1 FrameStrobe[12] *1369:A 26.46 
*END

*D_NET *71 0.00447908
*CONN
*P FrameStrobe[13] I
*I *1370:A I *D sky130_fd_sc_hd__clkbuf_1
*CAP
1 FrameStrobe[13] 0.00111976
2 *1370:A 0.00111976
3 *1370:A *1271:A0 4.66108e-05
4 *1370:A *1271:A3 4.15433e-05
5 *1370:A *1271:S0 8.30853e-06
6 *1370:A *1271:S1 0.00018116
7 *1370:A *1359:A 0.000432867
8 *1370:A *1366:A 7.35801e-05
9 *1370:A *1524:A 7.90746e-05
10 *1370:A *1525:A 0.00037595
11 *1370:A *1536:A 0.00012322
12 *1370:A *1540:A 0.000101063
13 *1370:A *1594:A 5.83121e-06
14 *1370:A *1608:A 0.000158415
15 *1370:A *276:40 5.30608e-05
16 *1367:A *1370:A 0.000502075
17 *1369:A *1370:A 5.68108e-05
*RES
1 FrameStrobe[13] *1370:A 37.055 
*END

*D_NET *72 0.00278674
*CONN
*P FrameStrobe[14] I
*I *1371:A I *D sky130_fd_sc_hd__clkbuf_1
*CAP
1 FrameStrobe[14] 0.00103256
2 *1371:A 0.00103256
3 *1371:A *1372:A 0.00011852
4 *1371:A *1388:A 2.97561e-05
5 *1371:A *1524:A 0.000192125
6 *1371:A *1540:A 0
7 *1371:A *1541:A 7.30547e-05
8 *1371:A *344:12 0
9 *1371:A *353:24 0.000308161
*RES
1 FrameStrobe[14] *1371:A 25.03 
*END

*D_NET *73 0.00185962
*CONN
*P FrameStrobe[15] I
*I *1372:A I *D sky130_fd_sc_hd__clkbuf_1
*CAP
1 FrameStrobe[15] 0.000858955
2 *1372:A 0.000858955
3 *1372:A *1513:A 0
4 *1372:A *1523:A 0
5 *1372:A *1527:A 2.3192e-05
6 *1372:A *1529:A 0
7 *1372:A *307:30 0
8 *1372:A *353:24 0
9 *1371:A *1372:A 0.00011852
*RES
1 FrameStrobe[15] *1372:A 18.03 
*END

*D_NET *74 0.00205984
*CONN
*P FrameStrobe[16] I
*I *1373:A I *D sky130_fd_sc_hd__clkbuf_1
*CAP
1 FrameStrobe[16] 0.000617829
2 *1373:A 0.000617829
3 *1373:A *498:DIODE 0
4 *1373:A *1513:A 0.000731775
5 *1373:A *1604:A 9.24049e-05
*RES
1 FrameStrobe[16] *1373:A 17.13 
*END

*D_NET *75 0.00246687
*CONN
*P FrameStrobe[17] I
*I *1374:A I *D sky130_fd_sc_hd__clkbuf_1
*CAP
1 FrameStrobe[17] 0.00103171
2 *1374:A 0.00103171
3 *1374:A *487:DIODE 0
4 *1374:A *494:DIODE 1.00941e-05
5 *1374:A *498:DIODE 0
6 *1374:A *1375:A 0
7 *1374:A *1604:A 0
8 *1374:A *1608:A 0.000232262
9 *1374:A *299:40 0
10 FrameData_O[1] *1374:A 0.000161098
*RES
1 FrameStrobe[17] *1374:A 22.53 
*END

*D_NET *76 0.00408823
*CONN
*P FrameStrobe[18] I
*I *1375:A I *D sky130_fd_sc_hd__clkbuf_1
*CAP
1 FrameStrobe[18] 0.00115024
2 *1375:A 0.00115024
3 *1375:A *487:DIODE 0.000332597
4 *1375:A *1518:A 0.000581869
5 *1375:A *1521:A 0
6 *1375:A *1607:A 0.00054624
7 *1375:A *299:40 0
8 *1375:A *477:26 0.000115347
9 FrameData_O[0] *1375:A 0
10 FrameData_O[1] *1375:A 0
11 FrameData_O[2] *1375:A 0.000197143
12 FrameData_O[3] *1375:A 1.4548e-05
13 *1374:A *1375:A 0
*RES
1 FrameStrobe[18] *1375:A 29.745 
*END

*D_NET *77 0.00493976
*CONN
*P FrameStrobe[19] I
*I *1376:A I *D sky130_fd_sc_hd__clkbuf_1
*CAP
1 FrameStrobe[19] 0.00168157
2 *1376:A 0.00168157
3 *1376:A *499:DIODE 6.63219e-06
4 *1376:A *1516:A 0.000393749
5 *1376:A *1521:A 0.000288023
6 *1376:A *1608:A 0.000116158
7 *1376:A *1612:A 0
8 *1376:A *1613:A 0.000233561
9 *1376:A *1614:A 3.09164e-05
10 *1376:A *1624:A 0.000207263
11 *1376:A *304:26 4.13077e-05
12 FrameData_O[0] *1376:A 0
13 FrameData_O[11] *1376:A 6.72027e-05
14 FrameData_O[13] *1376:A 2.10433e-05
15 FrameData_O[15] *1376:A 4.4123e-05
16 FrameData_O[17] *1376:A 2.10433e-05
17 FrameData_O[19] *1376:A 1.93765e-05
18 FrameData_O[4] *1376:A 0
19 FrameData_O[5] *1376:A 2.10433e-05
20 FrameData_O[7] *1376:A 4.4123e-05
21 FrameData_O[9] *1376:A 2.10433e-05
*RES
1 FrameStrobe[19] *1376:A 36.855 
*END

*D_NET *78 0.0144934
*CONN
*P FrameStrobe[1] I
*I *1431:A I *D sky130_fd_sc_hd__clkbuf_2
*I *1430:A I *D sky130_fd_sc_hd__clkbuf_2
*CAP
1 FrameStrobe[1] 0.000660012
2 *1431:A 0.00128169
3 *1430:A 0.000946582
4 *78:5 0.00288828
5 *1430:A *1251:S1 0.000237786
6 *1430:A *1255:A2 1.44839e-05
7 *1430:A *1255:S0 0.000252722
8 *1430:A *1270:A0 0.000297705
9 *1430:A *1270:S1 0.000647845
10 *1430:A *1276:D 0.000125411
11 *1430:A *1379:A 0.000107032
12 *1430:A *1423:A 0.000646137
13 *1430:A *1567:A 0.000319368
14 *1430:A *372:22 2.62641e-05
15 *1430:A *412:68 0
16 *1430:A *461:53 0.000377404
17 *1430:A *461:78 0.000191507
18 *1431:A *1256:A0 9.5799e-06
19 *1431:A *1270:S1 9.0662e-05
20 *1431:A *1273:S1 0.000898644
21 *1431:A *1278:D 1.81196e-05
22 *1431:A *1380:A 8.56439e-05
23 *1431:A *1382:A 0.00140369
24 *1431:A *1415:A 3.74097e-05
25 *1431:A *1423:A 0.000491122
26 *1431:A *399:26 8.14251e-05
27 *1431:A *407:48 8.39258e-05
28 *1431:A *418:22 0.00167287
29 *1431:A *461:30 4.90957e-05
30 *78:5 *1380:A 7.30481e-05
31 *78:5 *1415:A 4.98472e-05
32 *78:5 *420:30 0.000428133
*RES
1 FrameStrobe[1] *78:5 11.9325 
2 *78:5 *1430:A 21.7778 
3 *78:5 *1431:A 10.249 
*END

*D_NET *79 0.0139262
*CONN
*P FrameStrobe[2] I
*I *1359:A I *D sky130_fd_sc_hd__clkbuf_1
*CAP
1 FrameStrobe[2] 0.000485644
2 *1359:A 0.000326485
3 *79:11 0.00145004
4 *79:7 0.0016092
5 *1359:A *1271:A0 3.72952e-05
6 *1359:A *1366:A 0.000329386
7 *1359:A *1534:A 4.66474e-05
8 *1359:A *1535:A 6.87295e-05
9 *1359:A *1536:A 4.22939e-05
10 *1359:A *1538:A 8.35068e-05
11 *1359:A *1594:A 3.23391e-05
12 *79:11 *1585:A 0.000245023
13 *79:11 *80:11 0.00405218
14 *79:11 *211:9 0.00394012
15 *79:11 *299:40 0.000252144
16 *79:11 *307:30 0.000149167
17 *79:11 *314:14 9.47267e-06
18 *79:11 *393:24 0.000250155
19 *1369:A *1359:A 8.35068e-05
20 *1370:A *1359:A 0.000432867
*RES
1 FrameStrobe[2] *79:7 9.47 
2 *79:7 *79:11 47.3 
3 *79:11 *1359:A 12.405 
*END

*D_NET *80 0.0118581
*CONN
*P FrameStrobe[3] I
*I *1360:A I *D sky130_fd_sc_hd__clkbuf_1
*I *500:DIODE I *D sky130_fd_sc_hd__diode_2
*CAP
1 FrameStrobe[3] 0.00110358
2 *1360:A 2.51931e-05
3 *500:DIODE 0.000433936
4 *80:11 0.00151232
5 *500:DIODE *491:DIODE 0
6 *500:DIODE *1258:S0 0
7 *500:DIODE *1269:S1 6.03517e-05
8 *500:DIODE *1293:GATE 0.0001514
9 *500:DIODE *1294:D 4.67939e-05
10 *500:DIODE *1362:A 0.000130381
11 *500:DIODE *1364:A 1.53986e-05
12 *500:DIODE *1538:A 6.97118e-05
13 *500:DIODE *342:10 0.000143008
14 *500:DIODE *404:143 0.00012917
15 *1360:A *1538:A 4.66108e-05
16 *80:11 *1363:A 0.000111605
17 *80:11 *299:40 0.00250194
18 *80:11 *314:14 0.000721399
19 *80:11 *351:24 0.000516221
20 *80:11 *393:16 2.85364e-05
21 *80:11 *395:14 5.83497e-05
22 *80:11 *443:42 0
23 *79:11 *80:11 0.00405218
*RES
1 FrameStrobe[3] *80:11 48.235 
2 *80:11 *500:DIODE 12.24 
3 *500:DIODE *1360:A 3.65 
*END

*D_NET *81 0.0100662
*CONN
*P FrameStrobe[4] I
*I *1361:A I *D sky130_fd_sc_hd__clkbuf_1
*I *491:DIODE I *D sky130_fd_sc_hd__diode_2
*CAP
1 FrameStrobe[4] 0.00207044
2 *1361:A 2.10291e-05
3 *491:DIODE 0.00209147
4 *491:DIODE *487:DIODE 0.000178668
5 *491:DIODE *1271:A1 1.56428e-05
6 *491:DIODE *1362:A 0.0031654
7 *491:DIODE *1364:A 0.000140377
8 *491:DIODE *1386:A 0.000115047
9 *491:DIODE *342:10 4.20356e-05
10 *491:DIODE *353:24 0.000393502
11 *491:DIODE *390:12 0.000900126
12 *491:DIODE *414:12 0.00010204
13 *1361:A *1271:A1 4.89295e-05
14 *500:DIODE *491:DIODE 0
15 *1369:A *491:DIODE 0.000781497
*RES
1 FrameStrobe[4] *491:DIODE 23.5897 
2 *491:DIODE *1361:A 3.65 
*END

*D_NET *82 0.010422
*CONN
*P FrameStrobe[5] I
*I *1362:A I *D sky130_fd_sc_hd__clkbuf_1
*CAP
1 FrameStrobe[5] 0.00170135
2 *1362:A 0.00170135
3 *1362:A *1258:S0 7.9642e-06
4 *1362:A *1293:D 8.20521e-05
5 *1362:A *1293:GATE 0.000109963
6 *1362:A *1307:D 5.22017e-05
7 *1362:A *1363:A 0.000167929
8 *1362:A *1386:A 5.46615e-05
9 *1362:A *342:10 0
10 *1362:A *342:12 0.000551455
11 *1362:A *353:24 0.00236547
12 *1362:A *404:143 8.7152e-06
13 *1362:A *414:12 0.000126737
14 *491:DIODE *1362:A 0.0031654
15 *500:DIODE *1362:A 0.000130381
16 *1368:A *1362:A 0.000196376
*RES
1 FrameStrobe[5] *1362:A 28.4193 
*END

*D_NET *83 0.00755483
*CONN
*P FrameStrobe[6] I
*I *1363:A I *D sky130_fd_sc_hd__clkbuf_1
*CAP
1 FrameStrobe[6] 0.00127357
2 *1363:A 0.00127357
3 *1363:A *1258:S0 0.000299769
4 *1363:A *1293:D 8.37189e-05
5 *1363:A *1307:D 0.000715156
6 *1363:A *1364:A 0.000673955
7 *1363:A *1566:A 0.000184366
8 *1363:A *299:40 0.0023181
9 *1363:A *351:24 0.000177439
10 *1363:A *395:14 0.000275651
11 *1363:A *443:42 0
12 *1362:A *1363:A 0.000167929
13 *80:11 *1363:A 0.000111605
*RES
1 FrameStrobe[6] *1363:A 45.955 
*END

*D_NET *84 0.0058232
*CONN
*P FrameStrobe[7] I
*I *1364:A I *D sky130_fd_sc_hd__clkbuf_1
*CAP
1 FrameStrobe[7] 0.00121858
2 *1364:A 0.00121858
3 *1364:A *487:DIODE 0.000180497
4 *1364:A *498:DIODE 0.000341074
5 *1364:A *299:40 3.54456e-05
6 *1364:A *342:10 0.000407861
7 *1364:A *443:42 0.000547771
8 *491:DIODE *1364:A 0.000140377
9 *500:DIODE *1364:A 1.53986e-05
10 *1363:A *1364:A 0.000673955
11 *1367:A *1364:A 0.000995641
12 *1368:A *1364:A 4.80285e-05
*RES
1 FrameStrobe[7] *1364:A 41.395 
*END

*D_NET *85 0.00615497
*CONN
*P FrameStrobe[8] I
*I *1365:A I *D sky130_fd_sc_hd__clkbuf_1
*CAP
1 FrameStrobe[8] 0.00135444
2 *1365:A 0.00135444
3 *1365:A *499:DIODE 0.000211911
4 *1365:A *1293:D 0.0014905
5 *1365:A *1294:D 0.000436413
6 *1365:A *1366:A 1.4952e-05
7 *1365:A *1539:A 2.87251e-05
8 *1365:A *1585:A 0
9 *1365:A *276:40 0.000129069
10 *1365:A *390:10 0
11 *1365:A *421:20 0.000110013
12 *1365:A *464:42 0.00100167
13 *1369:A *1365:A 2.28415e-05
*RES
1 FrameStrobe[8] *1365:A 21.1096 
*END

*D_NET *86 0.00540043
*CONN
*P FrameStrobe[9] I
*I *1366:A I *D sky130_fd_sc_hd__clkbuf_1
*CAP
1 FrameStrobe[9] 0.000941033
2 *1366:A 0.000941033
3 *1366:A *498:DIODE 0.00182018
4 *1366:A *1566:A 9.97985e-05
5 *1366:A *307:30 0.000369358
6 *1366:A *351:24 0.000560262
7 *1366:A *390:10 9.22722e-05
8 *1366:A *414:26 0.000158578
9 *1359:A *1366:A 0.000329386
10 *1365:A *1366:A 1.4952e-05
11 *1369:A *1366:A 0
12 *1370:A *1366:A 7.35801e-05
*RES
1 FrameStrobe[9] *1366:A 18.7183 
*END

*D_NET *87 0.00265652
*CONN
*P FrameStrobe_O[0] O
*I *1522:X O *D sky130_fd_sc_hd__buf_2
*CAP
1 FrameStrobe_O[0] 0.000446902
2 *1522:X 0.000446902
3 FrameStrobe_O[0] FrameStrobe_O[1] 0.000181969
4 FrameStrobe_O[0] UserCLKo 0.000191311
5 FrameStrobe_O[0] *1397:A 0.000612648
6 FrameStrobe_O[0] *310:50 0.000618284
7 FrameStrobe_O[0] *451:64 0.000158506
*RES
1 *1522:X FrameStrobe_O[0] 16.635 
*END

*D_NET *88 0.002983
*CONN
*P FrameStrobe_O[10] O
*I *1523:X O *D sky130_fd_sc_hd__buf_2
*CAP
1 FrameStrobe_O[10] 0.000685635
2 *1523:X 0.000685635
3 FrameStrobe_O[10] FrameStrobe_O[11] 0.000382559
4 FrameStrobe_O[10] FrameStrobe_O[14] 4.82919e-05
5 FrameStrobe_O[10] FrameStrobe_O[15] 0.000118081
6 FrameStrobe_O[10] FrameStrobe_O[16] 9.14049e-05
7 FrameStrobe_O[10] FrameStrobe_O[17] 0.000164826
8 FrameStrobe_O[10] FrameStrobe_O[9] 0.000403391
9 FrameStrobe_O[10] *1271:S1 5.3424e-05
10 FrameStrobe_O[10] *1524:A 0.000151815
11 FrameStrobe_O[10] *361:12 1.82859e-05
12 FrameStrobe_O[10] *451:64 4.99619e-05
13 FrameStrobe_O[10] *481:28 0.000129686
*RES
1 *1523:X FrameStrobe_O[10] 24.55 
*END

*D_NET *89 0.00260572
*CONN
*P FrameStrobe_O[11] O
*I *1524:X O *D sky130_fd_sc_hd__buf_2
*CAP
1 FrameStrobe_O[11] 0.000705236
2 *1524:X 0.000705236
3 FrameStrobe_O[11] FrameStrobe_O[12] 0.000239525
4 FrameStrobe_O[11] FrameStrobe_O[13] 0.000266952
5 FrameStrobe_O[11] FrameStrobe_O[9] 3.73953e-05
6 FrameStrobe_O[11] *1496:A 0.000246279
7 FrameStrobe_O[11] *1539:A 2.25364e-05
8 FrameStrobe_O[10] FrameStrobe_O[11] 0.000382559
*RES
1 *1524:X FrameStrobe_O[11] 18.585 
*END

*D_NET *90 0.00347322
*CONN
*P FrameStrobe_O[12] O
*I *1525:X O *D sky130_fd_sc_hd__buf_2
*CAP
1 FrameStrobe_O[12] 0.000645149
2 *1525:X 0.000645149
3 FrameStrobe_O[12] FrameStrobe_O[13] 0.000237692
4 FrameStrobe_O[12] FrameStrobe_O[14] 4.66108e-05
5 FrameStrobe_O[12] FrameStrobe_O[18] 0.000453922
6 FrameStrobe_O[12] FrameStrobe_O[19] 0
7 FrameStrobe_O[12] *1259:A2 1.4389e-05
8 FrameStrobe_O[12] *1271:S1 4.76406e-05
9 FrameStrobe_O[12] *1526:A 0.000126223
10 FrameStrobe_O[12] *1557:A 0.000507445
11 FrameStrobe_O[12] *1604:A 0.000509474
12 FrameStrobe_O[12] *479:38 0
13 FrameStrobe_O[11] FrameStrobe_O[12] 0.000239525
*RES
1 *1525:X FrameStrobe_O[12] 17.7555 
*END

*D_NET *91 0.00350792
*CONN
*P FrameStrobe_O[13] O
*I *1526:X O *D sky130_fd_sc_hd__buf_2
*CAP
1 FrameStrobe_O[13] 0.000741096
2 *1526:X 0.000741096
3 FrameStrobe_O[13] FrameStrobe_O[14] 0.000675241
4 FrameStrobe_O[13] FrameStrobe_O[16] 4.2491e-05
5 FrameStrobe_O[13] FrameStrobe_O[18] 0.000307035
6 FrameStrobe_O[13] FrameStrobe_O[9] 4.08514e-05
7 FrameStrobe_O[13] *1496:A 9.387e-06
8 FrameStrobe_O[13] *1497:A 0.000399468
9 FrameStrobe_O[13] *1541:A 4.66108e-05
10 FrameStrobe_O[11] FrameStrobe_O[13] 0.000266952
11 FrameStrobe_O[12] FrameStrobe_O[13] 0.000237692
*RES
1 *1526:X FrameStrobe_O[13] 21.12 
*END

*D_NET *92 0.00304208
*CONN
*P FrameStrobe_O[14] O
*I *1527:X O *D sky130_fd_sc_hd__buf_2
*CAP
1 FrameStrobe_O[14] 0.000740268
2 *1527:X 0.000740268
3 FrameStrobe_O[14] FrameStrobe_O[15] 0.000414397
4 FrameStrobe_O[14] FrameStrobe_O[8] 8.57024e-05
5 FrameStrobe_O[14] *1259:A2 2.32133e-05
6 FrameStrobe_O[14] *1497:A 5.10367e-05
7 FrameStrobe_O[14] *1541:A 0.000128547
8 FrameStrobe_O[14] *361:12 3.41589e-05
9 FrameStrobe_O[14] *451:64 5.43481e-05
10 FrameStrobe_O[10] FrameStrobe_O[14] 4.82919e-05
11 FrameStrobe_O[12] FrameStrobe_O[14] 4.66108e-05
12 FrameStrobe_O[13] FrameStrobe_O[14] 0.000675241
*RES
1 *1527:X FrameStrobe_O[14] 19.74 
*END

*D_NET *93 0.00332296
*CONN
*P FrameStrobe_O[15] O
*I *1528:X O *D sky130_fd_sc_hd__buf_2
*CAP
1 FrameStrobe_O[15] 0.000970288
2 *1528:X 0.000970288
3 FrameStrobe_O[15] FrameStrobe_O[16] 0.00016459
4 FrameStrobe_O[15] FrameStrobe_O[17] 3.96153e-05
5 FrameStrobe_O[15] *1513:A 5.05167e-05
6 FrameStrobe_O[15] *1528:A 1.47229e-05
7 FrameStrobe_O[15] *1529:A 5.69248e-06
8 FrameStrobe_O[15] *1604:A 4.12013e-05
9 FrameStrobe_O[15] *361:12 0.000460842
10 FrameStrobe_O[15] *479:38 0
11 FrameStrobe_O[15] *481:28 7.27217e-05
12 FrameStrobe_O[10] FrameStrobe_O[15] 0.000118081
13 FrameStrobe_O[14] FrameStrobe_O[15] 0.000414397
*RES
1 *1528:X FrameStrobe_O[15] 25.495 
*END

*D_NET *94 0.00221984
*CONN
*P FrameStrobe_O[16] O
*I *1529:X O *D sky130_fd_sc_hd__buf_2
*CAP
1 FrameStrobe_O[16] 0.000480568
2 *1529:X 0.000480568
3 FrameStrobe_O[16] FrameStrobe_O[17] 0.000399701
4 FrameStrobe_O[16] FrameStrobe_O[18] 1.74678e-05
5 FrameStrobe_O[16] *1526:A 1.83847e-05
6 FrameStrobe_O[16] *361:12 0.000524664
7 FrameStrobe_O[10] FrameStrobe_O[16] 9.14049e-05
8 FrameStrobe_O[13] FrameStrobe_O[16] 4.2491e-05
9 FrameStrobe_O[15] FrameStrobe_O[16] 0.00016459
*RES
1 *1529:X FrameStrobe_O[16] 15.63 
*END

*D_NET *95 0.00349573
*CONN
*P FrameStrobe_O[17] O
*I *1530:X O *D sky130_fd_sc_hd__buf_2
*CAP
1 FrameStrobe_O[17] 0.000558369
2 *1530:X 0.000558369
3 FrameStrobe_O[17] FrameStrobe_O[18] 0.000337826
4 FrameStrobe_O[17] *1267:A0 2.02787e-05
5 FrameStrobe_O[17] *1271:S1 0.000276146
6 FrameStrobe_O[17] *1513:A 3.50033e-05
7 FrameStrobe_O[17] *1514:A 0.000356968
8 FrameStrobe_O[17] *1528:A 0.000104139
9 FrameStrobe_O[17] *1613:A 5.49337e-05
10 FrameStrobe_O[17] *295:48 0.000589559
11 FrameStrobe_O[10] FrameStrobe_O[17] 0.000164826
12 FrameStrobe_O[15] FrameStrobe_O[17] 3.96153e-05
13 FrameStrobe_O[16] FrameStrobe_O[17] 0.000399701
*RES
1 *1530:X FrameStrobe_O[17] 17.167 
*END

*D_NET *96 0.00317426
*CONN
*P FrameStrobe_O[18] O
*I *1531:X O *D sky130_fd_sc_hd__buf_2
*CAP
1 FrameStrobe_O[18] 0.000626483
2 *1531:X 0.000626483
3 FrameStrobe_O[18] FrameStrobe_O[19] 1.06698e-05
4 FrameStrobe_O[18] *1271:S1 0.000287042
5 FrameStrobe_O[18] *1513:A 8.49205e-05
6 FrameStrobe_O[18] *1514:A 0.000253334
7 FrameStrobe_O[18] *1526:A 0.000160739
8 FrameStrobe_O[18] *1529:A 8.34281e-06
9 FrameStrobe_O[12] FrameStrobe_O[18] 0.000453922
10 FrameStrobe_O[13] FrameStrobe_O[18] 0.000307035
11 FrameStrobe_O[16] FrameStrobe_O[18] 1.74678e-05
12 FrameStrobe_O[17] FrameStrobe_O[18] 0.000337826
*RES
1 *1531:X FrameStrobe_O[18] 20.1 
*END

*D_NET *97 0.00295161
*CONN
*P FrameStrobe_O[19] O
*I *1532:X O *D sky130_fd_sc_hd__buf_2
*CAP
1 FrameStrobe_O[19] 0.000973232
2 *1532:X 0.000973232
3 FrameStrobe_O[19] *1514:A 0.000331624
4 FrameStrobe_O[19] *1529:A 0.000236729
5 FrameStrobe_O[19] *479:38 0.000426128
6 FrameStrobe_O[12] FrameStrobe_O[19] 0
7 FrameStrobe_O[18] FrameStrobe_O[19] 1.06698e-05
*RES
1 *1532:X FrameStrobe_O[19] 20.49 
*END

*D_NET *98 0.00275794
*CONN
*P FrameStrobe_O[1] O
*I *1533:X O *D sky130_fd_sc_hd__buf_2
*CAP
1 FrameStrobe_O[1] 0.000614248
2 *1533:X 0.000614248
3 FrameStrobe_O[1] FrameStrobe_O[2] 0.000437449
4 FrameStrobe_O[1] *1397:A 0.000478097
5 FrameStrobe_O[1] *1494:A 0.000431925
6 FrameStrobe_O[0] FrameStrobe_O[1] 0.000181969
*RES
1 *1533:X FrameStrobe_O[1] 17.355 
*END

*D_NET *99 0.00288338
*CONN
*P FrameStrobe_O[2] O
*I *1534:X O *D sky130_fd_sc_hd__buf_2
*CAP
1 FrameStrobe_O[2] 0.00060674
2 *1534:X 0.00060674
3 FrameStrobe_O[2] FrameStrobe_O[3] 0.0004024
4 FrameStrobe_O[2] *1397:A 0.00013134
5 FrameStrobe_O[2] *1537:A 3.13813e-05
6 FrameStrobe_O[2] *1613:A 0.00011863
7 FrameStrobe_O[2] *1618:A 0.000216237
8 FrameStrobe_O[2] *425:49 1.7635e-05
9 FrameStrobe_O[2] *452:22 1.7635e-05
10 FrameStrobe_O[2] *456:36 0.000118659
11 FrameStrobe_O[2] *463:28 0.000130764
12 FrameStrobe_O[2] *467:65 4.77719e-05
13 FrameStrobe_O[1] FrameStrobe_O[2] 0.000437449
*RES
1 *1534:X FrameStrobe_O[2] 19.0743 
*END

*D_NET *100 0.00304256
*CONN
*P FrameStrobe_O[3] O
*I *1535:X O *D sky130_fd_sc_hd__buf_2
*CAP
1 FrameStrobe_O[3] 0.000575833
2 *1535:X 0.000575833
3 FrameStrobe_O[3] FrameStrobe_O[4] 0.00040364
4 FrameStrobe_O[3] FrameStrobe_O[5] 0.00026459
5 FrameStrobe_O[3] FrameStrobe_O[8] 0.000107444
6 FrameStrobe_O[3] *1494:A 0.000189816
7 FrameStrobe_O[3] *1533:A 0.000305807
8 FrameStrobe_O[3] *1537:A 6.05077e-05
9 FrameStrobe_O[3] *458:26 2.59225e-05
10 FrameStrobe_O[3] *463:28 0.000130764
11 FrameStrobe_O[2] FrameStrobe_O[3] 0.0004024
*RES
1 *1535:X FrameStrobe_O[3] 23.605 
*END

*D_NET *101 0.00353887
*CONN
*P FrameStrobe_O[4] O
*I *1536:X O *D sky130_fd_sc_hd__buf_2
*CAP
1 FrameStrobe_O[4] 0.000554893
2 *1536:X 0.000554893
3 FrameStrobe_O[4] FrameStrobe_O[5] 0.000245009
4 FrameStrobe_O[4] FrameStrobe_O[7] 0.000194268
5 FrameStrobe_O[4] FrameStrobe_O[8] 0.000532817
6 FrameStrobe_O[4] *1495:A 1.26888e-05
7 FrameStrobe_O[4] *1557:A 0.000314606
8 FrameStrobe_O[4] *1604:A 0.000317376
9 FrameStrobe_O[4] *451:64 0.000238077
10 FrameStrobe_O[4] *452:22 0.000170602
11 FrameStrobe_O[3] FrameStrobe_O[4] 0.00040364
*RES
1 *1536:X FrameStrobe_O[4] 19.1891 
*END

*D_NET *102 0.00265246
*CONN
*P FrameStrobe_O[5] O
*I *1537:X O *D sky130_fd_sc_hd__buf_2
*CAP
1 FrameStrobe_O[5] 0.000570015
2 *1537:X 0.000570015
3 FrameStrobe_O[5] FrameStrobe_O[6] 0.000457975
4 FrameStrobe_O[5] FrameStrobe_O[7] 7.11235e-06
5 FrameStrobe_O[5] FrameStrobe_O[9] 2.61023e-05
6 FrameStrobe_O[5] *1494:A 1.91597e-05
7 FrameStrobe_O[5] *1537:A 0.000372502
8 FrameStrobe_O[5] *1539:A 2.68526e-05
9 FrameStrobe_O[5] *458:26 9.31238e-05
10 FrameStrobe_O[3] FrameStrobe_O[5] 0.00026459
11 FrameStrobe_O[4] FrameStrobe_O[5] 0.000245009
*RES
1 *1537:X FrameStrobe_O[5] 18.375 
*END

*D_NET *103 0.0035067
*CONN
*P FrameStrobe_O[6] O
*I *1538:X O *D sky130_fd_sc_hd__buf_2
*CAP
1 FrameStrobe_O[6] 0.000875763
2 *1538:X 0.000875763
3 FrameStrobe_O[6] FrameStrobe_O[7] 0.000123276
4 FrameStrobe_O[6] *1495:A 0.000798537
5 FrameStrobe_O[6] *1535:A 2.68526e-05
6 FrameStrobe_O[6] *1536:A 4.21973e-05
7 FrameStrobe_O[6] *1538:A 0.000195717
8 FrameStrobe_O[6] *451:64 5.74438e-05
9 FrameStrobe_O[6] *452:22 1.51915e-05
10 FrameStrobe_O[6] *453:20 2.92522e-05
11 FrameStrobe_O[6] *456:36 8.73147e-06
12 FrameStrobe_O[6] *458:26 0
13 FrameStrobe_O[5] FrameStrobe_O[6] 0.000457975
*RES
1 *1538:X FrameStrobe_O[6] 21.57 
*END

*D_NET *104 0.00277636
*CONN
*P FrameStrobe_O[7] O
*I *1539:X O *D sky130_fd_sc_hd__buf_2
*CAP
1 FrameStrobe_O[7] 0.000608619
2 *1539:X 0.000608619
3 FrameStrobe_O[7] FrameStrobe_O[8] 0.000256266
4 FrameStrobe_O[7] FrameStrobe_O[9] 0.000285773
5 FrameStrobe_O[7] *1271:A0 5.18735e-06
6 FrameStrobe_O[7] *1494:A 5.83121e-06
7 FrameStrobe_O[7] *1495:A 0.000575148
8 FrameStrobe_O[7] *295:48 0.000106263
9 FrameStrobe_O[4] FrameStrobe_O[7] 0.000194268
10 FrameStrobe_O[5] FrameStrobe_O[7] 7.11235e-06
11 FrameStrobe_O[6] FrameStrobe_O[7] 0.000123276
*RES
1 *1539:X FrameStrobe_O[7] 17.3511 
*END

*D_NET *105 0.00333172
*CONN
*P FrameStrobe_O[8] O
*I *1540:X O *D sky130_fd_sc_hd__buf_2
*CAP
1 FrameStrobe_O[8] 0.000710058
2 *1540:X 0.000710058
3 FrameStrobe_O[8] FrameStrobe_O[9] 0.000609428
4 FrameStrobe_O[8] *1537:A 3.35246e-05
5 FrameStrobe_O[8] *1539:A 1.79877e-05
6 FrameStrobe_O[8] *451:64 0.000268431
7 FrameStrobe_O[14] FrameStrobe_O[8] 8.57024e-05
8 FrameStrobe_O[3] FrameStrobe_O[8] 0.000107444
9 FrameStrobe_O[4] FrameStrobe_O[8] 0.000532817
10 FrameStrobe_O[7] FrameStrobe_O[8] 0.000256266
*RES
1 *1540:X FrameStrobe_O[8] 21.075 
*END

*D_NET *106 0.00258313
*CONN
*P FrameStrobe_O[9] O
*I *1541:X O *D sky130_fd_sc_hd__buf_2
*CAP
1 FrameStrobe_O[9] 0.000505966
2 *1541:X 0.000505966
3 FrameStrobe_O[9] *1539:A 0.000121643
4 FrameStrobe_O[9] *1541:A 4.66108e-05
5 FrameStrobe_O[10] FrameStrobe_O[9] 0.000403391
6 FrameStrobe_O[11] FrameStrobe_O[9] 3.73953e-05
7 FrameStrobe_O[13] FrameStrobe_O[9] 4.08514e-05
8 FrameStrobe_O[5] FrameStrobe_O[9] 2.61023e-05
9 FrameStrobe_O[7] FrameStrobe_O[9] 0.000285773
10 FrameStrobe_O[8] FrameStrobe_O[9] 0.000609428
*RES
1 *1541:X FrameStrobe_O[9] 18.18 
*END

*D_NET *107 0.00235577
*CONN
*P N1BEG[0] O
*I *1542:X O *D sky130_fd_sc_hd__buf_2
*CAP
1 N1BEG[0] 0.000670591
2 *1542:X 0.000670591
3 N1BEG[0] N1BEG[1] 0.000441979
4 N1BEG[0] N2BEG[2] 7.23602e-05
5 N1BEG[0] *1544:A 0
6 N1BEG[0] *1548:A 0.000116853
7 N1BEG[0] *1558:A 0.000349598
8 N1BEG[0] *412:18 3.37941e-05
*RES
1 *1542:X N1BEG[0] 17.355 
*END

*D_NET *108 0.00222909
*CONN
*P N1BEG[1] O
*I *1543:X O *D sky130_fd_sc_hd__buf_2
*CAP
1 N1BEG[1] 0.000296484
2 *1543:X 0.000296484
3 N1BEG[1] N1BEG[2] 0.00026714
4 N1BEG[1] N2BEG[2] 0.000176647
5 N1BEG[1] *369:16 8.65905e-05
6 N1BEG[1] *380:12 8.8266e-05
7 N1BEG[1] *391:16 0.000575495
8 N1BEG[0] N1BEG[1] 0.000441979
*RES
1 *1543:X N1BEG[1] 16.2 
*END

*D_NET *109 0.00288266
*CONN
*P N1BEG[2] O
*I *1544:X O *D sky130_fd_sc_hd__buf_2
*CAP
1 N1BEG[2] 0.000335168
2 *1544:X 0.000335168
3 N1BEG[2] N1BEG[3] 0.000186524
4 N1BEG[2] N2BEG[0] 0.000272085
5 N1BEG[2] *1543:A 0.00058197
6 N1BEG[2] *1548:A 0.000122325
7 N1BEG[2] *1558:A 0.000217283
8 N1BEG[2] *391:16 0.000444179
9 N1BEG[2] *412:18 0.000120819
10 N1BEG[1] N1BEG[2] 0.00026714
*RES
1 *1544:X N1BEG[2] 18.48 
*END

*D_NET *110 0.00223364
*CONN
*P N1BEG[3] O
*I *1545:X O *D sky130_fd_sc_hd__buf_2
*CAP
1 N1BEG[3] 0.000306458
2 *1545:X 0.000306458
3 N1BEG[3] N2BEG[0] 0.000518469
4 N1BEG[3] *1543:A 0.000706982
5 N1BEG[3] *1545:A 3.90266e-05
6 N1BEG[3] *369:16 8.40213e-05
7 N1BEG[3] *380:12 8.57024e-05
8 N1BEG[2] N1BEG[3] 0.000186524
*RES
1 *1545:X N1BEG[3] 16.2 
*END

*D_NET *111 0.00247119
*CONN
*P N2BEG[0] O
*I *1546:X O *D sky130_fd_sc_hd__buf_2
*CAP
1 N2BEG[0] 0.000460603
2 *1546:X 0.000460603
3 N2BEG[0] N2BEG[1] 0.000508641
4 N2BEG[0] N2BEG[2] 4.82863e-05
5 N2BEG[0] *1545:A 1.88904e-05
6 N2BEG[0] *1558:A 0.00013533
7 N2BEG[0] *412:18 4.82863e-05
8 N1BEG[2] N2BEG[0] 0.000272085
9 N1BEG[3] N2BEG[0] 0.000518469
*RES
1 *1546:X N2BEG[0] 18.03 
*END

*D_NET *112 0.00208738
*CONN
*P N2BEG[1] O
*I *1547:X O *D sky130_fd_sc_hd__buf_2
*CAP
1 N2BEG[1] 0.000324979
2 *1547:X 0.000324979
3 N2BEG[1] N2BEG[2] 0.000423246
4 N2BEG[1] *1545:A 0.000124952
5 N2BEG[1] *1552:A 0.000134516
6 N2BEG[1] *1554:A 7.63464e-05
7 N2BEG[1] *369:16 8.40213e-05
8 N2BEG[1] *380:12 8.57024e-05
9 N2BEG[0] N2BEG[1] 0.000508641
*RES
1 *1547:X N2BEG[1] 16.2 
*END

*D_NET *113 0.00274772
*CONN
*P N2BEG[2] O
*I *1548:X O *D sky130_fd_sc_hd__buf_2
*CAP
1 N2BEG[2] 0.000644879
2 *1548:X 0.000644879
3 N2BEG[2] N2BEG[3] 0.000437683
4 N2BEG[2] *1546:A 0
5 N2BEG[2] *1548:A 0.000220912
6 N2BEG[2] *1552:A 7.58604e-05
7 N2BEG[2] *412:18 2.97004e-06
8 N1BEG[0] N2BEG[2] 7.23602e-05
9 N1BEG[1] N2BEG[2] 0.000176647
10 N2BEG[0] N2BEG[2] 4.82863e-05
11 N2BEG[1] N2BEG[2] 0.000423246
*RES
1 *1548:X N2BEG[2] 22.84 
*END

*D_NET *114 0.00213561
*CONN
*P N2BEG[3] O
*I *1549:X O *D sky130_fd_sc_hd__buf_2
*CAP
1 N2BEG[3] 0.000338634
2 *1549:X 0.000338634
3 N2BEG[3] N2BEG[4] 0.000361371
4 N2BEG[3] *1552:A 3.30948e-05
5 N2BEG[3] *1554:A 6.74418e-05
6 N2BEG[3] *369:16 7.48995e-05
7 N2BEG[3] *380:12 8.65961e-05
8 N2BEG[3] *383:20 0.000397257
9 N2BEG[2] N2BEG[3] 0.000437683
*RES
1 *1549:X N2BEG[3] 16.2 
*END

*D_NET *115 0.00283427
*CONN
*P N2BEG[4] O
*I *1550:X O *D sky130_fd_sc_hd__buf_2
*CAP
1 N2BEG[4] 0.000433526
2 *1550:X 0.000433526
3 N2BEG[4] N2BEG[5] 0.000182291
4 N2BEG[4] *489:DIODE 0.000254528
5 N2BEG[4] *1393:A 5.50615e-06
6 N2BEG[4] *1550:A 2.18064e-05
7 N2BEG[4] *1569:A 0.000590454
8 N2BEG[4] *357:32 1.56428e-05
9 N2BEG[4] *383:20 0.000535617
10 N2BEG[3] N2BEG[4] 0.000361371
*RES
1 *1550:X N2BEG[4] 18.33 
*END

*D_NET *116 0.00229682
*CONN
*P N2BEG[5] O
*I *1551:X O *D sky130_fd_sc_hd__buf_2
*CAP
1 N2BEG[5] 0.000353633
2 *1551:X 0.000353633
3 N2BEG[5] N2BEG[6] 0.000367427
4 N2BEG[5] N2BEGb[1] 3.23391e-05
5 N2BEG[5] N4BEG[1] 0.000281538
6 N2BEG[5] *489:DIODE 9.28013e-05
7 N2BEG[5] *1569:A 0.000586479
8 N2BEG[5] *380:12 4.66826e-05
9 N2BEG[4] N2BEG[5] 0.000182291
*RES
1 *1551:X N2BEG[5] 15.945 
*END

*D_NET *117 0.00306458
*CONN
*P N2BEG[6] O
*I *1552:X O *D sky130_fd_sc_hd__buf_2
*CAP
1 N2BEG[6] 0.000559692
2 *1552:X 0.000559692
3 N2BEG[6] N2BEG[7] 0.00053189
4 N2BEG[6] N2BEGb[0] 0.000411679
5 N2BEG[6] N2BEGb[4] 6.27029e-05
6 N2BEG[6] N4BEG[1] 0.000145366
7 N2BEG[6] *1552:A 0.0001947
8 N2BEG[6] *1558:A 0.000111671
9 N2BEG[6] *1569:A 0.000119762
10 N2BEG[5] N2BEG[6] 0.000367427
*RES
1 *1552:X N2BEG[6] 20.25 
*END

*D_NET *118 0.00207897
*CONN
*P N2BEG[7] O
*I *1553:X O *D sky130_fd_sc_hd__buf_2
*CAP
1 N2BEG[7] 0.000387996
2 *1553:X 0.000387996
3 N2BEG[7] N2BEGb[0] 0.00042399
4 N2BEG[7] N2BEGb[1] 3.67779e-05
5 N2BEG[7] N4BEG[1] 2.16072e-05
6 N2BEG[7] *373:26 0.000239502
7 N2BEG[7] *380:12 4.92062e-05
8 N2BEG[6] N2BEG[7] 0.00053189
*RES
1 *1553:X N2BEG[7] 15.945 
*END

*D_NET *119 0.00285573
*CONN
*P N2BEGb[0] O
*I *1554:X O *D sky130_fd_sc_hd__buf_2
*CAP
1 N2BEGb[0] 0.000634693
2 *1554:X 0.000634693
3 N2BEGb[0] N2BEGb[1] 0.000249143
4 N2BEGb[0] N2BEGb[4] 2.45351e-05
5 N2BEGb[0] *1552:A 0.000381323
6 N2BEGb[0] *1561:A 2.49909e-05
7 N2BEGb[0] *373:26 7.06865e-05
8 N2BEG[6] N2BEGb[0] 0.000411679
9 N2BEG[7] N2BEGb[0] 0.00042399
*RES
1 *1554:X N2BEGb[0] 18.045 
*END

*D_NET *120 0.00368163
*CONN
*P N2BEGb[1] O
*I *1555:X O *D sky130_fd_sc_hd__buf_2
*CAP
1 N2BEGb[1] 0.000844395
2 *1555:X 0.000844395
3 N2BEGb[1] N2BEGb[2] 0.000252208
4 N2BEGb[1] N2BEGb[4] 0.000103321
5 N2BEGb[1] N4BEG[1] 8.53113e-06
6 N2BEGb[1] N4BEG[2] 0.000436662
7 N2BEGb[1] *489:DIODE 5.87236e-05
8 N2BEGb[1] *1249:B 0.000230013
9 N2BEGb[1] *1547:A 2.97897e-05
10 N2BEGb[1] *1552:A 0.000366295
11 N2BEGb[1] *1553:A 0.000107602
12 N2BEGb[1] *357:32 1.47256e-05
13 N2BEGb[1] *373:26 6.67107e-05
14 N2BEG[5] N2BEGb[1] 3.23391e-05
15 N2BEG[7] N2BEGb[1] 3.67779e-05
16 N2BEGb[0] N2BEGb[1] 0.000249143
*RES
1 *1555:X N2BEGb[1] 26.545 
*END

*D_NET *121 0.00258002
*CONN
*P N2BEGb[2] O
*I *1556:X O *D sky130_fd_sc_hd__buf_2
*CAP
1 N2BEGb[2] 0.00049728
2 *1556:X 0.00049728
3 N2BEGb[2] N2BEGb[3] 0.000418911
4 N2BEGb[2] N2BEGb[7] 0.000319689
5 N2BEGb[2] N4BEG[2] 0.000434341
6 N2BEGb[2] *373:26 0
7 N2BEGb[2] *380:12 0.000160314
8 N2BEGb[1] N2BEGb[2] 0.000252208
*RES
1 *1556:X N2BEGb[2] 17.895 
*END

*D_NET *122 0.00270803
*CONN
*P N2BEGb[3] O
*I *1557:X O *D sky130_fd_sc_hd__buf_2
*CAP
1 N2BEGb[3] 0.00048178
2 *1557:X 0.00048178
3 N2BEGb[3] N2BEGb[4] 0.000360867
4 N2BEGb[3] N2BEGb[7] 0.000328774
5 N2BEGb[3] *1249:A 5.78621e-05
6 N2BEGb[3] *1249:B 8.40213e-05
7 N2BEGb[3] *1570:A 0.000235541
8 N2BEGb[3] *1586:A 0.000258493
9 N2BEGb[2] N2BEGb[3] 0.000418911
*RES
1 *1557:X N2BEGb[3] 17.985 
*END

*D_NET *123 0.00302411
*CONN
*P N2BEGb[4] O
*I *1558:X O *D sky130_fd_sc_hd__buf_2
*CAP
1 N2BEGb[4] 0.000542804
2 *1558:X 0.000542804
3 N2BEGb[4] N2BEGb[5] 0.000337347
4 N2BEGb[4] N2BEGb[7] 5.64798e-05
5 N2BEGb[4] N4BEG[2] 4.66108e-05
6 N2BEGb[4] N4BEG[5] 0.000285188
7 N2BEGb[4] *489:DIODE 0.000158066
8 N2BEGb[4] *1558:A 4.87465e-06
9 N2BEGb[4] *1561:A 4.66108e-05
10 N2BEGb[4] *1569:A 0.000121437
11 N2BEGb[4] *1570:A 0.000282172
12 N2BEGb[4] *1586:A 4.82919e-05
13 N2BEG[6] N2BEGb[4] 6.27029e-05
14 N2BEGb[0] N2BEGb[4] 2.45351e-05
15 N2BEGb[1] N2BEGb[4] 0.000103321
16 N2BEGb[3] N2BEGb[4] 0.000360867
*RES
1 *1558:X N2BEGb[4] 20.205 
*END

*D_NET *124 0.00265159
*CONN
*P N2BEGb[5] O
*I *1559:X O *D sky130_fd_sc_hd__buf_2
*CAP
1 N2BEGb[5] 0.000501143
2 *1559:X 0.000501143
3 N2BEGb[5] N2BEGb[6] 0.000738876
4 N2BEGb[5] N4BEG[5] 0.000279865
5 N2BEGb[5] *490:DIODE 6.95739e-05
6 N2BEGb[5] *1249:B 8.35106e-05
7 N2BEGb[5] *1557:A 6.91258e-05
8 N2BEGb[5] *1560:A 1.88466e-05
9 N2BEGb[5] *1586:A 5.2162e-05
10 N2BEGb[4] N2BEGb[5] 0.000337347
*RES
1 *1559:X N2BEGb[5] 17.985 
*END

*D_NET *125 0.00296857
*CONN
*P N2BEGb[6] O
*I *1560:X O *D sky130_fd_sc_hd__buf_2
*CAP
1 N2BEGb[6] 0.000598701
2 *1560:X 0.000598701
3 N2BEGb[6] N2BEGb[7] 0.000223327
4 N2BEGb[6] N4BEG[0] 0
5 N2BEGb[6] *490:DIODE 8.35106e-05
6 N2BEGb[6] *1557:A 0.000516084
7 N2BEGb[6] *1560:A 8.23457e-05
8 N2BEGb[6] *1562:A 4.66108e-05
9 N2BEGb[6] *380:12 8.04105e-05
10 N2BEGb[5] N2BEGb[6] 0.000738876
*RES
1 *1560:X N2BEGb[6] 19.605 
*END

*D_NET *126 0.00272239
*CONN
*P N2BEGb[7] O
*I *1561:X O *D sky130_fd_sc_hd__buf_2
*CAP
1 N2BEGb[7] 0.000515019
2 *1561:X 0.000515019
3 N2BEGb[7] N4BEG[0] 0.000181809
4 N2BEGb[7] N4BEG[5] 0.000106344
5 N2BEGb[7] *1557:A 8.01628e-05
6 N2BEGb[7] *1562:A 0.000154721
7 N2BEGb[7] *391:24 0.000188877
8 N2BEGb[7] *407:14 5.21706e-05
9 N2BEGb[2] N2BEGb[7] 0.000319689
10 N2BEGb[3] N2BEGb[7] 0.000328774
11 N2BEGb[4] N2BEGb[7] 5.64798e-05
12 N2BEGb[6] N2BEGb[7] 0.000223327
*RES
1 *1561:X N2BEGb[7] 21.91 
*END

*D_NET *127 0.00285652
*CONN
*P N4BEG[0] O
*I *1562:X O *D sky130_fd_sc_hd__buf_2
*CAP
1 N4BEG[0] 0.000738301
2 *1562:X 0.000738301
3 N4BEG[0] N4BEG[1] 0.000279877
4 N4BEG[0] N4BEG[3] 0.000121643
5 N4BEG[0] *1562:A 0.000366389
6 N4BEG[0] *1575:A 0.000270514
7 N4BEG[0] *1592:A 2.69493e-05
8 N4BEG[0] *357:32 8.53113e-06
9 N4BEG[0] *380:12 0.000124204
10 N4BEG[0] *453:42 0
11 N2BEGb[6] N4BEG[0] 0
12 N2BEGb[7] N4BEG[0] 0.000181809
*RES
1 *1562:X N4BEG[0] 18.915 
*END

*D_NET *128 0.00256624
*CONN
*P N4BEG[10] O
*I *1563:X O *D sky130_fd_sc_hd__buf_2
*CAP
1 N4BEG[10] 0.00048263
2 *1563:X 0.00048263
3 N4BEG[10] N4BEG[11] 0.000326267
4 N4BEG[10] N4BEG[12] 4.82863e-05
5 N4BEG[10] N4BEG[8] 4.66108e-05
6 N4BEG[10] N4BEG[9] 0.000345356
7 N4BEG[10] *1544:A 0.000275287
8 N4BEG[10] *380:12 0.000196741
9 N4BEG[10] *428:22 0.000362431
*RES
1 *1563:X N4BEG[10] 17.235 
*END

*D_NET *129 0.00266899
*CONN
*P N4BEG[11] O
*I *1564:X O *D sky130_fd_sc_hd__buf_2
*CAP
1 N4BEG[11] 0.000486168
2 *1564:X 0.000486168
3 N4BEG[11] N4BEG[12] 0.000368159
4 N4BEG[11] N4BEG[9] 9.88946e-05
5 N4BEG[11] *1548:A 0.000175666
6 N4BEG[11] *1564:A 2.93678e-05
7 N4BEG[11] *1586:A 0.000439356
8 N4BEG[11] *428:22 0.000258944
9 N4BEG[10] N4BEG[11] 0.000326267
*RES
1 *1564:X N4BEG[11] 17.685 
*END

*D_NET *130 0.00240019
*CONN
*P N4BEG[12] O
*I *1565:X O *D sky130_fd_sc_hd__buf_2
*CAP
1 N4BEG[12] 0.000569132
2 *1565:X 0.000569132
3 N4BEG[12] N4BEG[13] 0.000254151
4 N4BEG[12] N4BEG[14] 8.57024e-05
5 N4BEG[12] *1548:A 0.000258158
6 N4BEG[12] *380:12 3.51884e-05
7 N4BEG[12] *446:22 0.000179566
8 N4BEG[12] *446:28 3.27177e-05
9 N4BEG[10] N4BEG[12] 4.82863e-05
10 N4BEG[11] N4BEG[12] 0.000368159
*RES
1 *1565:X N4BEG[12] 16.98 
*END

*D_NET *131 0.00261803
*CONN
*P N4BEG[13] O
*I *1566:X O *D sky130_fd_sc_hd__buf_2
*CAP
1 N4BEG[13] 0.000426788
2 *1566:X 0.000426788
3 N4BEG[13] N4BEG[14] 0.000254151
4 N4BEG[13] N4BEG[8] 0.000335475
5 N4BEG[13] N4BEG[9] 0.000381584
6 N4BEG[13] *391:24 0.000342789
7 N4BEG[13] *453:42 0.000196304
8 N4BEG[12] N4BEG[13] 0.000254151
*RES
1 *1566:X N4BEG[13] 20.875 
*END

*D_NET *132 0.00269196
*CONN
*P N4BEG[14] O
*I *1567:X O *D sky130_fd_sc_hd__buf_2
*CAP
1 N4BEG[14] 0.000473267
2 *1567:X 0.000473267
3 N4BEG[14] N4BEG[15] 0.000308524
4 N4BEG[14] NN4BEG[0] 4.66108e-05
5 N4BEG[14] *1588:A 0.000238591
6 N4BEG[14] *380:12 0.000235839
7 N4BEG[14] *408:24 0.000403757
8 N4BEG[14] *446:22 4.88518e-05
9 N4BEG[14] *446:28 0.000123395
10 N4BEG[12] N4BEG[14] 8.57024e-05
11 N4BEG[13] N4BEG[14] 0.000254151
*RES
1 *1567:X N4BEG[14] 17.58 
*END

*D_NET *133 0.00279776
*CONN
*P N4BEG[15] O
*I *1568:X O *D sky130_fd_sc_hd__buf_2
*CAP
1 N4BEG[15] 0.000506975
2 *1568:X 0.000506975
3 N4BEG[15] NN4BEG[0] 0.000309179
4 N4BEG[15] *408:24 0.00054331
5 N4BEG[15] *422:18 8.8266e-05
6 N4BEG[15] *437:28 2.53191e-06
7 N4BEG[15] *450:26 0.000532002
8 N4BEG[14] N4BEG[15] 0.000308524
*RES
1 *1568:X N4BEG[15] 17.985 
*END

*D_NET *134 0.00398548
*CONN
*P N4BEG[1] O
*I *1569:X O *D sky130_fd_sc_hd__buf_2
*CAP
1 N4BEG[1] 0.000693921
2 *1569:X 0.000693921
3 N4BEG[1] N4BEG[2] 0.000256734
4 N4BEG[1] N4BEG[3] 5.08304e-06
5 N4BEG[1] *489:DIODE 4.66108e-05
6 N4BEG[1] *1544:A 0.000481977
7 N4BEG[1] *1572:A 5.79895e-05
8 N4BEG[1] *1575:A 9.77731e-05
9 N4BEG[1] *1588:A 0.000879019
10 N4BEG[1] *453:42 3.55292e-05
11 N2BEG[5] N4BEG[1] 0.000281538
12 N2BEG[6] N4BEG[1] 0.000145366
13 N2BEG[7] N4BEG[1] 2.16072e-05
14 N2BEGb[1] N4BEG[1] 8.53113e-06
15 N4BEG[0] N4BEG[1] 0.000279877
*RES
1 *1569:X N4BEG[1] 27.88 
*END

*D_NET *135 0.00342656
*CONN
*P N4BEG[2] O
*I *1570:X O *D sky130_fd_sc_hd__buf_2
*CAP
1 N4BEG[2] 0.000736929
2 *1570:X 0.000736929
3 N4BEG[2] N4BEG[3] 0.000256734
4 N4BEG[2] *1545:A 0
5 N4BEG[2] *1557:A 0.000277124
6 N4BEG[2] *1569:A 9.60335e-05
7 N4BEG[2] *1570:A 9.32415e-05
8 N4BEG[2] *1575:A 5.52168e-05
9 N2BEGb[1] N4BEG[2] 0.000436662
10 N2BEGb[2] N4BEG[2] 0.000434341
11 N2BEGb[4] N4BEG[2] 4.66108e-05
12 N4BEG[1] N4BEG[2] 0.000256734
*RES
1 *1570:X N4BEG[2] 16.7135 
*END

*D_NET *136 0.00279733
*CONN
*P N4BEG[3] O
*I *1571:X O *D sky130_fd_sc_hd__buf_2
*CAP
1 N4BEG[3] 0.000536715
2 *1571:X 0.000536715
3 N4BEG[3] N4BEG[4] 0.00035551
4 N4BEG[3] *1574:A 0.000133672
5 N4BEG[3] *1592:A 9.31741e-06
6 N4BEG[3] *357:32 0.000122331
7 N4BEG[3] *380:12 0.000271408
8 N4BEG[3] *453:42 0.000448205
9 N4BEG[0] N4BEG[3] 0.000121643
10 N4BEG[1] N4BEG[3] 5.08304e-06
11 N4BEG[2] N4BEG[3] 0.000256734
*RES
1 *1571:X N4BEG[3] 18.375 
*END

*D_NET *137 0.00287328
*CONN
*P N4BEG[4] O
*I *1572:X O *D sky130_fd_sc_hd__buf_2
*CAP
1 N4BEG[4] 0.000699089
2 *1572:X 0.000699089
3 N4BEG[4] N4BEG[5] 9.24717e-05
4 N4BEG[4] N4BEG[7] 7.77659e-05
5 N4BEG[4] *1544:A 4.66742e-05
6 N4BEG[4] *1545:A 2.90684e-05
7 N4BEG[4] *1562:A 0
8 N4BEG[4] *1573:A 0.000109011
9 N4BEG[4] *1574:A 0.000573212
10 N4BEG[4] *1577:A 7.90693e-05
11 N4BEG[4] *1588:A 8.23457e-05
12 N4BEG[4] *458:26 2.9972e-05
13 N4BEG[3] N4BEG[4] 0.00035551
*RES
1 *1572:X N4BEG[4] 20.6728 
*END

*D_NET *138 0.00331155
*CONN
*P N4BEG[5] O
*I *1573:X O *D sky130_fd_sc_hd__buf_2
*CAP
1 N4BEG[5] 0.000473429
2 *1573:X 0.000473429
3 N4BEG[5] N4BEG[6] 0.000278026
4 N4BEG[5] *1574:A 0.000378133
5 N4BEG[5] *1577:A 3.9141e-05
6 N4BEG[5] *1586:A 1.33293e-05
7 N4BEG[5] *391:24 6.872e-05
8 N4BEG[5] *407:14 0.000631345
9 N4BEG[5] *453:42 0.000192125
10 N2BEGb[4] N4BEG[5] 0.000285188
11 N2BEGb[5] N4BEG[5] 0.000279865
12 N2BEGb[7] N4BEG[5] 0.000106344
13 N4BEG[4] N4BEG[5] 9.24717e-05
*RES
1 *1573:X N4BEG[5] 23.635 
*END

*D_NET *139 0.00274831
*CONN
*P N4BEG[6] O
*I *1574:X O *D sky130_fd_sc_hd__buf_2
*CAP
1 N4BEG[6] 0.000445568
2 *1574:X 0.000445568
3 N4BEG[6] N4BEG[7] 0.000347373
4 N4BEG[6] N4BEG[8] 4.66108e-05
5 N4BEG[6] *1274:A0 0.000332886
6 N4BEG[6] *1545:A 0.000116048
7 N4BEG[6] *1574:A 0
8 N4BEG[6] *1577:A 0.000345055
9 N4BEG[6] *357:32 0.000158175
10 N4BEG[6] *380:12 0.000232996
11 N4BEG[5] N4BEG[6] 0.000278026
*RES
1 *1574:X N4BEG[6] 17.58 
*END

*D_NET *140 0.00311547
*CONN
*P N4BEG[7] O
*I *1575:X O *D sky130_fd_sc_hd__buf_2
*CAP
1 N4BEG[7] 0.000622757
2 *1575:X 0.000622757
3 N4BEG[7] N4BEG[8] 0.000136849
4 N4BEG[7] N4BEG[9] 0.000143715
5 N4BEG[7] *1274:A0 0.00015358
6 N4BEG[7] *1564:A 0.000560735
7 N4BEG[7] *1573:A 4.45481e-05
8 N4BEG[7] *1575:A 4.85381e-05
9 N4BEG[7] *1577:A 2.68464e-05
10 N4BEG[7] *1586:A 0.000330003
11 N4BEG[4] N4BEG[7] 7.77659e-05
12 N4BEG[6] N4BEG[7] 0.000347373
*RES
1 *1575:X N4BEG[7] 20.175 
*END

*D_NET *141 0.00272963
*CONN
*P N4BEG[8] O
*I *1576:X O *D sky130_fd_sc_hd__buf_2
*CAP
1 N4BEG[8] 0.000515754
2 *1576:X 0.000515754
3 N4BEG[8] N4BEG[9] 0.000164253
4 N4BEG[8] *1274:A0 3.07379e-05
5 N4BEG[8] *1544:A 7.36791e-05
6 N4BEG[8] *1564:A 0.000599882
7 N4BEG[8] *1566:A 2.06578e-05
8 N4BEG[8] *380:12 5.78601e-05
9 N4BEG[8] *453:42 1.7635e-05
10 N4BEG[8] *466:42 0.000167873
11 N4BEG[10] N4BEG[8] 4.66108e-05
12 N4BEG[13] N4BEG[8] 0.000335475
13 N4BEG[6] N4BEG[8] 4.66108e-05
14 N4BEG[7] N4BEG[8] 0.000136849
*RES
1 *1576:X N4BEG[8] 16.98 
*END

*D_NET *142 0.00265815
*CONN
*P N4BEG[9] O
*I *1577:X O *D sky130_fd_sc_hd__buf_2
*CAP
1 N4BEG[9] 0.000522836
2 *1577:X 0.000522836
3 N4BEG[9] *1544:A 0.000135905
4 N4BEG[9] *1564:A 4.82863e-05
5 N4BEG[9] *1577:A 4.77719e-05
6 N4BEG[9] *1586:A 8.23329e-05
7 N4BEG[9] *466:42 0.000164384
8 N4BEG[10] N4BEG[9] 0.000345356
9 N4BEG[11] N4BEG[9] 9.88946e-05
10 N4BEG[13] N4BEG[9] 0.000381584
11 N4BEG[7] N4BEG[9] 0.000143715
12 N4BEG[8] N4BEG[9] 0.000164253
*RES
1 *1577:X N4BEG[9] 18.105 
*END

*D_NET *143 0.00263576
*CONN
*P NN4BEG[0] O
*I *1578:X O *D sky130_fd_sc_hd__buf_2
*CAP
1 NN4BEG[0] 0.000523359
2 *1578:X 0.000523359
3 NN4BEG[0] NN4BEG[1] 0.00026419
4 NN4BEG[0] NN4BEG[3] 8.40269e-05
5 NN4BEG[0] NN4BEG[6] 0.000451018
6 NN4BEG[0] *380:12 3.34788e-05
7 NN4BEG[0] *437:28 1.88904e-05
8 NN4BEG[0] *450:26 0.000381645
9 N4BEG[14] NN4BEG[0] 4.66108e-05
10 N4BEG[15] NN4BEG[0] 0.000309179
*RES
1 *1578:X NN4BEG[0] 16.98 
*END

*D_NET *144 0.00182818
*CONN
*P NN4BEG[10] O
*I *1579:X O *D sky130_fd_sc_hd__buf_2
*CAP
1 NN4BEG[10] 0.000511522
2 *1579:X 0.000511522
3 NN4BEG[10] NN4BEG[11] 0.000356142
4 NN4BEG[10] NN4BEG[9] 0.000235314
5 NN4BEG[10] *423:32 8.97256e-05
6 NN4BEG[10] *437:28 0.000123955
*RES
1 *1579:X NN4BEG[10] 14.25 
*END

*D_NET *145 0.00230494
*CONN
*P NN4BEG[11] O
*I *1580:X O *D sky130_fd_sc_hd__buf_2
*CAP
1 NN4BEG[11] 0.000519344
2 *1580:X 0.000519344
3 NN4BEG[11] NN4BEG[12] 0.000185852
4 NN4BEG[11] NN4BEG[8] 0
5 NN4BEG[11] *1463:A 0.000589812
6 NN4BEG[11] *347:46 4.60061e-05
7 NN4BEG[11] *423:32 8.84382e-05
8 NN4BEG[11] *437:28 0
9 NN4BEG[10] NN4BEG[11] 0.000356142
*RES
1 *1580:X NN4BEG[11] 15.945 
*END

*D_NET *146 0.00183456
*CONN
*P NN4BEG[12] O
*I *1581:X O *D sky130_fd_sc_hd__buf_2
*CAP
1 NN4BEG[12] 0.000309538
2 *1581:X 0.000309538
3 NN4BEG[12] NN4BEG[13] 0.000221135
4 NN4BEG[12] *1463:A 0.000430485
5 NN4BEG[12] *1464:A 0.000378009
6 NN4BEG[11] NN4BEG[12] 0.000185852
*RES
1 *1581:X NN4BEG[12] 13.11 
*END

*D_NET *147 0.00203475
*CONN
*P NN4BEG[13] O
*I *1582:X O *D sky130_fd_sc_hd__buf_2
*CAP
1 NN4BEG[13] 0.00037359
2 *1582:X 0.00037359
3 NN4BEG[13] NN4BEG[14] 0.000210064
4 NN4BEG[13] *1464:A 0.000376722
5 NN4BEG[13] *437:28 8.40213e-05
6 Co NN4BEG[13] 0.000395627
7 NN4BEG[12] NN4BEG[13] 0.000221135
*RES
1 *1582:X NN4BEG[13] 13.905 
*END

*D_NET *148 0.00353388
*CONN
*P NN4BEG[14] O
*I *1583:X O *D sky130_fd_sc_hd__buf_2
*CAP
1 NN4BEG[14] 0.000594381
2 *1583:X 0.000594381
3 NN4BEG[14] NN4BEG[15] 0.000228373
4 NN4BEG[14] *1465:A 0.000160525
5 NN4BEG[14] *1475:A 9.39388e-06
6 NN4BEG[14] *1478:A 0.00022749
7 NN4BEG[14] *1581:A 2.99572e-05
8 NN4BEG[14] *1583:A 4.89295e-05
9 NN4BEG[14] *1584:A 5.84698e-05
10 NN4BEG[14] *293:12 0.000247312
11 NN4BEG[14] *426:26 5.83121e-06
12 NN4BEG[14] *428:22 0.00045462
13 NN4BEG[14] *450:16 0.000452945
14 Co NN4BEG[14] 0.000211205
15 NN4BEG[13] NN4BEG[14] 0.000210064
*RES
1 *1583:X NN4BEG[14] 24.775 
*END

*D_NET *149 0.00202447
*CONN
*P NN4BEG[15] O
*I *1584:X O *D sky130_fd_sc_hd__buf_2
*CAP
1 NN4BEG[15] 0.000715834
2 *1584:X 0.000715834
3 NN4BEG[15] *1465:A 8.27745e-06
4 NN4BEG[15] *310:40 2.74791e-05
5 NN4BEG[15] *430:28 7.93043e-05
6 NN4BEG[15] *456:54 4.84768e-05
7 Co NN4BEG[15] 0.00020089
8 NN4BEG[14] NN4BEG[15] 0.000228373
9 *1433:A NN4BEG[15] 0
*RES
1 *1584:X NN4BEG[15] 15.495 
*END

*D_NET *150 0.00285228
*CONN
*P NN4BEG[1] O
*I *1585:X O *D sky130_fd_sc_hd__buf_2
*CAP
1 NN4BEG[1] 0.000548532
2 *1585:X 0.000548532
3 NN4BEG[1] NN4BEG[2] 0.000606082
4 NN4BEG[1] NN4BEG[3] 6.172e-05
5 NN4BEG[1] NN4BEG[4] 5.02905e-05
6 NN4BEG[1] NN4BEG[6] 0.000448752
7 NN4BEG[1] *1262:S0 5.86739e-05
8 NN4BEG[1] *422:18 8.57024e-05
9 NN4BEG[1] *437:28 0.0001798
10 NN4BEG[0] NN4BEG[1] 0.00026419
*RES
1 *1585:X NN4BEG[1] 17.985 
*END

*D_NET *151 0.00296242
*CONN
*P NN4BEG[2] O
*I *1586:X O *D sky130_fd_sc_hd__buf_2
*CAP
1 NN4BEG[2] 0.000824262
2 *1586:X 0.000824262
3 NN4BEG[2] NN4BEG[3] 0.000588323
4 NN4BEG[2] NN4BEG[4] 5.61747e-05
5 NN4BEG[2] *1586:A 4.41506e-05
6 NN4BEG[2] *1590:A 1.91597e-05
7 NN4BEG[1] NN4BEG[2] 0.000606082
*RES
1 *1586:X NN4BEG[2] 19.425 
*END

*D_NET *152 0.00289049
*CONN
*P NN4BEG[3] O
*I *1587:X O *D sky130_fd_sc_hd__buf_2
*CAP
1 NN4BEG[3] 0.000528861
2 *1587:X 0.000528861
3 NN4BEG[3] NN4BEG[4] 0.000711465
4 NN4BEG[3] NN4BEG[5] 8.49205e-05
5 NN4BEG[3] *380:12 0.000232111
6 NN4BEG[3] *407:16 7.02017e-05
7 NN4BEG[0] NN4BEG[3] 8.40269e-05
8 NN4BEG[1] NN4BEG[3] 6.172e-05
9 NN4BEG[2] NN4BEG[3] 0.000588323
*RES
1 *1587:X NN4BEG[3] 18.48 
*END

*D_NET *153 0.00286466
*CONN
*P NN4BEG[4] O
*I *1588:X O *D sky130_fd_sc_hd__buf_2
*CAP
1 NN4BEG[4] 0.00060266
2 *1588:X 0.00060266
3 NN4BEG[4] NN4BEG[5] 0.000160007
4 NN4BEG[4] NN4BEG[6] 4.66108e-05
5 NN4BEG[4] NN4BEG[7] 2.49909e-05
6 NN4BEG[4] *1590:A 0.000130638
7 NN4BEG[4] *361:26 0.00018602
8 NN4BEG[4] *407:16 0.000293148
9 NN4BEG[1] NN4BEG[4] 5.02905e-05
10 NN4BEG[2] NN4BEG[4] 5.61747e-05
11 NN4BEG[3] NN4BEG[4] 0.000711465
*RES
1 *1588:X NN4BEG[4] 22.45 
*END

*D_NET *154 0.00284206
*CONN
*P NN4BEG[5] O
*I *1589:X O *D sky130_fd_sc_hd__buf_2
*CAP
1 NN4BEG[5] 0.000661832
2 *1589:X 0.000661832
3 NN4BEG[5] NN4BEG[6] 0.000244341
4 NN4BEG[5] NN4BEG[7] 0.000196149
5 NN4BEG[5] *1592:A 7.73646e-05
6 NN4BEG[5] *347:46 2.01335e-05
7 NN4BEG[5] *361:26 0.000630591
8 NN4BEG[5] *380:12 0.000104892
9 NN4BEG[5] *456:54 0
10 NN4BEG[3] NN4BEG[5] 8.49205e-05
11 NN4BEG[4] NN4BEG[5] 0.000160007
*RES
1 *1589:X NN4BEG[5] 18.12 
*END

*D_NET *155 0.0033934
*CONN
*P NN4BEG[6] O
*I *1590:X O *D sky130_fd_sc_hd__buf_2
*CAP
1 NN4BEG[6] 0.00053977
2 *1590:X 0.00053977
3 NN4BEG[6] NN4BEG[7] 0.000244341
4 NN4BEG[6] *1557:A 0.000436332
5 NN4BEG[6] *1577:A 0.000442466
6 NN4BEG[0] NN4BEG[6] 0.000451018
7 NN4BEG[1] NN4BEG[6] 0.000448752
8 NN4BEG[4] NN4BEG[6] 4.66108e-05
9 NN4BEG[5] NN4BEG[6] 0.000244341
*RES
1 *1590:X NN4BEG[6] 16.6189 
*END

*D_NET *156 0.00247674
*CONN
*P NN4BEG[7] O
*I *1591:X O *D sky130_fd_sc_hd__buf_2
*CAP
1 NN4BEG[7] 0.000703201
2 *1591:X 0.000703201
3 NN4BEG[7] NN4BEG[8] 0.000423772
4 NN4BEG[7] *1579:A 0.000119762
5 NN4BEG[7] *1590:A 2.8585e-06
6 NN4BEG[7] *1591:A 8.73389e-06
7 NN4BEG[7] *1592:A 2.30292e-05
8 NN4BEG[7] *456:54 2.67022e-05
9 NN4BEG[4] NN4BEG[7] 2.49909e-05
10 NN4BEG[5] NN4BEG[7] 0.000196149
11 NN4BEG[6] NN4BEG[7] 0.000244341
*RES
1 *1591:X NN4BEG[7] 16.875 
*END

*D_NET *157 0.00253604
*CONN
*P NN4BEG[8] O
*I *1592:X O *D sky130_fd_sc_hd__buf_2
*CAP
1 NN4BEG[8] 0.000480578
2 *1592:X 0.000480578
3 NN4BEG[8] NN4BEG[9] 0.000589992
4 NN4BEG[8] *1579:A 4.07182e-05
5 NN4BEG[8] *1590:A 0.000231594
6 NN4BEG[8] *1592:A 4.41506e-05
7 NN4BEG[8] *1593:A 4.66108e-05
8 NN4BEG[8] *437:28 4.7878e-05
9 NN4BEG[8] *456:54 0.000150174
10 NN4BEG[11] NN4BEG[8] 0
11 NN4BEG[7] NN4BEG[8] 0.000423772
*RES
1 *1592:X NN4BEG[8] 16.86 
*END

*D_NET *158 0.00210794
*CONN
*P NN4BEG[9] O
*I *1593:X O *D sky130_fd_sc_hd__buf_2
*CAP
1 NN4BEG[9] 0.000570153
2 *1593:X 0.000570153
3 NN4BEG[9] *1579:A 0.000122325
4 NN4BEG[9] *1593:A 8.34281e-06
5 NN4BEG[9] *437:28 1.16578e-05
6 NN4BEG[10] NN4BEG[9] 0.000235314
7 NN4BEG[8] NN4BEG[9] 0.000589992
*RES
1 *1593:X NN4BEG[9] 15.495 
*END

*D_NET *159 0.00583208
*CONN
*P S1END[0] I
*I *1462:A I *D sky130_fd_sc_hd__buf_1
*CAP
1 S1END[0] 0.00100616
2 *1462:A 0.00100616
3 *1462:A *1463:A 0.000185961
4 *1462:A *1464:A 0.000162684
5 *1462:A *1467:A 0.000120655
6 *1462:A *1472:A 0.00015639
7 *1462:A *1473:A 0.000193653
8 *1462:A *1479:A 0.000235568
9 *1462:A *1484:A 2.89319e-05
10 *1462:A *1575:A 5.86611e-05
11 *1462:A *1618:A 6.0637e-05
12 *1462:A *293:14 0.001222
13 *1462:A *310:40 0.000171784
14 *1462:A *343:32 0.000107415
15 *1462:A *391:24 5.2045e-05
16 *1462:A *429:22 4.66474e-05
17 *1462:A *433:34 1.88656e-05
18 *1462:A *446:22 0.000284157
19 *1462:A *453:24 1.48096e-05
20 *1462:A *466:28 0.000382291
21 *1462:A *479:30 0.000115714
22 Co *1462:A 0.00020089
*RES
1 S1END[0] *1462:A 34.825 
*END

*D_NET *160 0.00387971
*CONN
*P S1END[1] I
*I *1463:A I *D sky130_fd_sc_hd__buf_1
*CAP
1 S1END[1] 0.000714663
2 *1463:A 0.000714663
3 *1463:A *1464:A 0.000212437
4 *1463:A *1557:A 0.000497695
5 *1463:A *1569:A 0.000260877
6 *1463:A *1590:A 0
7 *1463:A *1593:A 0.000177055
8 *1463:A *347:46 4.77719e-05
9 *1463:A *424:32 4.82919e-05
10 Co *1463:A 0
11 NN4BEG[11] *1463:A 0.000589812
12 NN4BEG[12] *1463:A 0.000430485
13 *1462:A *1463:A 0.000185961
*RES
1 S1END[1] *1463:A 18.2655 
*END

*D_NET *161 0.00350477
*CONN
*P S1END[2] I
*I *1464:A I *D sky130_fd_sc_hd__buf_1
*CAP
1 S1END[2] 0.000516228
2 *1464:A 0.000516228
3 *1464:A *1465:A 0.000197316
4 *1464:A *1593:A 0.000156754
5 *1464:A *293:12 4.92971e-05
6 *1464:A *310:40 8.65961e-05
7 *1464:A *343:32 4.98192e-05
8 *1464:A *391:24 0.000394474
9 *1464:A *437:28 0.000195064
10 Co *1464:A 0.000213139
11 NN4BEG[12] *1464:A 0.000378009
12 NN4BEG[13] *1464:A 0.000376722
13 *1462:A *1464:A 0.000162684
14 *1463:A *1464:A 0.000212437
*RES
1 S1END[2] *1464:A 24.145 
*END

*D_NET *162 0.00384066
*CONN
*P S1END[3] I
*I *1465:A I *D sky130_fd_sc_hd__buf_1
*CAP
1 S1END[3] 0.000850984
2 *1465:A 0.000850984
3 *1465:A *1475:A 0.000144496
4 *1465:A *1478:A 0.000180829
5 *1465:A *1557:A 0.000427992
6 *1465:A *1575:A 0.000148109
7 *1465:A *1582:A 0.000163091
8 *1465:A *293:12 7.83475e-05
9 *1465:A *310:40 3.99991e-05
10 *1465:A *347:46 8.41307e-05
11 *1465:A *424:32 1.14169e-05
12 *1465:A *430:28 1.30972e-05
13 *1465:A *463:40 0.000357355
14 Co *1465:A 2.3917e-05
15 NN4BEG[14] *1465:A 0.000160525
16 NN4BEG[15] *1465:A 8.27745e-06
17 *1433:A *1465:A 9.97985e-05
18 *1464:A *1465:A 0.000197316
*RES
1 S1END[3] *1465:A 18.4939 
*END

*D_NET *163 0.00205622
*CONN
*P S2END[0] I
*I *1466:A I *D sky130_fd_sc_hd__buf_1
*CAP
1 S2END[0] 0.000407735
2 *1466:A 0.000407735
3 *1466:A *1467:A 0.000213453
4 *1466:A *1468:A 0
5 *1466:A *1483:A 0.000231025
6 *1466:A *391:38 0.000363051
7 *1466:A *426:26 4.77757e-05
8 *1466:A *479:30 0.000385448
*RES
1 S2END[0] *1466:A 14.07 
*END

*D_NET *164 0.00236003
*CONN
*P S2END[1] I
*I *1467:A I *D sky130_fd_sc_hd__buf_1
*CAP
1 S2END[1] 0.000474039
2 *1467:A 0.000474039
3 *1467:A *1308:D 1.7386e-05
4 *1467:A *1468:A 0.000574855
5 *1467:A *1470:A 0.000363277
6 *1467:A *479:30 0.000122325
7 *1462:A *1467:A 0.000120655
8 *1466:A *1467:A 0.000213453
*RES
1 S2END[1] *1467:A 19.42 
*END

*D_NET *165 0.00196892
*CONN
*P S2END[2] I
*I *1468:A I *D sky130_fd_sc_hd__buf_1
*CAP
1 S2END[2] 0.000468971
2 *1468:A 0.000468971
3 *1468:A *1470:A 0.00022856
4 *1468:A *423:32 2.14213e-05
5 *1468:A *425:14 0.00014506
6 *1468:A *479:30 4.43886e-05
7 *1435:A *1468:A 1.66925e-05
8 *1466:A *1468:A 0
9 *1467:A *1468:A 0.000574855
*RES
1 S2END[2] *1468:A 14.07 
*END

*D_NET *166 0.00256099
*CONN
*P S2END[3] I
*I *1470:A I *D sky130_fd_sc_hd__buf_1
*CAP
1 S2END[3] 0.000562951
2 *1470:A 0.000562951
3 *1470:A *1308:D 0.00030536
4 *1470:A *1347:A 3.91191e-05
5 *1470:A *1471:A 0.000423817
6 *1470:A *428:22 2.11084e-05
7 *1470:A *459:30 3.82072e-05
8 *1470:A *466:28 1.56428e-05
9 *1467:A *1470:A 0.000363277
10 *1468:A *1470:A 0.00022856
*RES
1 S2END[3] *1470:A 17.1 
*END

*D_NET *167 0.00201783
*CONN
*P S2END[4] I
*I *1471:A I *D sky130_fd_sc_hd__buf_1
*CAP
1 S2END[4] 0.000419615
2 *1471:A 0.000419615
3 *1471:A *1347:A 1.92979e-05
4 *1471:A *1472:A 0.000128906
5 *1471:A *322:42 0.000569602
6 *1471:A *459:30 3.69766e-05
7 *1470:A *1471:A 0.000423817
*RES
1 S2END[4] *1471:A 14.07 
*END

*D_NET *168 0.00314197
*CONN
*P S2END[5] I
*I *1472:A I *D sky130_fd_sc_hd__buf_1
*CAP
1 S2END[5] 0.000470661
2 *1472:A 0.000470661
3 *1472:A *1473:A 0.000209238
4 *1472:A *1474:A 0.000410504
5 *1472:A *1485:A 0.000122325
6 *1472:A *1487:A 0.000410504
7 *1472:A *293:14 7.99093e-05
8 *1472:A *322:42 0.000169473
9 *1472:A *429:22 4.82919e-05
10 *1472:A *446:22 4.66108e-05
11 *1472:A *479:30 0.000418493
12 *1462:A *1472:A 0.00015639
13 *1471:A *1472:A 0.000128906
*RES
1 S2END[5] *1472:A 22.075 
*END

*D_NET *169 0.00249438
*CONN
*P S2END[6] I
*I *1473:A I *D sky130_fd_sc_hd__buf_1
*CAP
1 S2END[6] 0.000543025
2 *1473:A 0.000543025
3 *1473:A *1474:A 0.00010265
4 *1473:A *295:48 9.14766e-05
5 *1473:A *322:42 3.5506e-05
6 *1473:A *420:14 4.91032e-05
7 *1473:A *428:22 0.000165469
8 *1473:A *466:28 0.000561236
9 *1462:A *1473:A 0.000193653
10 *1472:A *1473:A 0.000209238
*RES
1 S2END[6] *1473:A 16.47 
*END

*D_NET *170 0.00291428
*CONN
*P S2END[7] I
*I *1474:A I *D sky130_fd_sc_hd__buf_1
*CAP
1 S2END[7] 0.0005531
2 *1474:A 0.0005531
3 *1474:A *1484:A 0.000671041
4 *1474:A *1485:A 0.000101081
5 *1474:A *1486:A 1.74283e-05
6 *1474:A *1487:A 0.000107422
7 *1474:A *1618:A 3.72952e-05
8 *1474:A *322:42 9.09288e-05
9 *1474:A *367:16 0.00023301
10 *1474:A *436:42 1.90857e-05
11 *1474:A *448:52 1.7635e-05
12 *1472:A *1474:A 0.000410504
13 *1473:A *1474:A 0.00010265
*RES
1 S2END[7] *1474:A 22.195 
*END

*D_NET *171 0.00338512
*CONN
*P S2MID[0] I
*I *1475:A I *D sky130_fd_sc_hd__buf_1
*CAP
1 S2MID[0] 0.0006283
2 *1475:A 0.0006283
3 *1475:A *1349:A 0.000229025
4 *1475:A *1476:A 0.000930472
5 *1475:A *1477:A 1.41165e-05
6 *1475:A *1478:A 0.000550961
7 *1475:A *293:12 0.000132423
8 *1475:A *347:46 7.91073e-05
9 *1475:A *426:26 3.85212e-05
10 NN4BEG[14] *1475:A 9.39388e-06
11 *1465:A *1475:A 0.000144496
*RES
1 S2MID[0] *1475:A 19.575 
*END

*D_NET *172 0.00328328
*CONN
*P S2MID[1] I
*I *1476:A I *D sky130_fd_sc_hd__buf_1
*CAP
1 S2MID[1] 0.000708558
2 *1476:A 0.000708558
3 *1476:A *1349:A 1.19928e-05
4 *1476:A *1477:A 0.000308326
5 *1476:A *1479:A 0.00040916
6 *1476:A *303:51 6.55156e-05
7 *1476:A *426:26 7.41038e-05
8 *1476:A *436:42 8.53113e-06
9 *1476:A *448:52 4.00257e-05
10 *1476:A *454:45 1.80337e-05
11 *1475:A *1476:A 0.000930472
*RES
1 S2MID[1] *1476:A 20.085 
*END

*D_NET *173 0.00299045
*CONN
*P S2MID[2] I
*I *1477:A I *D sky130_fd_sc_hd__buf_1
*CAP
1 S2MID[2] 0.000773454
2 *1477:A 0.000773454
3 *1477:A *1271:A0 2.05571e-05
4 *1477:A *1272:A0 1.9239e-05
5 *1477:A *1346:A 3.29358e-05
6 *1477:A *1349:A 8.95347e-05
7 *1477:A *1478:A 0.000147378
8 *1477:A *1479:A 0.000409097
9 *1477:A *1481:A 0
10 *1477:A *293:12 1.90048e-05
11 *1477:A *303:51 1.69516e-05
12 *1477:A *336:57 2.0851e-06
13 *1477:A *436:42 8.40213e-05
14 *1477:A *448:52 3.86814e-05
15 *1477:A *454:45 1.67297e-05
16 *1477:A *461:30 0
17 *1477:A *481:24 0.000224883
18 *1475:A *1477:A 1.41165e-05
19 *1476:A *1477:A 0.000308326
*RES
1 S2MID[2] *1477:A 20.025 
*END

*D_NET *174 0.00274656
*CONN
*P S2MID[3] I
*I *1478:A I *D sky130_fd_sc_hd__buf_1
*CAP
1 S2MID[3] 0.000454647
2 *1478:A 0.000454647
3 *1478:A *1479:A 0.000147378
4 *1478:A *1584:A 7.22467e-05
5 *1478:A *293:12 6.64532e-05
6 *1478:A *361:14 0.000270415
7 *1478:A *426:26 7.39223e-05
8 *1478:A *466:42 0.000100189
9 NN4BEG[14] *1478:A 0.00022749
10 *1465:A *1478:A 0.000180829
11 *1475:A *1478:A 0.000550961
12 *1477:A *1478:A 0.000147378
*RES
1 S2MID[3] *1478:A 20.9425 
*END

*D_NET *175 0.00254796
*CONN
*P S2MID[4] I
*I *1479:A I *D sky130_fd_sc_hd__buf_1
*CAP
1 S2MID[4] 0.000428557
2 *1479:A 0.000428557
3 *1479:A *1481:A 0.000184135
4 *1479:A *310:40 0.000235936
5 *1479:A *354:26 6.95753e-05
6 *1462:A *1479:A 0.000235568
7 *1476:A *1479:A 0.00040916
8 *1477:A *1479:A 0.000409097
9 *1478:A *1479:A 0.000147378
*RES
1 S2MID[4] *1479:A 19.9 
*END

*D_NET *176 0.00237711
*CONN
*P S2MID[5] I
*I *1481:A I *D sky130_fd_sc_hd__clkbuf_1
*CAP
1 S2MID[5] 0.000611659
2 *1481:A 0.000611659
3 *1481:A *1482:A 0.000207515
4 *1481:A *1569:A 9.10805e-05
5 *1481:A *310:40 0.000111472
6 *1481:A *354:26 6.83447e-05
7 *1481:A *406:26 0.000231735
8 *1481:A *426:26 2.10152e-05
9 *1481:A *440:18 7.75037e-05
10 *1481:A *461:30 4.51682e-05
11 *1481:A *463:28 8.91696e-05
12 *1481:A *463:40 2.6657e-05
13 *1477:A *1481:A 0
14 *1479:A *1481:A 0.000184135
*RES
1 S2MID[5] *1481:A 16.32 
*END

*D_NET *177 0.0021826
*CONN
*P S2MID[6] I
*I *1482:A I *D sky130_fd_sc_hd__clkbuf_1
*CAP
1 S2MID[6] 0.000445283
2 *1482:A 0.000445283
3 *1482:A *1274:A0 0.000149187
4 *1482:A *1347:A 1.79536e-05
5 *1482:A *1483:A 0.000322921
6 *1482:A *1569:A 8.91779e-05
7 *1482:A *310:40 0.000110184
8 *1482:A *406:26 5.06382e-06
9 *1482:A *426:26 0.000122435
10 *1482:A *440:18 0.000128011
11 *1482:A *463:28 0.000125719
12 *1482:A *463:40 1.38676e-05
13 *1481:A *1482:A 0.000207515
*RES
1 S2MID[6] *1482:A 14.76 
*END

*D_NET *178 0.00189096
*CONN
*P S2MID[7] I
*I *1483:A I *D sky130_fd_sc_hd__clkbuf_1
*CAP
1 S2MID[7] 0.000404985
2 *1483:A 0.000404985
3 *1483:A *1274:A0 0.000143356
4 *1483:A *1347:A 1.92979e-05
5 *1483:A *391:38 0.000364396
6 *1466:A *1483:A 0.000231025
7 *1482:A *1483:A 0.000322921
*RES
1 S2MID[7] *1483:A 13.62 
*END

*D_NET *179 0.00286518
*CONN
*P S4END[0] I
*I *1484:A I *D sky130_fd_sc_hd__buf_1
*CAP
1 S4END[0] 0.000771828
2 *1484:A 0.000771828
3 *1484:A *1308:D 8.23457e-05
4 *1484:A *1485:A 0.000200392
5 *1484:A *1486:A 6.40281e-05
6 *1484:A *1575:A 5.13611e-05
7 *1484:A *430:28 0.00017074
8 *1484:A *466:28 5.26874e-05
9 *1462:A *1484:A 2.89319e-05
10 *1474:A *1484:A 0.000671041
*RES
1 S4END[0] *1484:A 22.06 
*END

*D_NET *180 0.00430233
*CONN
*P S4END[10] I
*I *1402:A I *D sky130_fd_sc_hd__buf_1
*CAP
1 S4END[10] 0.000759004
2 *1402:A 0.000759004
3 *1402:A *1401:A 0.00108093
4 *1402:A *1403:A 0.000113721
5 *1402:A *1505:A 2.75145e-05
6 *1402:A *1506:A 0.000601781
7 *1402:A *261:36 9.08029e-05
8 *1402:A *322:42 4.95182e-05
9 *1402:A *354:26 0.000288698
10 *1402:A *367:16 4.21579e-05
11 *1402:A *405:10 7.39166e-05
12 *1402:A *445:24 4.1527e-05
13 *1402:A *461:30 0.00031702
14 *1402:A *462:14 1.01276e-05
15 *1435:A *1402:A 4.66108e-05
*RES
1 S4END[10] *1402:A 29.2 
*END

*D_NET *181 0.0043415
*CONN
*P S4END[11] I
*I *1401:A I *D sky130_fd_sc_hd__buf_1
*CAP
1 S4END[11] 0.000821528
2 *1401:A 0.000821528
3 *1401:A *1400:A 9.62901e-05
4 *1401:A *1504:A 0.000638583
5 *1401:A *1506:A 5.06382e-06
6 *1401:A *1573:A 1.02164e-05
7 *1401:A *367:16 0.000119866
8 *1401:A *405:10 4.66474e-05
9 *1401:A *445:24 0.000158072
10 *1401:A *460:76 0.000164402
11 *1401:A *461:30 0.00031702
12 *1402:A *1401:A 0.00108093
13 *1435:A *1401:A 6.1357e-05
*RES
1 S4END[11] *1401:A 28.78 
*END

*D_NET *182 0.00630036
*CONN
*P S4END[12] I
*I *1400:A I *D sky130_fd_sc_hd__buf_1
*CAP
1 S4END[12] 0.00121036
2 *1400:A 0.00121036
3 *1400:A *1259:S1 0.000120548
4 *1400:A *1269:A0 0.000110555
5 *1400:A *1398:A 4.66108e-05
6 *1400:A *1399:A 8.39633e-05
7 *1400:A *1494:A 0
8 *1400:A *1496:A 5.98468e-05
9 *1400:A *1497:A 1.88602e-05
10 *1400:A *1498:A 0
11 *1400:A *1505:A 0.000120976
12 *1400:A *1533:A 0.000148957
13 *1400:A *1557:A 0.00126293
14 *1400:A *1569:A 4.82919e-05
15 *1400:A *1609:A 0.000695593
16 *1400:A *322:42 2.61944e-05
17 *1400:A *333:22 0.000101245
18 *1400:A *367:12 0.000240961
19 *1400:A *425:49 0.000419272
20 *1400:A *452:32 1.6383e-05
21 *1400:A *464:10 9.6656e-05
22 *1400:A *464:26 4.97842e-05
23 *1400:A *466:28 2.5424e-05
24 *1400:A *467:10 9.02937e-05
25 *1401:A *1400:A 9.62901e-05
*RES
1 S4END[12] *1400:A 23.5108 
*END

*D_NET *183 0.00495073
*CONN
*P S4END[13] I
*I *1399:A I *D sky130_fd_sc_hd__buf_1
*CAP
1 S4END[13] 0.000676316
2 *1399:A 0.000676316
3 *1399:A *1398:A 0.000211514
4 *1399:A *1404:A 8.53307e-05
5 *1399:A *1508:A 0.00065527
6 *1399:A *1509:A 0.000585484
7 *1399:A *1533:A 3.83194e-05
8 *1399:A *1569:A 4.22697e-05
9 *1399:A *1570:A 2.44872e-05
10 *1399:A *367:12 0.000330303
11 *1399:A *440:18 0.000349763
12 *1399:A *453:20 0.000170818
13 *1399:A *453:24 0.000784466
14 *1399:A *461:30 7.85634e-05
15 *1399:A *463:28 0.000157551
16 *1400:A *1399:A 8.39633e-05
*RES
1 S4END[13] *1399:A 29.545 
*END

*D_NET *184 0.00647283
*CONN
*P S4END[14] I
*I *1398:A I *D sky130_fd_sc_hd__buf_1
*CAP
1 S4END[14] 0.00124706
2 *1398:A 0.00124706
3 *1398:A *1263:A2 0.000263595
4 *1398:A *1301:D 3.21081e-06
5 *1398:A *1337:A 0.000138818
6 *1398:A *1338:A 6.03468e-05
7 *1398:A *1397:A 0.000177833
8 *1398:A *1404:A 0.000262444
9 *1398:A *1493:A 0
10 *1398:A *1569:A 0.000102013
11 *1398:A *1619:A 0.000899845
12 *1398:A *333:22 0.000476821
13 *1398:A *429:22 7.62511e-05
14 *1398:A *445:32 1.7635e-05
15 *1398:A *456:36 5.64743e-05
16 *1398:A *463:28 0.000118862
17 *1398:A *466:28 1.88904e-05
18 *1398:A *473:14 0.000100702
19 *1398:A *474:18 5.01863e-05
20 *1398:A *484:48 0.000896655
21 *1399:A *1398:A 0.000211514
22 *1400:A *1398:A 4.66108e-05
*RES
1 S4END[14] *1398:A 25.7164 
*END

*D_NET *185 0.00681801
*CONN
*P S4END[15] I
*I *1397:A I *D sky130_fd_sc_hd__buf_1
*CAP
1 S4END[15] 0.00115718
2 *1397:A 0.00115718
3 *1397:A UserCLKo 0.000268208
4 *1397:A *1261:A2 7.9642e-06
5 *1397:A *1269:S1 0.00013513
6 *1397:A *1386:A 2.52718e-05
7 *1397:A *1493:A 0.000176155
8 *1397:A *1537:A 0
9 *1397:A *1618:A 8.4476e-05
10 *1397:A *269:36 2.2684e-05
11 *1397:A *293:14 3.83194e-05
12 *1397:A *310:50 0.00130545
13 *1397:A *361:14 0.000772892
14 *1397:A *460:76 6.36438e-07
15 *1397:A *484:48 0.000266538
16 FrameStrobe_O[0] *1397:A 0.000612648
17 FrameStrobe_O[1] *1397:A 0.000478097
18 FrameStrobe_O[2] *1397:A 0.00013134
19 *1398:A *1397:A 0.000177833
*RES
1 S4END[15] *1397:A 40.6 
*END

*D_NET *186 0.00318977
*CONN
*P S4END[1] I
*I *1485:A I *D sky130_fd_sc_hd__clkbuf_1
*CAP
1 S4END[1] 0.000667202
2 *1485:A 0.000667202
3 *1485:A *1486:A 0.000288093
4 *1485:A *1488:A 0.000328989
5 *1485:A *1489:A 0.000465982
6 *1485:A *1575:A 5.69248e-06
7 *1485:A *293:14 0.00026617
8 *1485:A *442:30 0
9 *1485:A *479:30 7.66388e-05
10 *1472:A *1485:A 0.000122325
11 *1474:A *1485:A 0.000101081
12 *1484:A *1485:A 0.000200392
*RES
1 S4END[1] *1485:A 24.205 
*END

*D_NET *187 0.0032668
*CONN
*P S4END[2] I
*I *1486:A I *D sky130_fd_sc_hd__buf_1
*CAP
1 S4END[2] 0.000689075
2 *1486:A 0.000689075
3 *1486:A *1487:A 0.000755462
4 *1486:A *1488:A 0.000572245
5 *1486:A *1575:A 1.03572e-05
6 *1486:A *367:16 0.000122325
7 *1486:A *436:42 3.98456e-05
8 *1486:A *444:42 1.88656e-05
9 *1474:A *1486:A 1.74283e-05
10 *1484:A *1486:A 6.40281e-05
11 *1485:A *1486:A 0.000288093
*RES
1 S4END[2] *1486:A 24.235 
*END

*D_NET *188 0.00219639
*CONN
*P S4END[3] I
*I *1487:A I *D sky130_fd_sc_hd__dlymetal6s2s_1
*CAP
1 S4END[3] 0.000375222
2 *1487:A 0.000375222
3 *1487:A *1488:A 7.76657e-05
4 *1487:A *429:22 4.82863e-05
5 *1487:A *446:22 4.66108e-05
6 *1472:A *1487:A 0.000410504
7 *1474:A *1487:A 0.000107422
8 *1486:A *1487:A 0.000755462
*RES
1 S4END[3] *1487:A 14.07 
*END

*D_NET *189 0.00354213
*CONN
*P S4END[4] I
*I *1488:A I *D sky130_fd_sc_hd__buf_1
*CAP
1 S4END[4] 0.000714895
2 *1488:A 0.000714895
3 *1488:A *1308:D 5.8678e-05
4 *1488:A *1403:A 1.01574e-05
5 *1488:A *1489:A 0.000196417
6 *1488:A *1575:A 8.68767e-06
7 *1488:A *295:48 0.000138798
8 *1488:A *442:30 0.000169623
9 *1488:A *445:24 8.64421e-05
10 *1488:A *448:52 3.74448e-05
11 *1488:A *459:30 0.00029854
12 *1488:A *460:34 0.000128654
13 *1485:A *1488:A 0.000328989
14 *1486:A *1488:A 0.000572245
15 *1487:A *1488:A 7.76657e-05
*RES
1 S4END[4] *1488:A 23.68 
*END

*D_NET *190 0.00369699
*CONN
*P S4END[5] I
*I *1489:A I *D sky130_fd_sc_hd__buf_1
*CAP
1 S4END[5] 0.000714343
2 *1489:A 0.000714343
3 *1489:A *1308:D 0.000195211
4 *1489:A *1490:A 0.000309766
5 *1489:A *343:28 1.35115e-05
6 *1489:A *429:22 0.000415591
7 *1489:A *445:24 5.23262e-05
8 *1489:A *449:12 7.9642e-06
9 *1489:A *460:34 0.000155601
10 *1489:A *468:22 6.57705e-05
11 *1435:A *1489:A 0.000390161
12 *1485:A *1489:A 0.000465982
13 *1488:A *1489:A 0.000196417
*RES
1 S4END[5] *1489:A 25.825 
*END

*D_NET *191 0.00305626
*CONN
*P S4END[6] I
*I *1490:A I *D sky130_fd_sc_hd__clkbuf_1
*CAP
1 S4END[6] 0.000700357
2 *1490:A 0.000700357
3 *1490:A *1403:A 0.000138582
4 *1490:A *1492:A 0.000169924
5 *1490:A *1557:A 0.000324874
6 *1490:A *1609:A 0.000170387
7 *1490:A *294:32 3.82018e-05
8 *1490:A *322:42 2.74988e-05
9 *1490:A *333:22 6.54048e-05
10 *1490:A *343:28 5.99498e-05
11 *1490:A *367:12 0
12 *1490:A *449:12 1.90818e-05
13 *1490:A *450:16 0.00024795
14 *1490:A *468:22 6.87336e-05
15 *1435:A *1490:A 1.51915e-05
16 *1489:A *1490:A 0.000309766
*RES
1 S4END[6] *1490:A 17.5241 
*END

*D_NET *192 0.00222572
*CONN
*P S4END[7] I
*I *1492:A I *D sky130_fd_sc_hd__dlymetal6s2s_1
*CAP
1 S4END[7] 0.000489816
2 *1492:A 0.000489816
3 *1492:A *1403:A 0
4 *1492:A *1404:A 0.000206072
5 *1492:A *295:48 1.07563e-05
6 *1492:A *343:28 0.000377761
7 *1492:A *429:22 0.000118081
8 *1492:A *442:30 0.000225317
9 *1435:A *1492:A 0.000138174
10 *1490:A *1492:A 0.000169924
*RES
1 S4END[7] *1492:A 14.76 
*END

*D_NET *193 0.00419288
*CONN
*P S4END[8] I
*I *1404:A I *D sky130_fd_sc_hd__buf_1
*CAP
1 S4END[8] 0.000728695
2 *1404:A 0.000728695
3 *1404:A *1254:A1 0.000513155
4 *1404:A *1265:A0 0.000192125
5 *1404:A *1337:A 0.000118081
6 *1404:A *1403:A 0.000212769
7 *1404:A *293:14 0.000230048
8 *1404:A *333:22 0.000436507
9 *1404:A *367:12 6.46125e-05
10 *1404:A *479:30 0.00041435
11 *1398:A *1404:A 0.000262444
12 *1399:A *1404:A 8.53307e-05
13 *1492:A *1404:A 0.000206072
*RES
1 S4END[8] *1404:A 27.535 
*END

*D_NET *194 0.00333977
*CONN
*P S4END[9] I
*I *1403:A I *D sky130_fd_sc_hd__buf_1
*CAP
1 S4END[9] 0.000683997
2 *1403:A 0.000683997
3 *1403:A *1265:A0 0.000268138
4 *1403:A *1269:S0 4.88555e-05
5 *1403:A *1575:A 0.000222072
6 *1403:A *295:48 0.000296304
7 *1403:A *322:42 0
8 *1403:A *447:10 1.88889e-05
9 *1403:A *450:16 0.000249175
10 *1403:A *460:34 0.000182734
11 *1403:A *468:22 0.000210378
12 *1402:A *1403:A 0.000113721
13 *1404:A *1403:A 0.000212769
14 *1488:A *1403:A 1.01574e-05
15 *1490:A *1403:A 0.000138582
16 *1492:A *1403:A 0
*RES
1 S4END[9] *1403:A 20.22 
*END

*D_NET *195 0.00186756
*CONN
*P SS4END[0] I
*I *1493:A I *D sky130_fd_sc_hd__buf_1
*CAP
1 SS4END[0] 0.000497733
2 *1493:A 0.000497733
3 *1493:A *1500:A 0.0002425
4 *1493:A *1501:A 2.46779e-05
5 *1493:A *1509:A 2.72194e-05
6 *1493:A *1572:A 0.000217232
7 *1493:A *456:36 0.000108669
8 *1493:A *463:28 7.56409e-05
9 *1397:A *1493:A 0.000176155
10 *1398:A *1493:A 0
*RES
1 SS4END[0] *1493:A 14.175 
*END

*D_NET *196 0.00422003
*CONN
*P SS4END[10] I
*I *1494:A I *D sky130_fd_sc_hd__buf_1
*CAP
1 SS4END[10] 0.000983579
2 *1494:A 0.000983579
3 *1494:A *1495:A 0.000134001
4 *1494:A *1496:A 1.70437e-05
5 *1494:A *1505:A 0.00013665
6 *1494:A *1506:A 5.8997e-05
7 *1494:A *1507:A 1.12578e-05
8 *1494:A *1509:A 0.000108106
9 *1494:A *1533:A 0.00034754
10 *1494:A *1569:A 0.000529157
11 *1494:A *452:22 2.49909e-05
12 *1494:A *466:28 0.000238396
13 FrameStrobe_O[1] *1494:A 0.000431925
14 FrameStrobe_O[3] *1494:A 0.000189816
15 FrameStrobe_O[5] *1494:A 1.91597e-05
16 FrameStrobe_O[7] *1494:A 5.83121e-06
17 *1400:A *1494:A 0
*RES
1 SS4END[10] *1494:A 25.395 
*END

*D_NET *197 0.00444303
*CONN
*P SS4END[11] I
*I *1495:A I *D sky130_fd_sc_hd__buf_1
*CAP
1 SS4END[11] 0.000926288
2 *1495:A 0.000926288
3 *1495:A *1496:A 0.000132357
4 *1495:A *1505:A 7.20129e-05
5 *1495:A *1514:A 0
6 *1495:A *1534:A 7.9642e-06
7 *1495:A *1535:A 0.000154353
8 *1495:A *1539:A 0
9 *1495:A *354:26 0.000192417
10 *1495:A *361:14 0.000219389
11 *1495:A *452:22 0.000157549
12 *1495:A *453:20 3.10438e-05
13 *1495:A *456:36 5.63792e-05
14 *1495:A *467:65 4.66108e-05
15 FrameStrobe_O[4] *1495:A 1.26888e-05
16 FrameStrobe_O[6] *1495:A 0.000798537
17 FrameStrobe_O[7] *1495:A 0.000575148
18 *1494:A *1495:A 0.000134001
*RES
1 SS4END[11] *1495:A 31.54 
*END

*D_NET *198 0.00544953
*CONN
*P SS4END[12] I
*I *1496:A I *D sky130_fd_sc_hd__buf_1
*CAP
1 SS4END[12] 0.0011765
2 *1496:A 0.0011765
3 *1496:A *1259:S1 2.78929e-05
4 *1496:A *1497:A 0.00170284
5 *1496:A *1514:A 0.000234165
6 *1496:A *1533:A 7.9642e-06
7 *1496:A *294:38 0.000132997
8 *1496:A *456:36 0.000158716
9 *1496:A *467:65 0.000341589
10 *1496:A *479:38 2.54522e-05
11 FrameStrobe_O[11] *1496:A 0.000246279
12 FrameStrobe_O[13] *1496:A 9.387e-06
13 *1400:A *1496:A 5.98468e-05
14 *1494:A *1496:A 1.70437e-05
15 *1495:A *1496:A 0.000132357
*RES
1 SS4END[12] *1496:A 37.405 
*END

*D_NET *199 0.00576779
*CONN
*P SS4END[13] I
*I *1497:A I *D sky130_fd_sc_hd__buf_1
*CAP
1 SS4END[13] 0.000850775
2 *1497:A 0.000850775
3 *1497:A *1259:S1 9.35688e-05
4 *1497:A *1498:A 9.16982e-05
5 *1497:A *1505:A 0.000254704
6 *1497:A *1514:A 8.73147e-06
7 *1497:A *1540:A 0.000153754
8 *1497:A *1541:A 1.8722e-05
9 *1497:A *467:65 2.05056e-05
10 *1497:A *479:38 0.00125235
11 FrameStrobe_O[13] *1497:A 0.000399468
12 FrameStrobe_O[14] *1497:A 5.10367e-05
13 *1400:A *1497:A 1.88602e-05
14 *1496:A *1497:A 0.00170284
*RES
1 SS4END[13] *1497:A 35.23 
*END

*D_NET *200 0.00535118
*CONN
*P SS4END[14] I
*I *1498:A I *D sky130_fd_sc_hd__buf_1
*CAP
1 SS4END[14] 0.00124646
2 *1498:A 0.00124646
3 *1498:A UserCLKo 1.0221e-05
4 *1498:A *1259:S1 1.7635e-05
5 *1498:A *1263:A2 0.00015235
6 *1498:A *1301:GATE 0.000109551
7 *1498:A *1499:A 0.000685571
8 *1498:A *1505:A 0.000619759
9 *1498:A *1534:A 0.000113373
10 *1498:A *1624:A 0.000673983
11 *1498:A *354:18 0.000144587
12 *1498:A *425:49 6.16166e-05
13 *1498:A *452:32 4.82003e-05
14 *1498:A *455:18 0.000110862
15 *1498:A *484:48 1.88602e-05
16 *1400:A *1498:A 0
17 *1497:A *1498:A 9.16982e-05
*RES
1 SS4END[14] *1498:A 33.52 
*END

*D_NET *201 0.00318805
*CONN
*P SS4END[15] I
*I *1499:A I *D sky130_fd_sc_hd__dlymetal6s2s_1
*CAP
1 SS4END[15] 0.000470872
2 *1499:A 0.000470872
3 *1499:A UserCLKo 0.000151154
4 *1499:A *1522:A 8.49205e-05
5 *1499:A *310:50 4.66108e-05
6 *1499:A *354:18 0.00073693
7 *1499:A *451:64 0.000374596
8 *1499:A *453:20 0.000118237
9 *1499:A *456:36 4.82919e-05
10 *1498:A *1499:A 0.000685571
*RES
1 SS4END[15] *1499:A 19.215 
*END

*D_NET *202 0.00212565
*CONN
*P SS4END[1] I
*I *1500:A I *D sky130_fd_sc_hd__buf_1
*CAP
1 SS4END[1] 0.000492821
2 *1500:A 0.000492821
3 *1500:A *1501:A 0.000492512
4 *1500:A *1509:A 0.000314912
5 *1500:A *459:30 6.95739e-05
6 *1500:A *460:76 2.05056e-05
7 *1493:A *1500:A 0.0002425
*RES
1 SS4END[1] *1500:A 15.315 
*END

*D_NET *203 0.00241146
*CONN
*P SS4END[2] I
*I *1501:A I *D sky130_fd_sc_hd__buf_1
*CAP
1 SS4END[2] 0.000534816
2 *1501:A 0.000534816
3 *1501:A *1503:A 0.000309907
4 *1501:A *1509:A 5.69898e-06
5 *1501:A *1573:A 0.000202076
6 *1501:A *442:30 4.10092e-05
7 *1501:A *459:30 6.95739e-05
8 *1501:A *460:76 0.00019637
9 *1493:A *1501:A 2.46779e-05
10 *1500:A *1501:A 0.000492512
*RES
1 SS4END[2] *1501:A 16.62 
*END

*D_NET *204 0.00197582
*CONN
*P SS4END[3] I
*I *1503:A I *D sky130_fd_sc_hd__dlymetal6s2s_1
*CAP
1 SS4END[3] 0.000414344
2 *1503:A 0.000414344
3 *1503:A *1504:A 0.000615808
4 *1503:A *1573:A 0.000182734
5 *1503:A *442:30 3.86814e-05
6 *1501:A *1503:A 0.000309907
*RES
1 SS4END[3] *1503:A 14.175 
*END

*D_NET *205 0.00268305
*CONN
*P SS4END[4] I
*I *1504:A I *D sky130_fd_sc_hd__clkbuf_1
*CAP
1 SS4END[4] 0.000508014
2 *1504:A 0.000508014
3 *1504:A *1505:A 9.80041e-05
4 *1504:A *1506:A 0.000190712
5 *1504:A *1507:A 0.000118081
6 *1504:A *460:76 5.83121e-06
7 *1401:A *1504:A 0.000638583
8 *1503:A *1504:A 0.000615808
*RES
1 SS4END[4] *1504:A 16.83 
*END

*D_NET *206 0.00348443
*CONN
*P SS4END[5] I
*I *1505:A I *D sky130_fd_sc_hd__dlymetal6s2s_1
*CAP
1 SS4END[5] 0.00085797
2 *1505:A 0.00085797
3 *1505:A *1506:A 9.61369e-05
4 *1505:A *354:26 4.20603e-05
5 *1505:A *425:49 0.00021575
6 *1505:A *466:28 8.49205e-05
7 *1400:A *1505:A 0.000120976
8 *1402:A *1505:A 2.75145e-05
9 *1494:A *1505:A 0.00013665
10 *1495:A *1505:A 7.20129e-05
11 *1497:A *1505:A 0.000254704
12 *1498:A *1505:A 0.000619759
13 *1504:A *1505:A 9.80041e-05
*RES
1 SS4END[5] *1505:A 27.16 
*END

*D_NET *207 0.00270509
*CONN
*P SS4END[6] I
*I *1506:A I *D sky130_fd_sc_hd__buf_1
*CAP
1 SS4END[6] 0.000564793
2 *1506:A 0.000564793
3 *1506:A *1507:A 0.000408834
4 *1506:A *261:36 0.000213982
5 *1401:A *1506:A 5.06382e-06
6 *1402:A *1506:A 0.000601781
7 *1494:A *1506:A 5.8997e-05
8 *1504:A *1506:A 0.000190712
9 *1505:A *1506:A 9.61369e-05
*RES
1 SS4END[6] *1506:A 17.28 
*END

*D_NET *208 0.0027852
*CONN
*P SS4END[7] I
*I *1507:A I *D sky130_fd_sc_hd__dlymetal6s2s_1
*CAP
1 SS4END[7] 0.000538572
2 *1507:A 0.000538572
3 *1507:A *1508:A 0.000244476
4 *1507:A *261:36 0.00025266
5 *1507:A *453:20 0.000377739
6 *1507:A *462:14 0.00010163
7 *1507:A *464:10 7.10578e-05
8 *1507:A *466:28 0.000122325
9 *1494:A *1507:A 1.12578e-05
10 *1504:A *1507:A 0.000118081
11 *1506:A *1507:A 0.000408834
*RES
1 SS4END[7] *1507:A 18.12 
*END

*D_NET *209 0.00286118
*CONN
*P SS4END[8] I
*I *1508:A I *D sky130_fd_sc_hd__buf_1
*CAP
1 SS4END[8] 0.000505467
2 *1508:A 0.000505467
3 *1508:A *1509:A 0.000255488
4 *1508:A *451:64 0.000131069
5 *1508:A *453:20 0.000563942
6 *1399:A *1508:A 0.00065527
7 *1507:A *1508:A 0.000244476
*RES
1 SS4END[8] *1508:A 18.195 
*END

*D_NET *210 0.00386632
*CONN
*P SS4END[9] I
*I *1509:A I *D sky130_fd_sc_hd__buf_1
*CAP
1 SS4END[9] 0.000637477
2 *1509:A 0.000637477
3 *1509:A *1265:A2 8.73147e-06
4 *1509:A *1533:A 1.19928e-05
5 *1509:A *1569:A 0.000326119
6 *1509:A *1572:A 0.000486026
7 *1509:A *294:38 0.000159688
8 *1509:A *461:30 0.000301905
9 *1399:A *1509:A 0.000585484
10 *1493:A *1509:A 2.72194e-05
11 *1494:A *1509:A 0.000108106
12 *1500:A *1509:A 0.000314912
13 *1501:A *1509:A 5.69898e-06
14 *1508:A *1509:A 0.000255488
*RES
1 SS4END[9] *1509:A 25.645 
*END

*D_NET *211 0.0140189
*CONN
*P UserCLK I
*I *1429:A I *D sky130_fd_sc_hd__buf_2
*CAP
1 UserCLK 0.000488428
2 *1429:A 0.00030661
3 *211:9 0.00379077
4 *211:7 0.00397258
5 *1429:A *1271:A1 2.85364e-05
6 *1429:A *1315:D 5.06382e-06
7 *1429:A *364:10 0.000312097
8 *1429:A *464:42 3.33402e-05
9 *211:9 *1585:A 0.000424429
10 *211:9 *307:30 0.000156708
11 *211:9 *393:24 0.000560174
12 *1368:A *1429:A 0
13 *79:11 *211:9 0.00394012
*RES
1 UserCLK *211:7 9.725 
2 *211:7 *211:9 48.405 
3 *211:9 *1429:A 11.06 
*END

*D_NET *212 0.00479169
*CONN
*P UserCLKo O
*I *1594:X O *D sky130_fd_sc_hd__buf_1
*CAP
1 UserCLKo 0.000742588
2 *1594:X 0.000742588
3 UserCLKo *1261:A2 0.000279582
4 UserCLKo *1261:S0 0.000304474
5 UserCLKo *1269:S1 5.06382e-06
6 UserCLKo *1301:D 5.70071e-05
7 UserCLKo *1301:GATE 1.1071e-05
8 UserCLKo *1618:A 1.88958e-05
9 UserCLKo *310:50 0.000678014
10 UserCLKo *354:18 0.00105816
11 UserCLKo *457:14 8.41307e-05
12 UserCLKo *460:76 9.46355e-05
13 UserCLKo *484:48 9.45861e-05
14 FrameStrobe_O[0] UserCLKo 0.000191311
15 *1397:A UserCLKo 0.000268208
16 *1498:A UserCLKo 1.0221e-05
17 *1499:A UserCLKo 0.000151154
*RES
1 *1594:X UserCLKo 26.235 
*END

*D_NET *213 0.00270489
*CONN
*P VALUE_top0 O
*I *1595:X O *D sky130_fd_sc_hd__buf_2
*CAP
1 VALUE_top0 0.000683001
2 *1595:X 0.000683001
3 VALUE_top0 *1595:A 0
4 VALUE_top0 *414:10 0
5 VALUE_top0 *418:22 0
6 *1436:A VALUE_top0 0.000446363
7 *1439:A VALUE_top0 0.000497032
8 *1447:A VALUE_top0 1.00941e-05
9 *1454:A VALUE_top0 9.51334e-05
10 *1459:A VALUE_top0 0.000127062
11 *1461:A VALUE_top0 0.000163204
*RES
1 *1595:X VALUE_top0 19.695 
*END

*D_NET *214 0.00188073
*CONN
*P VALUE_top1 O
*I *1596:X O *D sky130_fd_sc_hd__buf_2
*CAP
1 VALUE_top1 0.000888554
2 *1596:X 0.000888554
3 VALUE_top1 *1595:A 0
4 VALUE_top1 *415:16 8.58558e-05
5 *1436:A VALUE_top1 1.77665e-05
*RES
1 *1596:X VALUE_top1 16.335 
*END

*D_NET *215 0.00155128
*CONN
*P VALUE_top2 O
*I *1597:X O *D sky130_fd_sc_hd__buf_2
*CAP
1 VALUE_top2 0.000674884
2 *1597:X 0.000674884
3 VALUE_top2 *314:12 0
4 VALUE_top2 *415:16 0.000201508
*RES
1 *1597:X VALUE_top2 14.475 
*END

*D_NET *216 0.00121173
*CONN
*P VALUE_top3 O
*I *1598:X O *D sky130_fd_sc_hd__buf_2
*CAP
1 VALUE_top3 0.000562569
2 *1598:X 0.000562569
3 VALUE_top3 *393:24 0
4 VALUE_top3 *415:16 8.65961e-05
5 VALUE_top3 *419:12 0
*RES
1 *1598:X VALUE_top3 12.885 
*END

*D_NET *217 0.00121633
*CONN
*P VALUE_top4 O
*I *1599:X O *D sky130_fd_sc_hd__buf_2
*CAP
1 VALUE_top4 0.000564869
2 *1599:X 0.000564869
3 VALUE_top4 *1599:A 0
4 VALUE_top4 *415:16 8.65961e-05
*RES
1 *1599:X VALUE_top4 12.885 
*END

*D_NET *218 0.00122224
*CONN
*P VALUE_top5 O
*I *1600:X O *D sky130_fd_sc_hd__buf_2
*CAP
1 VALUE_top5 0.000567822
2 *1600:X 0.000567822
3 VALUE_top5 *1551:A 0
4 VALUE_top5 *1599:A 0
5 VALUE_top5 *353:24 0
6 VALUE_top5 *415:16 8.65961e-05
*RES
1 *1600:X VALUE_top5 12.885 
*END

*D_NET *219 0.00124444
*CONN
*P VALUE_top6 O
*I *1601:X O *D sky130_fd_sc_hd__buf_2
*CAP
1 VALUE_top6 0.00057918
2 *1601:X 0.00057918
3 VALUE_top6 *1551:A 0
4 VALUE_top6 *1601:A 0
5 VALUE_top6 *415:16 8.60799e-05
*RES
1 *1601:X VALUE_top6 12.885 
*END

*D_NET *220 0.00129256
*CONN
*P VALUE_top7 O
*I *1602:X O *D sky130_fd_sc_hd__buf_2
*CAP
1 VALUE_top7 0.000603745
2 *1602:X 0.000603745
3 VALUE_top7 *415:16 8.50664e-05
*RES
1 *1602:X VALUE_top7 12.885 
*END

*D_NET *223 0.00488766
*CONN
*I *1265:S1 I *D sky130_fd_sc_hd__mux4_1
*I *1293:Q O *D sky130_fd_sc_hd__dlxtp_1
*CAP
1 *1265:S1 0.00133327
2 *1293:Q 0.00133327
3 *1265:S1 *1256:A2 1.79877e-05
4 *1265:S1 *1258:A2 2.70428e-05
5 *1265:S1 *1258:A3 9.87636e-06
6 *1265:S1 *1258:S0 4.30051e-05
7 *1265:S1 *1258:S1 3.7418e-05
8 *1265:S1 *1265:S0 7.48954e-05
9 *1265:S1 *1271:A1 0
10 *1265:S1 *1273:A0 2.64352e-05
11 *1265:S1 *1312:GATE 0.000127985
12 *1265:S1 *1414:A 9.04636e-05
13 *1265:S1 *269:36 0.00061062
14 *1265:S1 *276:40 4.16433e-05
15 *1265:S1 *405:10 0.000187962
16 *1265:S1 *445:42 0.000471306
17 *1265:S1 *451:16 0.000412652
18 *1265:S1 *464:42 3.91596e-05
19 *1368:A *1265:S1 2.65814e-06
*RES
1 *1293:Q *1265:S1 34.57 
*END

*D_NET *224 0.0037521
*CONN
*I *1265:S0 I *D sky130_fd_sc_hd__mux4_1
*I *1294:Q O *D sky130_fd_sc_hd__dlxtp_1
*CAP
1 *1265:S0 0.000796765
2 *1294:Q 0.000796765
3 *1265:S0 *1254:S0 8.76904e-05
4 *1265:S0 *1258:S1 0.000266234
5 *1265:S0 *1271:A1 1.61831e-05
6 *1265:S0 *1273:A0 8.53051e-05
7 *1265:S0 *1306:D 0.000140061
8 *1265:S0 *1420:A 0.000641884
9 *1265:S0 *1594:A 0.000121437
10 *1265:S0 *1611:A 0.000433996
11 *1265:S0 *276:40 2.04648e-05
12 *1265:S0 *464:26 0.000270415
13 *1265:S1 *1265:S0 7.48954e-05
*RES
1 *1294:Q *1265:S0 25.065 
*END

*D_NET *225 0.00312495
*CONN
*I *1260:S0 I *D sky130_fd_sc_hd__mux4_1
*I *1303:Q O *D sky130_fd_sc_hd__dlxtp_1
*CAP
1 *1260:S0 0.000740722
2 *1303:Q 0.000740722
3 *1260:S0 *1260:A2 2.05864e-05
4 *1260:S0 *1260:S1 1.16527e-05
5 *1260:S0 *1268:S0 0.000394009
6 *1260:S0 *1288:D 0
7 *1260:S0 *1288:GATE 5.42534e-05
8 *1260:S0 *1327:A 8.46299e-05
9 *1260:S0 *1328:A 5.9168e-05
10 *1260:S0 *1342:A 0.000301299
11 *1260:S0 *1580:A 0.000248667
12 *1260:S0 *1616:A 0.000250206
13 *1260:S0 *300:10 6.84448e-05
14 *1260:S0 *403:86 4.77719e-05
15 *1260:S0 *426:26 8.51859e-05
16 *1260:S0 *476:41 1.7635e-05
*RES
1 *1303:Q *1260:S0 22.725 
*END

*D_NET *226 0.00336918
*CONN
*I *1260:S1 I *D sky130_fd_sc_hd__mux4_1
*I *1304:Q O *D sky130_fd_sc_hd__dlxtp_1
*CAP
1 *1260:S1 0.000956283
2 *1304:Q 0.000956283
3 *1260:S1 *1252:S1 0.000130731
4 *1260:S1 *1280:D 0.00023453
5 *1260:S1 *1304:GATE 5.53458e-05
6 *1260:S1 *1319:D 3.21081e-06
7 *1260:S1 *1335:A 6.5172e-05
8 *1260:S1 *1355:A 0.000382781
9 *1260:S1 *292:43 1.88656e-05
10 *1260:S1 *303:51 0.000125384
11 *1260:S1 *400:61 0.000278403
12 *1260:S1 *426:26 5.75547e-05
13 *1260:S1 *435:18 9.29869e-05
14 *1260:S0 *1260:S1 1.16527e-05
*RES
1 *1304:Q *1260:S1 24.15 
*END

*D_NET *227 0.00661539
*CONN
*I *1259:S0 I *D sky130_fd_sc_hd__mux4_1
*I *1305:Q O *D sky130_fd_sc_hd__dlxtp_1
*CAP
1 *1259:S0 0.00119963
2 *1305:Q 0.00119963
3 *1259:S0 *1254:S0 0.000594106
4 *1259:S0 *1254:S1 5.21706e-05
5 *1259:S0 *1316:GATE 0.000208806
6 *1259:S0 *1394:A 0.00029985
7 *1259:S0 *1396:A 0.000292308
8 *1259:S0 *1518:A 0.000672117
9 *1259:S0 *1531:A 0.000607932
10 *1259:S0 *1537:A 0.000111485
11 *1259:S0 *1604:A 0.000691126
12 *1259:S0 *1607:A 0.000308586
13 *1259:S0 *353:24 0.000377631
*RES
1 *1305:Q *1259:S0 43.135 
*END

*D_NET *228 0.00869727
*CONN
*I *1259:S1 I *D sky130_fd_sc_hd__mux4_1
*I *1306:Q O *D sky130_fd_sc_hd__dlxtp_1
*CAP
1 *1259:S1 0.00197073
2 *1306:Q 0.00197073
3 *1259:S1 *1259:A2 3.59531e-06
4 *1259:S1 *1259:A3 9.77231e-05
5 *1259:S1 *1263:A2 1.73598e-05
6 *1259:S1 *1386:A 8.23457e-05
7 *1259:S1 *1388:A 4.82919e-05
8 *1259:S1 *1396:A 4.61701e-06
9 *1259:S1 *1532:A 5.93727e-05
10 *1259:S1 *1619:A 0.000286028
11 *1259:S1 *1623:A 0.000867175
12 *1259:S1 *351:24 0.000171388
13 *1259:S1 *354:18 1.7635e-05
14 *1259:S1 *442:90 6.55011e-05
15 *1259:S1 *447:47 0.000204864
16 *1259:S1 *452:22 0.000334126
17 *1259:S1 *452:32 0.000491177
18 *1259:S1 *455:18 0.000193017
19 *1259:S1 *456:36 0.000344923
20 *1259:S1 *464:26 0.000828029
21 *1259:S1 *467:65 0.000205464
22 *1259:S1 *484:48 0.000173541
23 *1400:A *1259:S1 0.000120548
24 *1496:A *1259:S1 2.78929e-05
25 *1497:A *1259:S1 9.35688e-05
26 *1498:A *1259:S1 1.7635e-05
*RES
1 *1306:Q *1259:S1 46.2679 
*END

*D_NET *229 0.00349614
*CONN
*I *1258:S0 I *D sky130_fd_sc_hd__mux4_2
*I *1307:Q O *D sky130_fd_sc_hd__dlxtp_1
*CAP
1 *1258:S0 0.00107521
2 *1307:Q 0.00107521
3 *1258:S0 *1261:S0 9.05893e-05
4 *1258:S0 *1269:S1 0.000148121
5 *1258:S0 *1294:D 4.67939e-05
6 *1258:S0 *1301:D 1.7635e-05
7 *1258:S0 *1301:GATE 3.05601e-05
8 *1258:S0 *1307:D 0.000202435
9 *1258:S0 *1308:GATE 3.66137e-05
10 *1258:S0 *404:128 0.000151811
11 *500:DIODE *1258:S0 0
12 *1265:S1 *1258:S0 4.30051e-05
13 *1362:A *1258:S0 7.9642e-06
14 *1363:A *1258:S0 0.000299769
15 *1368:A *1258:S0 0.00027042
*RES
1 *1307:Q *1258:S0 23.4575 
*END

*D_NET *230 0.00318257
*CONN
*I *1258:S1 I *D sky130_fd_sc_hd__mux4_2
*I *1308:Q O *D sky130_fd_sc_hd__dlxtp_1
*CAP
1 *1258:S1 0.000788376
2 *1308:Q 0.000788376
3 *1258:S1 *1254:S0 8.76904e-05
4 *1258:S1 *1258:A2 5.75434e-05
5 *1258:S1 *1258:A3 0.000357984
6 *1258:S1 *1263:S1 0.000312635
7 *1258:S1 *1273:S0 0.00021878
8 *1258:S1 *1308:D 0.000158502
9 *1258:S1 *1611:A 9.89165e-05
10 *1258:S1 *405:12 1.01182e-05
11 *1265:S0 *1258:S1 0.000266234
12 *1265:S1 *1258:S1 3.7418e-05
*RES
1 *1308:Q *1258:S1 22.53 
*END

*D_NET *231 0.00451424
*CONN
*I *1257:S0 I *D sky130_fd_sc_hd__mux4_1
*I *1309:Q O *D sky130_fd_sc_hd__dlxtp_1
*CAP
1 *1257:S0 0.00117425
2 *1309:Q 0.00117425
3 *1257:S0 *1264:S0 0.000299461
4 *1257:S0 *1299:D 1.14918e-05
5 *1257:S0 *1300:GATE 0.000267091
6 *1257:S0 *1339:A 5.05521e-05
7 *1257:S0 *1345:A 2.68526e-05
8 *1257:S0 *1380:A 0.000329312
9 *1257:S0 *1581:A 0.000191335
10 *1257:S0 *1587:A 0.000194268
11 *1257:S0 *1609:A 2.68464e-05
12 *1257:S0 *336:57 2.67022e-05
13 *1257:S0 *380:26 0
14 *1257:S0 *402:20 5.97507e-05
15 *1257:S0 *402:49 0.000160258
16 *1257:S0 *402:53 0.00018974
17 *1257:S0 *403:10 0.000159156
18 *1257:S0 *448:52 6.88221e-05
19 *1257:S0 *448:70 7.72636e-05
20 *1433:A *1257:S0 2.68464e-05
*RES
1 *1309:Q *1257:S0 28.935 
*END

*D_NET *232 0.0036691
*CONN
*I *1257:S1 I *D sky130_fd_sc_hd__mux4_1
*I *1310:Q O *D sky130_fd_sc_hd__dlxtp_1
*CAP
1 *1257:S1 0.0011239
2 *1310:Q 0.0011239
3 *1257:S1 *1253:S1 0.00019312
4 *1257:S1 *1313:GATE 3.93162e-05
5 *1257:S1 *1318:GATE 2.49909e-05
6 *1257:S1 *1567:A 8.41307e-05
7 *1257:S1 *1589:A 0.000211707
8 *1257:S1 *1593:A 4.66108e-05
9 *1257:S1 *380:26 0.000570129
10 *1257:S1 *380:45 3.59784e-05
11 *1257:S1 *448:70 0.000215317
*RES
1 *1310:Q *1257:S1 22.38 
*END

*D_NET *233 0.00508438
*CONN
*I *1256:S0 I *D sky130_fd_sc_hd__mux4_1
*I *1311:Q O *D sky130_fd_sc_hd__dlxtp_1
*CAP
1 *1256:S0 0.00149823
2 *1311:Q 0.00149823
3 *1256:S0 *1256:A0 2.49909e-05
4 *1256:S0 *1256:S1 0.000449945
5 *1256:S0 *1269:S0 0.000590966
6 *1256:S0 *1273:A2 1.72133e-05
7 *1256:S0 *1273:S0 6.32756e-05
8 *1256:S0 *1289:D 0.000250179
9 *1256:S0 *1289:GATE 0
10 *1256:S0 *1428:A 0.000230867
11 *1256:S0 *1585:A 0.0003401
12 *1256:S0 *401:28 0.000120379
*RES
1 *1311:Q *1256:S0 31.77 
*END

*D_NET *234 0.00738469
*CONN
*I *1256:S1 I *D sky130_fd_sc_hd__mux4_1
*I *1312:Q O *D sky130_fd_sc_hd__dlxtp_1
*CAP
1 *1256:S1 0.0016726
2 *1312:Q 0.0016726
3 *1256:S1 *487:DIODE 0.000122189
4 *1256:S1 *1252:A2 0.000653484
5 *1256:S1 *1256:A1 0.000114746
6 *1256:S1 *1256:A3 9.67062e-05
7 *1256:S1 *1261:A0 0.000266361
8 *1256:S1 *1269:S0 1.80024e-05
9 *1256:S1 *1269:S1 8.18387e-05
10 *1256:S1 *1273:A2 2.82846e-05
11 *1256:S1 *1285:D 4.04634e-05
12 *1256:S1 *1286:D 3.64998e-06
13 *1256:S1 *1289:D 2.34475e-05
14 *1256:S1 *1308:D 8.05167e-05
15 *1256:S1 *1311:D 0.000132637
16 *1256:S1 *299:34 4.12525e-05
17 *1256:S1 *306:30 0.000345479
18 *1256:S1 *344:14 0.000686908
19 *1256:S1 *412:68 0.000132548
20 *1256:S1 *444:42 1.7635e-05
21 *1256:S1 *449:12 0.000424958
22 *1256:S1 *449:14 0.000162383
23 *1256:S1 *460:34 0.00011605
24 *1256:S0 *1256:S1 0.000449945
*RES
1 *1312:Q *1256:S1 47.48 
*END

*D_NET *235 0.00310071
*CONN
*I *1264:S1 I *D sky130_fd_sc_hd__mux4_1
*I *1295:Q O *D sky130_fd_sc_hd__dlxtp_1
*CAP
1 *1264:S1 0.000560016
2 *1295:Q 0.000560016
3 *1264:S1 *1253:A2 0.000111543
4 *1264:S1 *1272:A3 1.92979e-05
5 *1264:S1 *1272:S0 5.54912e-05
6 *1264:S1 *1300:GATE 0.000336484
7 *1264:S1 *1327:A 2.04902e-05
8 *1264:S1 *1380:A 7.50862e-05
9 *1264:S1 *358:40 0
10 *1264:S1 *402:49 0.000168222
11 *1264:S1 *402:53 0.000370595
12 *1264:S1 *424:32 0.000619214
13 *1264:S1 *459:83 0.000204249
*RES
1 *1295:Q *1264:S1 21.525 
*END

*D_NET *236 0.000707428
*CONN
*I *1255:S0 I *D sky130_fd_sc_hd__mux4_1
*I *1313:Q O *D sky130_fd_sc_hd__dlxtp_1
*CAP
1 *1255:S0 0.000151294
2 *1313:Q 0.000151294
3 *1255:S0 *1276:D 0.000115867
4 *1255:S0 *1567:A 1.88656e-05
5 *1255:S0 *413:26 1.7386e-05
6 *1430:A *1255:S0 0.000252722
*RES
1 *1313:Q *1255:S0 10.815 
*END

*D_NET *237 0.00110297
*CONN
*I *1255:S1 I *D sky130_fd_sc_hd__mux4_1
*I *1314:Q O *D sky130_fd_sc_hd__dlxtp_1
*CAP
1 *1255:S1 0.000267232
2 *1314:Q 0.000267232
3 *1255:S1 *1255:A2 2.76356e-05
4 *1255:S1 *1314:GATE 0.000271052
5 *1255:S1 *1556:A 0.000269821
*RES
1 *1314:Q *1255:S1 12.105 
*END

*D_NET *238 0.00650422
*CONN
*I *1254:S0 I *D sky130_fd_sc_hd__mux4_1
*I *1315:Q O *D sky130_fd_sc_hd__dlxtp_1
*CAP
1 *1254:S0 0.0017674
2 *1315:Q 0.0017674
3 *1254:S0 *1254:A3 0.000521036
4 *1254:S0 *1254:S1 4.65736e-05
5 *1254:S0 *1271:A3 0.0001088
6 *1254:S0 *1305:D 7.88115e-05
7 *1254:S0 *1305:GATE 6.58423e-05
8 *1254:S0 *1329:A 4.01778e-05
9 *1254:S0 *1388:A 0.00016976
10 *1254:S0 *1406:A 0.00026564
11 *1254:S0 *1420:A 8.40269e-05
12 *1254:S0 *1518:A 0.00029933
13 *1254:S0 *1607:A 4.25279e-05
14 *1254:S0 *404:143 5.20265e-05
15 *1254:S0 *405:36 0.00014689
16 *1254:S0 *405:49 7.68414e-06
17 *1254:S0 *473:14 2.86265e-06
18 *1254:S0 *474:18 0.000267949
19 *1258:S1 *1254:S0 8.76904e-05
20 *1259:S0 *1254:S0 0.000594106
21 *1265:S0 *1254:S0 8.76904e-05
*RES
1 *1315:Q *1254:S0 39.52 
*END

*D_NET *239 0.00473979
*CONN
*I *1254:S1 I *D sky130_fd_sc_hd__mux4_1
*I *1316:Q O *D sky130_fd_sc_hd__dlxtp_1
*CAP
1 *1254:S1 0.00157493
2 *1316:Q 0.00157493
3 *1254:S1 *1254:A2 6.66948e-05
4 *1254:S1 *1254:A3 3.19479e-05
5 *1254:S1 *1305:D 0.000404415
6 *1254:S1 *1394:A 0.000418504
7 *1254:S1 *1406:A 0.000127534
8 *1254:S1 *1518:A 8.17444e-05
9 *1254:S1 *1577:A 8.23457e-05
10 *1254:S1 *306:30 0.000223071
11 *1254:S1 *351:24 4.66108e-05
12 *1254:S1 *404:55 8.31212e-06
13 *1254:S0 *1254:S1 4.65736e-05
14 *1259:S0 *1254:S1 5.21706e-05
*RES
1 *1316:Q *1254:S1 30.03 
*END

*D_NET *240 0.00189887
*CONN
*I *1253:S0 I *D sky130_fd_sc_hd__mux4_1
*I *1317:Q O *D sky130_fd_sc_hd__dlxtp_1
*CAP
1 *1253:S0 0.000628712
2 *1317:Q 0.000628712
3 *1253:S0 *1253:A2 0.000281321
4 *1253:S0 *1253:A3 7.43215e-05
5 *1253:S0 *1272:A0 9.13448e-06
6 *1253:S0 *1272:S0 0.000104846
7 *1253:S0 *1277:GATE 0
8 *1253:S0 *1296:GATE 4.7003e-05
9 *1253:S0 *1331:A 8.41307e-05
10 *1253:S0 *400:53 4.06927e-05
11 *1253:S0 *420:30 0
12 *1253:S0 *444:64 0
13 *1253:S0 *463:58 0
*RES
1 *1317:Q *1253:S0 17.64 
*END

*D_NET *241 0.00348916
*CONN
*I *1253:S1 I *D sky130_fd_sc_hd__mux4_1
*I *1318:Q O *D sky130_fd_sc_hd__dlxtp_1
*CAP
1 *1253:S1 0.000800769
2 *1318:Q 0.000800769
3 *1253:S1 *1253:A0 0.00080346
4 *1253:S1 *1253:A1 0.000306068
5 *1253:S1 *1253:A2 3.75396e-05
6 *1253:S1 *1253:A3 8.74117e-05
7 *1253:S1 *1277:GATE 4.65607e-05
8 *1253:S1 *1380:A 2.67006e-05
9 *1253:S1 *1422:A 0.00011504
10 *1253:S1 *380:26 0.00019312
11 *1253:S1 *459:83 7.85951e-05
12 *1257:S1 *1253:S1 0.00019312
*RES
1 *1318:Q *1253:S1 27.94 
*END

*D_NET *242 0.00229365
*CONN
*I *1252:S0 I *D sky130_fd_sc_hd__mux4_1
*I *1319:Q O *D sky130_fd_sc_hd__dlxtp_1
*CAP
1 *1252:S0 0.000647869
2 *1319:Q 0.000647869
3 *1252:S0 *1252:A1 0.000252823
4 *1252:S0 *1252:S1 2.60185e-06
5 *1252:S0 *1303:GATE 0.00023031
6 *1252:S0 *1319:D 8.34281e-06
7 *1252:S0 *1335:A 8.41307e-05
8 *1252:S0 *1390:A 0.00033606
9 *1252:S0 *399:26 7.56834e-05
10 *1252:S0 *464:42 7.9642e-06
*RES
1 *1319:Q *1252:S0 17.43 
*END

*D_NET *243 0.00327214
*CONN
*I *1252:S1 I *D sky130_fd_sc_hd__mux4_1
*I *1320:Q O *D sky130_fd_sc_hd__dlxtp_1
*CAP
1 *1252:S1 0.00109049
2 *1320:Q 0.00109049
3 *1252:S1 *487:DIODE 0.000187678
4 *1252:S1 *1252:A1 1.06624e-05
5 *1252:S1 *1254:A0 2.71912e-06
6 *1252:S1 *1319:D 0.000294796
7 *1252:S1 *1319:GATE 2.67977e-05
8 *1252:S1 *1320:D 2.86792e-05
9 *1252:S1 *1335:A 9.76407e-06
10 *1252:S1 *309:30 0.000119246
11 *1252:S1 *412:68 0.000277487
12 *1252:S0 *1252:S1 2.60185e-06
13 *1260:S1 *1252:S1 0.000130731
*RES
1 *1320:Q *1252:S1 22.11 
*END

*D_NET *244 0.00285809
*CONN
*I *1251:S0 I *D sky130_fd_sc_hd__mux4_1
*I *1321:Q O *D sky130_fd_sc_hd__dlxtp_1
*CAP
1 *1251:S0 0.000488803
2 *1321:Q 0.000488803
3 *1251:S0 *1250:A1 0.000238794
4 *1251:S0 *1270:A0 0.000280608
5 *1251:S0 *1274:S0 0.000515022
6 *1251:S0 *1383:A 0.000119756
7 *1251:S0 *1545:A 0.000129807
8 *1251:S0 *1548:A 8.40269e-05
9 *1251:S0 *1563:A 6.95134e-05
10 *1251:S0 *336:20 0.0003708
11 *1251:S0 *336:57 7.21535e-05
*RES
1 *1321:Q *1251:S0 19.665 
*END

*D_NET *245 0.00316188
*CONN
*I *1251:S1 I *D sky130_fd_sc_hd__mux4_1
*I *1322:Q O *D sky130_fd_sc_hd__dlxtp_1
*CAP
1 *1251:S1 0.000976032
2 *1322:Q 0.000976032
3 *1251:S1 *1251:A2 3.22425e-05
4 *1251:S1 *1255:A2 0.000129898
5 *1251:S1 *1274:S1 5.56629e-05
6 *1251:S1 *1292:GATE 3.24624e-05
7 *1251:S1 *1427:A 3.83194e-05
8 *1251:S1 *1556:A 1.67908e-05
9 *1251:S1 *325:26 0.000118081
10 *1251:S1 *372:22 7.23602e-05
11 *1251:S1 *408:24 4.9526e-05
12 *1251:S1 *408:44 0
13 *1251:S1 *410:14 2.10433e-05
14 *1251:S1 *424:32 0.000405641
15 *1430:A *1251:S1 0.000237786
*RES
1 *1322:Q *1251:S1 25.06 
*END

*D_NET *246 0.00312922
*CONN
*I *1264:S0 I *D sky130_fd_sc_hd__mux4_1
*I *1296:Q O *D sky130_fd_sc_hd__dlxtp_1
*CAP
1 *1264:S0 0.00063869
2 *1296:Q 0.00063869
3 *1264:S0 *1253:A0 6.61914e-05
4 *1264:S0 *1253:A1 0.00056012
5 *1264:S0 *1257:A1 0.000154977
6 *1264:S0 *1279:D 0.000102825
7 *1264:S0 *1331:A 8.35106e-05
8 *1264:S0 *1422:A 0.000166438
9 *1264:S0 *303:24 8.35068e-05
10 *1264:S0 *310:40 7.62567e-05
11 *1264:S0 *403:10 4.6449e-05
12 *1264:S0 *403:26 4.13306e-05
13 *1264:S0 *430:28 5.74791e-05
14 *1264:S0 *463:56 7.84315e-05
15 Co *1264:S0 3.48658e-05
16 *1257:S0 *1264:S0 0.000299461
*RES
1 *1296:Q *1264:S0 25.945 
*END

*D_NET *247 0.00886179
*CONN
*I *1250:A1 I *D sky130_fd_sc_hd__a22o_1
*I *1249:A I *D sky130_fd_sc_hd__nor2_1
*I *1323:Q O *D sky130_fd_sc_hd__dlxtp_1
*CAP
1 *1250:A1 0.0010702
2 *1249:A 0.000987701
3 *1323:Q 0
4 *247:4 0.0020579
5 *1249:A *1249:B 8.7152e-06
6 *1249:A *1409:A 0
7 *1249:A *1549:A 0.000571306
8 *1249:A *1554:A 0.000101546
9 *1249:A *1555:A 0.000292317
10 *1249:A *1556:A 4.26778e-05
11 *1249:A *1586:A 1.51856e-05
12 *1249:A *325:26 0.000633301
13 *1249:A *369:16 1.98899e-05
14 *1249:A *373:26 0
15 *1249:A *383:20 4.46262e-05
16 *1249:A *453:60 0.000616512
17 *1250:A1 *1250:B1 0.000500015
18 *1250:A1 *1262:A2 8.80183e-05
19 *1250:A1 *1274:S0 9.91468e-05
20 *1250:A1 *1277:D 0
21 *1250:A1 *1377:A 0.000322352
22 *1250:A1 *1423:A 0
23 *1250:A1 *1547:A 2.93987e-05
24 *1250:A1 *1563:A 0.000583121
25 *1250:A1 *248:18 7.21296e-06
26 *1250:A1 *292:16 6.86767e-05
27 *1250:A1 *325:26 3.57349e-05
28 *1250:A1 *392:20 0
29 *1250:A1 *454:14 0.000173541
30 *1250:A1 *458:40 0.000118673
31 *1250:A1 *461:78 7.73646e-05
32 *1250:A1 *466:66 0
33 N2BEGb[3] *1249:A 5.78621e-05
34 *1251:S0 *1250:A1 0.000238794
*RES
1 *1323:Q *247:4 1.6 
2 *247:4 *1249:A 19.6153 
3 *247:4 *1250:A1 27.7211 
*END

*D_NET *248 0.00767595
*CONN
*I *1248:B I *D sky130_fd_sc_hd__or2_1
*I *1249:B I *D sky130_fd_sc_hd__nor2_1
*I *1324:Q O *D sky130_fd_sc_hd__dlxtp_1
*CAP
1 *1248:B 0.000296669
2 *1249:B 0.00103673
3 *1324:Q 0.000720039
4 *248:18 0.00205344
5 *1248:B *1262:A3 1.19928e-05
6 *1248:B *1556:A 5.35181e-06
7 *1248:B *422:18 4.87465e-06
8 *1248:B *428:22 7.10578e-05
9 *1248:B *446:28 3.03775e-05
10 *1248:B *446:30 1.34503e-05
11 *1249:B *1250:B1 1.7635e-05
12 *1249:B *1262:A2 1.01489e-05
13 *1249:B *1262:A3 6.57306e-05
14 *1249:B *1547:A 9.84109e-05
15 *1249:B *1550:A 4.66108e-05
16 *1249:B *1553:A 3.88911e-05
17 *1249:B *1554:A 3.63566e-05
18 *1249:B *1556:A 3.55743e-05
19 *1249:B *1557:A 4.66108e-05
20 *1249:B *351:24 4.78678e-05
21 *1249:B *357:32 0.000295916
22 *1249:B *358:40 0.00032078
23 *1249:B *383:20 7.73646e-05
24 *1249:B *465:20 0.000127315
25 *248:18 *1274:A0 0.000233116
26 *248:18 *1274:A1 4.12756e-05
27 *248:18 *1274:S1 2.30292e-05
28 *248:18 *1277:D 4.26331e-05
29 *248:18 *1291:D 0.000146884
30 *248:18 *1323:D 0.00012205
31 *248:18 *1377:A 5.75488e-05
32 *248:18 *1427:A 8.49878e-05
33 *248:18 *1544:A 5.25931e-05
34 *248:18 *1563:A 0.000198972
35 *248:18 *400:10 0.000393123
36 *248:18 *400:12 3.86913e-05
37 *248:18 *400:22 5.80614e-05
38 *248:18 *411:18 0.000100354
39 *248:18 *424:32 4.0388e-05
40 *248:18 *453:42 6.15535e-05
41 *248:18 *453:60 5.8023e-05
42 N2BEGb[1] *1249:B 0.000230013
43 N2BEGb[3] *1249:B 8.40213e-05
44 N2BEGb[5] *1249:B 8.35106e-05
45 *1249:A *1249:B 8.7152e-06
46 *1250:A1 *248:18 7.21296e-06
*RES
1 *1324:Q *248:18 21.02 
2 *248:18 *1249:B 21.7591 
3 *248:18 *1248:B 5.17 
*END

*D_NET *249 0.00170222
*CONN
*I *1263:S1 I *D sky130_fd_sc_hd__mux4_1
*I *1297:Q O *D sky130_fd_sc_hd__dlxtp_1
*CAP
1 *1263:S1 0.000280988
2 *1297:Q 0.000280988
3 *1263:S1 *1265:A3 5.93727e-05
4 *1263:S1 *1329:A 4.41506e-05
5 *1263:S1 *1420:A 8.35106e-05
6 *1263:S1 *1514:A 9.1068e-05
7 *1263:S1 *1611:A 2.56594e-05
8 *1263:S1 *405:10 0.000453138
9 *1263:S1 *405:12 7.0706e-05
10 *1258:S1 *1263:S1 0.000312635
*RES
1 *1297:Q *1263:S1 14.475 
*END

*D_NET *250 0.00310082
*CONN
*I *1263:S0 I *D sky130_fd_sc_hd__mux4_1
*I *1298:Q O *D sky130_fd_sc_hd__dlxtp_1
*CAP
1 *1263:S0 0.000551915
2 *1298:Q 0.000551915
3 *1263:S0 *1258:A0 0.000136337
4 *1263:S0 *1271:A1 9.98744e-05
5 *1263:S0 *1306:D 0.000324886
6 *1263:S0 *1390:A 6.0383e-05
7 *1263:S0 *1418:A 0.000101912
8 *1263:S0 *1616:A 0.000114785
9 *1263:S0 *1619:A 5.98808e-05
10 *1263:S0 *261:36 0.00012205
11 *1263:S0 *364:10 9.98744e-05
12 *1263:S0 *457:26 0.000362544
13 *1263:S0 *477:26 0.00051446
*RES
1 *1298:Q *1263:S0 13.6953 
*END

*D_NET *251 0.00372746
*CONN
*I *1262:S0 I *D sky130_fd_sc_hd__mux4_1
*I *1299:Q O *D sky130_fd_sc_hd__dlxtp_1
*CAP
1 *1262:S0 0.000639531
2 *1299:Q 0.000639531
3 *1262:S0 *1255:A0 9.50342e-06
4 *1262:S0 *1274:A0 0.000138439
5 *1262:S0 *1321:D 6.33103e-05
6 *1262:S0 *1549:A 0.000826094
7 *1262:S0 *1563:A 0.00014011
8 *1262:S0 *1585:A 0.000236172
9 *1262:S0 *347:46 8.5514e-05
10 *1262:S0 *407:16 2.77378e-05
11 *1262:S0 *437:28 0.000174541
12 *1262:S0 *450:26 0.000688305
13 NN4BEG[1] *1262:S0 5.86739e-05
*RES
1 *1299:Q *1262:S0 16.4799 
*END

*D_NET *252 0.00272156
*CONN
*I *1262:S1 I *D sky130_fd_sc_hd__mux4_1
*I *1300:Q O *D sky130_fd_sc_hd__dlxtp_1
*CAP
1 *1262:S1 0.000914731
2 *1300:Q 0.000914731
3 *1262:S1 *1545:A 0
4 *1262:S1 *1565:A 0.000266541
5 *1262:S1 *1567:A 0.000158066
6 *1262:S1 *1576:A 8.60799e-05
7 *1262:S1 *1587:A 0.000198046
8 *1262:S1 *1592:A 0
9 *1262:S1 *380:12 0.000153986
10 *1262:S1 *450:26 2.93823e-05
*RES
1 *1300:Q *1262:S1 19.035 
*END

*D_NET *253 0.00138855
*CONN
*I *1261:S0 I *D sky130_fd_sc_hd__mux4_1
*I *1301:Q O *D sky130_fd_sc_hd__dlxtp_1
*CAP
1 *1261:S0 0.000369623
2 *1301:Q 0.000369623
3 *1261:S0 *1269:S1 5.23888e-05
4 *1261:S0 *1301:D 7.14775e-05
5 *1261:S0 *1308:GATE 0.000130372
6 UserCLKo *1261:S0 0.000304474
7 *1258:S0 *1261:S0 9.05893e-05
*RES
1 *1301:Q *1261:S0 13.23 
*END

*D_NET *254 0.00074392
*CONN
*I *1261:S1 I *D sky130_fd_sc_hd__mux4_1
*I *1302:Q O *D sky130_fd_sc_hd__dlxtp_1
*CAP
1 *1261:S1 0.000214392
2 *1302:Q 0.000214392
3 *1261:S1 *1261:A2 4.43871e-06
4 *1261:S1 *1261:A3 3.63701e-06
5 *1261:S1 *1269:S1 0
6 *1261:S1 *1386:A 0.000112893
7 *1261:S1 *1607:A 0.000194169
*RES
1 *1302:Q *1261:S1 10.41 
*END

*D_NET *255 0.00449219
*CONN
*I *1274:S1 I *D sky130_fd_sc_hd__mux4_1
*I *1275:Q O *D sky130_fd_sc_hd__dlxtp_1
*CAP
1 *1274:S1 0.00107839
2 *1275:Q 0.00107839
3 *1274:S1 *490:DIODE 0
4 *1274:S1 *1251:A2 3.31204e-05
5 *1274:S1 *1270:A2 0.000118081
6 *1274:S1 *1407:A 0.000471463
7 *1274:S1 *1563:A 0.000341885
8 *1274:S1 *1576:A 0.000208911
9 *1274:S1 *1592:A 0.000465415
10 *1274:S1 *351:24 0.000166094
11 *1274:S1 *402:71 4.66742e-05
12 *1274:S1 *410:14 6.25766e-05
13 *1274:S1 *411:18 0.000118081
14 *1274:S1 *412:68 4.01778e-05
15 *1274:S1 *416:28 6.96175e-05
16 *1274:S1 *443:16 9.27255e-06
17 *1274:S1 *450:28 0.000105349
18 *1274:S1 *466:66 0
19 *1251:S1 *1274:S1 5.56629e-05
20 *248:18 *1274:S1 2.30292e-05
*RES
1 *1275:Q *1274:S1 36.065 
*END

*D_NET *256 0.00344774
*CONN
*I *1274:S0 I *D sky130_fd_sc_hd__mux4_1
*I *1276:Q O *D sky130_fd_sc_hd__dlxtp_1
*CAP
1 *1274:S0 0.00084068
2 *1276:Q 0.00084068
3 *1274:S0 *1262:A2 8.99861e-05
4 *1274:S0 *1377:A 0.000324023
5 *1274:S0 *1556:A 0.000121437
6 *1274:S0 *1583:A 4.68522e-05
7 *1274:S0 *263:28 0.000220517
8 *1274:S0 *292:16 7.90693e-05
9 *1274:S0 *461:78 6.13929e-06
10 *1274:S0 *466:52 2.93823e-05
11 *1274:S0 *466:66 0.000234801
12 *1250:A1 *1274:S0 9.91468e-05
13 *1251:S0 *1274:S0 0.000515022
*RES
1 *1276:Q *1274:S0 23.625 
*END

*D_NET *257 0.00737665
*CONN
*I *1273:S1 I *D sky130_fd_sc_hd__mux4_1
*I *1277:Q O *D sky130_fd_sc_hd__dlxtp_1
*CAP
1 *1273:S1 0.00184801
2 *1277:Q 0.00184801
3 *1273:S1 *1256:A2 1.35862e-05
4 *1273:S1 *1268:A0 6.5172e-05
5 *1273:S1 *1268:A2 7.13691e-05
6 *1273:S1 *1268:A3 1.94092e-05
7 *1273:S1 *1269:S1 0.000828447
8 *1273:S1 *1271:S0 0.000226023
9 *1273:S1 *1273:A3 1.16597e-05
10 *1273:S1 *1284:D 4.80182e-05
11 *1273:S1 *1294:D 1.47935e-05
12 *1273:S1 *1382:A 0.000606229
13 *1273:S1 *1566:A 1.87674e-05
14 *1273:S1 *1605:A 8.82035e-05
15 *1273:S1 *399:26 4.14843e-05
16 *1273:S1 *407:48 0.000562518
17 *1273:S1 *444:42 3.61977e-05
18 *1273:S1 *461:53 9.09963e-05
19 *1273:S1 *464:42 3.91137e-05
20 *1431:A *1273:S1 0.000898644
*RES
1 *1277:Q *1273:S1 22.2946 
*END

*D_NET *258 0.00619554
*CONN
*I *1273:S0 I *D sky130_fd_sc_hd__mux4_1
*I *1278:Q O *D sky130_fd_sc_hd__dlxtp_1
*CAP
1 *1273:S0 0.00197645
2 *1278:Q 0.00197645
3 *1273:S0 *1256:A2 1.10377e-05
4 *1273:S0 *1258:A0 4.66108e-05
5 *1273:S0 *1258:A1 8.43862e-05
6 *1273:S0 *1258:A3 0.000131721
7 *1273:S0 *1269:S0 0.000381225
8 *1273:S0 *1289:D 0.000562301
9 *1273:S0 *269:36 8.77516e-05
10 *1273:S0 *401:28 0.000655566
11 *1256:S0 *1273:S0 6.32756e-05
12 *1258:S1 *1273:S0 0.00021878
*RES
1 *1278:Q *1273:S0 36.435 
*END

*D_NET *259 0.00302542
*CONN
*I *1272:S1 I *D sky130_fd_sc_hd__mux4_1
*I *1279:Q O *D sky130_fd_sc_hd__dlxtp_1
*CAP
1 *1272:S1 0.000458641
2 *1279:Q 0.000458641
3 *1272:S1 *1279:D 6.69608e-06
4 *1272:S1 *1299:D 0.000409671
5 *1272:S1 *1317:D 3.24923e-05
6 *1272:S1 *1380:A 0.00109761
7 *1272:S1 *1415:A 1.00941e-05
8 *1272:S1 *1589:A 3.39274e-05
9 *1272:S1 *303:24 0.000190715
10 *1272:S1 *402:14 1.90998e-05
11 *1272:S1 *408:44 0.000307834
12 *1272:S1 *448:70 0
*RES
1 *1279:Q *1272:S1 20.235 
*END

*D_NET *260 0.00158636
*CONN
*I *1272:S0 I *D sky130_fd_sc_hd__mux4_1
*I *1280:Q O *D sky130_fd_sc_hd__dlxtp_1
*CAP
1 *1272:S0 0.000445917
2 *1280:Q 0.000445917
3 *1272:S0 *1253:A2 7.9642e-06
4 *1272:S0 *1257:A0 0.000343456
5 *1272:S0 *1590:A 0
6 *1272:S0 *444:64 0
7 *1272:S0 *459:83 0.000182772
8 *1253:S0 *1272:S0 0.000104846
9 *1264:S1 *1272:S0 5.54912e-05
*RES
1 *1280:Q *1272:S0 14.535 
*END

*D_NET *261 0.0153552
*CONN
*I *1271:S1 I *D sky130_fd_sc_hd__mux4_1
*I *1281:Q O *D sky130_fd_sc_hd__dlxtp_1
*CAP
1 *1271:S1 0.0015205
2 *1281:Q 0.00184156
3 *261:36 0.00336205
4 *1271:S1 *1267:A2 0.000111547
5 *1271:S1 *1267:S1 0.000468402
6 *1271:S1 *1524:A 7.91542e-05
7 *1271:S1 *1525:A 0.00121995
8 *1271:S1 *1526:A 4.5617e-05
9 *1271:S1 *276:40 7.6834e-05
10 *1271:S1 *294:38 0.0011424
11 *1271:S1 *481:28 0.00205362
12 *261:36 *1258:A1 2.53191e-06
13 *261:36 *1258:A3 0
14 *261:36 *1265:A2 0.000216455
15 *261:36 *1269:S0 3.61388e-06
16 *261:36 *1271:S0 1.77595e-05
17 *261:36 *1282:D 0.000104482
18 *261:36 *1311:D 0.000188729
19 *261:36 *1390:A 1.77103e-05
20 *261:36 *1428:A 6.42845e-05
21 *261:36 *297:44 9.49207e-05
22 *261:36 *404:101 4.99619e-05
23 *261:36 *405:10 8.35106e-05
24 *261:36 *445:24 1.27611e-05
25 *261:36 *451:16 0.00049673
26 *261:36 *451:64 0.000229645
27 *261:36 *453:20 1.75833e-05
28 *261:36 *455:65 6.50497e-05
29 *261:36 *462:14 8.65612e-05
30 FrameStrobe_O[10] *1271:S1 5.3424e-05
31 FrameStrobe_O[12] *1271:S1 4.76406e-05
32 FrameStrobe_O[17] *1271:S1 0.000276146
33 FrameStrobe_O[18] *1271:S1 0.000287042
34 *1263:S0 *261:36 0.00012205
35 *1370:A *1271:S1 0.00018116
36 *1402:A *261:36 9.08029e-05
37 *1435:A *261:36 0.00015639
38 *1506:A *261:36 0.000213982
39 *1507:A *261:36 0.00025266
*RES
1 *1281:Q *261:36 40.845 
2 *261:36 *1271:S1 49.385 
*END

*D_NET *262 0.00869695
*CONN
*I *1271:S0 I *D sky130_fd_sc_hd__mux4_1
*I *1282:Q O *D sky130_fd_sc_hd__dlxtp_1
*CAP
1 *1271:S0 0.0019131
2 *1282:Q 0.0019131
3 *1271:S0 *1256:A0 0
4 *1271:S0 *1258:A0 0.000532607
5 *1271:S0 *1258:A2 7.5434e-05
6 *1271:S0 *1269:S1 0.000593518
7 *1271:S0 *1271:A0 4.49232e-05
8 *1271:S0 *1271:A3 5.18317e-06
9 *1271:S0 *1294:D 0.000287956
10 *1271:S0 *1302:D 0.000655299
11 *1271:S0 *1320:D 1.69186e-05
12 *1271:S0 *1388:A 1.13517e-05
13 *1271:S0 *1540:A 0
14 *1271:S0 *1605:A 0.00015755
15 *1271:S0 *276:40 0.0013878
16 *1271:S0 *404:55 5.8023e-05
17 *1271:S0 *432:40 0.000649735
18 *1271:S0 *447:10 5.74874e-05
19 *1271:S0 *457:26 8.48649e-05
20 *1273:S1 *1271:S0 0.000226023
21 *1370:A *1271:S0 8.30853e-06
22 *261:36 *1271:S0 1.77595e-05
*RES
1 *1282:Q *1271:S0 17.7832 
*END

*D_NET *263 0.00974255
*CONN
*I *1270:S0 I *D sky130_fd_sc_hd__mux4_1
*I *1283:Q O *D sky130_fd_sc_hd__dlxtp_1
*CAP
1 *1270:S0 0.000204047
2 *1283:Q 0.00166051
3 *263:28 0.00186456
4 *1270:S0 *1270:A0 0.000180973
5 *1270:S0 *1270:A1 0.00015896
6 *1270:S0 *1381:A 6.41634e-05
7 *1270:S0 *1547:A 0.000339506
8 *1270:S0 *336:20 0.000184063
9 *263:28 *490:DIODE 0.0010063
10 *263:28 *1253:A2 7.92538e-05
11 *263:28 *1272:A0 0.000377313
12 *263:28 *1276:GATE 2.75145e-05
13 *263:28 *1277:D 0.000268171
14 *263:28 *1327:A 1.83847e-05
15 *263:28 *1415:A 3.67779e-05
16 *263:28 *1418:A 6.98693e-05
17 *263:28 *1423:A 0.0010207
18 *263:28 *1556:A 0.000195482
19 *263:28 *1585:A 2.16389e-05
20 *263:28 *1586:A 0.000900313
21 *263:28 *1589:A 3.92306e-05
22 *263:28 *399:26 3.69055e-05
23 *263:28 *400:53 0.000180016
24 *263:28 *402:65 8.53113e-06
25 *263:28 *416:28 0.00045541
26 *263:28 *448:76 0.000123432
27 *1274:S0 *263:28 0.000220517
*RES
1 *1283:Q *263:28 49.05 
2 *263:28 *1270:S0 7.915 
*END

*D_NET *264 0.0117823
*CONN
*I *1270:S1 I *D sky130_fd_sc_hd__mux4_1
*I *1284:Q O *D sky130_fd_sc_hd__dlxtp_1
*CAP
1 *1270:S1 0.00228814
2 *1284:Q 0.00228814
3 *1270:S1 *1250:B1 0.00104296
4 *1270:S1 *1253:A1 0
5 *1270:S1 *1268:A3 8.30853e-06
6 *1270:S1 *1278:D 4.95188e-05
7 *1270:S1 *1385:A 0
8 *1270:S1 *1423:A 0.00042814
9 *1270:S1 *291:22 4.46022e-05
10 *1270:S1 *325:26 0.000515415
11 *1270:S1 *373:26 0.000661114
12 *1270:S1 *399:26 0.00297778
13 *1270:S1 *409:20 0.000518442
14 *1270:S1 *411:18 0.000115254
15 *1270:S1 *412:18 0
16 *1270:S1 *415:22 2.11235e-05
17 *1270:S1 *461:53 8.48512e-05
18 *1270:S1 *465:20 0
19 *1430:A *1270:S1 0.000647845
20 *1431:A *1270:S1 9.0662e-05
*RES
1 *1284:Q *1270:S1 38.2224 
*END

*D_NET *265 0.0085223
*CONN
*I *1269:S0 I *D sky130_fd_sc_hd__mux4_1
*I *1285:Q O *D sky130_fd_sc_hd__dlxtp_1
*CAP
1 *1269:S0 0.00241268
2 *1285:Q 0.00241268
3 *1269:S0 *1256:A0 0
4 *1269:S0 *1265:A0 0.000649603
5 *1269:S0 *1265:A1 4.66742e-05
6 *1269:S0 *1265:A2 0.000157174
7 *1269:S0 *1269:S1 5.8678e-05
8 *1269:S0 *1289:GATE 1.92867e-05
9 *1269:S0 *1308:D 1.453e-05
10 *1269:S0 *1311:D 0.000173935
11 *1269:S0 *1390:A 7.48954e-05
12 *1269:S0 *1420:A 0.000125795
13 *1269:S0 *297:44 0.000126944
14 *1269:S0 *306:30 0
15 *1269:S0 *429:22 5.93638e-05
16 *1269:S0 *447:10 0.00100838
17 *1269:S0 *449:12 2.97872e-06
18 *1269:S0 *452:32 5.29032e-05
19 *1269:S0 *467:65 8.50801e-06
20 *1269:S0 *468:22 7.46323e-05
21 *1256:S0 *1269:S0 0.000590966
22 *1256:S1 *1269:S0 1.80024e-05
23 *1273:S0 *1269:S0 0.000381225
24 *1403:A *1269:S0 4.88555e-05
25 *261:36 *1269:S0 3.61388e-06
*RES
1 *1285:Q *1269:S0 48.865 
*END

*D_NET *266 0.00802163
*CONN
*I *1269:S1 I *D sky130_fd_sc_hd__mux4_1
*I *1286:Q O *D sky130_fd_sc_hd__dlxtp_1
*CAP
1 *1269:S1 0.00170666
2 *1286:Q 0.00170666
3 *1269:S1 *1261:A2 0.000405924
4 *1269:S1 *1261:A3 1.92979e-05
5 *1269:S1 *1302:D 0.0001207
6 *1269:S1 *1308:GATE 0.000211747
7 *1269:S1 *1386:A 0
8 *1269:S1 *1605:A 0.00136653
9 *1269:S1 *306:30 0.000196989
10 *1269:S1 *404:128 8.73147e-06
11 *1269:S1 *404:143 0.0001445
12 *1269:S1 *405:49 8.81023e-05
13 *1269:S1 *457:26 7.78114e-05
14 *1269:S1 *460:76 4.43871e-06
15 UserCLKo *1269:S1 5.06382e-06
16 *500:DIODE *1269:S1 6.03517e-05
17 *1256:S1 *1269:S1 8.18387e-05
18 *1258:S0 *1269:S1 0.000148121
19 *1261:S0 *1269:S1 5.23888e-05
20 *1261:S1 *1269:S1 0
21 *1269:S0 *1269:S1 5.8678e-05
22 *1271:S0 *1269:S1 0.000593518
23 *1273:S1 *1269:S1 0.000828447
24 *1397:A *1269:S1 0.00013513
*RES
1 *1286:Q *1269:S1 28.9679 
*END

*D_NET *267 0.00259835
*CONN
*I *1268:S0 I *D sky130_fd_sc_hd__mux4_1
*I *1287:Q O *D sky130_fd_sc_hd__dlxtp_1
*CAP
1 *1268:S0 0.00059643
2 *1287:Q 0.00059643
3 *1268:S0 *1268:A2 0.000160042
4 *1268:S0 *1287:D 4.91081e-05
5 *1268:S0 *1328:A 0.000450423
6 *1268:S0 *1356:A 0.000121027
7 *1268:S0 *300:10 0.000169097
8 *1268:S0 *412:68 6.17847e-05
9 *1260:S0 *1268:S0 0.000394009
*RES
1 *1287:Q *1268:S0 19.005 
*END

*D_NET *268 0.0030521
*CONN
*I *1268:S1 I *D sky130_fd_sc_hd__mux4_1
*I *1288:Q O *D sky130_fd_sc_hd__dlxtp_1
*CAP
1 *1268:S1 0.000543696
2 *1288:Q 0.000543696
3 *1268:S1 *487:DIODE 0.000460244
4 *1268:S1 *1252:A2 5.23362e-05
5 *1268:S1 *1303:GATE 4.82064e-05
6 *1268:S1 *1311:D 1.88656e-05
7 *1268:S1 *1328:A 0.000366723
8 *1268:S1 *1335:A 0.000205631
9 *1268:S1 *1336:A 4.66108e-05
10 *1268:S1 *1345:A 4.60255e-05
11 *1268:S1 *1358:A 7.9099e-05
12 *1268:S1 *325:40 0.000154977
13 *1268:S1 *399:26 0.000313758
14 *1268:S1 *412:68 0.000172236
*RES
1 *1288:Q *1268:S1 24.82 
*END

*D_NET *269 0.0106748
*CONN
*I *1267:S0 I *D sky130_fd_sc_hd__mux4_1
*I *1289:Q O *D sky130_fd_sc_hd__dlxtp_1
*CAP
1 *1267:S0 0
2 *1289:Q 0.00186255
3 *269:36 0.00186255
4 *269:36 *1256:A2 3.12433e-05
5 *269:36 *1258:A3 6.48366e-05
6 *269:36 *1261:A2 6.97936e-05
7 *269:36 *1294:D 1.88904e-05
8 *269:36 *1301:D 0.000900144
9 *269:36 *1386:A 0.000294775
10 *269:36 *1408:A 8.53113e-06
11 *269:36 *1414:A 0.000245267
12 *269:36 *1418:A 9.57285e-05
13 *269:36 *1420:A 0.00014506
14 *269:36 *1526:A 0.000112446
15 *269:36 *1585:A 0
16 *269:36 *1611:A 0.000997902
17 *269:36 *276:40 0.000168921
18 *269:36 *306:30 0.00024561
19 *269:36 *414:26 0
20 *269:36 *421:20 2.32997e-05
21 *269:36 *425:49 0.00114666
22 *269:36 *442:90 5.4112e-05
23 *269:36 *451:16 5.70946e-05
24 *269:36 *455:65 0.000165296
25 *269:36 *474:18 0.000129147
26 *269:36 *484:48 0.00125387
27 *1265:S1 *269:36 0.00061062
28 *1273:S0 *269:36 8.77516e-05
29 *1397:A *269:36 2.2684e-05
*RES
1 *1289:Q *269:36 49.4425 
2 *269:36 *1267:S0 1.6 
*END

*D_NET *270 0.00898894
*CONN
*I *1267:S1 I *D sky130_fd_sc_hd__mux4_1
*I *1290:Q O *D sky130_fd_sc_hd__dlxtp_1
*CAP
1 *1267:S1 0.00198485
2 *1290:Q 0.00198485
3 *1267:S1 *1256:A2 0.000228128
4 *1267:S1 *1258:A1 2.09024e-05
5 *1267:S1 *1267:A2 8.7152e-06
6 *1267:S1 *1298:D 0.000945723
7 *1267:S1 *1316:D 0.00153763
8 *1267:S1 *1520:A 0.000479835
9 *1267:S1 *1524:A 0.000890594
10 *1267:S1 *306:30 6.84399e-05
11 *1267:S1 *307:30 0.00016723
12 *1267:S1 *421:20 2.43124e-05
13 *1267:S1 *442:57 0.000162959
14 *1267:S1 *477:26 1.63614e-05
15 *1271:S1 *1267:S1 0.000468402
*RES
1 *1290:Q *1267:S1 28.0655 
*END

*D_NET *271 0.00382969
*CONN
*I *1266:S1 I *D sky130_fd_sc_hd__mux4_1
*I *1291:Q O *D sky130_fd_sc_hd__dlxtp_1
*CAP
1 *1266:S1 0.000590041
2 *1291:Q 0.000590041
3 *1266:S1 *1266:A2 0.000366068
4 *1266:S1 *1389:A 0.000376232
5 *1266:S1 *1417:A 0
6 *1266:S1 *1598:A 0.000195255
7 *1266:S1 *410:14 0.00144401
8 *1266:S1 *412:43 0.000268042
*RES
1 *1291:Q *1266:S1 25.2 
*END

*D_NET *272 0.00298336
*CONN
*I *1266:S0 I *D sky130_fd_sc_hd__mux4_1
*I *1292:Q O *D sky130_fd_sc_hd__dlxtp_1
*CAP
1 *1266:S0 0.000953677
2 *1292:Q 0.000953677
3 *1266:S0 *1385:A 0.000429258
4 *1266:S0 *1546:A 0
5 *1266:S0 *1598:A 0.000105689
6 *1266:S0 *412:18 1.36124e-05
7 *1266:S0 *443:16 0.000527447
*RES
1 *1292:Q *1266:S0 21.48 
*END

*D_NET *273 0.00595397
*CONN
*I *1381:A I *D sky130_fd_sc_hd__clkbuf_1
*I *1274:X O *D sky130_fd_sc_hd__mux4_1
*CAP
1 *1381:A 0.00125058
2 *1274:X 0.00125058
3 *1381:A *1270:A0 0.000631804
4 *1381:A *1389:A 0.000124786
5 *1381:A *1417:A 0.000393024
6 *1381:A *1554:A 0.000259861
7 *1381:A *303:24 0.000102102
8 *1381:A *383:20 0.00140866
9 *1381:A *409:20 0.000125337
10 *1381:A *413:20 1.3926e-05
11 *1381:A *466:66 0.000188649
12 *1381:A *476:14 0.000140503
13 *1270:S0 *1381:A 6.41634e-05
*RES
1 *1274:X *1381:A 34.245 
*END

*D_NET *274 0.00810159
*CONN
*I *1382:A I *D sky130_fd_sc_hd__clkbuf_1
*I *1273:X O *D sky130_fd_sc_hd__mux4_1
*CAP
1 *1382:A 0.00174128
2 *1273:X 0.00174128
3 *1382:A *1256:A3 0.000610588
4 *1382:A *1258:A1 1.00941e-05
5 *1382:A *1268:A0 9.39617e-05
6 *1382:A *1272:A0 0.000259271
7 *1382:A *1288:GATE 3.19312e-05
8 *1382:A *1294:D 7.48159e-05
9 *1382:A *1304:GATE 0.000125719
10 *1382:A *1358:A 0.000147317
11 *1382:A *1395:A 2.73983e-05
12 *1382:A *307:30 1.92979e-05
13 *1382:A *380:45 2.94504e-05
14 *1382:A *397:14 7.878e-05
15 *1382:A *399:26 0.000122457
16 *1382:A *403:41 6.76938e-05
17 *1382:A *444:64 0.000239274
18 *1382:A *459:83 0.000157992
19 *1382:A *461:30 7.71938e-05
20 *1382:A *461:53 1.22811e-05
21 *1382:A *464:42 0.000423601
22 *1273:S1 *1382:A 0.000606229
23 *1431:A *1382:A 0.00140369
*RES
1 *1273:X *1382:A 24.6646 
*END

*D_NET *275 0.00327395
*CONN
*I *1383:A I *D sky130_fd_sc_hd__clkbuf_1
*I *1272:X O *D sky130_fd_sc_hd__mux4_1
*CAP
1 *1383:A 0.000526957
2 *1272:X 0.000526957
3 *1383:A *1250:A2 0.000810035
4 *1383:A *1255:A0 0.000606391
5 *1383:A *1270:A0 0.00037426
6 *1383:A *1585:A 3.51583e-05
7 *1383:A *336:57 9.14026e-05
8 *1383:A *400:22 2.77052e-05
9 *1383:A *402:65 1.56428e-05
10 *1383:A *402:71 3.03684e-05
11 *1383:A *416:28 6.71882e-05
12 *1383:A *437:28 4.21314e-05
13 *1251:S0 *1383:A 0.000119756
*RES
1 *1272:X *1383:A 21.945 
*END

*D_NET *276 0.0121053
*CONN
*I *1384:A I *D sky130_fd_sc_hd__buf_1
*I *1271:X O *D sky130_fd_sc_hd__mux4_1
*CAP
1 *1384:A 0.000328233
2 *1271:X 0.00248552
3 *276:40 0.00281376
4 *1384:A *1265:A0 2.26024e-05
5 *1384:A *1330:A 0.000241729
6 *1384:A *1378:A 0.00067779
7 *1384:A *1387:A 0.000131187
8 *1384:A *1575:A 0.000301479
9 *1384:A *299:34 6.01333e-05
10 *1384:A *423:32 0.000108438
11 *276:40 *499:DIODE 0
12 *276:40 *1254:A1 0.000176583
13 *276:40 *1261:A0 0.000190505
14 *276:40 *1271:A2 9.3229e-06
15 *276:40 *1271:A3 3.20641e-05
16 *276:40 *1273:A0 3.64998e-06
17 *276:40 *1273:A2 0.000163175
18 *276:40 *1294:D 0.000711984
19 *276:40 *1337:A 5.44379e-05
20 *276:40 *1378:A 0.00021556
21 *276:40 *1416:A 1.49994e-05
22 *276:40 *1420:A 0.000243383
23 *276:40 *1539:A 0.00025694
24 *276:40 *1540:A 3.20425e-05
25 *276:40 *1577:A 9.39388e-06
26 *276:40 *333:22 8.53113e-06
27 *276:40 *367:12 0
28 *276:40 *421:20 0.000365541
29 *276:40 *449:12 0.000194344
30 *276:40 *464:42 7.96104e-06
31 *276:40 *473:14 0.000366233
32 *1265:S0 *276:40 2.04648e-05
33 *1265:S1 *276:40 4.16433e-05
34 *1271:S0 *276:40 0.0013878
35 *1271:S1 *276:40 7.6834e-05
36 *1365:A *276:40 0.000129069
37 *1370:A *276:40 5.30608e-05
38 *269:36 *276:40 0.000168921
*RES
1 *1271:X *276:40 47.3639 
2 *276:40 *1384:A 12.925 
*END

*D_NET *277 0.00348167
*CONN
*I *1385:A I *D sky130_fd_sc_hd__clkbuf_1
*I *1270:X O *D sky130_fd_sc_hd__mux4_1
*CAP
1 *1385:A 0.000630624
2 *1270:X 0.000630624
3 *1385:A *1266:A3 0.000319126
4 *1385:A *1546:A 0
5 *1385:A *303:24 1.83847e-05
6 *1385:A *372:22 9.30787e-05
7 *1385:A *411:18 0
8 *1385:A *412:18 9.70174e-05
9 *1385:A *413:20 0.00010491
10 *1385:A *416:28 0.000599076
11 *1385:A *417:24 0.000230908
12 *1385:A *458:40 6.27339e-05
13 *1385:A *465:20 0.000265931
14 *1266:S0 *1385:A 0.000429258
15 *1270:S1 *1385:A 0
*RES
1 *1270:X *1385:A 25.56 
*END

*D_NET *278 0.00346661
*CONN
*I *1386:A I *D sky130_fd_sc_hd__buf_1
*I *1269:X O *D sky130_fd_sc_hd__mux4_1
*CAP
1 *1386:A 0.000728279
2 *1269:X 0.000728279
3 *1386:A *1261:A2 8.67666e-06
4 *1386:A *1293:GATE 1.44259e-05
5 *1386:A *1537:A 0.00107591
6 *1386:A *404:143 0.000186692
7 *491:DIODE *1386:A 0.000115047
8 *1259:S1 *1386:A 8.23457e-05
9 *1261:S1 *1386:A 0.000112893
10 *1269:S1 *1386:A 0
11 *1362:A *1386:A 5.46615e-05
12 *1369:A *1386:A 3.93553e-05
13 *1397:A *1386:A 2.52718e-05
14 *269:36 *1386:A 0.000294775
*RES
1 *1269:X *1386:A 23.655 
*END

*D_NET *279 0.0046999
*CONN
*I *1387:A I *D sky130_fd_sc_hd__buf_1
*I *1268:X O *D sky130_fd_sc_hd__mux4_1
*CAP
1 *1387:A 0.000776053
2 *1268:X 0.000776053
3 *1387:A *1254:A0 4.34097e-05
4 *1387:A *1256:A0 6.14291e-05
5 *1387:A *1256:A1 0.000116048
6 *1387:A *1256:A2 0.000515525
7 *1387:A *1265:A0 0.000159697
8 *1387:A *1290:D 0.000338015
9 *1387:A *299:34 0.000853876
10 *1387:A *309:30 0.000494043
11 *1387:A *343:28 2.01565e-05
12 *1387:A *395:12 0.000254777
13 *1387:A *401:12 9.80943e-06
14 *1387:A *404:10 0.000118081
15 *1387:A *444:42 1.97442e-05
16 *1384:A *1387:A 0.000131187
17 *1434:A *1387:A 1.19928e-05
*RES
1 *1268:X *1387:A 28.44 
*END

*D_NET *280 0.00286286
*CONN
*I *1388:A I *D sky130_fd_sc_hd__buf_1
*I *1267:X O *D sky130_fd_sc_hd__mux4_1
*CAP
1 *1388:A 0.000696006
2 *1267:X 0.000696006
3 *1388:A *1271:A2 0.000116165
4 *1388:A *1271:A3 0.000410731
5 *1388:A *1514:A 9.94053e-05
6 *1388:A *1538:A 0
7 *1388:A *1540:A 0.000538294
8 *1388:A *1541:A 4.70912e-05
9 *1254:S0 *1388:A 0.00016976
10 *1259:S1 *1388:A 4.82919e-05
11 *1271:S0 *1388:A 1.13517e-05
12 *1371:A *1388:A 2.97561e-05
*RES
1 *1267:X *1388:A 23.31 
*END

*D_NET *281 0.00200208
*CONN
*I *1389:A I *D sky130_fd_sc_hd__clkbuf_1
*I *1266:X O *D sky130_fd_sc_hd__mux4_1
*CAP
1 *1389:A 0.000316121
2 *1266:X 0.000316121
3 *1389:A *1417:A 0.000148916
4 *1389:A *1554:A 4.92861e-05
5 *1389:A *1598:A 0.000670617
6 *1266:S1 *1389:A 0.000376232
7 *1381:A *1389:A 0.000124786
*RES
1 *1266:X *1389:A 16.935 
*END

*D_NET *282 0.00554299
*CONN
*I *1390:A I *D sky130_fd_sc_hd__buf_1
*I *1265:X O *D sky130_fd_sc_hd__mux4_1
*CAP
1 *1390:A 0.0008515
2 *1265:X 0.0008515
3 *1390:A *1261:A0 1.46828e-05
4 *1390:A *1265:A0 2.97522e-05
5 *1390:A *1308:D 0.000377032
6 *1390:A *1311:D 0.000561926
7 *1390:A *1312:D 0.000240649
8 *1390:A *1319:D 0.00024258
9 *1390:A *1335:A 0
10 *1390:A *1337:A 5.8023e-05
11 *1390:A *1353:A 0.000310615
12 *1390:A *1580:A 0.000159383
13 *1390:A *1616:A 0.000235769
14 *1390:A *1619:A 0.000118139
15 *1390:A *294:32 0.000303261
16 *1390:A *297:44 0.000232301
17 *1390:A *299:34 0.00031297
18 *1390:A *429:22 1.67799e-05
19 *1390:A *455:65 7.73312e-05
20 *1390:A *473:14 5.97512e-05
21 *1252:S0 *1390:A 0.00033606
22 *1263:S0 *1390:A 6.0383e-05
23 *1269:S0 *1390:A 7.48954e-05
24 *261:36 *1390:A 1.77103e-05
*RES
1 *1265:X *1390:A 34.6376 
*END

*D_NET *283 0.00460383
*CONN
*I *1391:A I *D sky130_fd_sc_hd__clkbuf_1
*I *1264:X O *D sky130_fd_sc_hd__mux4_1
*CAP
1 *1391:A 0.000837545
2 *1264:X 0.000837545
3 *1391:A *492:DIODE 0.000162311
4 *1391:A *1250:A2 0.00015639
5 *1391:A *1251:A1 7.90657e-06
6 *1391:A *1255:A2 0.000352621
7 *1391:A *1277:D 3.78504e-05
8 *1391:A *1314:D 0.000374815
9 *1391:A *1314:GATE 0.000471708
10 *1391:A *1556:A 0.000128969
11 *1391:A *361:26 0.000180557
12 *1391:A *392:20 0.000459066
13 *1391:A *412:68 8.57735e-05
14 *1391:A *422:18 4.79784e-05
15 *1391:A *446:28 0.000182414
16 *1391:A *446:30 4.66108e-05
17 *1391:A *446:46 7.97189e-05
18 *1391:A *448:70 4.66108e-05
19 *1391:A *461:78 0.000107444
*RES
1 *1264:X *1391:A 27.99 
*END

*D_NET *284 0.00902571
*CONN
*I *1392:A I *D sky130_fd_sc_hd__buf_1
*I *1263:X O *D sky130_fd_sc_hd__mux4_1
*CAP
1 *1392:A 0.00013217
2 *1263:X 0.00286764
3 *284:24 0.00299981
4 *1392:A *1557:A 4.45424e-05
5 *1392:A *1618:A 0.000247997
6 *1392:A *1624:A 4.66108e-05
7 *284:24 *1259:A1 1.91597e-05
8 *284:24 *1259:A2 6.90889e-06
9 *284:24 *1259:A3 9.14405e-05
10 *284:24 *1267:A2 1.54111e-05
11 *284:24 *1271:A1 0.000166226
12 *284:24 *1315:D 0.000322733
13 *284:24 *1315:GATE 0.000122184
14 *284:24 *1329:A 0.000250467
15 *284:24 *1396:A 1.73476e-05
16 *284:24 *1540:A 0.000513248
17 *284:24 *1541:A 0.000515009
18 *284:24 *1618:A 6.20444e-05
19 *284:24 *304:26 2.61944e-05
20 *284:24 *404:116 0.000410785
21 *284:24 *442:90 5.63748e-05
22 *284:24 *467:65 9.14126e-05
*RES
1 *1263:X *284:24 48.21 
2 *284:24 *1392:A 4.93 
*END

*D_NET *285 0.00653164
*CONN
*I *1393:A I *D sky130_fd_sc_hd__clkbuf_1
*I *1262:X O *D sky130_fd_sc_hd__mux4_1
*CAP
1 *1393:A 0.0013992
2 *1262:X 0.0013992
3 *1393:A *1250:B1 0.00022786
4 *1393:A *1421:A 1.61227e-05
5 *1393:A *1542:A 0.00104482
6 *1393:A *1550:A 0.00105898
7 *1393:A *1556:A 0.000526025
8 *1393:A *1558:A 4.84393e-05
9 *1393:A *351:24 2.20014e-05
10 *1393:A *357:32 0.000779292
11 *1393:A *419:12 0
12 *1393:A *466:66 4.18603e-06
13 N2BEG[4] *1393:A 5.50615e-06
*RES
1 *1262:X *1393:A 39.03 
*END

*D_NET *286 0.00213051
*CONN
*I *1394:A I *D sky130_fd_sc_hd__buf_1
*I *1261:X O *D sky130_fd_sc_hd__mux4_1
*CAP
1 *1394:A 0.000488036
2 *1261:X 0.000488036
3 *1394:A *1271:A3 6.88421e-05
4 *1394:A *1315:D 2.49909e-05
5 *1394:A *1316:D 3.91191e-05
6 *1394:A *1316:GATE 0
7 *1394:A *1518:A 5.9158e-05
8 *1394:A *1534:A 0.000243977
9 *1254:S1 *1394:A 0.000418504
10 *1259:S0 *1394:A 0.00029985
*RES
1 *1261:X *1394:A 18.195 
*END

*D_NET *287 0.00413032
*CONN
*I *1395:A I *D sky130_fd_sc_hd__buf_1
*I *1260:X O *D sky130_fd_sc_hd__mux4_1
*CAP
1 *1395:A 0.000680899
2 *1260:X 0.000680899
3 *1395:A *1268:A0 0.00014506
4 *1395:A *1288:GATE 2.99036e-05
5 *1395:A *1303:GATE 8.51862e-05
6 *1395:A *1304:GATE 5.38986e-06
7 *1395:A *1328:A 0.000375056
8 *1395:A *1331:A 7.4415e-05
9 *1395:A *1332:A 8.35068e-05
10 *1395:A *1339:A 0.000635618
11 *1395:A *1357:A 0.000847809
12 *1395:A *1358:A 1.88904e-05
13 *1395:A *1418:A 0.000119063
14 *1395:A *1520:A 4.66108e-05
15 *1395:A *306:30 9.86509e-05
16 *1395:A *322:42 7.90359e-05
17 *1395:A *380:45 8.2453e-05
18 *1395:A *403:41 1.44779e-05
19 *1382:A *1395:A 2.73983e-05
*RES
1 *1260:X *1395:A 25.335 
*END

*D_NET *288 0.00309816
*CONN
*I *1396:A I *D sky130_fd_sc_hd__buf_1
*I *1259:X O *D sky130_fd_sc_hd__mux4_1
*CAP
1 *1396:A 0.000840427
2 *1259:X 0.000840427
3 *1396:A *1259:A2 1.32668e-05
4 *1396:A *1531:A 0.000312257
5 *1396:A *1532:A 0
6 *1396:A *1607:A 0.000604881
7 *1396:A *1618:A 0.000172629
8 *1259:S0 *1396:A 0.000292308
9 *1259:S1 *1396:A 4.61701e-06
10 *284:24 *1396:A 1.73476e-05
*RES
1 *1259:X *1396:A 23.88 
*END

*D_NET *289 0.00377797
*CONN
*I *1250:A2 I *D sky130_fd_sc_hd__a22o_1
*I *1248:X O *D sky130_fd_sc_hd__or2_1
*CAP
1 *1250:A2 0.000697092
2 *1248:X 0.000697092
3 *1250:A2 *1266:A0 0.000100354
4 *1250:A2 *1276:D 3.63518e-05
5 *1250:A2 *1276:GATE 8.49397e-05
6 *1250:A2 *400:22 4.47938e-06
7 *1250:A2 *408:24 3.60648e-06
8 *1250:A2 *433:34 0.000736918
9 *1250:A2 *437:28 0.000111937
10 *1250:A2 *443:34 0.000338771
11 *1383:A *1250:A2 0.000810035
12 *1391:A *1250:A2 0.00015639
*RES
1 *1248:X *1250:A2 24.345 
*END

*D_NET *290 0.00807843
*CONN
*I *1250:B1 I *D sky130_fd_sc_hd__a22o_1
*I *1249:Y O *D sky130_fd_sc_hd__nor2_1
*CAP
1 *1250:B1 0.00118937
2 *1249:Y 0.00118937
3 *1250:B1 *1250:B2 1.67131e-05
4 *1250:B1 *1415:A 0.00152379
5 *1250:B1 *1547:A 3.79853e-05
6 *1250:B1 *1553:A 0.00130266
7 *1250:B1 *373:26 4.41234e-05
8 *1250:B1 *466:66 0.000985946
9 *1249:B *1250:B1 1.7635e-05
10 *1250:A1 *1250:B1 0.000500015
11 *1270:S1 *1250:B1 0.00104296
12 *1393:A *1250:B1 0.00022786
*RES
1 *1249:Y *1250:B1 44.04 
*END

*D_NET *291 0.0277343
*CONN
*I *1293:D I *D sky130_fd_sc_hd__dlxtp_1
*I *1325:A I *D sky130_fd_sc_hd__buf_1
*I *1436:X O *D sky130_fd_sc_hd__dlymetal6s2s_1
*CAP
1 *1293:D 0.00110143
2 *1325:A 0.000899268
3 *1436:X 0.00412791
4 *291:22 0.00612861
5 *1293:D *487:DIODE 0.000606692
6 *1293:D *499:DIODE 0.0018948
7 *1293:D *1285:D 0.000312119
8 *1293:D *464:42 0.000745144
9 *1325:A *487:DIODE 4.32417e-05
10 *1325:A *498:DIODE 0.00109496
11 *1325:A *1285:D 3.96645e-05
12 *1325:A *1309:GATE 0
13 *1325:A *1326:A 0.000698041
14 *1325:A *1549:A 8.7152e-06
15 *1325:A *1611:A 1.37992e-05
16 *1325:A *1616:A 3.02789e-05
17 *1325:A *299:34 6.72196e-05
18 *1325:A *322:42 5.75488e-05
19 *1325:A *391:38 2.5424e-05
20 *1325:A *423:32 1.75833e-05
21 *1325:A *427:20 0.000176554
22 *1325:A *468:22 7.81994e-05
23 *1325:A *477:26 0.000148983
24 *1325:A *484:48 7.54285e-05
25 *291:22 *490:DIODE 0.000149167
26 *291:22 *1553:A 0.00209352
27 *291:22 *1585:A 0.000968363
28 *291:22 *1591:A 0.00189875
29 *291:22 *314:12 1.92979e-05
30 *291:22 *347:66 0.000109836
31 *291:22 *353:24 0
32 *291:22 *364:14 0.000294577
33 *291:22 *392:20 0.000451686
34 *291:22 *399:26 0.000891552
35 *291:22 *409:20 0
36 *291:22 *415:16 0.000160171
37 *291:22 *418:22 0
38 *291:22 *443:34 0.000160171
39 *1270:S1 *291:22 4.46022e-05
40 *1362:A *1293:D 8.20521e-05
41 *1363:A *1293:D 8.37189e-05
42 *1365:A *1293:D 0.0014905
43 *1368:A *1293:D 4.66108e-05
44 *67:13 *291:22 0.000398081
*RES
1 *1436:X *291:22 17.0147 
2 *291:22 *1325:A 11.2932 
3 *291:22 *1293:D 10.2215 
*END

*D_NET *292 0.0212568
*CONN
*I *1311:D I *D sky130_fd_sc_hd__dlxtp_1
*I *1343:A I *D sky130_fd_sc_hd__buf_1
*I *1279:D I *D sky130_fd_sc_hd__dlxtp_1
*I *1437:X O *D sky130_fd_sc_hd__dlymetal6s2s_1
*CAP
1 *1311:D 0.000727347
2 *1343:A 0.000328549
3 *1279:D 0.000116165
4 *1437:X 0.0018037
5 *292:43 0.00178984
6 *292:16 0.00265381
7 *1279:D *1253:A0 6.21023e-05
8 *1279:D *303:24 7.27933e-05
9 *1279:D *408:44 0.000293736
10 *1311:D *1261:A0 0.000299125
11 *1311:D *1282:D 3.83194e-05
12 *1311:D *1287:D 0.000192489
13 *1311:D *1290:D 0.0003908
14 *1311:D *1308:D 7.9642e-06
15 *1311:D *1319:D 8.23457e-05
16 *1311:D *1345:A 7.96104e-06
17 *1311:D *1350:A 4.66108e-05
18 *1311:D *1356:A 4.05706e-05
19 *1311:D *1428:A 0.000522533
20 *1311:D *1514:A 2.68464e-05
21 *1311:D *1616:A 7.53239e-05
22 *1311:D *294:32 6.67345e-05
23 *1311:D *309:30 0.00044148
24 *1311:D *380:45 2.35896e-05
25 *1311:D *449:12 1.45232e-05
26 *1343:A *496:DIODE 0.000364015
27 *1343:A *1609:A 0.000110083
28 *1343:A *391:38 0.000134915
29 *1343:A *433:34 0.000111721
30 *1343:A *461:30 0.000142683
31 *1343:A *479:30 0.000134915
32 *1343:A *484:48 5.29499e-05
33 *292:16 *1262:A2 5.38986e-06
34 *292:16 *1270:A2 0.00132763
35 *292:16 *1547:A 8.91526e-05
36 *292:16 *303:24 0.00164418
37 *292:16 *325:26 0.00174545
38 *292:16 *407:48 0.00072821
39 *292:16 *465:20 0.000418045
40 *292:16 *465:57 0.000252269
41 *292:16 *476:14 0.000967122
42 *292:43 *1290:D 9.03508e-06
43 *292:43 *1345:A 5.31938e-05
44 *292:43 *1358:A 3.16939e-05
45 *292:43 *1547:A 0.000128411
46 *292:43 *1616:A 7.81994e-05
47 *292:43 *322:42 0.000198123
48 *292:43 *380:45 8.29719e-05
49 *292:43 *400:76 0.00029936
50 *292:43 *408:44 0.000387018
51 *292:43 *435:18 7.2891e-06
52 *1250:A1 *292:16 6.86767e-05
53 *1256:S1 *1311:D 0.000132637
54 *1260:S1 *292:43 1.88656e-05
55 *1264:S0 *1279:D 0.000102825
56 *1268:S1 *1311:D 1.88656e-05
57 *1269:S0 *1311:D 0.000173935
58 *1272:S1 *1279:D 6.69608e-06
59 *1274:S0 *292:16 7.90693e-05
60 *1390:A *1311:D 0.000561926
61 *1511:A *292:16 0.000275313
62 *261:36 *1311:D 0.000188729
*RES
1 *1437:X *292:16 40.0488 
2 *292:16 *1279:D 7.13625 
3 *292:16 *292:43 9.9919 
4 *292:43 *1343:A 7.77323 
5 *292:43 *1311:D 29.1279 
*END

*D_NET *293 0.0168762
*CONN
*I *1620:A I *D sky130_fd_sc_hd__buf_2
*I *1349:X O *D sky130_fd_sc_hd__buf_1
*CAP
1 *1620:A 0.000872507
2 *1349:X 0.000409808
3 *293:14 0.00258443
4 *293:12 0.00212173
5 *1620:A *1531:A 0.000103398
6 *1620:A *1532:A 0
7 *1620:A *1604:A 0
8 *1620:A *1612:A 0.000458847
9 *1620:A *1625:A 4.66108e-05
10 *293:12 *310:40 1.43933e-05
11 *293:12 *426:26 6.72196e-05
12 *293:14 *1557:A 0.00013827
13 *293:14 *294:38 0
14 *293:14 *310:40 1.33285e-05
15 *293:14 *310:50 0.00188918
16 *293:14 *343:32 0.0017719
17 *293:14 *361:14 0.000313685
18 *293:14 *479:30 0.000100795
19 *293:14 *479:38 0.00294505
20 FrameData_O[27] *1620:A 0.000138599
21 NN4BEG[14] *293:12 0.000247312
22 *1397:A *293:14 3.83194e-05
23 *1404:A *293:14 0.000230048
24 *1433:A *293:12 0.000457176
25 *1462:A *293:14 0.001222
26 *1464:A *293:12 4.92971e-05
27 *1465:A *293:12 7.83475e-05
28 *1472:A *293:14 7.99093e-05
29 *1475:A *293:12 0.000132423
30 *1477:A *293:12 1.90048e-05
31 *1478:A *293:12 6.64532e-05
32 *1485:A *293:14 0.00026617
*RES
1 *1349:X *293:12 14.33 
2 *293:12 *293:14 54.615 
3 *293:14 *1620:A 22.445 
*END

*D_NET *294 0.0128269
*CONN
*I *1621:A I *D sky130_fd_sc_hd__buf_2
*I *495:DIODE I *D sky130_fd_sc_hd__diode_2
*I *1350:X O *D sky130_fd_sc_hd__buf_1
*CAP
1 *1621:A 2.89741e-05
2 *495:DIODE 2.89741e-05
3 *1350:X 0.00155868
4 *294:38 0.00207793
5 *294:32 0.00363661
6 *294:32 *499:DIODE 2.3093e-05
7 *294:32 *1256:A0 1.22875e-05
8 *294:32 *1282:D 4.66108e-05
9 *294:32 *1308:D 0.000454434
10 *294:32 *1312:D 0.000303264
11 *294:32 *1572:A 7.53239e-05
12 *294:32 *1604:A 7.40874e-05
13 *294:32 *1616:A 0.000335452
14 *294:32 *1619:A 4.00942e-05
15 *294:32 *333:22 1.66925e-05
16 *294:32 *460:34 0.000167932
17 *294:38 *1533:A 1.83538e-05
18 *294:38 *1614:A 0.000173995
19 *294:38 *442:30 0.000353582
20 *294:38 *461:30 0.000774389
21 *294:38 *479:38 0
22 *294:38 *481:28 0.000633317
23 FrameData_O[26] *1621:A 2.49909e-05
24 FrameData_O[30] *294:38 0.000124613
25 *1271:S1 *294:38 0.0011424
26 *1311:D *294:32 6.67345e-05
27 *1390:A *294:32 0.000303261
28 *1490:A *294:32 3.82018e-05
29 *1496:A *294:38 0.000132997
30 *1509:A *294:38 0.000159688
31 *293:14 *294:38 0
*RES
1 *1350:X *294:32 16.5666 
2 *294:32 *294:38 48.14 
3 *294:38 *495:DIODE 3.6 
4 *495:DIODE *1621:A 3.65 
*END

*D_NET *295 0.0170695
*CONN
*I *1622:A I *D sky130_fd_sc_hd__buf_2
*I *1351:X O *D sky130_fd_sc_hd__buf_1
*CAP
1 *1622:A 0
2 *1351:X 0.00363328
3 *295:48 0.00363328
4 *295:48 *494:DIODE 4.66108e-05
5 *295:48 *496:DIODE 1.88602e-05
6 *295:48 *1256:A1 8.23652e-06
7 *295:48 *1267:A0 0.000220253
8 *295:48 *1271:A0 0.0023506
9 *295:48 *1282:D 4.00886e-05
10 *295:48 *1287:D 8.23457e-05
11 *295:48 *1319:D 7.14699e-05
12 *295:48 *1320:D 0.000127746
13 *295:48 *1328:A 5.61451e-05
14 *295:48 *1334:A 0
15 *295:48 *1345:A 0.000130644
16 *295:48 *1348:A 2.01669e-05
17 *295:48 *1352:A 0.000120252
18 *295:48 *1356:A 0.000162487
19 *295:48 *1416:A 2.18287e-05
20 *295:48 *1514:A 0.000196372
21 *295:48 *1557:A 0
22 *295:48 *1604:A 0
23 *295:48 *1613:A 0.000159149
24 *295:48 *1623:A 0
25 *295:48 *322:42 0.000659226
26 *295:48 *420:14 3.19977e-05
27 *295:48 *427:20 8.41703e-06
28 *295:48 *428:22 0.000166694
29 *295:48 *433:34 0.000130077
30 *295:48 *434:24 0.000512505
31 *295:48 *442:30 5.2999e-05
32 *295:48 *450:16 0.000847427
33 *295:48 *456:36 0.00146594
34 *295:48 *461:30 0.000847427
35 *295:48 *468:22 1.37923e-05
36 FrameStrobe_O[17] *295:48 0.000589559
37 FrameStrobe_O[7] *295:48 0.000106263
38 *1403:A *295:48 0.000296304
39 *1473:A *295:48 9.14766e-05
40 *1488:A *295:48 0.000138798
41 *1492:A *295:48 1.07563e-05
*RES
1 *1351:X *295:48 49.3941 
2 *295:48 *1622:A 3.6 
*END

*D_NET *296 0.014278
*CONN
*I *1623:A I *D sky130_fd_sc_hd__buf_2
*I *1352:X O *D sky130_fd_sc_hd__buf_1
*CAP
1 *1623:A 0.00339435
2 *1352:X 0.00339435
3 *1623:A *1312:D 7.18354e-05
4 *1623:A *1348:A 4.77719e-05
5 *1623:A *1353:A 5.99393e-05
6 *1623:A *1416:A 0.000155601
7 *1623:A *1514:A 0.000148113
8 *1623:A *1611:A 0.00119553
9 *1623:A *1613:A 0.00020843
10 *1623:A *1618:A 0.00233879
11 *1623:A *1619:A 0.000427844
12 *1623:A *1624:A 1.7635e-05
13 *1623:A *297:44 4.66474e-05
14 *1623:A *299:34 0.000195557
15 *1623:A *354:18 0.000169206
16 *1623:A *455:65 0.000367673
17 *1623:A *460:76 0.000293783
18 *1623:A *468:22 5.44896e-05
19 *1623:A *484:48 0.000823319
20 *1259:S1 *1623:A 0.000867175
21 *295:48 *1623:A 0
*RES
1 *1352:X *1623:A 25.4005 
*END

*D_NET *297 0.0131605
*CONN
*I *1624:A I *D sky130_fd_sc_hd__buf_2
*I *1353:X O *D sky130_fd_sc_hd__buf_1
*CAP
1 *1624:A 0.00189095
2 *1353:X 0.000901437
3 *297:44 0.00279239
4 *1624:A *1271:A1 0.000143833
5 *1624:A *1307:D 0.000414254
6 *1624:A *1308:D 0.000524657
7 *1624:A *1424:A 0.000119762
8 *1624:A *1612:A 0
9 *1624:A *1613:A 0.000373754
10 *1624:A *1616:A 0
11 *1624:A *1618:A 0.000196669
12 *1624:A *1619:A 0
13 *1624:A *304:26 0.00108268
14 *297:44 *1254:A1 0.000133685
15 *297:44 *1258:A1 6.65964e-05
16 *297:44 *1301:D 0.000415008
17 *297:44 *1308:D 0.000243473
18 *297:44 *1312:D 0.000401723
19 *297:44 *1416:A 0.000598032
20 *297:44 *1418:A 0.000211966
21 *297:44 *1424:A 7.39476e-05
22 *297:44 *1580:A 0.000388969
23 *297:44 *449:12 2.3654e-05
24 *297:44 *468:22 0.000716736
25 *1269:S0 *297:44 0.000126944
26 *1376:A *1624:A 0.000207263
27 *1390:A *297:44 0.000232301
28 *1392:A *1624:A 4.66108e-05
29 *1498:A *1624:A 0.000673983
30 *1623:A *1624:A 1.7635e-05
31 *1623:A *297:44 4.66474e-05
32 *261:36 *297:44 9.49207e-05
*RES
1 *1353:X *297:44 34.8839 
2 *297:44 *1624:A 45.23 
*END

*D_NET *298 0.0222812
*CONN
*I *1625:A I *D sky130_fd_sc_hd__buf_2
*I *496:DIODE I *D sky130_fd_sc_hd__diode_2
*I *1354:X O *D sky130_fd_sc_hd__buf_1
*CAP
1 *1625:A 1.36534e-05
2 *496:DIODE 0.00331695
3 *1354:X 0.00330329
4 *496:DIODE *1280:D 0.000224171
5 *496:DIODE *1418:A 0.000361567
6 *496:DIODE *1532:A 0
7 *496:DIODE *1557:A 0.00104979
8 *496:DIODE *1564:A 0.00588987
9 *496:DIODE *1581:A 0.000245924
10 *496:DIODE *1609:A 0.00514487
11 *496:DIODE *303:51 2.95721e-05
12 *496:DIODE *410:14 0.000505322
13 *496:DIODE *418:22 0.000196009
14 *496:DIODE *458:26 0.000145637
15 *496:DIODE *461:30 0.000160029
16 *496:DIODE *476:41 6.93328e-05
17 *1625:A *1612:A 4.66108e-05
18 *1343:A *496:DIODE 0.000364015
19 *1620:A *1625:A 4.66108e-05
20 *67:38 *496:DIODE 0.0011491
21 *295:48 *496:DIODE 1.88602e-05
*RES
1 *1354:X *496:DIODE 33.7096 
2 *496:DIODE *1625:A 3.65 
*END

*D_NET *299 0.0162476
*CONN
*I *497:DIODE I *D sky130_fd_sc_hd__diode_2
*I *1512:A I *D sky130_fd_sc_hd__buf_2
*I *1327:X O *D sky130_fd_sc_hd__buf_1
*CAP
1 *497:DIODE 9.46875e-05
2 *1512:A 0
3 *1327:X 0.00152378
4 *299:44 0.000162951
5 *299:40 0.001945
6 *299:34 0.00340052
7 *497:DIODE *309:32 7.69995e-05
8 *299:34 *1256:A1 4.82172e-06
9 *299:34 *1289:D 0.000177592
10 *299:34 *1312:D 2.98177e-05
11 *299:34 *1326:A 0
12 *299:34 *1330:A 0.000271021
13 *299:34 *1353:A 0.000250704
14 *299:34 *1416:A 6.57705e-05
15 *299:34 *1549:A 4.82863e-05
16 *299:34 *1591:A 0.000259507
17 *299:34 *309:30 8.76863e-05
18 *299:34 *314:18 0
19 *299:34 *343:28 3.59531e-06
20 *299:34 *395:12 0.000411484
21 *299:34 *423:32 0.000212573
22 *299:34 *431:10 7.24439e-06
23 *299:40 *487:DIODE 2.4997e-05
24 *299:40 *300:12 0
25 *299:40 *351:24 0.000346427
26 *299:44 *309:32 4.60087e-05
27 FrameData_O[1] *299:40 5.21615e-05
28 FrameData_O[3] *299:40 0.000105304
29 *1256:S1 *299:34 4.12525e-05
30 *1325:A *299:34 6.72196e-05
31 *1363:A *299:40 0.0023181
32 *1364:A *299:40 3.54456e-05
33 *1367:A *299:40 0
34 *1374:A *299:40 0
35 *1375:A *299:40 0
36 *1384:A *299:34 6.01333e-05
37 *1387:A *299:34 0.000853876
38 *1390:A *299:34 0.00031297
39 *1623:A *299:34 0.000195557
40 *79:11 *299:40 0.000252144
41 *80:11 *299:40 0.00250194
*RES
1 *1327:X *299:34 39.75 
2 *299:34 *299:40 49.79 
3 *299:40 *299:44 3.14 
4 *299:44 *1512:A 1.6 
5 *299:44 *497:DIODE 3.43 
*END

*D_NET *300 0.0189993
*CONN
*I *1513:A I *D sky130_fd_sc_hd__buf_2
*I *1355:X O *D sky130_fd_sc_hd__buf_1
*CAP
1 *1513:A 0.00129618
2 *1355:X 0.000799277
3 *300:12 0.00275528
4 *300:10 0.00225837
5 *1513:A *1259:A0 0.000111906
6 *1513:A *1514:A 0.00038749
7 *1513:A *1528:A 0.0006659
8 *1513:A *1529:A 4.78859e-05
9 *1513:A *1530:A 0.00122254
10 *1513:A *1532:A 8.65905e-05
11 *1513:A *1604:A 0.00015262
12 *1513:A *307:30 0.000132782
13 *300:10 *1268:A2 7.27402e-06
14 *300:10 *1272:A0 4.59206e-05
15 *300:10 *1327:A 0.000227718
16 *300:10 *397:14 0.000265972
17 *300:10 *412:68 0
18 *300:10 *443:42 0
19 *300:10 *444:42 0.000127543
20 *300:12 *342:12 0.00094047
21 *300:12 *353:24 0.00049851
22 *300:12 *421:12 0.00198699
23 *300:12 *443:42 0.00327325
24 FrameData_O[26] *1513:A 0.000270093
25 FrameStrobe_O[15] *1513:A 5.05167e-05
26 FrameStrobe_O[17] *1513:A 3.50033e-05
27 FrameStrobe_O[18] *1513:A 8.49205e-05
28 *1260:S0 *300:10 6.84448e-05
29 *1268:S0 *300:10 0.000169097
30 *1367:A *300:12 0.000298958
31 *1372:A *1513:A 0
32 *1373:A *1513:A 0.000731775
33 *299:40 *300:12 0
*RES
1 *1355:X *300:10 19.73 
2 *300:10 *300:12 48.405 
3 *300:12 *1513:A 42.125 
*END

*D_NET *301 0.0165344
*CONN
*I *1514:A I *D sky130_fd_sc_hd__buf_2
*I *1356:X O *D sky130_fd_sc_hd__buf_1
*CAP
1 *1514:A 0.00334481
2 *1356:X 0.00334481
3 *1514:A *494:DIODE 0.000463563
4 *1514:A *1254:A0 2.38233e-05
5 *1514:A *1267:A0 0.000737214
6 *1514:A *1286:D 9.24727e-05
7 *1514:A *1301:D 0.00112938
8 *1514:A *1319:D 5.88497e-05
9 *1514:A *1529:A 9.4087e-05
10 *1514:A *1532:A 8.65905e-05
11 *1514:A *1538:A 0
12 *1514:A *1539:A 2.42662e-05
13 *1514:A *1540:A 1.63667e-05
14 *1514:A *1611:A 8.88593e-05
15 *1514:A *1616:A 0.00268963
16 *1514:A *1619:A 0.000523745
17 *1514:A *354:18 1.8352e-05
18 *1514:A *380:45 0.000274632
19 *1514:A *427:20 2.61912e-05
20 *1514:A *455:18 0.000127411
21 *1514:A *457:14 0.00115669
22 *1514:A *457:26 2.22315e-05
23 *1514:A *479:38 5.63183e-05
24 FrameStrobe_O[17] *1514:A 0.000356968
25 FrameStrobe_O[18] *1514:A 0.000253334
26 FrameStrobe_O[19] *1514:A 0.000331624
27 *1263:S1 *1514:A 9.1068e-05
28 *1311:D *1514:A 2.68464e-05
29 *1388:A *1514:A 9.94053e-05
30 *1495:A *1514:A 0
31 *1496:A *1514:A 0.000234165
32 *1497:A *1514:A 8.73147e-06
33 *1513:A *1514:A 0.00038749
34 *1623:A *1514:A 0.000148113
35 *295:48 *1514:A 0.000196372
*RES
1 *1356:X *1514:A 39.284 
*END

*D_NET *302 0.0161208
*CONN
*I *1515:A I *D sky130_fd_sc_hd__buf_2
*I *498:DIODE I *D sky130_fd_sc_hd__diode_2
*I *1328:X O *D sky130_fd_sc_hd__buf_1
*CAP
1 *1515:A 0.000123595
2 *498:DIODE 0.00331865
3 *1328:X 0.00319505
4 *498:DIODE *487:DIODE 0.000110065
5 *498:DIODE *1319:D 3.82728e-05
6 *498:DIODE *1320:D 2.0262e-05
7 *498:DIODE *1326:A 4.54183e-05
8 *498:DIODE *1566:A 0.000759292
9 *498:DIODE *1616:A 2.08619e-05
10 *498:DIODE *307:30 0.000548719
11 *498:DIODE *322:42 9.58678e-06
12 *498:DIODE *353:24 0.0031566
13 *498:DIODE *380:45 4.03791e-05
14 *498:DIODE *391:38 0.000107028
15 *498:DIODE *418:22 6.217e-05
16 *498:DIODE *420:30 0.000417621
17 *498:DIODE *427:20 2.3492e-05
18 *498:DIODE *443:42 0.00013827
19 *498:DIODE *461:30 0
20 *498:DIODE *477:26 0.000326601
21 *1515:A *1615:A 4.82863e-05
22 *1515:A *309:32 0.000164352
23 *1325:A *498:DIODE 0.00109496
24 *1364:A *498:DIODE 0.000341074
25 *1366:A *498:DIODE 0.00182018
26 *1373:A *498:DIODE 0
27 *1374:A *498:DIODE 0
28 *67:38 *498:DIODE 0.000190028
*RES
1 *1328:X *498:DIODE 25.4245 
2 *498:DIODE *1515:A 6.08 
*END

*D_NET *303 0.0230601
*CONN
*I *1312:D I *D sky130_fd_sc_hd__dlxtp_1
*I *1344:A I *D sky130_fd_sc_hd__buf_1
*I *1280:D I *D sky130_fd_sc_hd__dlxtp_1
*I *1438:X O *D sky130_fd_sc_hd__dlymetal6s2s_1
*CAP
1 *1312:D 0.00166516
2 *1344:A 0
3 *1280:D 0.000177092
4 *1438:X 0.00295429
5 *303:51 0.00226193
6 *303:24 0.00372815
7 *1280:D *1257:A0 3.64998e-06
8 *1280:D *1268:A0 5.12248e-05
9 *1280:D *1355:A 0.000155601
10 *1280:D *1418:A 5.83121e-06
11 *1280:D *1581:A 2.34691e-05
12 *1280:D *400:61 1.88605e-05
13 *1312:D *499:DIODE 0.000137135
14 *1312:D *1252:A0 3.91191e-05
15 *1312:D *1308:D 0.000146356
16 *1312:D *1327:A 5.99393e-05
17 *1312:D *1330:A 3.41554e-05
18 *1312:D *1341:A 5.8023e-05
19 *1312:D *1353:A 0.000152342
20 *1312:D *1416:A 1.30972e-05
21 *1312:D *1549:A 0.000184782
22 *1312:D *1580:A 2.10152e-05
23 *1312:D *1611:A 6.41515e-05
24 *1312:D *1613:A 0.00065334
25 *1312:D *406:26 5.79855e-05
26 *1312:D *420:14 2.24358e-05
27 *1312:D *433:34 0.000641461
28 *1312:D *484:48 8.23457e-05
29 *303:24 *1260:A1 7.59785e-05
30 *303:24 *1270:A2 2.05864e-05
31 *303:24 *1290:D 8.73389e-06
32 *303:24 *1547:A 0.00212343
33 *303:24 *1554:A 0.000167674
34 *303:24 *336:20 0.0010913
35 *303:24 *383:20 3.37099e-05
36 *303:24 *408:44 8.19783e-05
37 *303:24 *458:40 0.000726102
38 *303:24 *465:20 0.000460243
39 *303:51 *1308:D 6.11042e-05
40 *303:51 *1327:A 2.90708e-05
41 *303:51 *1345:A 0.000246657
42 *303:51 *1346:A 2.98524e-05
43 *303:51 *1547:A 1.88602e-05
44 *303:51 *1581:A 5.28355e-05
45 *303:51 *426:26 0.000285429
46 *303:51 *436:42 1.7635e-05
47 *303:51 *454:45 8.31647e-05
48 *303:51 *484:48 1.53053e-05
49 *496:DIODE *1280:D 0.000224171
50 *496:DIODE *303:51 2.95721e-05
51 *1260:S1 *1280:D 0.00023453
52 *1260:S1 *303:51 0.000125384
53 *1264:S0 *303:24 8.35068e-05
54 *1272:S1 *303:24 0.000190715
55 *1279:D *303:24 7.27933e-05
56 *1381:A *303:24 0.000102102
57 *1385:A *303:24 1.83847e-05
58 *1390:A *1312:D 0.000240649
59 *1440:A *303:24 0.000162404
60 *1476:A *303:51 6.55156e-05
61 *1477:A *303:51 1.69516e-05
62 *1623:A *1312:D 7.18354e-05
63 *292:16 *303:24 0.00164418
64 *294:32 *1312:D 0.000303264
65 *297:44 *1312:D 0.000401723
66 *299:34 *1312:D 2.98177e-05
*RES
1 *1438:X *303:24 42.0543 
2 *303:24 *1280:D 8.505 
3 *303:24 *303:51 13.16 
4 *303:51 *1344:A 1.6 
5 *303:51 *1312:D 28.0331 
*END

*D_NET *304 0.0094597
*CONN
*I *1516:A I *D sky130_fd_sc_hd__buf_2
*I *1329:X O *D sky130_fd_sc_hd__buf_1
*CAP
1 *1516:A 0.000531775
2 *1329:X 0.00275582
3 *304:26 0.0032876
4 *1516:A *1518:A 0
5 *1516:A *1520:A 5.86016e-05
6 *1516:A *1607:A 6.75416e-05
7 *1516:A *1608:A 0.000116158
8 *1516:A *1609:A 0
9 *1516:A *1612:A 7.88262e-05
10 *1516:A *477:26 1.79536e-05
11 *304:26 *1271:A1 0.000108201
12 *304:26 *1307:D 0.000118666
13 *304:26 *1308:D 9.1799e-05
14 *304:26 *1308:GATE 0.000120655
15 *304:26 *1613:A 0.000110007
16 *304:26 *1616:A 0.000108553
17 *304:26 *364:10 0.000169161
18 FrameData_O[10] *1516:A 7.96104e-06
19 FrameData_O[14] *1516:A 7.96104e-06
20 FrameData_O[18] *1516:A 1.88656e-05
21 FrameData_O[4] *1516:A 0.000139663
22 *1376:A *1516:A 0.000393749
23 *1376:A *304:26 4.13077e-05
24 *1624:A *304:26 0.00108268
25 *284:24 *304:26 2.61944e-05
*RES
1 *1329:X *304:26 43.675 
2 *304:26 *1516:A 16.38 
*END

*D_NET *305 0.0176047
*CONN
*I *1517:A I *D sky130_fd_sc_hd__buf_2
*I *499:DIODE I *D sky130_fd_sc_hd__diode_2
*I *1330:X O *D sky130_fd_sc_hd__buf_1
*CAP
1 *1517:A 2.05022e-05
2 *499:DIODE 0.00456088
3 *1330:X 0.00454038
4 *499:DIODE *487:DIODE 0.00234062
5 *499:DIODE *494:DIODE 0.00210483
6 *499:DIODE *1252:A0 1.92979e-05
7 *499:DIODE *1308:D 0.000412358
8 *499:DIODE *1330:A 3.92756e-05
9 *499:DIODE *1539:A 2.54693e-05
10 *499:DIODE *1611:A 0.000619034
11 *499:DIODE *1613:A 0.000188209
12 *499:DIODE *309:32 0.000101392
13 *499:DIODE *343:28 7.54285e-05
14 *499:DIODE *420:14 6.39581e-05
15 *499:DIODE *460:34 3.92756e-05
16 *1517:A *309:32 2.11084e-05
17 FrameData_O[0] *499:DIODE 1.92979e-05
18 FrameData_O[3] *499:DIODE 0.00013103
19 FrameData_O[6] *499:DIODE 8.80658e-06
20 *1293:D *499:DIODE 0.0018948
21 *1312:D *499:DIODE 0.000137135
22 *1365:A *499:DIODE 0.000211911
23 *1376:A *499:DIODE 6.63219e-06
24 *276:40 *499:DIODE 0
25 *294:32 *499:DIODE 2.3093e-05
*RES
1 *1330:X *499:DIODE 22.7893 
2 *499:DIODE *1517:A 3.65 
*END

*D_NET *306 0.0137407
*CONN
*I *1518:A I *D sky130_fd_sc_hd__buf_2
*I *1331:X O *D sky130_fd_sc_hd__buf_1
*CAP
1 *1518:A 0.00353888
2 *1331:X 0.000897135
3 *306:30 0.00443602
4 *1518:A *1305:D 3.07149e-05
5 *1518:A *1316:GATE 4.41506e-05
6 *1518:A *1519:A 0.00019898
7 *1518:A *1520:A 0
8 *1518:A *1605:A 1.34363e-05
9 *306:30 *1252:A2 2.05056e-05
10 *306:30 *1254:A2 2.24292e-05
11 *306:30 *1256:A0 0.000105528
12 *306:30 *1258:A1 0.000167089
13 *306:30 *1305:D 0.000194694
14 *306:30 *1331:A 1.67131e-05
15 *306:30 *1332:A 4.66108e-05
16 *306:30 *1414:A 0.000191335
17 *306:30 *1520:A 5.12248e-05
18 *306:30 *1585:A 0.000232403
19 *306:30 *395:12 1.56428e-05
20 *306:30 *404:55 0.000470713
21 *306:30 *414:26 2.75605e-05
22 *306:30 *421:20 0
23 *306:30 *447:47 9.74799e-05
24 *306:30 *474:18 4.90031e-05
25 *1254:S0 *1518:A 0.00029933
26 *1254:S1 *1518:A 8.17444e-05
27 *1254:S1 *306:30 0.000223071
28 *1256:S1 *306:30 0.000345479
29 *1259:S0 *1518:A 0.000672117
30 *1267:S1 *306:30 6.84399e-05
31 *1269:S0 *306:30 0
32 *1269:S1 *306:30 0.000196989
33 *1375:A *1518:A 0.000581869
34 *1394:A *1518:A 5.9158e-05
35 *1395:A *306:30 9.86509e-05
36 *1516:A *1518:A 0
37 *269:36 *306:30 0.00024561
*RES
1 *1331:X *306:30 36.07 
2 *306:30 *1518:A 49.46 
*END

*D_NET *307 0.0146679
*CONN
*I *1519:A I *D sky130_fd_sc_hd__buf_2
*I *1332:X O *D sky130_fd_sc_hd__buf_1
*CAP
1 *1519:A 0.000616111
2 *1332:X 0.0028051
3 *307:30 0.00342121
4 *1519:A *1604:A 0.000696005
5 *307:30 *487:DIODE 0.00124792
6 *307:30 *494:DIODE 0.000696613
7 *307:30 *1252:A2 0.000488499
8 *307:30 *1254:A2 0.000121481
9 *307:30 *1258:A1 4.84334e-05
10 *307:30 *351:24 0.00121087
11 *307:30 *390:10 0.000127542
12 *307:30 *401:74 6.95753e-05
13 *307:30 *419:22 6.95753e-05
14 *307:30 *421:20 0.000687096
15 *307:30 *447:47 0.000485123
16 FrameData_O[0] *1519:A 0.000134508
17 *498:DIODE *307:30 0.000548719
18 *1267:S1 *307:30 0.00016723
19 *1366:A *307:30 0.000369358
20 *1372:A *307:30 0
21 *1382:A *307:30 1.92979e-05
22 *1513:A *307:30 0.000132782
23 *1518:A *1519:A 0.00019898
24 *79:11 *307:30 0.000149167
25 *211:9 *307:30 0.000156708
*RES
1 *1332:X *307:30 41.7045 
2 *307:30 *1519:A 14.14 
*END

*D_NET *308 0.015591
*CONN
*I *1520:A I *D sky130_fd_sc_hd__buf_2
*I *1333:X O *D sky130_fd_sc_hd__buf_1
*CAP
1 *1520:A 0.00333687
2 *1333:X 0.00333687
3 *1520:A *1256:A1 0.000431499
4 *1520:A *1281:D 2.91667e-05
5 *1520:A *1282:GATE 3.91004e-05
6 *1520:A *1298:D 0.00176256
7 *1520:A *1348:A 0.000319887
8 *1520:A *1353:A 5.63183e-05
9 *1520:A *1358:A 2.66733e-05
10 *1520:A *1560:A 1.88656e-05
11 *1520:A *1605:A 0.00502338
12 *1520:A *1608:A 0.000165928
13 *1520:A *401:74 6.9418e-05
14 *1520:A *401:82 5.35181e-06
15 *1520:A *415:22 0.000256459
16 *1520:A *460:34 5.79855e-05
17 *1520:A *477:26 0
18 FrameData_O[10] *1520:A 1.83975e-05
19 *1267:S1 *1520:A 0.000479835
20 *1395:A *1520:A 4.66108e-05
21 *1516:A *1520:A 5.86016e-05
22 *1518:A *1520:A 0
23 *306:30 *1520:A 5.12248e-05
*RES
1 *1333:X *1520:A 34.1573 
*END

*D_NET *309 0.0165848
*CONN
*I *1521:A I *D sky130_fd_sc_hd__buf_2
*I *1334:X O *D sky130_fd_sc_hd__buf_1
*CAP
1 *1521:A 0.000158752
2 *1334:X 0.000824213
3 *309:32 0.00409946
4 *309:30 0.00476492
5 *309:30 *1254:A0 0.000256409
6 *309:30 *1256:A0 0.00068945
7 *309:30 *1261:A0 0.000439695
8 *309:30 *1319:D 6.72737e-05
9 *309:30 *1353:A 8.89169e-05
10 *309:30 *395:12 9.6394e-05
11 *309:30 *404:55 0.000157276
12 *309:32 *487:DIODE 0.000156708
13 *309:32 *344:14 0.00291734
14 FrameData_O[0] *1521:A 1.80324e-05
15 FrameData_O[6] *1521:A 9.58678e-06
16 *497:DIODE *309:32 7.69995e-05
17 *499:DIODE *309:32 0.000101392
18 *1252:S1 *309:30 0.000119246
19 *1311:D *309:30 0.00044148
20 *1375:A *1521:A 0
21 *1376:A *1521:A 0.000288023
22 *1387:A *309:30 0.000494043
23 *1515:A *309:32 0.000164352
24 *1517:A *309:32 2.11084e-05
25 *299:34 *309:30 8.76863e-05
26 *299:44 *309:32 4.60087e-05
*RES
1 *1334:X *309:30 34.15 
2 *309:30 *309:32 48.75 
3 *309:32 *1521:A 9.02 
*END

*D_NET *310 0.0158365
*CONN
*I *1522:A I *D sky130_fd_sc_hd__buf_2
*I *488:DIODE I *D sky130_fd_sc_hd__diode_2
*I *1357:X O *D sky130_fd_sc_hd__buf_1
*CAP
1 *1522:A 1.65021e-05
2 *488:DIODE 0
3 *1357:X 0.00192254
4 *310:50 0.000710561
5 *310:40 0.00261659
6 *1522:A *453:20 7.40446e-05
7 *310:40 *1547:A 0.000164998
8 *310:40 *1575:A 4.21127e-05
9 *310:40 *1584:A 5.03721e-06
10 *310:40 *325:40 4.75959e-05
11 *310:40 *333:24 0.00129706
12 *310:40 *343:32 0.00125954
13 *310:40 *391:24 0.000638909
14 *310:40 *403:26 0.000154718
15 *310:40 *407:48 0.00011315
16 *310:40 *454:45 6.80026e-05
17 *310:40 *459:30 0.000538393
18 *310:40 *468:45 0.000286613
19 *310:50 *1618:A 3.69766e-05
20 *310:50 *333:24 0.000190785
21 *310:50 *361:14 9.0156e-05
22 *310:50 *453:20 4.82863e-05
23 FrameStrobe_O[0] *310:50 0.000618284
24 NN4BEG[15] *310:40 2.74791e-05
25 UserCLKo *310:50 0.000678014
26 *1264:S0 *310:40 7.62567e-05
27 *1397:A *310:50 0.00130545
28 *1433:A *310:40 4.05129e-06
29 *1462:A *310:40 0.000171784
30 *1464:A *310:40 8.65961e-05
31 *1465:A *310:40 3.99991e-05
32 *1479:A *310:40 0.000235936
33 *1481:A *310:40 0.000111472
34 *1482:A *310:40 0.000110184
35 *1499:A *1522:A 8.49205e-05
36 *1499:A *310:50 4.66108e-05
37 *293:12 *310:40 1.43933e-05
38 *293:14 *310:40 1.33285e-05
39 *293:14 *310:50 0.00188918
*RES
1 *1357:X *310:40 37.3448 
2 *310:40 *310:50 30.415 
3 *310:50 *488:DIODE 1.6 
4 *310:50 *1522:A 2.395 
*END

*D_NET *311 0.00501466
*CONN
*I *1523:A I *D sky130_fd_sc_hd__buf_2
*I *1367:X O *D sky130_fd_sc_hd__clkbuf_1
*CAP
1 *1523:A 0.000941456
2 *1367:X 0.000941456
3 *1523:A *1524:A 0.000379707
4 *1523:A *1541:A 0.00100559
5 *1523:A *344:12 0.000160314
6 *1523:A *353:24 0.000694158
7 *1523:A *361:12 0.000620383
8 *1523:A *442:57 0.000189256
9 *1523:A *451:64 8.23457e-05
10 *1372:A *1523:A 0
*RES
1 *1367:X *1523:A 31.215 
*END

*D_NET *312 0.00472454
*CONN
*I *1524:A I *D sky130_fd_sc_hd__buf_2
*I *1368:X O *D sky130_fd_sc_hd__clkbuf_1
*CAP
1 *1524:A 0.000880695
2 *1368:X 0.000880695
3 *1524:A *1267:A2 5.61653e-05
4 *1524:A *1541:A 0.000136067
5 *1524:A *361:12 0.000805411
6 *1524:A *442:57 0.000187906
7 FrameStrobe_O[10] *1524:A 0.000151815
8 *1267:S1 *1524:A 0.000890594
9 *1271:S1 *1524:A 7.91542e-05
10 *1368:A *1524:A 5.12969e-06
11 *1370:A *1524:A 7.90746e-05
12 *1371:A *1524:A 0.000192125
13 *1523:A *1524:A 0.000379707
*RES
1 *1368:X *1524:A 31.365 
*END

*D_NET *313 0.00384359
*CONN
*I *1525:A I *D sky130_fd_sc_hd__buf_2
*I *1369:X O *D sky130_fd_sc_hd__clkbuf_1
*CAP
1 *1525:A 0.000603603
2 *1369:X 0.000603603
3 *1525:A *1271:A2 0.000375056
4 *1525:A *1526:A 0.000647962
5 *1525:A *1608:A 1.74678e-05
6 *1271:S1 *1525:A 0.00121995
7 *1370:A *1525:A 0.00037595
*RES
1 *1369:X *1525:A 26.085 
*END

*D_NET *314 0.0258962
*CONN
*I *1326:A I *D sky130_fd_sc_hd__buf_1
*I *1294:D I *D sky130_fd_sc_hd__dlxtp_1
*I *1439:X O *D sky130_fd_sc_hd__dlymetal6s2s_1
*CAP
1 *1326:A 0.00097214
2 *1294:D 0.00158169
3 *1439:X 0.000293425
4 *314:18 0.00265703
5 *314:14 0.00132923
6 *314:12 0.00151945
7 *1294:D *1256:A0 0.000541207
8 *1294:D *1258:A0 4.2145e-05
9 *1294:D *1258:A2 7.87237e-05
10 *1294:D *1585:A 0
11 *1294:D *347:66 0.000435306
12 *1294:D *421:20 0.000278993
13 *1294:D *464:42 0.000915648
14 *1326:A *1256:A0 1.88602e-05
15 *1326:A *1290:D 0.000670669
16 *1326:A *1416:A 2.64452e-05
17 *1326:A *1585:A 1.68534e-05
18 *1326:A *1591:A 3.92756e-05
19 *1326:A *1616:A 0.000192539
20 *1326:A *1619:A 5.40483e-06
21 *1326:A *322:42 7.97577e-05
22 *1326:A *391:38 1.17114e-05
23 *1326:A *419:22 3.41334e-05
24 *1326:A *420:30 0.000337359
25 *1326:A *468:22 0.000168573
26 *314:12 *415:12 4.82863e-05
27 *314:14 *1566:A 0.00013827
28 *314:14 *393:24 0.00466748
29 *314:14 *395:14 0.0051554
30 *314:14 *419:14 0.00032876
31 *314:14 *421:12 0
32 *314:18 *419:22 0.000151847
33 VALUE_top2 *314:12 0
34 *498:DIODE *1326:A 4.54183e-05
35 *500:DIODE *1294:D 4.67939e-05
36 *1258:S0 *1294:D 4.67939e-05
37 *1271:S0 *1294:D 0.000287956
38 *1273:S1 *1294:D 1.47935e-05
39 *1325:A *1326:A 0.000698041
40 *1365:A *1294:D 0.000436413
41 *1382:A *1294:D 7.48159e-05
42 *1451:A *314:12 2.75145e-05
43 *79:11 *314:14 9.47267e-06
44 *80:11 *314:14 0.000721399
45 *269:36 *1294:D 1.88904e-05
46 *276:40 *1294:D 0.000711984
47 *291:22 *314:12 1.92979e-05
48 *299:34 *1326:A 0
49 *299:34 *314:18 0
*RES
1 *1439:X *314:12 10.49 
2 *314:12 *314:14 59.1 
3 *314:14 *314:18 3.89 
4 *314:18 *1294:D 27.5454 
5 *314:18 *1326:A 9.53987 
*END

*D_NET *315 0.00324875
*CONN
*I *1526:A I *D sky130_fd_sc_hd__buf_2
*I *1370:X O *D sky130_fd_sc_hd__clkbuf_1
*CAP
1 *1526:A 0.000797811
2 *1370:X 0.000797811
3 *1526:A *1259:A3 0
4 *1526:A *1267:A0 0
5 *1526:A *1271:A2 0.000299837
6 *1526:A *1408:A 0.000206034
7 *1526:A *1527:A 0
8 *1526:A *1529:A 3.58815e-05
9 *1526:A *479:38 0
10 FrameStrobe_O[12] *1526:A 0.000126223
11 FrameStrobe_O[16] *1526:A 1.83847e-05
12 FrameStrobe_O[18] *1526:A 0.000160739
13 *1271:S1 *1526:A 4.5617e-05
14 *1525:A *1526:A 0.000647962
15 *269:36 *1526:A 0.000112446
*RES
1 *1370:X *1526:A 26.745 
*END

*D_NET *316 0.00352559
*CONN
*I *1527:A I *D sky130_fd_sc_hd__buf_2
*I *1371:X O *D sky130_fd_sc_hd__clkbuf_1
*CAP
1 *1527:A 0.000935917
2 *1371:X 0.000935917
3 *1527:A *1267:A0 5.03626e-05
4 *1527:A *1271:A2 0
5 *1527:A *1528:A 8.65905e-05
6 *1527:A *1529:A 0.00132133
7 *1527:A *1612:A 0.000122331
8 *1527:A *442:90 4.99496e-05
9 *1372:A *1527:A 2.3192e-05
10 *1526:A *1527:A 0
*RES
1 *1371:X *1527:A 26.55 
*END

*D_NET *317 0.00382868
*CONN
*I *1528:A I *D sky130_fd_sc_hd__buf_2
*I *1372:X O *D sky130_fd_sc_hd__clkbuf_1
*CAP
1 *1528:A 0.000671444
2 *1372:X 0.000671444
3 *1528:A *1259:A0 0.000111906
4 *1528:A *1529:A 0.00150253
5 FrameStrobe_O[15] *1528:A 1.47229e-05
6 FrameStrobe_O[17] *1528:A 0.000104139
7 *1513:A *1528:A 0.0006659
8 *1527:A *1528:A 8.65905e-05
*RES
1 *1372:X *1528:A 26.64 
*END

*D_NET *318 0.00469333
*CONN
*I *1529:A I *D sky130_fd_sc_hd__buf_2
*I *1373:X O *D sky130_fd_sc_hd__clkbuf_1
*CAP
1 *1529:A 0.000705357
2 *1373:X 0.000705357
3 *1529:A *1267:A0 3.01317e-05
4 FrameStrobe_O[15] *1529:A 5.69248e-06
5 FrameStrobe_O[18] *1529:A 8.34281e-06
6 FrameStrobe_O[19] *1529:A 0.000236729
7 *1372:A *1529:A 0
8 *1513:A *1529:A 4.78859e-05
9 *1514:A *1529:A 9.4087e-05
10 *1526:A *1529:A 3.58815e-05
11 *1527:A *1529:A 0.00132133
12 *1528:A *1529:A 0.00150253
*RES
1 *1373:X *1529:A 29.67 
*END

*D_NET *319 0.00278194
*CONN
*I *1530:A I *D sky130_fd_sc_hd__buf_2
*I *1374:X O *D sky130_fd_sc_hd__clkbuf_1
*CAP
1 *1530:A 0.000455087
2 *1374:X 0.000455087
3 *1530:A *1604:A 0.000649227
4 *1513:A *1530:A 0.00122254
*RES
1 *1374:X *1530:A 21.84 
*END

*D_NET *320 0.00225671
*CONN
*I *1531:A I *D sky130_fd_sc_hd__buf_2
*I *1375:X O *D sky130_fd_sc_hd__clkbuf_1
*CAP
1 *1531:A 0.000429299
2 *1375:X 0.000429299
3 *1531:A *1259:A2 2.53191e-06
4 *1531:A *1259:A3 0.000122045
5 *1531:A *1532:A 0
6 *1531:A *1604:A 0.000199983
7 *1531:A *1607:A 4.99619e-05
8 *1259:S0 *1531:A 0.000607932
9 *1396:A *1531:A 0.000312257
10 *1620:A *1531:A 0.000103398
*RES
1 *1375:X *1531:A 19.485 
*END

*D_NET *321 0.0013164
*CONN
*I *1532:A I *D sky130_fd_sc_hd__buf_2
*I *1376:X O *D sky130_fd_sc_hd__clkbuf_1
*CAP
1 *1532:A 0.000500313
2 *1376:X 0.000500313
3 *1532:A *1259:A2 4.27614e-05
4 *1532:A *1408:A 0
5 *1532:A *1557:A 0
6 *1532:A *1564:A 0
7 *1532:A *1618:A 4.04634e-05
8 *496:DIODE *1532:A 0
9 *1259:S1 *1532:A 5.93727e-05
10 *1396:A *1532:A 0
11 *1513:A *1532:A 8.65905e-05
12 *1514:A *1532:A 8.65905e-05
13 *1531:A *1532:A 0
14 *1620:A *1532:A 0
*RES
1 *1376:X *1532:A 15.75 
*END

*D_NET *322 0.0139539
*CONN
*I *1533:A I *D sky130_fd_sc_hd__buf_2
*I *1358:X O *D sky130_fd_sc_hd__clkbuf_1
*CAP
1 *1533:A 0.00110679
2 *1358:X 0.00170593
3 *322:42 0.00281272
4 *1533:A *453:24 0.000930351
5 *1533:A *458:26 0.000109786
6 *1533:A *463:28 0.000590359
7 *1533:A *479:30 0.00022707
8 *1533:A *479:38 0.000378371
9 *1533:A *481:28 6.3124e-06
10 *322:42 *1282:D 2.47555e-05
11 *322:42 *1287:GATE 7.20566e-06
12 *322:42 *1288:GATE 7.73646e-05
13 *322:42 *1290:D 2.49909e-05
14 *322:42 *1345:A 0.000486924
15 *322:42 *1347:A 8.7883e-05
16 *322:42 *1358:A 4.1704e-05
17 *322:42 *1416:A 7.11219e-05
18 *322:42 *1549:A 6.59891e-05
19 *322:42 *1616:A 0.000417207
20 *322:42 *333:22 0.000150274
21 *322:42 *354:26 0.00108006
22 *322:42 *367:16 0.000173683
23 *322:42 *391:38 2.65451e-05
24 *322:42 *423:32 8.247e-05
25 *322:42 *427:20 0.000177482
26 *322:42 *466:42 8.63479e-05
27 *322:42 *468:22 7.32296e-05
28 FrameStrobe_O[3] *1533:A 0.000305807
29 *498:DIODE *322:42 9.58678e-06
30 *1325:A *322:42 5.75488e-05
31 *1326:A *322:42 7.97577e-05
32 *1395:A *322:42 7.90359e-05
33 *1399:A *1533:A 3.83194e-05
34 *1400:A *1533:A 0.000148957
35 *1400:A *322:42 2.61944e-05
36 *1402:A *322:42 4.95182e-05
37 *1403:A *322:42 0
38 *1471:A *322:42 0.000569602
39 *1472:A *322:42 0.000169473
40 *1473:A *322:42 3.5506e-05
41 *1474:A *322:42 9.09288e-05
42 *1490:A *322:42 2.74988e-05
43 *1494:A *1533:A 0.00034754
44 *1496:A *1533:A 7.9642e-06
45 *1509:A *1533:A 1.19928e-05
46 *292:43 *322:42 0.000198123
47 *294:38 *1533:A 1.83538e-05
48 *295:48 *322:42 0.000659226
*RES
1 *1358:X *322:42 46.3272 
2 *322:42 *1533:A 34.035 
*END

*D_NET *323 0.0032966
*CONN
*I *1534:A I *D sky130_fd_sc_hd__buf_2
*I *1359:X O *D sky130_fd_sc_hd__clkbuf_1
*CAP
1 *1534:A 0.000609775
2 *1359:X 0.000609775
3 *1534:A *1271:A3 0.000147377
4 *1534:A *1316:D 4.04634e-05
5 *1534:A *1535:A 0.00108728
6 *1534:A *1537:A 0
7 *1534:A *425:49 0
8 *1534:A *455:18 0.000157677
9 *1534:A *456:36 6.17244e-05
10 *1534:A *467:65 4.77719e-05
11 *1359:A *1534:A 4.66474e-05
12 *1369:A *1534:A 0.000122797
13 *1394:A *1534:A 0.000243977
14 *1495:A *1534:A 7.9642e-06
15 *1498:A *1534:A 0.000113373
*RES
1 *1359:X *1534:A 22.755 
*END

*D_NET *324 0.00382015
*CONN
*I *1535:A I *D sky130_fd_sc_hd__buf_2
*I *1360:X O *D sky130_fd_sc_hd__clkbuf_1
*CAP
1 *1535:A 0.000660175
2 *1360:X 0.000660175
3 *1535:A *1536:A 0.000161752
4 *1535:A *1594:A 0.000892348
5 *1535:A *451:64 4.77757e-05
6 FrameStrobe_O[6] *1535:A 2.68526e-05
7 *1359:A *1535:A 6.87295e-05
8 *1369:A *1535:A 6.07106e-05
9 *1495:A *1535:A 0.000154353
10 *1534:A *1535:A 0.00108728
*RES
1 *1360:X *1535:A 24.72 
*END

*D_NET *325 0.0172954
*CONN
*I *1313:D I *D sky130_fd_sc_hd__dlxtp_1
*I *1281:D I *D sky130_fd_sc_hd__dlxtp_1
*I *1345:A I *D sky130_fd_sc_hd__buf_1
*I *1440:X O *D sky130_fd_sc_hd__buf_1
*CAP
1 *1313:D 0
2 *1281:D 0.00013588
3 *1345:A 0.000887492
4 *1440:X 0.00205695
5 *325:40 0.00203932
6 *325:30 0.00123673
7 *325:26 0.00227773
8 *1281:D *1282:GATE 1.67131e-05
9 *1281:D *1333:A 8.35106e-05
10 *1281:D *1358:A 4.25209e-05
11 *1281:D *401:82 0.000119866
12 *1345:A *487:DIODE 7.22535e-05
13 *1345:A *1303:GATE 7.01104e-05
14 *1345:A *1320:D 0.000102435
15 *1345:A *1339:A 2.84757e-05
16 *1345:A *1547:A 2.22315e-05
17 *1345:A *1581:A 0.000183322
18 *1345:A *1587:A 4.77757e-05
19 *1345:A *412:68 1.56615e-05
20 *1345:A *468:22 0.000523758
21 *325:26 *1276:D 1.92979e-05
22 *325:26 *1323:GATE 6.97643e-05
23 *325:26 *1379:A 0.000126385
24 *325:26 *1544:A 4.66108e-05
25 *325:26 *1545:A 2.76677e-05
26 *325:26 *1567:A 0.000135006
27 *325:26 *408:24 5.83121e-06
28 *325:26 *433:34 6.0745e-05
29 *325:40 *1257:A1 8.41307e-05
30 *325:40 *1257:A2 0.000481935
31 *325:40 *1313:GATE 3.83194e-05
32 *325:40 *1318:GATE 2.01504e-05
33 *325:40 *1357:A 0.000228855
34 *325:40 *1358:A 0.000235461
35 *325:40 *358:40 0.00051295
36 *325:40 *380:26 0.000221376
37 *325:40 *380:45 0.00017984
38 *325:40 *403:26 0.000476958
39 *325:40 *403:54 1.13357e-05
40 *325:40 *444:66 7.20899e-05
41 *1249:A *325:26 0.000633301
42 *1250:A1 *325:26 3.57349e-05
43 *1251:S1 *325:26 0.000118081
44 *1257:S0 *1345:A 2.68526e-05
45 *1268:S1 *1345:A 4.60255e-05
46 *1268:S1 *325:40 0.000154977
47 *1270:S1 *325:26 0.000515415
48 *1311:D *1345:A 7.96104e-06
49 *1520:A *1281:D 2.91667e-05
50 *292:16 *325:26 0.00174545
51 *292:43 *1345:A 5.31938e-05
52 *295:48 *1345:A 0.000130644
53 *303:51 *1345:A 0.000246657
54 *310:40 *325:40 4.75959e-05
55 *322:42 *1345:A 0.000486924
*RES
1 *1440:X *325:26 49.695 
2 *325:26 *325:30 2.88 
3 *325:30 *325:40 20.265 
4 *325:40 *1345:A 16.4907 
5 *325:40 *1281:D 4.48 
6 *325:30 *1313:D 1.6 
*END

*D_NET *326 0.00429822
*CONN
*I *1536:A I *D sky130_fd_sc_hd__buf_2
*I *1361:X O *D sky130_fd_sc_hd__clkbuf_1
*CAP
1 *1536:A 0.000880035
2 *1361:X 0.000880035
3 *1536:A *1316:GATE 0.000174633
4 *1536:A *1538:A 0.000535915
5 *1536:A *1539:A 6.15576e-06
6 *1536:A *1540:A 0.000176353
7 *1536:A *1594:A 0.000954511
8 *1536:A *451:64 0.000123592
9 FrameStrobe_O[6] *1536:A 4.21973e-05
10 *1359:A *1536:A 4.22939e-05
11 *1368:A *1536:A 0.000197531
12 *1369:A *1536:A 0
13 *1370:A *1536:A 0.00012322
14 *1535:A *1536:A 0.000161752
*RES
1 *1361:X *1536:A 32.74 
*END

*D_NET *327 0.00507226
*CONN
*I *1537:A I *D sky130_fd_sc_hd__buf_2
*I *1362:X O *D sky130_fd_sc_hd__clkbuf_1
*CAP
1 *1537:A 0.00113292
2 *1362:X 0.00113292
3 *1537:A *1271:A1 4.82919e-05
4 *1537:A *1307:GATE 0.000125217
5 *1537:A *1316:GATE 0.000111011
6 *1537:A *1539:A 7.13998e-05
7 *1537:A *1594:A 4.66108e-05
8 *1537:A *354:18 7.56599e-05
9 *1537:A *405:76 8.25944e-05
10 *1537:A *425:49 0.000233386
11 *1537:A *452:22 1.43823e-05
12 *1537:A *455:18 0
13 *1537:A *456:36 5.88488e-05
14 *1537:A *457:14 4.36573e-06
15 *1537:A *458:26 0.000113372
16 FrameStrobe_O[2] *1537:A 3.13813e-05
17 FrameStrobe_O[3] *1537:A 6.05077e-05
18 FrameStrobe_O[5] *1537:A 0.000372502
19 FrameStrobe_O[8] *1537:A 3.35246e-05
20 *1259:S0 *1537:A 0.000111485
21 *1369:A *1537:A 0.000135973
22 *1386:A *1537:A 0.00107591
23 *1397:A *1537:A 0
24 *1534:A *1537:A 0
*RES
1 *1362:X *1537:A 34.555 
*END

*D_NET *328 0.0042956
*CONN
*I *1538:A I *D sky130_fd_sc_hd__buf_2
*I *1363:X O *D sky130_fd_sc_hd__clkbuf_1
*CAP
1 *1538:A 0.00115002
2 *1363:X 0.00115002
3 *1538:A *1271:A3 0
4 *1538:A *1316:GATE 0.000174633
5 *1538:A *1608:A 0.000615624
6 *1538:A *451:64 8.61546e-05
7 FrameStrobe_O[6] *1538:A 0.000195717
8 *500:DIODE *1538:A 6.97118e-05
9 *1359:A *1538:A 8.35068e-05
10 *1360:A *1538:A 4.66108e-05
11 *1369:A *1538:A 0.00018769
12 *1388:A *1538:A 0
13 *1514:A *1538:A 0
14 *1536:A *1538:A 0.000535915
*RES
1 *1363:X *1538:A 31.095 
*END

*D_NET *329 0.00580887
*CONN
*I *1539:A I *D sky130_fd_sc_hd__buf_2
*I *1364:X O *D sky130_fd_sc_hd__clkbuf_1
*CAP
1 *1539:A 0.00164787
2 *1364:X 0.00164787
3 *1539:A *1267:A0 0.000229542
4 *1539:A *1271:A0 0.00143617
5 *1539:A *1613:A 0.000224886
6 FrameStrobe_O[11] *1539:A 2.25364e-05
7 FrameStrobe_O[5] *1539:A 2.68526e-05
8 FrameStrobe_O[8] *1539:A 1.79877e-05
9 FrameStrobe_O[9] *1539:A 0.000121643
10 *499:DIODE *1539:A 2.54693e-05
11 *1365:A *1539:A 2.87251e-05
12 *1369:A *1539:A 2.05571e-05
13 *1495:A *1539:A 0
14 *1514:A *1539:A 2.42662e-05
15 *1536:A *1539:A 6.15576e-06
16 *1537:A *1539:A 7.13998e-05
17 *276:40 *1539:A 0.00025694
*RES
1 *1364:X *1539:A 16.4179 
*END

*D_NET *330 0.00489717
*CONN
*I *1540:A I *D sky130_fd_sc_hd__buf_2
*I *1365:X O *D sky130_fd_sc_hd__clkbuf_1
*CAP
1 *1540:A 0.00121152
2 *1365:X 0.00121152
3 *1540:A *1271:A2 8.17241e-05
4 *1540:A *1271:A3 4.60061e-05
5 *1540:A *1541:A 0.000666907
6 *1540:A *344:12 3.09233e-05
7 *1540:A *451:64 4.82919e-05
8 *1271:S0 *1540:A 0
9 *1367:A *1540:A 4.13249e-05
10 *1368:A *1540:A 2.78445e-05
11 *1370:A *1540:A 0.000101063
12 *1371:A *1540:A 0
13 *1388:A *1540:A 0.000538294
14 *1497:A *1540:A 0.000153754
15 *1514:A *1540:A 1.63667e-05
16 *1536:A *1540:A 0.000176353
17 *276:40 *1540:A 3.20425e-05
18 *284:24 *1540:A 0.000513248
*RES
1 *1365:X *1540:A 36.22 
*END

*D_NET *331 0.0054092
*CONN
*I *1541:A I *D sky130_fd_sc_hd__buf_2
*I *1366:X O *D sky130_fd_sc_hd__clkbuf_1
*CAP
1 *1541:A 0.000845383
2 *1366:X 0.000845383
3 *1541:A *1271:A2 2.42236e-05
4 *1541:A *344:12 0.000160314
5 *1541:A *353:24 0.000649672
6 *1541:A *361:12 8.98077e-05
7 FrameStrobe_O[13] *1541:A 4.66108e-05
8 FrameStrobe_O[14] *1541:A 0.000128547
9 FrameStrobe_O[9] *1541:A 4.66108e-05
10 *1368:A *1541:A 0.000110211
11 *1371:A *1541:A 7.30547e-05
12 *1388:A *1541:A 4.70912e-05
13 *1497:A *1541:A 1.8722e-05
14 *1523:A *1541:A 0.00100559
15 *1524:A *1541:A 0.000136067
16 *1540:A *1541:A 0.000666907
17 *284:24 *1541:A 0.000515009
*RES
1 *1366:X *1541:A 33.915 
*END

*D_NET *332 0.00491409
*CONN
*I *1542:A I *D sky130_fd_sc_hd__buf_2
*I *1377:X O *D sky130_fd_sc_hd__clkbuf_1
*CAP
1 *1542:A 0.000884702
2 *1377:X 0.000884702
3 *1542:A *1558:A 0.00142864
4 *1542:A *399:26 0.000671218
5 *1393:A *1542:A 0.00104482
*RES
1 *1377:X *1542:A 30.45 
*END

*D_NET *333 0.0178346
*CONN
*I *1543:A I *D sky130_fd_sc_hd__buf_2
*I *1378:X O *D sky130_fd_sc_hd__buf_1
*CAP
1 *1543:A 0.000255019
2 *1378:X 0.000719804
3 *333:24 0.00231961
4 *333:22 0.00278439
5 *1543:A *380:12 0.000122331
6 *1543:A *391:16 9.1566e-05
7 *1543:A *411:18 7.60965e-05
8 *333:22 *1254:A1 0.000152091
9 *333:22 *367:12 0.000143831
10 *333:22 *459:30 0.000191065
11 *333:22 *473:14 0.000173902
12 *333:24 *1562:A 0.00310233
13 *333:24 *343:32 0.000321905
14 *333:24 *361:14 0.00325161
15 *333:24 *367:16 0
16 *333:24 *391:24 0
17 *333:24 *466:42 9.67581e-05
18 N1BEG[2] *1543:A 0.00058197
19 N1BEG[3] *1543:A 0.000706982
20 *1398:A *333:22 0.000476821
21 *1400:A *333:22 0.000101245
22 *1404:A *333:22 0.000436507
23 *1490:A *333:22 6.54048e-05
24 *276:40 *333:22 8.53113e-06
25 *294:32 *333:22 1.66925e-05
26 *310:40 *333:24 0.00129706
27 *310:50 *333:24 0.000190785
28 *322:42 *333:22 0.000150274
*RES
1 *1378:X *333:22 25.455 
2 *333:22 *333:24 56.685 
3 *333:24 *1543:A 15.515 
*END

*D_NET *334 0.00777033
*CONN
*I *1544:A I *D sky130_fd_sc_hd__buf_2
*I *1379:X O *D sky130_fd_sc_hd__clkbuf_1
*CAP
1 *1544:A 0.00158217
2 *1379:X 0.00158217
3 *1544:A *1251:A1 0.000392146
4 *1544:A *1274:A0 0.000225285
5 *1544:A *1274:A1 3.96153e-05
6 *1544:A *1546:A 9.50342e-06
7 *1544:A *1548:A 0.00196922
8 *1544:A *1558:A 1.22676e-05
9 *1544:A *1566:A 4.0031e-05
10 *1544:A *1588:A 0.000142271
11 *1544:A *400:10 0.000169028
12 *1544:A *408:18 0.000229426
13 *1544:A *453:42 0.000206445
14 *1544:A *453:60 5.8023e-05
15 N1BEG[0] *1544:A 0
16 N4BEG[10] *1544:A 0.000275287
17 N4BEG[1] *1544:A 0.000481977
18 N4BEG[4] *1544:A 4.66742e-05
19 N4BEG[8] *1544:A 7.36791e-05
20 N4BEG[9] *1544:A 0.000135905
21 *248:18 *1544:A 5.25931e-05
22 *325:26 *1544:A 4.66108e-05
*RES
1 *1379:X *1544:A 48.295 
*END

*D_NET *335 0.00933905
*CONN
*I *1545:A I *D sky130_fd_sc_hd__buf_2
*I *1380:X O *D sky130_fd_sc_hd__clkbuf_1
*CAP
1 *1545:A 0.00283542
2 *1380:X 0.00283542
3 *1545:A *1262:A2 4.25994e-05
4 *1545:A *1274:A0 1.0505e-05
5 *1545:A *1323:GATE 0.00127725
6 *1545:A *1554:A 1.44259e-05
7 *1545:A *1557:A 9.28751e-05
8 *1545:A *1562:A 0.000131412
9 *1545:A *1563:A 0.000435383
10 *1545:A *1565:A 8.70354e-05
11 *1545:A *1570:A 0
12 *1545:A *1573:A 4.18662e-05
13 *1545:A *1574:A 2.49611e-05
14 *1545:A *1592:A 0.000317624
15 *1545:A *347:46 0
16 *1545:A *369:16 0.000371186
17 *1545:A *380:12 0.000124895
18 *1545:A *408:44 5.84698e-05
19 *1545:A *411:18 7.35729e-05
20 *1545:A *458:26 7.86939e-05
21 N1BEG[3] *1545:A 3.90266e-05
22 N2BEG[0] *1545:A 1.88904e-05
23 N2BEG[1] *1545:A 0.000124952
24 N4BEG[2] *1545:A 0
25 N4BEG[4] *1545:A 2.90684e-05
26 N4BEG[6] *1545:A 0.000116048
27 *1251:S0 *1545:A 0.000129807
28 *1262:S1 *1545:A 0
29 *325:26 *1545:A 2.76677e-05
*RES
1 *1380:X *1545:A 36.5002 
*END

*D_NET *336 0.0198029
*CONN
*I *1282:D I *D sky130_fd_sc_hd__dlxtp_1
*I *1346:A I *D sky130_fd_sc_hd__buf_1
*I *1314:D I *D sky130_fd_sc_hd__dlxtp_1
*I *1441:X O *D sky130_fd_sc_hd__buf_1
*CAP
1 *1282:D 0.00106494
2 *1346:A 0.000123389
3 *1314:D 0.000190019
4 *1441:X 0.00254501
5 *336:57 0.00304008
6 *336:20 0.00458678
7 *1282:D *1256:A1 0.000226909
8 *1282:D *1282:GATE 7.84086e-05
9 *1282:D *1286:D 0.000100134
10 *1282:D *1327:A 6.07575e-06
11 *1282:D *1347:A 8.7152e-06
12 *1282:D *1348:A 0.000108257
13 *1282:D *1350:A 1.08758e-05
14 *1282:D *1352:A 1.16578e-05
15 *1282:D *1416:A 0.000121143
16 *1282:D *1549:A 0.0001207
17 *1282:D *1580:A 0.000196258
18 *1282:D *427:20 0.000241759
19 *1282:D *460:34 0.000185463
20 *1282:D *468:22 0.000157954
21 *1282:D *479:30 0.000118313
22 *1282:D *481:24 0.000120407
23 *1282:D *484:48 0.00025356
24 *1314:D *1251:A1 5.38986e-06
25 *1314:D *1277:D 0.000284077
26 *1314:D *1314:GATE 4.82919e-05
27 *1314:D *372:22 1.56428e-05
28 *1314:D *465:57 9.04636e-05
29 *1346:A *484:48 6.10277e-05
30 *336:20 *1270:A0 0.00016876
31 *336:20 *1274:A2 2.05864e-05
32 *336:20 *1547:A 0.000451173
33 *336:20 *358:40 0.000144742
34 *336:57 *1260:A2 0.000144248
35 *336:57 *1270:A0 6.07575e-06
36 *336:57 *1272:A0 0.000204803
37 *336:57 *1299:D 3.64998e-06
38 *336:57 *1300:GATE 0
39 *336:57 *1321:D 3.59784e-05
40 *336:57 *1321:GATE 6.76941e-05
41 *336:57 *1548:A 8.23457e-05
42 *336:57 *1609:A 1.48313e-05
43 *336:57 *380:26 0.000104132
44 *336:57 *433:34 0.00097645
45 *336:57 *454:45 0.000225813
46 *336:57 *459:55 0.000227542
47 *336:57 *463:56 4.95724e-05
48 *336:57 *465:57 0.000222387
49 *1251:S0 *336:20 0.0003708
50 *1251:S0 *336:57 7.21535e-05
51 *1257:S0 *336:57 2.67022e-05
52 *1270:S0 *336:20 0.000184063
53 *1311:D *1282:D 3.83194e-05
54 *1383:A *336:57 9.14026e-05
55 *1391:A *1314:D 0.000374815
56 *1477:A *1346:A 3.29358e-05
57 *1477:A *336:57 2.0851e-06
58 *261:36 *1282:D 0.000104482
59 *294:32 *1282:D 4.66108e-05
60 *295:48 *1282:D 4.00886e-05
61 *303:24 *336:20 0.0010913
62 *303:51 *1346:A 2.98524e-05
63 *322:42 *1282:D 2.47555e-05
*RES
1 *1441:X *336:20 40.88 
2 *336:20 *1314:D 10.745 
3 *336:20 *336:57 20.4591 
4 *336:57 *1346:A 4.075 
5 *336:57 *1282:D 35.71 
*END

*D_NET *337 0.00322376
*CONN
*I *1546:A I *D sky130_fd_sc_hd__buf_2
*I *1381:X O *D sky130_fd_sc_hd__clkbuf_1
*CAP
1 *1546:A 0.00102971
2 *1381:X 0.00102971
3 *1546:A *1266:A0 0.000207675
4 *1546:A *1548:A 0
5 *1546:A *1558:A 0
6 *1546:A *1598:A 0.000433687
7 *1546:A *412:18 0.000358
8 *1546:A *417:24 0.00010617
9 *1546:A *466:66 4.9312e-05
10 N2BEG[2] *1546:A 0
11 *1266:S0 *1546:A 0
12 *1385:A *1546:A 0
13 *1544:A *1546:A 9.50342e-06
*RES
1 *1381:X *1546:A 27.645 
*END

*D_NET *338 0.0111741
*CONN
*I *1547:A I *D sky130_fd_sc_hd__buf_2
*I *1382:X O *D sky130_fd_sc_hd__clkbuf_1
*CAP
1 *1547:A 0.0026943
2 *1382:X 0.0026943
3 *1547:A *490:DIODE 0.000112896
4 *1547:A *1260:A3 4.48945e-05
5 *1547:A *1270:A0 3.9232e-05
6 *1547:A *1290:D 0.000154977
7 *1547:A *1551:A 2.75145e-05
8 *1547:A *1553:A 5.09615e-05
9 *1547:A *1581:A 1.7635e-05
10 *1547:A *351:24 0
11 *1547:A *373:26 0.000250616
12 *1547:A *380:12 0.000134515
13 *1547:A *407:48 0.000242517
14 *1547:A *411:30 6.06433e-05
15 *1547:A *454:14 0.00020239
16 *1547:A *454:45 0.000352733
17 *1547:A *458:40 0.000543154
18 *1547:A *468:22 1.74943e-05
19 N2BEGb[1] *1547:A 2.97897e-05
20 *1249:B *1547:A 9.84109e-05
21 *1250:A1 *1547:A 2.93987e-05
22 *1250:B1 *1547:A 3.79853e-05
23 *1270:S0 *1547:A 0.000339506
24 *1345:A *1547:A 2.22315e-05
25 *292:16 *1547:A 8.91526e-05
26 *292:43 *1547:A 0.000128411
27 *303:24 *1547:A 0.00212343
28 *303:51 *1547:A 1.88602e-05
29 *310:40 *1547:A 0.000164998
30 *336:20 *1547:A 0.000451173
*RES
1 *1382:X *1547:A 34.0878 
*END

*D_NET *339 0.0076382
*CONN
*I *1548:A I *D sky130_fd_sc_hd__buf_2
*I *1383:X O *D sky130_fd_sc_hd__clkbuf_1
*CAP
1 *1548:A 0.00121686
2 *1383:X 0.00121686
3 *1548:A *1255:A2 0.000129539
4 *1548:A *1274:A0 4.79712e-05
5 *1548:A *1552:A 0.000518889
6 *1548:A *1556:A 9.0444e-05
7 *1548:A *1558:A 0.000120655
8 *1548:A *372:22 9.65109e-05
9 *1548:A *373:26 0.00103476
10 *1548:A *428:22 0.000136184
11 *1548:A *446:28 0
12 N1BEG[0] *1548:A 0.000116853
13 N1BEG[2] *1548:A 0.000122325
14 N2BEG[2] *1548:A 0.000220912
15 N4BEG[11] *1548:A 0.000175666
16 N4BEG[12] *1548:A 0.000258158
17 *1251:S0 *1548:A 8.40269e-05
18 *1544:A *1548:A 0.00196922
19 *1546:A *1548:A 0
20 *336:57 *1548:A 8.23457e-05
*RES
1 *1383:X *1548:A 45.175 
*END

*D_NET *340 0.0133468
*CONN
*I *1549:A I *D sky130_fd_sc_hd__buf_2
*I *1384:X O *D sky130_fd_sc_hd__buf_1
*CAP
1 *1549:A 0.00292762
2 *1384:X 0.00292762
3 *1549:A *1300:D 3.92756e-05
4 *1549:A *1327:A 1.67131e-05
5 *1549:A *1347:A 0.000442678
6 *1549:A *1554:A 1.22505e-05
7 *1549:A *1582:A 0.000111089
8 *1549:A *1613:A 0.00013557
9 *1549:A *347:46 0.000548576
10 *1549:A *369:16 0.00253266
11 *1549:A *369:41 0.000641747
12 *1549:A *383:20 1.92979e-05
13 *1549:A *423:32 3.85204e-05
14 *1549:A *427:20 1.42087e-05
15 *1549:A *433:34 0.000349503
16 *1549:A *436:42 0.000143362
17 *1549:A *448:52 0.000318561
18 *1549:A *450:26 0.000163629
19 *1549:A *453:60 8.30691e-05
20 *1549:A *456:66 5.49838e-05
21 *1249:A *1549:A 0.000571306
22 *1262:S0 *1549:A 0.000826094
23 *1282:D *1549:A 0.0001207
24 *1312:D *1549:A 0.000184782
25 *1325:A *1549:A 8.7152e-06
26 *299:34 *1549:A 4.82863e-05
27 *322:42 *1549:A 6.59891e-05
*RES
1 *1384:X *1549:A 24.0289 
*END

*D_NET *341 0.00402014
*CONN
*I *1550:A I *D sky130_fd_sc_hd__buf_2
*I *1385:X O *D sky130_fd_sc_hd__clkbuf_1
*CAP
1 *1550:A 0.00143406
2 *1385:X 0.00143406
3 *1550:A *419:12 2.46089e-05
4 N2BEG[4] *1550:A 2.18064e-05
5 *1249:B *1550:A 4.66108e-05
6 *1393:A *1550:A 0.00105898
*RES
1 *1385:X *1550:A 32.4525 
*END

*D_NET *342 0.022379
*CONN
*I *1551:A I *D sky130_fd_sc_hd__buf_2
*I *1386:X O *D sky130_fd_sc_hd__buf_1
*CAP
1 *1551:A 0.000962876
2 *1386:X 0.000283088
3 *342:12 0.00230425
4 *342:10 0.00162446
5 *1551:A *489:DIODE 0.000426646
6 *1551:A *1553:A 0.00168423
7 *1551:A *1601:A 0
8 *1551:A *353:24 0.000180316
9 *1551:A *357:32 0.000602338
10 *1551:A *380:12 4.82863e-05
11 *1551:A *383:20 0.00013507
12 *342:12 *414:12 0.00611988
13 *342:12 *421:12 0.00589519
14 VALUE_top5 *1551:A 0
15 VALUE_top6 *1551:A 0
16 *491:DIODE *342:10 4.20356e-05
17 *500:DIODE *342:10 0.000143008
18 *1362:A *342:10 0
19 *1362:A *342:12 0.000551455
20 *1364:A *342:10 0.000407861
21 *1547:A *1551:A 2.75145e-05
22 *300:12 *342:12 0.00094047
*RES
1 *1386:X *342:10 12.08 
2 *342:10 *342:12 68.07 
3 *342:12 *1551:A 31.4 
*END

*D_NET *343 0.0163881
*CONN
*I *1552:A I *D sky130_fd_sc_hd__buf_2
*I *1387:X O *D sky130_fd_sc_hd__buf_1
*CAP
1 *1552:A 0.000469485
2 *1387:X 0.000983564
3 *343:32 0.00185988
4 *343:28 0.00237395
5 *1552:A *1554:A 8.53113e-06
6 *1552:A *1558:A 0.000193806
7 *1552:A *373:26 8.35106e-05
8 *343:28 *1265:A0 8.35106e-05
9 *343:28 *1271:A0 0.000109535
10 *343:28 *1330:A 2.28476e-05
11 *343:28 *1613:A 7.54285e-05
12 *343:28 *431:10 5.63183e-05
13 *343:28 *458:26 0.000212273
14 *343:32 *1562:A 0.00310092
15 *343:32 *391:24 0.000752534
16 Co *343:32 0.000107334
17 N2BEG[1] *1552:A 0.000134516
18 N2BEG[2] *1552:A 7.58604e-05
19 N2BEG[3] *1552:A 3.30948e-05
20 N2BEG[6] *1552:A 0.0001947
21 N2BEGb[0] *1552:A 0.000381323
22 N2BEGb[1] *1552:A 0.000366295
23 *499:DIODE *343:28 7.54285e-05
24 *1387:A *343:28 2.01565e-05
25 *1435:A *343:28 0.000128978
26 *1462:A *343:32 0.000107415
27 *1464:A *343:32 4.98192e-05
28 *1489:A *343:28 1.35115e-05
29 *1490:A *343:28 5.99498e-05
30 *1492:A *343:28 0.000377761
31 *1548:A *1552:A 0.000518889
32 *293:14 *343:32 0.0017719
33 *299:34 *343:28 3.59531e-06
34 *310:40 *343:32 0.00125954
35 *333:24 *343:32 0.000321905
*RES
1 *1387:X *343:28 15.5159 
2 *343:28 *343:32 48.335 
3 *343:32 *1552:A 20.44 
*END

*D_NET *344 0.0237847
*CONN
*I *1553:A I *D sky130_fd_sc_hd__buf_2
*I *1388:X O *D sky130_fd_sc_hd__buf_1
*CAP
1 *1553:A 0.00163442
2 *1388:X 0.000109159
3 *344:14 0.00296873
4 *344:12 0.00144347
5 *1553:A *1585:A 1.92475e-06
6 *1553:A *1600:A 0.000371959
7 *1553:A *1603:A 0.000157599
8 *1553:A *351:24 0.000410038
9 *1553:A *353:24 0
10 *1553:A *380:12 8.40269e-05
11 *1553:A *399:26 0
12 *1553:A *415:16 0.000163128
13 *1553:A *443:34 4.66474e-05
14 *344:14 *487:DIODE 0.000143637
15 *344:14 *1591:A 0.000154843
16 *344:14 *347:66 4.35348e-05
17 *344:14 *364:14 0.00478338
18 *344:14 *412:68 0.00200717
19 N2BEGb[1] *1553:A 0.000107602
20 *1249:B *1553:A 3.88911e-05
21 *1250:B1 *1553:A 0.00130266
22 *1256:S1 *344:14 0.000686908
23 *1367:A *344:12 2.73498e-05
24 *1371:A *344:12 0
25 *1523:A *344:12 0.000160314
26 *1540:A *344:12 3.09233e-05
27 *1541:A *344:12 0.000160314
28 *1547:A *1553:A 5.09615e-05
29 *1551:A *1553:A 0.00168423
30 *291:22 *1553:A 0.00209352
31 *309:32 *344:14 0.00291734
*RES
1 *1388:X *344:12 8.465 
2 *344:12 *344:14 54.615 
3 *344:14 *1553:A 31.8961 
*END

*D_NET *345 0.004328
*CONN
*I *1554:A I *D sky130_fd_sc_hd__buf_2
*I *1389:X O *D sky130_fd_sc_hd__clkbuf_1
*CAP
1 *1554:A 0.00100369
2 *1389:X 0.00100369
3 *1554:A *1417:A 0.000445834
4 *1554:A *1598:A 0.000558547
5 *1554:A *369:16 3.96088e-05
6 *1554:A *383:20 5.49777e-05
7 *1554:A *391:16 0
8 *1554:A *411:18 1.80324e-05
9 *1554:A *453:60 0.000250036
10 *1554:A *454:14 1.7635e-05
11 *1554:A *476:14 0.000142227
12 N2BEG[1] *1554:A 7.63464e-05
13 N2BEG[3] *1554:A 6.74418e-05
14 *1249:A *1554:A 0.000101546
15 *1249:B *1554:A 3.63566e-05
16 *1381:A *1554:A 0.000259861
17 *1389:A *1554:A 4.92861e-05
18 *1545:A *1554:A 1.44259e-05
19 *1549:A *1554:A 1.22505e-05
20 *1552:A *1554:A 8.53113e-06
21 *303:24 *1554:A 0.000167674
*RES
1 *1389:X *1554:A 28.185 
*END

*D_NET *346 0.0120398
*CONN
*I *1555:A I *D sky130_fd_sc_hd__buf_2
*I *1390:X O *D sky130_fd_sc_hd__buf_1
*CAP
1 *1555:A 0.00244933
2 *1390:X 0.00244933
3 *1555:A *1252:A1 3.63701e-06
4 *1555:A *1317:D 3.92756e-05
5 *1555:A *1334:A 1.88602e-05
6 *1555:A *1336:A 7.0577e-05
7 *1555:A *1377:A 0.000204699
8 *1555:A *1409:A 0
9 *1555:A *1418:A 3.02247e-05
10 *1555:A *1560:A 0.000336994
11 *1555:A *1586:A 0.000695344
12 *1555:A *1605:A 8.7152e-06
13 *1555:A *358:40 2.11965e-05
14 *1555:A *358:55 3.62158e-05
15 *1555:A *373:26 0
16 *1555:A *410:14 0.00296372
17 *1555:A *417:24 0.000968558
18 *1555:A *432:40 0.000943348
19 *1555:A *443:16 0
20 *1555:A *468:45 0.000144096
21 *1555:A *476:14 0.00010779
22 *1555:A *477:26 0.000255582
23 *1249:A *1555:A 0.000292317
*RES
1 *1390:X *1555:A 23.4108 
*END

*D_NET *347 0.0338842
*CONN
*I *1347:A I *D sky130_fd_sc_hd__buf_1
*I *1283:D I *D sky130_fd_sc_hd__dlxtp_1
*I *1315:D I *D sky130_fd_sc_hd__dlxtp_1
*I *1442:X O *D sky130_fd_sc_hd__clkbuf_2
*CAP
1 *1347:A 0.000675044
2 *1283:D 0
3 *1315:D 0.000914219
4 *1442:X 0.00319538
5 *347:66 0.00213104
6 *347:58 0.00184624
7 *347:46 0.00449984
8 *1315:D *1261:A0 2.8185e-05
9 *1315:D *1261:A1 8.23457e-05
10 *1315:D *1261:A2 2.05864e-05
11 *1315:D *1315:GATE 9.49759e-05
12 *1315:D *351:24 3.98721e-05
13 *1315:D *364:10 0.000484557
14 *1315:D *404:116 0.000225285
15 *1315:D *404:128 4.38278e-05
16 *1315:D *405:55 0.00010119
17 *1315:D *445:32 2.85364e-05
18 *1315:D *464:26 0.000663866
19 *1347:A *1271:A0 0.000397266
20 *1347:A *1285:D 0.00023551
21 *1347:A *1604:A 1.88656e-05
22 *1347:A *391:38 4.67655e-05
23 *1347:A *406:26 1.9445e-05
24 *1347:A *427:20 5.044e-05
25 *1347:A *434:24 8.42316e-05
26 *1347:A *436:42 0.000384818
27 *1347:A *448:52 0.000119531
28 *347:46 *1285:D 0.000232417
29 *347:46 *1300:D 2.18433e-05
30 *347:46 *1300:GATE 2.39856e-05
31 *347:46 *1349:A 1.35463e-05
32 *347:46 *1587:A 2.04648e-05
33 *347:46 *358:40 0.00439927
34 *347:46 *361:26 6.60907e-06
35 *347:46 *369:41 9.27169e-05
36 *347:46 *380:26 0.000121494
37 *347:46 *411:18 0.000104776
38 *347:46 *424:32 0.000259629
39 *347:46 *430:28 2.08064e-05
40 *347:46 *433:34 0.000176975
41 *347:46 *434:24 7.9642e-06
42 *347:46 *450:26 0.000986307
43 *347:46 *453:60 0.000853362
44 *347:46 *456:54 1.02692e-05
45 *347:58 *1278:D 9.47206e-05
46 *347:58 *1418:A 1.03592e-05
47 *347:58 *1422:A 7.87237e-05
48 *347:58 *1581:A 1.88602e-05
49 *347:58 *1584:A 0.000227594
50 *347:58 *444:64 7.54285e-05
51 *347:58 *454:45 0.000546218
52 *347:58 *459:30 9.76497e-05
53 *347:58 *459:55 0.000978552
54 *347:58 *468:45 0.00014783
55 *347:66 *494:DIODE 0.000143637
56 *347:66 *1256:A0 0.000537862
57 *347:66 *1284:D 5.50046e-05
58 *347:66 *1339:A 5.99389e-05
59 *347:66 *1418:A 8.53113e-06
60 *347:66 *1581:A 0.000398902
61 *347:66 *364:14 0.00331678
62 *347:66 *415:22 0
63 *347:66 *443:34 8.65905e-05
64 NN4BEG[11] *347:46 4.60061e-05
65 NN4BEG[5] *347:46 2.01335e-05
66 *1262:S0 *347:46 8.5514e-05
67 *1282:D *1347:A 8.7152e-06
68 *1294:D *347:66 0.000435306
69 *1368:A *1315:D 0.000213058
70 *1394:A *1315:D 2.49909e-05
71 *1429:A *1315:D 5.06382e-06
72 *1463:A *347:46 4.77719e-05
73 *1465:A *347:46 8.41307e-05
74 *1470:A *1347:A 3.91191e-05
75 *1471:A *1347:A 1.92979e-05
76 *1475:A *347:46 7.91073e-05
77 *1482:A *1347:A 1.79536e-05
78 *1483:A *1347:A 1.92979e-05
79 *1545:A *347:46 0
80 *1549:A *1347:A 0.000442678
81 *1549:A *347:46 0.000548576
82 *67:13 *347:66 0.000516035
83 *284:24 *1315:D 0.000322733
84 *291:22 *347:66 0.000109836
85 *322:42 *1347:A 8.7883e-05
86 *344:14 *347:66 4.35348e-05
*RES
1 *1442:X *347:46 29.4162 
2 *347:46 *347:58 4.30763 
3 *347:58 *347:66 41.635 
4 *347:66 *1315:D 25.74 
5 *347:58 *1283:D 3.6 
6 *347:46 *1347:A 11.7145 
*END

*D_NET *348 0.00676709
*CONN
*I *1556:A I *D sky130_fd_sc_hd__buf_2
*I *1391:X O *D sky130_fd_sc_hd__clkbuf_1
*CAP
1 *1556:A 0.00181677
2 *1391:X 0.00181677
3 *1556:A *1255:A2 0.000617809
4 *1556:A *1262:A2 1.58519e-05
5 *1556:A *1262:A3 0.000126523
6 *1556:A *1314:GATE 8.09849e-05
7 *1556:A *372:22 0.000397031
8 *1556:A *373:26 0.000102817
9 *1556:A *412:68 0.000156364
10 *1556:A *428:22 2.8185e-05
11 *1556:A *446:30 1.91597e-05
12 *1556:A *461:53 0.00014974
13 *1556:A *461:78 6.51234e-06
14 *1248:B *1556:A 5.35181e-06
15 *1249:A *1556:A 4.26778e-05
16 *1249:B *1556:A 3.55743e-05
17 *1251:S1 *1556:A 1.67908e-05
18 *1255:S1 *1556:A 0.000269821
19 *1274:S0 *1556:A 0.000121437
20 *1391:A *1556:A 0.000128969
21 *1393:A *1556:A 0.000526025
22 *1548:A *1556:A 9.0444e-05
23 *263:28 *1556:A 0.000195482
*RES
1 *1391:X *1556:A 42.265 
*END

*D_NET *349 0.0261074
*CONN
*I *1557:A I *D sky130_fd_sc_hd__buf_2
*I *1392:X O *D sky130_fd_sc_hd__buf_1
*CAP
1 *1557:A 0.0056293
2 *1392:X 0.0056293
3 *1557:A *490:DIODE 2.77993e-05
4 *1557:A *1562:A 0.00026249
5 *1557:A *1564:A 0.000775734
6 *1557:A *1569:A 0.00102611
7 *1557:A *1570:A 6.06433e-05
8 *1557:A *1575:A 0.000204337
9 *1557:A *1577:A 0.000752078
10 *1557:A *1604:A 0.00355457
11 *1557:A *1609:A 0.00145845
12 *1557:A *357:32 4.77757e-05
13 *1557:A *461:30 3.99991e-05
14 *1557:A *466:42 4.12303e-05
15 FrameStrobe_O[12] *1557:A 0.000507445
16 FrameStrobe_O[4] *1557:A 0.000314606
17 N2BEGb[5] *1557:A 6.91258e-05
18 N2BEGb[6] *1557:A 0.000516084
19 N2BEGb[7] *1557:A 8.01628e-05
20 N4BEG[2] *1557:A 0.000277124
21 NN4BEG[6] *1557:A 0.000436332
22 *496:DIODE *1557:A 0.00104979
23 *1249:B *1557:A 4.66108e-05
24 *1392:A *1557:A 4.45424e-05
25 *1400:A *1557:A 0.00126293
26 *1433:A *1557:A 0.00039908
27 *1435:A *1557:A 0.000112013
28 *1463:A *1557:A 0.000497695
29 *1465:A *1557:A 0.000427992
30 *1490:A *1557:A 0.000324874
31 *1532:A *1557:A 0
32 *1545:A *1557:A 9.28751e-05
33 *293:14 *1557:A 0.00013827
34 *295:48 *1557:A 0
*RES
1 *1392:X *1557:A 43.4781 
*END

*D_NET *350 0.00511858
*CONN
*I *1558:A I *D sky130_fd_sc_hd__buf_2
*I *1393:X O *D sky130_fd_sc_hd__clkbuf_1
*CAP
1 *1558:A 0.00112097
2 *1393:X 0.00112097
3 *1558:A *1421:A 0.000138551
4 *1558:A *412:18 1.13341e-05
5 *1558:A *417:24 0.000104178
6 N1BEG[0] *1558:A 0.000349598
7 N1BEG[2] *1558:A 0.000217283
8 N2BEG[0] *1558:A 0.00013533
9 N2BEG[6] *1558:A 0.000111671
10 N2BEGb[4] *1558:A 4.87465e-06
11 *1393:A *1558:A 4.84393e-05
12 *1542:A *1558:A 0.00142864
13 *1544:A *1558:A 1.22676e-05
14 *1546:A *1558:A 0
15 *1548:A *1558:A 0.000120655
16 *1552:A *1558:A 0.000193806
*RES
1 *1393:X *1558:A 34.395 
*END

*D_NET *351 0.0220247
*CONN
*I *1559:A I *D sky130_fd_sc_hd__buf_2
*I *1394:X O *D sky130_fd_sc_hd__buf_1
*CAP
1 *1559:A 0
2 *1394:X 0.00396689
3 *351:24 0.00396689
4 *351:24 *490:DIODE 0
5 *351:24 *494:DIODE 6.86145e-05
6 *351:24 *1307:D 0.000216388
7 *351:24 *1566:A 0.00459833
8 *351:24 *1576:A 0.000458481
9 *351:24 *1585:A 0.00357004
10 *351:24 *1592:A 0.000541385
11 *351:24 *1602:A 0
12 *351:24 *353:24 0.000188098
13 *351:24 *357:32 8.95909e-05
14 *351:24 *395:14 0.000202785
15 *351:24 *412:43 0
16 *351:24 *416:28 4.47289e-05
17 *351:24 *447:47 0.000151068
18 *351:24 *464:26 4.98237e-05
19 *351:24 *466:66 0
20 ENABLE_top *351:24 0
21 *1249:B *351:24 4.78678e-05
22 *1254:S1 *351:24 4.66108e-05
23 *1259:S1 *351:24 0.000171388
24 *1274:S1 *351:24 0.000166094
25 *1315:D *351:24 3.98721e-05
26 *1363:A *351:24 0.000177439
27 *1366:A *351:24 0.000560262
28 *1368:A *351:24 0.000196451
29 *1393:A *351:24 2.20014e-05
30 *1547:A *351:24 0
31 *1553:A *351:24 0.000410038
32 *80:11 *351:24 0.000516221
33 *299:40 *351:24 0.000346427
34 *307:30 *351:24 0.00121087
*RES
1 *1394:X *351:24 48.6987 
2 *351:24 *1559:A 1.6 
*END

*D_NET *352 0.0146082
*CONN
*I *1560:A I *D sky130_fd_sc_hd__buf_2
*I *1395:X O *D sky130_fd_sc_hd__buf_1
*CAP
1 *1560:A 0.00314177
2 *1395:X 0.00314177
3 *1560:A *490:DIODE 0.000162056
4 *1560:A *1302:D 9.27169e-05
5 *1560:A *1332:A 0.00166622
6 *1560:A *1357:A 8.70354e-05
7 *1560:A *1422:A 2.0231e-05
8 *1560:A *1586:A 0.000260993
9 *1560:A *358:40 0.000328845
10 *1560:A *358:55 0.00113941
11 *1560:A *380:12 8.23457e-05
12 *1560:A *401:74 1.88656e-05
13 *1560:A *415:22 4.4969e-05
14 *1560:A *417:24 0.0019437
15 *1560:A *432:40 0.00192183
16 *1560:A *446:46 7.61574e-05
17 *1560:A *453:60 2.22315e-05
18 N2BEGb[5] *1560:A 1.88466e-05
19 N2BEGb[6] *1560:A 8.23457e-05
20 *1520:A *1560:A 1.88656e-05
21 *1555:A *1560:A 0.000336994
*RES
1 *1395:X *1560:A 23.8606 
*END

*D_NET *353 0.028852
*CONN
*I *1561:A I *D sky130_fd_sc_hd__buf_2
*I *489:DIODE I *D sky130_fd_sc_hd__diode_2
*I *1396:X O *D sky130_fd_sc_hd__buf_1
*CAP
1 *1561:A 1.65033e-05
2 *489:DIODE 0.000869057
3 *1396:X 0.0063184
4 *353:24 0.00717095
5 *489:DIODE *1409:A 0.000255729
6 *489:DIODE *357:32 0.000602338
7 *489:DIODE *383:20 0.00050008
8 *489:DIODE *409:20 8.07863e-05
9 *489:DIODE *413:20 0.000279716
10 *353:24 *1566:A 0.000598548
11 *353:24 *420:30 0.00109898
12 *353:24 *421:12 0.00113979
13 N2BEG[4] *489:DIODE 0.000254528
14 N2BEG[5] *489:DIODE 9.28013e-05
15 N2BEGb[0] *1561:A 2.49909e-05
16 N2BEGb[1] *489:DIODE 5.87236e-05
17 N2BEGb[4] *489:DIODE 0.000158066
18 N2BEGb[4] *1561:A 4.66108e-05
19 N4BEG[1] *489:DIODE 4.66108e-05
20 VALUE_top5 *353:24 0
21 *491:DIODE *353:24 0.000393502
22 *498:DIODE *353:24 0.0031566
23 *1259:S0 *353:24 0.000377631
24 *1362:A *353:24 0.00236547
25 *1371:A *353:24 0.000308161
26 *1372:A *353:24 0
27 *1523:A *353:24 0.000694158
28 *1541:A *353:24 0.000649672
29 *1551:A *489:DIODE 0.000426646
30 *1551:A *353:24 0.000180316
31 *1553:A *353:24 0
32 *291:22 *353:24 0
33 *300:12 *353:24 0.00049851
34 *351:24 *353:24 0.000188098
*RES
1 *1396:X *353:24 42.0376 
2 *353:24 *489:DIODE 26.0775 
3 *489:DIODE *1561:A 3.65 
*END

*D_NET *354 0.0210186
*CONN
*I *1562:A I *D sky130_fd_sc_hd__buf_2
*I *1397:X O *D sky130_fd_sc_hd__buf_1
*CAP
1 *1562:A 0.00133812
2 *1397:X 0.000641911
3 *354:26 0.00223659
4 *354:18 0.00154037
5 *1562:A *490:DIODE 6.21804e-05
6 *1562:A *1570:A 4.82537e-05
7 *1562:A *357:32 9.68083e-06
8 *1562:A *380:12 0.000155601
9 *354:18 *1619:A 0.000439688
10 *354:18 *457:14 8.7152e-06
11 *354:18 *484:48 1.7635e-05
12 *354:26 *361:14 0.00317716
13 *354:26 *466:42 0.000216136
14 N2BEGb[6] *1562:A 4.66108e-05
15 N2BEGb[7] *1562:A 0.000154721
16 N4BEG[0] *1562:A 0.000366389
17 N4BEG[4] *1562:A 0
18 UserCLKo *354:18 0.00105816
19 *1259:S1 *354:18 1.7635e-05
20 *1402:A *354:26 0.000288698
21 *1479:A *354:26 6.95753e-05
22 *1481:A *354:26 6.83447e-05
23 *1495:A *354:26 0.000192417
24 *1498:A *354:18 0.000144587
25 *1499:A *354:18 0.00073693
26 *1505:A *354:26 4.20603e-05
27 *1514:A *354:18 1.8352e-05
28 *1537:A *354:18 7.56599e-05
29 *1545:A *1562:A 0.000131412
30 *1557:A *1562:A 0.00026249
31 *1623:A *354:18 0.000169206
32 *322:42 *354:26 0.00108006
33 *333:24 *1562:A 0.00310233
34 *343:32 *1562:A 0.00310092
*RES
1 *1397:X *354:18 21.2589 
2 *354:18 *354:26 34.645 
3 *354:26 *1562:A 44.9287 
*END

*D_NET *355 0.00429936
*CONN
*I *1563:A I *D sky130_fd_sc_hd__buf_2
*I *1407:X O *D sky130_fd_sc_hd__clkbuf_1
*CAP
1 *1563:A 0.00069608
2 *1407:X 0.00069608
3 *1563:A *1274:A0 9.49779e-05
4 *1563:A *1291:D 0.000148115
5 *1563:A *1323:D 5.84717e-05
6 *1563:A *1377:A 0.000419762
7 *1563:A *1407:A 1.60203e-05
8 *1563:A *1427:A 0.000146405
9 *1563:A *1565:A 4.82919e-05
10 *1563:A *1592:A 0.000122701
11 *1563:A *380:12 4.82919e-05
12 *1563:A *411:18 3.51809e-05
13 *1250:A1 *1563:A 0.000583121
14 *1251:S0 *1563:A 6.95134e-05
15 *1262:S0 *1563:A 0.00014011
16 *1274:S1 *1563:A 0.000341885
17 *1545:A *1563:A 0.000435383
18 *248:18 *1563:A 0.000198972
*RES
1 *1407:X *1563:A 26.88 
*END

*D_NET *356 0.0229799
*CONN
*I *1564:A I *D sky130_fd_sc_hd__buf_2
*I *1408:X O *D sky130_fd_sc_hd__buf_1
*CAP
1 *1564:A 0.00433708
2 *1408:X 0.00433708
3 *1564:A *1274:A0 1.96981e-05
4 *1564:A *1408:A 6.96175e-05
5 *1564:A *1569:A 0.00537982
6 *1564:A *1577:A 0.000517591
7 *1564:A *1609:A 3.58855e-05
8 *1564:A *1613:A 7.37e-05
9 *1564:A *1618:A 4.82863e-05
10 FrameData_O[29] *1564:A 0.000181792
11 FrameData_O[31] *1564:A 7.54397e-05
12 N4BEG[11] *1564:A 2.93678e-05
13 N4BEG[7] *1564:A 0.000560735
14 N4BEG[8] *1564:A 0.000599882
15 N4BEG[9] *1564:A 4.82863e-05
16 *496:DIODE *1564:A 0.00588987
17 *1532:A *1564:A 0
18 *1557:A *1564:A 0.000775734
*RES
1 *1408:X *1564:A 41.9545 
*END

*D_NET *357 0.00960905
*CONN
*I *1565:A I *D sky130_fd_sc_hd__buf_2
*I *1409:X O *D sky130_fd_sc_hd__clkbuf_1
*CAP
1 *1565:A 0.000165213
2 *1409:X 0.00208977
3 *357:32 0.00225498
4 *1565:A *1574:A 3.14086e-05
5 *1565:A *380:12 0.000119156
6 *357:32 *1409:A 0.00158331
7 *357:32 *1576:A 0.000101944
8 *357:32 *1592:A 5.68484e-05
9 *357:32 *380:12 1.60203e-05
10 *357:32 *412:18 4.21973e-05
11 N2BEG[4] *357:32 1.56428e-05
12 N2BEGb[1] *357:32 1.47256e-05
13 N4BEG[0] *357:32 8.53113e-06
14 N4BEG[3] *357:32 0.000122331
15 N4BEG[6] *357:32 0.000158175
16 *489:DIODE *357:32 0.000602338
17 *1249:B *357:32 0.000295916
18 *1262:S1 *1565:A 0.000266541
19 *1393:A *357:32 0.000779292
20 *1545:A *1565:A 8.70354e-05
21 *1551:A *357:32 0.000602338
22 *1557:A *357:32 4.77757e-05
23 *1562:A *357:32 9.68083e-06
24 *1563:A *1565:A 4.82919e-05
25 *351:24 *357:32 8.95909e-05
*RES
1 *1409:X *357:32 48.965 
2 *357:32 *1565:A 7.605 
*END

*D_NET *358 0.0307706
*CONN
*I *1316:D I *D sky130_fd_sc_hd__dlxtp_1
*I *1348:A I *D sky130_fd_sc_hd__buf_1
*I *1284:D I *D sky130_fd_sc_hd__dlxtp_1
*I *1443:X O *D sky130_fd_sc_hd__clkbuf_2
*CAP
1 *1316:D 0.0016895
2 *1348:A 0.000336589
3 *1284:D 0.000249827
4 *1443:X 0.00327412
5 *358:55 0.00254395
6 *358:40 0.00404181
7 *1284:D *1418:A 1.07797e-05
8 *1284:D *400:57 0.000194393
9 *1284:D *407:48 6.05375e-05
10 *1284:D *415:22 0.000280306
11 *1284:D *461:53 0.000124895
12 *1316:D *1298:D 0.000386344
13 *1316:D *1302:D 0.0026562
14 *1316:D *432:40 0.00028256
15 *1316:D *442:57 0.00010915
16 *1348:A *494:DIODE 0
17 *1348:A *1256:A1 3.51029e-05
18 *1348:A *1290:D 0.000156555
19 *1348:A *1334:A 5.53936e-05
20 *1348:A *1350:A 7.56599e-05
21 *1348:A *1619:A 1.7635e-05
22 *1348:A *401:74 0.000216184
23 *1348:A *427:20 0
24 *1348:A *468:22 4.66108e-05
25 *358:40 *1257:A0 0.000325592
26 *358:40 *1257:A1 8.98551e-05
27 *358:40 *1332:A 1.90963e-05
28 *358:40 *1355:A 0.00013535
29 *358:40 *1357:A 2.41099e-05
30 *358:40 *1419:A 0.000301115
31 *358:40 *1422:A 9.77232e-05
32 *358:40 *1567:A 1.7635e-05
33 *358:40 *1585:A 0.00053347
34 *358:40 *1590:A 4.1335e-05
35 *358:40 *407:16 0.000151712
36 *358:40 *407:48 6.26955e-05
37 *358:40 *433:34 0.00024495
38 *358:40 *446:46 0.000121643
39 *358:40 *448:70 0.0002394
40 *358:40 *453:60 0.000838468
41 *358:40 *465:20 0.000200536
42 *358:40 *465:57 0.000142746
43 *358:40 *468:45 0.000126566
44 *358:55 *432:40 0.00105059
45 *358:55 *468:45 4.2145e-05
46 *1249:B *358:40 0.00032078
47 *1264:S1 *358:40 0
48 *1267:S1 *1316:D 0.00153763
49 *1273:S1 *1284:D 4.80182e-05
50 *1282:D *1348:A 0.000108257
51 *1394:A *1316:D 3.91191e-05
52 *1442:A *358:40 0
53 *1520:A *1348:A 0.000319887
54 *1534:A *1316:D 4.04634e-05
55 *1555:A *358:40 2.11965e-05
56 *1555:A *358:55 3.62158e-05
57 *1560:A *358:40 0.000328845
58 *1560:A *358:55 0.00113941
59 *1623:A *1348:A 4.77719e-05
60 *295:48 *1348:A 2.01669e-05
61 *325:40 *358:40 0.00051295
62 *336:20 *358:40 0.000144742
63 *347:46 *358:40 0.00439927
64 *347:66 *1284:D 5.50046e-05
*RES
1 *1443:X *358:40 39.6351 
2 *358:40 *1284:D 10.3175 
3 *358:40 *358:55 1.90253 
4 *358:55 *1348:A 11.9225 
5 *358:55 *1316:D 9.68203 
*END

*D_NET *359 0.0194793
*CONN
*I *1566:A I *D sky130_fd_sc_hd__buf_2
*I *1410:X O *D sky130_fd_sc_hd__buf_1
*CAP
1 *1566:A 0.00412101
2 *1410:X 0.00412101
3 *1566:A *1256:A2 6.1728e-05
4 *1566:A *1258:A0 7.56599e-05
5 *1566:A *1258:A3 0
6 *1566:A *1585:A 0
7 *1566:A *1592:A 0.000108948
8 *1566:A *395:14 0.000126737
9 *1566:A *397:14 0.000101392
10 *1566:A *414:26 0.000584417
11 *1566:A *420:30 0.00233467
12 *1566:A *447:47 3.09774e-05
13 *1566:A *458:26 0.000309652
14 *1566:A *458:40 8.23764e-05
15 *1566:A *466:42 0.00046661
16 *1566:A *466:52 0.000496075
17 N4BEG[8] *1566:A 2.06578e-05
18 *498:DIODE *1566:A 0.000759292
19 *1273:S1 *1566:A 1.87674e-05
20 *1363:A *1566:A 0.000184366
21 *1366:A *1566:A 9.97985e-05
22 *1544:A *1566:A 4.0031e-05
23 *314:14 *1566:A 0.00013827
24 *351:24 *1566:A 0.00459833
25 *353:24 *1566:A 0.000598548
*RES
1 *1410:X *1566:A 31.5009 
*END

*D_NET *360 0.00487215
*CONN
*I *1567:A I *D sky130_fd_sc_hd__buf_2
*I *1411:X O *D sky130_fd_sc_hd__clkbuf_1
*CAP
1 *1567:A 0.000917291
2 *1411:X 0.000917291
3 *1567:A *1257:A1 2.75368e-05
4 *1567:A *1260:A1 2.10582e-05
5 *1567:A *1276:D 6.22239e-05
6 *1567:A *1379:A 0.000101604
7 *1567:A *1590:A 2.24292e-05
8 *1567:A *380:12 8.88715e-05
9 *1567:A *380:26 8.41307e-05
10 *1567:A *408:24 0.000456999
11 *1567:A *410:14 0.000439306
12 *1567:A *433:34 1.08879e-05
13 *1567:A *446:28 0.000146765
14 *1567:A *476:14 0.000842684
15 *1255:S0 *1567:A 1.88656e-05
16 *1257:S1 *1567:A 8.41307e-05
17 *1262:S1 *1567:A 0.000158066
18 *1430:A *1567:A 0.000319368
19 *325:26 *1567:A 0.000135006
20 *358:40 *1567:A 1.7635e-05
*RES
1 *1411:X *1567:A 22.6731 
*END

*D_NET *361 0.0190075
*CONN
*I *1568:A I *D sky130_fd_sc_hd__buf_2
*I *492:DIODE I *D sky130_fd_sc_hd__diode_2
*I *1412:X O *D sky130_fd_sc_hd__buf_1
*CAP
1 *1568:A 2.21004e-05
2 *492:DIODE 3.03783e-05
3 *1412:X 0.000571968
4 *361:26 0.000628381
5 *361:14 0.00234923
6 *361:12 0.00234529
7 *492:DIODE *422:18 9.52646e-05
8 *361:12 *442:90 3.64998e-06
9 *361:14 *466:42 0.00036682
10 *361:26 *1585:A 8.23457e-05
11 *361:26 *1589:A 0.000172275
12 *361:26 *1591:A 8.41703e-06
13 *361:26 *373:26 9.0444e-05
14 *361:26 *380:26 8.73147e-06
15 *361:26 *407:16 0.00035724
16 *361:26 *422:18 6.00027e-05
17 FrameStrobe_O[10] *361:12 1.82859e-05
18 FrameStrobe_O[14] *361:12 3.41589e-05
19 FrameStrobe_O[15] *361:12 0.000460842
20 FrameStrobe_O[16] *361:12 0.000524664
21 NN4BEG[4] *361:26 0.00018602
22 NN4BEG[5] *361:26 0.000630591
23 *1391:A *492:DIODE 0.000162311
24 *1391:A *361:26 0.000180557
25 *1397:A *361:14 0.000772892
26 *1478:A *361:14 0.000270415
27 *1495:A *361:14 0.000219389
28 *1523:A *361:12 0.000620383
29 *1524:A *361:12 0.000805411
30 *1541:A *361:12 8.98077e-05
31 *293:14 *361:14 0.000313685
32 *310:50 *361:14 9.0156e-05
33 *333:24 *361:14 0.00325161
34 *347:46 *361:26 6.60907e-06
35 *354:26 *361:14 0.00317716
*RES
1 *1412:X *361:12 22.82 
2 *361:12 *361:14 55.995 
3 *361:14 *361:26 17.8 
4 *361:26 *492:DIODE 3.085 
5 *361:26 *1568:A 1.96 
*END

*D_NET *362 0.0207329
*CONN
*I *1569:A I *D sky130_fd_sc_hd__buf_2
*I *1398:X O *D sky130_fd_sc_hd__buf_1
*CAP
1 *1569:A 0.00436905
2 *1398:X 0.00436905
3 *1569:A *1263:A2 1.56406e-05
4 *1569:A *1273:A0 9.26482e-05
5 *1569:A *1329:A 1.39456e-05
6 *1569:A *1570:A 0.000364809
7 *1569:A *1577:A 0.0017648
8 *1569:A *1609:A 7.5434e-05
9 *1569:A *440:18 3.55883e-05
10 *1569:A *445:24 5.38577e-05
11 *1569:A *445:32 9.31562e-05
12 *1569:A *464:10 4.26845e-05
13 *1569:A *466:28 1.23015e-05
14 *1569:A *466:42 2.08619e-05
15 N2BEG[4] *1569:A 0.000590454
16 N2BEG[5] *1569:A 0.000586479
17 N2BEG[6] *1569:A 0.000119762
18 N2BEGb[4] *1569:A 0.000121437
19 N4BEG[2] *1569:A 9.60335e-05
20 *1398:A *1569:A 0.000102013
21 *1399:A *1569:A 4.22697e-05
22 *1400:A *1569:A 4.82919e-05
23 *1463:A *1569:A 0.000260877
24 *1481:A *1569:A 9.10805e-05
25 *1482:A *1569:A 8.91779e-05
26 *1494:A *1569:A 0.000529157
27 *1509:A *1569:A 0.000326119
28 *1557:A *1569:A 0.00102611
29 *1564:A *1569:A 0.00537982
*RES
1 *1398:X *1569:A 46.494 
*END

*D_NET *363 0.0181868
*CONN
*I *1570:A I *D sky130_fd_sc_hd__buf_2
*I *1399:X O *D sky130_fd_sc_hd__buf_1
*CAP
1 *1570:A 0.00296411
2 *1399:X 0.00296411
3 *1570:A *1572:A 0.00497623
4 *1570:A *1573:A 0.00518421
5 *1570:A *1575:A 3.91983e-05
6 *1570:A *1604:A 0.000165886
7 *1570:A *440:18 0.000312305
8 *1570:A *442:30 0.000224522
9 *1570:A *458:26 0.000247069
10 N2BEGb[3] *1570:A 0.000235541
11 N2BEGb[4] *1570:A 0.000282172
12 N4BEG[2] *1570:A 9.32415e-05
13 *1399:A *1570:A 2.44872e-05
14 *1545:A *1570:A 0
15 *1557:A *1570:A 6.06433e-05
16 *1562:A *1570:A 4.82537e-05
17 *1569:A *1570:A 0.000364809
*RES
1 *1399:X *1570:A 25.7103 
*END

*D_NET *364 0.0226079
*CONN
*I *1571:A I *D sky130_fd_sc_hd__buf_2
*I *490:DIODE I *D sky130_fd_sc_hd__diode_2
*I *1400:X O *D sky130_fd_sc_hd__buf_1
*CAP
1 *1571:A 8.88263e-06
2 *490:DIODE 0.00142911
3 *1400:X 0.000655613
4 *364:14 0.00220539
5 *364:10 0.00144077
6 *490:DIODE *1415:A 0.000384118
7 *490:DIODE *1586:A 1.98737e-05
8 *490:DIODE *1600:A 0.00145231
9 *490:DIODE *1602:A 0.000194069
10 *490:DIODE *380:12 2.4315e-05
11 *490:DIODE *392:20 0.000995231
12 *490:DIODE *399:26 0
13 *490:DIODE *412:43 0
14 *490:DIODE *412:68 0.000349581
15 *490:DIODE *415:16 1.12578e-05
16 *1571:A *380:12 4.77719e-05
17 *364:10 *1271:A1 0.000333111
18 *364:10 *445:32 0.000286916
19 *364:14 *494:DIODE 0.000156708
20 *364:14 *412:68 1.33285e-05
21 *364:14 *443:34 0.00146561
22 N2BEGb[5] *490:DIODE 6.95739e-05
23 N2BEGb[6] *490:DIODE 8.35106e-05
24 *1263:S0 *364:10 9.98744e-05
25 *1274:S1 *490:DIODE 0
26 *1315:D *364:10 0.000484557
27 *1429:A *364:10 0.000312097
28 *1547:A *490:DIODE 0.000112896
29 *1557:A *490:DIODE 2.77993e-05
30 *1560:A *490:DIODE 0.000162056
31 *1562:A *490:DIODE 6.21804e-05
32 *263:28 *490:DIODE 0.0010063
33 *291:22 *490:DIODE 0.000149167
34 *291:22 *364:14 0.000294577
35 *304:26 *364:10 0.000169161
36 *344:14 *364:14 0.00478338
37 *347:66 *364:14 0.00331678
38 *351:24 *490:DIODE 0
*RES
1 *1400:X *364:10 21.26 
2 *364:10 *364:14 44.625 
3 *364:14 *490:DIODE 42.62 
4 *490:DIODE *1571:A 3.65 
*END

*D_NET *365 0.0158198
*CONN
*I *1572:A I *D sky130_fd_sc_hd__buf_2
*I *1401:X O *D sky130_fd_sc_hd__buf_1
*CAP
1 *1572:A 0.00243621
2 *1401:X 0.00243621
3 *1572:A *1265:A2 9.11255e-05
4 *1572:A *1573:A 0.000164953
5 *1572:A *1575:A 0.00381875
6 *1572:A *1604:A 0.00059606
7 *1572:A *429:22 9.21931e-05
8 *1572:A *453:42 0.000270276
9 *1572:A *456:36 0.000101226
10 N4BEG[1] *1572:A 5.79895e-05
11 *1493:A *1572:A 0.000217232
12 *1509:A *1572:A 0.000486026
13 *1570:A *1572:A 0.00497623
14 *294:32 *1572:A 7.53239e-05
*RES
1 *1401:X *1572:A 27.414 
*END

*D_NET *366 0.0160574
*CONN
*I *1573:A I *D sky130_fd_sc_hd__buf_2
*I *1402:X O *D sky130_fd_sc_hd__buf_1
*CAP
1 *1573:A 0.00277154
2 *1402:X 0.00277154
3 *1573:A *1265:A2 3.59531e-06
4 *1573:A *1575:A 0.000250219
5 *1573:A *1583:A 0.00153997
6 *1573:A *1584:A 0.000148591
7 *1573:A *1586:A 4.8858e-05
8 *1573:A *451:10 5.8499e-05
9 *1573:A *451:16 8.7152e-06
10 *1573:A *458:26 0.00230039
11 *1573:A *459:30 0.00020716
12 *1573:A *460:76 8.73147e-06
13 N4BEG[4] *1573:A 0.000109011
14 N4BEG[7] *1573:A 4.45481e-05
15 *1401:A *1573:A 1.02164e-05
16 *1501:A *1573:A 0.000202076
17 *1503:A *1573:A 0.000182734
18 *1545:A *1573:A 4.18662e-05
19 *1570:A *1573:A 0.00518421
20 *1572:A *1573:A 0.000164953
*RES
1 *1402:X *1573:A 25.8436 
*END

*D_NET *367 0.0118643
*CONN
*I *1574:A I *D sky130_fd_sc_hd__buf_2
*I *1403:X O *D sky130_fd_sc_hd__buf_1
*CAP
1 *1574:A 0.00048125
2 *1403:X 0.000650873
3 *367:16 0.00263617
4 *367:12 0.0028058
5 *1574:A *1577:A 0.000102457
6 *367:12 *1254:A1 0.000572638
7 *367:12 *1378:A 2.56752e-06
8 *367:12 *1575:A 8.52845e-05
9 *367:12 *449:12 2.0247e-05
10 *367:16 *466:42 0.00180537
11 N4BEG[3] *1574:A 0.000133672
12 N4BEG[4] *1574:A 0.000573212
13 N4BEG[5] *1574:A 0.000378133
14 N4BEG[6] *1574:A 0
15 *1399:A *367:12 0.000330303
16 *1400:A *367:12 0.000240961
17 *1401:A *367:16 0.000119866
18 *1402:A *367:16 4.21579e-05
19 *1404:A *367:12 6.46125e-05
20 *1435:A *367:12 8.95327e-05
21 *1474:A *367:16 0.00023301
22 *1486:A *367:16 0.000122325
23 *1490:A *367:12 0
24 *1545:A *1574:A 2.49611e-05
25 *1565:A *1574:A 3.14086e-05
26 *276:40 *367:12 0
27 *322:42 *367:16 0.000173683
28 *333:22 *367:12 0.000143831
29 *333:24 *367:16 0
*RES
1 *1403:X *367:12 19.505 
2 *367:12 *367:16 44.195 
3 *367:16 *1574:A 14.715 
*END

*D_NET *368 0.0154947
*CONN
*I *1575:A I *D sky130_fd_sc_hd__buf_2
*I *1404:X O *D sky130_fd_sc_hd__buf_1
*CAP
1 *1575:A 0.0024918
2 *1404:X 0.0024918
3 *1575:A *1265:A0 0.00010799
4 *1575:A *1337:A 0.00015639
5 *1575:A *1378:A 2.42043e-05
6 *1575:A *1577:A 0.00183144
7 *1575:A *1604:A 0.000338942
8 *1575:A *1618:A 0.000106604
9 *1575:A *429:22 4.66474e-05
10 *1575:A *430:28 2.53366e-05
11 *1575:A *433:34 0.000101975
12 *1575:A *436:42 0.000565177
13 *1575:A *442:30 0.000232411
14 *1575:A *445:24 5.83121e-06
15 *1575:A *446:22 0.000274531
16 *1575:A *447:10 4.37173e-06
17 *1575:A *448:52 8.05167e-05
18 *1575:A *460:34 5.83429e-05
19 N4BEG[0] *1575:A 0.000270514
20 N4BEG[1] *1575:A 9.77731e-05
21 N4BEG[2] *1575:A 5.52168e-05
22 N4BEG[7] *1575:A 4.85381e-05
23 *1384:A *1575:A 0.000301479
24 *1403:A *1575:A 0.000222072
25 *1433:A *1575:A 0.000739457
26 *1435:A *1575:A 9.25666e-05
27 *1462:A *1575:A 5.86611e-05
28 *1465:A *1575:A 0.000148109
29 *1484:A *1575:A 5.13611e-05
30 *1485:A *1575:A 5.69248e-06
31 *1486:A *1575:A 1.03572e-05
32 *1488:A *1575:A 8.68767e-06
33 *1557:A *1575:A 0.000204337
34 *1570:A *1575:A 3.91983e-05
35 *1572:A *1575:A 0.00381875
36 *1573:A *1575:A 0.000250219
37 *310:40 *1575:A 4.21127e-05
38 *367:12 *1575:A 8.52845e-05
*RES
1 *1404:X *1575:A 42.5227 
*END

*D_NET *369 0.0264585
*CONN
*I *1285:D I *D sky130_fd_sc_hd__dlxtp_1
*I *1349:A I *D sky130_fd_sc_hd__buf_1
*I *1317:D I *D sky130_fd_sc_hd__dlxtp_1
*I *1444:X O *D sky130_fd_sc_hd__dlymetal6s2s_1
*CAP
1 *1285:D 0.00167174
2 *1349:A 0.000131578
3 *1317:D 0.00103476
4 *1444:X 0.00266372
5 *369:41 0.00243609
6 *369:16 0.00433126
7 *1285:D *487:DIODE 0.000278679
8 *1285:D *1256:A1 4.04634e-05
9 *1285:D *1256:A3 1.95008e-05
10 *1285:D *1278:D 0
11 *1285:D *1584:A 0.000572222
12 *1285:D *1591:A 0.000192009
13 *1285:D *399:26 0.000452627
14 *1285:D *434:24 0.000469658
15 *1285:D *436:42 0.000145637
16 *1285:D *459:55 0.0002824
17 *1285:D *461:30 0.00161007
18 *1285:D *464:42 0.000404117
19 *1317:D *1299:D 5.63183e-05
20 *1317:D *1300:D 2.65252e-05
21 *1317:D *1583:A 0
22 *1317:D *1589:A 0.000120887
23 *1317:D *1591:A 3.18827e-05
24 *1317:D *417:24 4.2145e-05
25 *1317:D *456:66 0.000852451
26 *1349:A *1581:A 5.8023e-05
27 *1349:A *434:24 1.88602e-05
28 *369:16 *1592:A 0.000397828
29 *369:16 *380:12 0.000144191
30 *369:16 *383:20 4.36573e-06
31 *369:16 *391:16 0.00114153
32 *369:16 *437:28 0.000344939
33 *369:16 *453:42 0.000397889
34 *369:41 *1582:A 0.000107452
35 *369:41 *434:24 5.63198e-05
36 *369:41 *437:28 0.000263876
37 *369:41 *448:52 0.000149201
38 *369:41 *458:26 4.62594e-05
39 N1BEG[1] *369:16 8.65905e-05
40 N1BEG[3] *369:16 8.40213e-05
41 N2BEG[1] *369:16 8.40213e-05
42 N2BEG[3] *369:16 7.48995e-05
43 *1249:A *369:16 1.98899e-05
44 *1256:S1 *1285:D 4.04634e-05
45 *1272:S1 *1317:D 3.24923e-05
46 *1293:D *1285:D 0.000312119
47 *1325:A *1285:D 3.96645e-05
48 *1347:A *1285:D 0.00023551
49 *1445:A *369:16 0.000118265
50 *1446:A *369:16 3.94196e-05
51 *1475:A *1349:A 0.000229025
52 *1476:A *1349:A 1.19928e-05
53 *1477:A *1349:A 8.95347e-05
54 *1545:A *369:16 0.000371186
55 *1549:A *369:16 0.00253266
56 *1549:A *369:41 0.000641747
57 *1554:A *369:16 3.96088e-05
58 *1555:A *1317:D 3.92756e-05
59 *347:46 *1285:D 0.000232417
60 *347:46 *1349:A 1.35463e-05
61 *347:46 *369:41 9.27169e-05
*RES
1 *1444:X *369:16 28.6568 
2 *369:16 *1317:D 8.60757 
3 *369:16 *369:41 1.68593 
4 *369:41 *1349:A 7.3775 
5 *369:41 *1285:D 11.3787 
*END

*D_NET *370 0.00878505
*CONN
*I *1576:A I *D sky130_fd_sc_hd__buf_2
*I *1405:X O *D sky130_fd_sc_hd__clkbuf_1
*CAP
1 *1576:A 0.002344
2 *1405:X 0.002344
3 *1576:A *1592:A 0.000299815
4 *1576:A *372:22 0.00151862
5 *1576:A *380:12 0.000161158
6 *1576:A *450:26 7.87587e-06
7 *1576:A *450:28 1.22898e-05
8 *1576:A *454:14 0.000102922
9 *1576:A *465:20 0.00113896
10 *1262:S1 *1576:A 8.60799e-05
11 *1274:S1 *1576:A 0.000208911
12 *351:24 *1576:A 0.000458481
13 *357:32 *1576:A 0.000101944
*RES
1 *1405:X *1576:A 43.65 
*END

*D_NET *371 0.0182155
*CONN
*I *1577:A I *D sky130_fd_sc_hd__buf_2
*I *1406:X O *D sky130_fd_sc_hd__buf_1
*CAP
1 *1577:A 0.00545657
2 *1406:X 0.00545657
3 *1577:A *1254:A0 0.000209308
4 *1577:A *1254:A1 0.000207958
5 *1577:A *1258:A0 1.55612e-05
6 *1577:A *1337:A 3.69766e-05
7 *1577:A *1338:A 0.000268322
8 *1577:A *1418:A 7.95888e-05
9 *1577:A *1420:A 2.24942e-05
10 *1577:A *404:70 8.73389e-06
11 *1577:A *404:77 0.000160641
12 *1577:A *432:40 2.50323e-05
13 *1577:A *442:30 0
14 *1577:A *473:14 6.59214e-05
15 *1577:A *477:26 0.0001614
16 N4BEG[4] *1577:A 7.90693e-05
17 N4BEG[5] *1577:A 3.9141e-05
18 N4BEG[6] *1577:A 0.000345055
19 N4BEG[7] *1577:A 2.68464e-05
20 N4BEG[9] *1577:A 4.77719e-05
21 NN4BEG[6] *1577:A 0.000442466
22 *1254:S1 *1577:A 8.23457e-05
23 *1557:A *1577:A 0.000752078
24 *1564:A *1577:A 0.000517591
25 *1569:A *1577:A 0.0017648
26 *1574:A *1577:A 0.000102457
27 *1575:A *1577:A 0.00183144
28 *276:40 *1577:A 9.39388e-06
*RES
1 *1406:X *1577:A 36.7033 
*END

*D_NET *372 0.00927879
*CONN
*I *1578:A I *D sky130_fd_sc_hd__buf_2
*I *1413:X O *D sky130_fd_sc_hd__clkbuf_1
*CAP
1 *1578:A 0
2 *1413:X 0.00213675
3 *372:22 0.00213675
4 *372:22 *1255:A2 4.41506e-05
5 *372:22 *1266:A3 4.9968e-05
6 *372:22 *1314:GATE 4.52678e-05
7 *372:22 *1379:A 0.000333834
8 *372:22 *1405:A 0.00102382
9 *372:22 *1427:A 0.000103792
10 *372:22 *411:18 1.6408e-05
11 *372:22 *446:28 6.80806e-05
12 *372:22 *450:34 0.000669357
13 *372:22 *454:14 0.000383646
14 *372:22 *458:40 4.14369e-05
15 *372:22 *461:78 6.0147e-06
16 *1251:S1 *372:22 7.23602e-05
17 *1314:D *372:22 1.56428e-05
18 *1385:A *372:22 9.30787e-05
19 *1430:A *372:22 2.62641e-05
20 *1548:A *372:22 9.65109e-05
21 *1556:A *372:22 0.000397031
22 *1576:A *372:22 0.00151862
*RES
1 *1413:X *372:22 48.295 
2 *372:22 *1578:A 3.6 
*END

*D_NET *373 0.00961274
*CONN
*I *1579:A I *D sky130_fd_sc_hd__buf_2
*I *1423:X O *D sky130_fd_sc_hd__clkbuf_1
*CAP
1 *1579:A 8.91456e-05
2 *1423:X 0.00272587
3 *373:26 0.00281502
4 *1579:A *1592:A 0.000119756
5 *1579:A *1593:A 3.4026e-05
6 *1579:A *437:28 3.09774e-05
7 *373:26 *1274:A0 0.000157687
8 *373:26 *1409:A 0.000211951
9 *373:26 *1586:A 0
10 *373:26 *407:16 4.77701e-05
11 *373:26 *416:28 0.000125262
12 *373:26 *443:16 0.000297494
13 *373:26 *446:46 3.06837e-05
14 N2BEG[7] *373:26 0.000239502
15 N2BEGb[0] *373:26 7.06865e-05
16 N2BEGb[1] *373:26 6.67107e-05
17 N2BEGb[2] *373:26 0
18 NN4BEG[7] *1579:A 0.000119762
19 NN4BEG[8] *1579:A 4.07182e-05
20 NN4BEG[9] *1579:A 0.000122325
21 *1249:A *373:26 0
22 *1250:B1 *373:26 4.41234e-05
23 *1270:S1 *373:26 0.000661114
24 *1547:A *373:26 0.000250616
25 *1548:A *373:26 0.00103476
26 *1552:A *373:26 8.35106e-05
27 *1555:A *373:26 0
28 *1556:A *373:26 0.000102817
29 *361:26 *373:26 9.0444e-05
*RES
1 *1423:X *373:26 49.975 
2 *373:26 *1579:A 6.48 
*END

*D_NET *374 0.00887364
*CONN
*I *1580:A I *D sky130_fd_sc_hd__buf_2
*I *1424:X O *D sky130_fd_sc_hd__clkbuf_1
*CAP
1 *1580:A 0.00269609
2 *1424:X 0.00269609
3 *1580:A *1253:A0 0.000233386
4 *1580:A *1256:A0 0.000234181
5 *1580:A *1258:A1 0.000129772
6 *1580:A *1269:A0 0.000734318
7 *1580:A *1288:D 8.86472e-05
8 *1580:A *1288:GATE 1.93289e-05
9 *1580:A *1352:A 0.00012406
10 *1580:A *1593:A 1.96989e-05
11 *1580:A *1616:A 9.77048e-06
12 *1580:A *403:86 0.000194282
13 *1580:A *406:39 6.48235e-05
14 *1580:A *429:22 1.81185e-05
15 *1580:A *468:22 0.000166211
16 *1580:A *479:30 0.000160314
17 Co *1580:A 0.000270245
18 *1260:S0 *1580:A 0.000248667
19 *1282:D *1580:A 0.000196258
20 *1312:D *1580:A 2.10152e-05
21 *1390:A *1580:A 0.000159383
22 *297:44 *1580:A 0.000388969
*RES
1 *1424:X *1580:A 48.025 
*END

*D_NET *375 0.00585708
*CONN
*I *1581:A I *D sky130_fd_sc_hd__buf_2
*I *1425:X O *D sky130_fd_sc_hd__clkbuf_1
*CAP
1 *1581:A 0.00122117
2 *1425:X 0.00122117
3 *1581:A *1339:A 0.00131342
4 *1581:A *1418:A 5.20622e-05
5 *1581:A *1583:A 1.14169e-05
6 *1581:A *1584:A 2.20014e-05
7 *1581:A *400:57 7.27402e-06
8 *1581:A *426:26 2.98989e-05
9 *1581:A *430:28 2.55475e-05
10 *1581:A *432:40 0.000154731
11 *1581:A *434:24 1.79189e-05
12 *1581:A *435:18 0.000171365
13 *1581:A *437:28 0.000157106
14 NN4BEG[14] *1581:A 2.99572e-05
15 *496:DIODE *1581:A 0.000245924
16 *1257:S0 *1581:A 0.000191335
17 *1280:D *1581:A 2.34691e-05
18 *1345:A *1581:A 0.000183322
19 *1349:A *1581:A 5.8023e-05
20 *1433:A *1581:A 0.000231734
21 *1547:A *1581:A 1.7635e-05
22 *303:51 *1581:A 5.28355e-05
23 *347:58 *1581:A 1.88602e-05
24 *347:66 *1581:A 0.000398902
*RES
1 *1425:X *1581:A 38.275 
*END

*D_NET *376 0.00923373
*CONN
*I *1582:A I *D sky130_fd_sc_hd__buf_2
*I *1426:X O *D sky130_fd_sc_hd__clkbuf_1
*CAP
1 *1582:A 0.00222164
2 *1426:X 0.00222164
3 *1582:A *1252:A0 2.22315e-05
4 *1582:A *1422:A 0.00113782
5 *1582:A *1605:A 4.14776e-05
6 *1582:A *401:12 4.82919e-05
7 *1582:A *401:16 2.85364e-05
8 *1582:A *401:59 0.000128019
9 *1582:A *404:10 1.19928e-05
10 *1582:A *407:48 0.0012219
11 *1582:A *418:22 0.000141726
12 *1582:A *419:22 0.000140435
13 *1582:A *430:28 0.000163091
14 *1582:A *444:64 2.43191e-05
15 *1582:A *448:52 0.000149459
16 *1582:A *463:56 0.00098767
17 *1465:A *1582:A 0.000163091
18 *1549:A *1582:A 0.000111089
19 *67:38 *1582:A 0.000161836
20 *369:41 *1582:A 0.000107452
*RES
1 *1426:X *1582:A 19.2335 
*END

*D_NET *377 0.00938736
*CONN
*I *1583:A I *D sky130_fd_sc_hd__buf_2
*I *1427:X O *D sky130_fd_sc_hd__clkbuf_1
*CAP
1 *1583:A 0.00270715
2 *1427:X 0.00270715
3 *1583:A *1251:A2 6.17895e-06
4 *1583:A *1584:A 8.35068e-05
5 *1583:A *1591:A 0
6 *1583:A *410:14 0.000195991
7 *1583:A *430:28 0.000109786
8 *1583:A *456:54 1.41634e-05
9 *1583:A *458:26 0.000514795
10 *1583:A *459:30 5.18735e-06
11 *1583:A *461:78 8.93639e-05
12 *1583:A *466:42 0
13 *1583:A *466:52 0.000405409
14 *1583:A *476:14 0.000765042
15 NN4BEG[14] *1583:A 4.89295e-05
16 *1274:S0 *1583:A 4.68522e-05
17 *1317:D *1583:A 0
18 *1433:A *1583:A 0.000136456
19 *1573:A *1583:A 0.00153997
20 *1581:A *1583:A 1.14169e-05
*RES
1 *1427:X *1583:A 18.8899 
*END

*D_NET *378 0.00968007
*CONN
*I *1584:A I *D sky130_fd_sc_hd__buf_2
*I *1428:X O *D sky130_fd_sc_hd__clkbuf_1
*CAP
1 *1584:A 0.00204109
2 *1428:X 0.00204109
3 *1584:A *1301:D 0.000942493
4 *1584:A *1418:A 0.00123581
5 *1584:A *380:45 0.000293834
6 *1584:A *406:26 4.45058e-05
7 *1584:A *418:22 0.000122081
8 *1584:A *426:26 6.47467e-05
9 *1584:A *436:42 0.000319154
10 *1584:A *437:28 0.000272994
11 *1584:A *447:10 2.98383e-05
12 *1584:A *459:30 0.000243312
13 *1584:A *459:55 0.000462851
14 *1584:A *461:30 3.13637e-05
15 *1584:A *476:41 0.000180899
16 *1584:A *481:24 0.00016434
17 NN4BEG[14] *1584:A 5.84698e-05
18 *1285:D *1584:A 0.000572222
19 *1478:A *1584:A 7.22467e-05
20 *1573:A *1584:A 0.000148591
21 *1581:A *1584:A 2.20014e-05
22 *1583:A *1584:A 8.35068e-05
23 *310:40 *1584:A 5.03721e-06
24 *347:58 *1584:A 0.000227594
*RES
1 *1428:X *1584:A 21.53 
*END

*D_NET *379 0.0150609
*CONN
*I *1585:A I *D sky130_fd_sc_hd__buf_2
*I *1414:X O *D sky130_fd_sc_hd__buf_1
*CAP
1 *1585:A 0.00339423
2 *1414:X 0.00339423
3 *1585:A *487:DIODE 1.66628e-05
4 *1585:A *494:DIODE 0.000214887
5 *1585:A *1255:A0 0.000300832
6 *1585:A *1273:A2 0.000107721
7 *1585:A *1276:GATE 1.38481e-05
8 *1585:A *1295:GATE 0.000112892
9 *1585:A *1415:A 0
10 *1585:A *1591:A 0.000140025
11 *1585:A *399:26 0.000116846
12 *1585:A *400:22 7.85898e-05
13 *1585:A *400:53 1.92979e-05
14 *1585:A *402:65 5.26806e-05
15 *1585:A *407:16 1.30972e-05
16 *1585:A *409:20 9.58678e-06
17 *1585:A *416:34 0.000174446
18 *1585:A *422:18 8.41376e-05
19 *1585:A *443:34 0
20 *1585:A *448:70 0.000108958
21 *1256:S0 *1585:A 0.0003401
22 *1262:S0 *1585:A 0.000236172
23 *1294:D *1585:A 0
24 *1326:A *1585:A 1.68534e-05
25 *1365:A *1585:A 0
26 *1383:A *1585:A 3.51583e-05
27 *1553:A *1585:A 1.92475e-06
28 *1566:A *1585:A 0
29 *79:11 *1585:A 0.000245023
30 *211:9 *1585:A 0.000424429
31 *263:28 *1585:A 2.16389e-05
32 *269:36 *1585:A 0
33 *291:22 *1585:A 0.000968363
34 *306:30 *1585:A 0.000232403
35 *351:24 *1585:A 0.00357004
36 *358:40 *1585:A 0.00053347
37 *361:26 *1585:A 8.23457e-05
*RES
1 *1414:X *1585:A 42.9679 
*END

*D_NET *380 0.0183263
*CONN
*I *1286:D I *D sky130_fd_sc_hd__dlxtp_1
*I *1350:A I *D sky130_fd_sc_hd__buf_1
*I *1318:D I *D sky130_fd_sc_hd__dlxtp_1
*I *1445:X O *D sky130_fd_sc_hd__buf_1
*CAP
1 *1286:D 0.000404164
2 *1350:A 6.56382e-05
3 *1318:D 0
4 *1445:X 0.00126183
5 *380:45 0.0012942
6 *380:26 0.00152089
7 *380:12 0.00195832
8 *1286:D *1252:A2 4.77719e-05
9 *1286:D *1256:A1 0.000353056
10 *1286:D *1301:D 3.14528e-05
11 *1286:D *444:42 3.64998e-06
12 *1286:D *460:34 0.000475734
13 *1350:A *1256:A1 7.56599e-05
14 *380:12 *1587:A 0.000103546
15 *380:12 *1589:A 0.00015806
16 *380:12 *391:16 0.00114153
17 *380:12 *411:18 0.000472771
18 *380:26 *1257:A2 0.000214833
19 *380:26 *1299:D 0.000295477
20 *380:26 *1300:GATE 0
21 *380:26 *1313:GATE 0.000190712
22 *380:26 *1357:A 0.000228855
23 *380:26 *1589:A 0.000628382
24 *380:26 *1593:A 4.82863e-05
25 *380:26 *444:66 8.23457e-05
26 *380:45 *1290:D 7.33639e-05
27 *380:45 *1301:D 0.000105832
28 *380:45 *1318:GATE 8.23457e-05
29 *380:45 *1358:A 0.00012602
30 *380:45 *1616:A 6.29072e-05
31 *380:45 *403:41 2.82887e-05
32 *380:45 *418:22 0.000248577
33 *380:45 *476:41 2.89929e-05
34 N1BEG[1] *380:12 8.8266e-05
35 N1BEG[3] *380:12 8.57024e-05
36 N2BEG[1] *380:12 8.57024e-05
37 N2BEG[3] *380:12 8.65961e-05
38 N2BEG[5] *380:12 4.66826e-05
39 N2BEG[7] *380:12 4.92062e-05
40 N2BEGb[2] *380:12 0.000160314
41 N2BEGb[6] *380:12 8.04105e-05
42 N4BEG[0] *380:12 0.000124204
43 N4BEG[10] *380:12 0.000196741
44 N4BEG[12] *380:12 3.51884e-05
45 N4BEG[14] *380:12 0.000235839
46 N4BEG[3] *380:12 0.000271408
47 N4BEG[6] *380:12 0.000232996
48 N4BEG[8] *380:12 5.78601e-05
49 NN4BEG[0] *380:12 3.34788e-05
50 NN4BEG[3] *380:12 0.000232111
51 NN4BEG[5] *380:12 0.000104892
52 *490:DIODE *380:12 2.4315e-05
53 *498:DIODE *380:45 4.03791e-05
54 *1253:S1 *380:26 0.00019312
55 *1256:S1 *1286:D 3.64998e-06
56 *1257:S0 *380:26 0
57 *1257:S1 *380:26 0.000570129
58 *1257:S1 *380:45 3.59784e-05
59 *1262:S1 *380:12 0.000153986
60 *1282:D *1286:D 0.000100134
61 *1282:D *1350:A 1.08758e-05
62 *1311:D *1350:A 4.66108e-05
63 *1311:D *380:45 2.35896e-05
64 *1348:A *1350:A 7.56599e-05
65 *1382:A *380:45 2.94504e-05
66 *1395:A *380:45 8.2453e-05
67 *1446:A *380:12 7.38069e-05
68 *1514:A *1286:D 9.24727e-05
69 *1514:A *380:45 0.000274632
70 *1543:A *380:12 0.000122331
71 *1545:A *380:12 0.000124895
72 *1547:A *380:12 0.000134515
73 *1551:A *380:12 4.82863e-05
74 *1553:A *380:12 8.40269e-05
75 *1560:A *380:12 8.23457e-05
76 *1562:A *380:12 0.000155601
77 *1563:A *380:12 4.82919e-05
78 *1565:A *380:12 0.000119156
79 *1567:A *380:12 8.88715e-05
80 *1567:A *380:26 8.41307e-05
81 *1571:A *380:12 4.77719e-05
82 *1576:A *380:12 0.000161158
83 *1584:A *380:45 0.000293834
84 *292:43 *380:45 8.29719e-05
85 *325:40 *380:26 0.000221376
86 *325:40 *380:45 0.00017984
87 *336:57 *380:26 0.000104132
88 *347:46 *380:26 0.000121494
89 *357:32 *380:12 1.60203e-05
90 *361:26 *380:26 8.73147e-06
91 *369:16 *380:12 0.000144191
*RES
1 *1445:X *380:12 44.355 
2 *380:12 *380:26 21.395 
3 *380:26 *1318:D 1.6 
4 *380:26 *380:45 7.04257 
5 *380:45 *1350:A 5.5475 
6 *380:45 *1286:D 12.632 
*END

*D_NET *381 0.00661066
*CONN
*I *1586:A I *D sky130_fd_sc_hd__buf_2
*I *1415:X O *D sky130_fd_sc_hd__clkbuf_1
*CAP
1 *1586:A 0.00165624
2 *1415:X 0.00165624
3 *1586:A *1377:A 4.82863e-05
4 *1586:A *399:26 4.43871e-06
5 *1586:A *413:20 3.67779e-05
6 *1586:A *443:16 0
7 N2BEGb[3] *1586:A 0.000258493
8 N2BEGb[4] *1586:A 4.82919e-05
9 N2BEGb[5] *1586:A 5.2162e-05
10 N4BEG[11] *1586:A 0.000439356
11 N4BEG[5] *1586:A 1.33293e-05
12 N4BEG[7] *1586:A 0.000330003
13 N4BEG[9] *1586:A 8.23329e-05
14 NN4BEG[2] *1586:A 4.41506e-05
15 *490:DIODE *1586:A 1.98737e-05
16 *1249:A *1586:A 1.51856e-05
17 *1555:A *1586:A 0.000695344
18 *1560:A *1586:A 0.000260993
19 *1573:A *1586:A 4.8858e-05
20 *263:28 *1586:A 0.000900313
21 *373:26 *1586:A 0
*RES
1 *1415:X *1586:A 38.295 
*END

*D_NET *382 0.00514706
*CONN
*I *1587:A I *D sky130_fd_sc_hd__buf_2
*I *1416:X O *D sky130_fd_sc_hd__clkbuf_1
*CAP
1 *1587:A 0.00129345
2 *1416:X 0.00129345
3 *1587:A *1257:A1 5.00879e-05
4 *1587:A *1264:A3 0.000118081
5 *1587:A *1300:GATE 8.23457e-05
6 *1587:A *1309:D 0.000156765
7 *1587:A *1309:GATE 0.000817703
8 *1587:A *1339:A 8.65961e-05
9 *1587:A *1589:A 0.00015806
10 *1587:A *1590:A 7.96104e-06
11 *1587:A *1593:A 4.56786e-05
12 *1587:A *391:38 5.41782e-05
13 *1587:A *403:10 9.10058e-05
14 *1587:A *422:18 2.52887e-05
15 *1587:A *423:32 8.10563e-05
16 *1587:A *424:32 9.24735e-05
17 *1587:A *430:28 6.33103e-05
18 *1587:A *448:52 1.88602e-05
19 *1257:S0 *1587:A 0.000194268
20 *1262:S1 *1587:A 0.000198046
21 *1345:A *1587:A 4.77757e-05
22 *1433:A *1587:A 4.66108e-05
23 *347:46 *1587:A 2.04648e-05
24 *380:12 *1587:A 0.000103546
*RES
1 *1416:X *1587:A 32.4 
*END

*D_NET *383 0.0114952
*CONN
*I *1588:A I *D sky130_fd_sc_hd__buf_2
*I *1417:X O *D sky130_fd_sc_hd__buf_1
*CAP
1 *1588:A 0.000624849
2 *1417:X 0.00123669
3 *383:20 0.00186154
4 *1588:A *1274:A0 0.000157156
5 *1588:A *408:18 0.00189841
6 *1588:A *428:22 0.000230435
7 *1588:A *446:22 0.000238591
8 *383:20 *1409:A 0.000257403
9 *383:20 *413:20 0.000234436
10 *383:20 *416:28 0.000118081
11 *383:20 *466:66 8.43946e-05
12 N2BEG[3] *383:20 0.000397257
13 N2BEG[4] *383:20 0.000535617
14 N4BEG[14] *1588:A 0.000238591
15 N4BEG[1] *1588:A 0.000879019
16 N4BEG[4] *1588:A 8.23457e-05
17 *489:DIODE *383:20 0.00050008
18 *1249:A *383:20 4.46262e-05
19 *1249:B *383:20 7.73646e-05
20 *1381:A *383:20 0.00140866
21 *1544:A *1588:A 0.000142271
22 *1549:A *383:20 1.92979e-05
23 *1551:A *383:20 0.00013507
24 *1554:A *383:20 5.49777e-05
25 *303:24 *383:20 3.37099e-05
26 *369:16 *383:20 4.36573e-06
*RES
1 *1417:X *383:20 39.27 
2 *383:20 *1588:A 26.555 
*END

*D_NET *384 0.00470389
*CONN
*I *1589:A I *D sky130_fd_sc_hd__buf_2
*I *1418:X O *D sky130_fd_sc_hd__clkbuf_1
*CAP
1 *1589:A 0.00105299
2 *1418:X 0.00105299
3 *1589:A *1253:A2 5.40146e-05
4 *1589:A *1257:A2 0.000150464
5 *1589:A *1299:D 4.67541e-05
6 *1589:A *400:53 0.000155244
7 *1589:A *407:16 1.72133e-05
8 *1589:A *448:70 0.000582304
9 *1589:A *448:76 6.9387e-05
10 *1257:S1 *1589:A 0.000211707
11 *1272:S1 *1589:A 3.39274e-05
12 *1317:D *1589:A 0.000120887
13 *1587:A *1589:A 0.00015806
14 *263:28 *1589:A 3.92306e-05
15 *361:26 *1589:A 0.000172275
16 *380:12 *1589:A 0.00015806
17 *380:26 *1589:A 0.000628382
*RES
1 *1418:X *1589:A 28.965 
*END

*D_NET *385 0.00402646
*CONN
*I *1590:A I *D sky130_fd_sc_hd__buf_2
*I *1419:X O *D sky130_fd_sc_hd__clkbuf_1
*CAP
1 *1590:A 0.00112426
2 *1419:X 0.00112426
3 *1590:A *1257:A1 0
4 *1590:A *1260:A1 0
5 *1590:A *1264:A3 0.000110888
6 *1590:A *1355:A 0.000121027
7 *1590:A *1591:A 7.92997e-05
8 *1590:A *1592:A 2.45351e-05
9 *1590:A *1593:A 3.93101e-05
10 *1590:A *403:86 5.34069e-05
11 *1590:A *408:44 3.07764e-05
12 *1590:A *424:32 0.000797904
13 *1590:A *437:28 5.8678e-05
14 *1590:A *456:54 6.13929e-06
15 NN4BEG[2] *1590:A 1.91597e-05
16 NN4BEG[4] *1590:A 0.000130638
17 NN4BEG[7] *1590:A 2.8585e-06
18 NN4BEG[8] *1590:A 0.000231594
19 *1272:S0 *1590:A 0
20 *1463:A *1590:A 0
21 *1567:A *1590:A 2.24292e-05
22 *1587:A *1590:A 7.96104e-06
23 *358:40 *1590:A 4.1335e-05
*RES
1 *1419:X *1590:A 26.325 
*END

*D_NET *386 0.0124693
*CONN
*I *1591:A I *D sky130_fd_sc_hd__buf_2
*I *1420:X O *D sky130_fd_sc_hd__clkbuf_1
*CAP
1 *1591:A 0.00313565
2 *1420:X 0.00313565
3 *1591:A *487:DIODE 0.000826144
4 *1591:A *1300:D 0.00093563
5 *1591:A *1332:A 0.000103315
6 *1591:A *1592:A 0.000180572
7 *1591:A *395:12 0.000261212
8 *1591:A *399:26 0.000435954
9 *1591:A *407:16 1.93834e-05
10 *1591:A *412:68 0.000108608
11 *1591:A *437:28 9.53615e-05
12 *1591:A *456:66 7.75177e-05
13 *1591:A *458:26 0.000341583
14 NN4BEG[7] *1591:A 8.73389e-06
15 *1285:D *1591:A 0.000192009
16 *1317:D *1591:A 3.18827e-05
17 *1326:A *1591:A 3.92756e-05
18 *1583:A *1591:A 0
19 *1585:A *1591:A 0.000140025
20 *1590:A *1591:A 7.92997e-05
21 *291:22 *1591:A 0.00189875
22 *299:34 *1591:A 0.000259507
23 *344:14 *1591:A 0.000154843
24 *361:26 *1591:A 8.41703e-06
*RES
1 *1420:X *1591:A 21.6864 
*END

*D_NET *387 0.0115845
*CONN
*I *1592:A I *D sky130_fd_sc_hd__buf_2
*I *1421:X O *D sky130_fd_sc_hd__buf_1
*CAP
1 *1592:A 0.00239548
2 *1421:X 0.00239548
3 *1592:A *1251:A2 1.07684e-05
4 *1592:A *1274:A3 5.18735e-06
5 *1592:A *1377:A 0.000790977
6 *1592:A *1407:A 0.000196045
7 *1592:A *1415:A 0.000231585
8 *1592:A *399:26 0.000466152
9 *1592:A *413:20 0.00015851
10 *1592:A *437:28 0.000403117
11 *1592:A *443:16 0.000195263
12 *1592:A *446:46 7.89282e-05
13 *1592:A *450:26 0.00011016
14 *1592:A *450:28 5.60354e-05
15 *1592:A *450:34 8.7373e-06
16 *1592:A *453:42 0.000418062
17 *1592:A *454:14 7.87237e-05
18 *1592:A *456:54 2.19824e-05
19 *1592:A *458:26 0.000501888
20 *1592:A *458:40 0.000209214
21 *1592:A *465:20 3.59976e-05
22 N4BEG[0] *1592:A 2.69493e-05
23 N4BEG[3] *1592:A 9.31741e-06
24 NN4BEG[5] *1592:A 7.73646e-05
25 NN4BEG[7] *1592:A 2.30292e-05
26 NN4BEG[8] *1592:A 4.41506e-05
27 *1262:S1 *1592:A 0
28 *1274:S1 *1592:A 0.000465415
29 *1545:A *1592:A 0.000317624
30 *1563:A *1592:A 0.000122701
31 *1566:A *1592:A 0.000108948
32 *1576:A *1592:A 0.000299815
33 *1579:A *1592:A 0.000119756
34 *1590:A *1592:A 2.45351e-05
35 *1591:A *1592:A 0.000180572
36 *351:24 *1592:A 0.000541385
37 *357:32 *1592:A 5.68484e-05
38 *369:16 *1592:A 0.000397828
*RES
1 *1421:X *1592:A 47.2554 
*END

*D_NET *388 0.00296745
*CONN
*I *1593:A I *D sky130_fd_sc_hd__buf_2
*I *1422:X O *D sky130_fd_sc_hd__clkbuf_1
*CAP
1 *1593:A 0.000567879
2 *1422:X 0.000567879
3 *1593:A *1253:A0 0.000582612
4 *1593:A *1257:A1 0.000460201
5 *1593:A *437:28 8.61608e-05
6 *1593:A *448:52 1.88269e-05
7 Co *1593:A 6.15207e-05
8 NN4BEG[8] *1593:A 4.66108e-05
9 NN4BEG[9] *1593:A 8.34281e-06
10 *1257:S1 *1593:A 4.66108e-05
11 *1463:A *1593:A 0.000177055
12 *1464:A *1593:A 0.000156754
13 *1579:A *1593:A 3.4026e-05
14 *1580:A *1593:A 1.96989e-05
15 *1587:A *1593:A 4.56786e-05
16 *1590:A *1593:A 3.93101e-05
17 *380:26 *1593:A 4.82863e-05
*RES
1 *1422:X *1593:A 21.36 
*END

*D_NET *389 0.00460239
*CONN
*I *1594:A I *D sky130_fd_sc_hd__buf_1
*I *1429:X O *D sky130_fd_sc_hd__buf_2
*CAP
1 *1594:A 0.0011089
2 *1429:X 0.0011089
3 *1594:A *1271:A0 9.47267e-06
4 *1594:A *1271:A1 0.000322047
5 *1265:S0 *1594:A 0.000121437
6 *1359:A *1594:A 3.23391e-05
7 *1370:A *1594:A 5.83121e-06
8 *1535:A *1594:A 0.000892348
9 *1536:A *1594:A 0.000954511
10 *1537:A *1594:A 4.66108e-05
*RES
1 *1429:X *1594:A 28.2 
*END

*D_NET *390 0.018259
*CONN
*I *1595:A I *D sky130_fd_sc_hd__buf_2
*I *1258:X O *D sky130_fd_sc_hd__mux4_2
*CAP
1 *1595:A 0.000437208
2 *1258:X 0.000361463
3 *390:12 0.00325327
4 *390:10 0.00317753
5 *1595:A *414:10 0.000464723
6 *1595:A *418:22 1.88602e-05
7 *1595:A *421:10 0.000904338
8 *390:10 *414:26 0.000122374
9 *390:10 *421:20 7.75544e-05
10 *390:12 *414:12 0.00832169
11 VALUE_top0 *1595:A 0
12 VALUE_top1 *1595:A 0
13 *491:DIODE *390:12 0.000900126
14 *1365:A *390:10 0
15 *1366:A *390:10 9.22722e-05
16 *1447:A *1595:A 0
17 *1459:A *1595:A 0
18 *307:30 *390:10 0.000127542
*RES
1 *1258:X *390:10 12.59 
2 *390:10 *390:12 75.66 
3 *390:12 *1595:A 17.99 
*END

*D_NET *391 0.0186385
*CONN
*I *1319:D I *D sky130_fd_sc_hd__dlxtp_1
*I *1351:A I *D sky130_fd_sc_hd__buf_1
*I *1287:D I *D sky130_fd_sc_hd__dlxtp_1
*I *1446:X O *D sky130_fd_sc_hd__buf_1
*CAP
1 *1319:D 0.00065054
2 *1351:A 0
3 *1287:D 0.000118546
4 *1446:X 0.000547423
5 *391:38 0.00153983
6 *391:24 0.00265035
7 *391:16 0.00242704
8 *1287:D *1290:D 8.15136e-05
9 *1287:D *1356:A 4.11718e-05
10 *1319:D *1252:A1 0.000229891
11 *1319:D *1254:A0 6.98693e-05
12 *1319:D *1303:GATE 0
13 *1319:D *1320:D 6.4484e-05
14 *1319:D *1333:A 8.03588e-06
15 *1319:D *1334:A 1.03503e-05
16 *1319:D *1335:A 4.87465e-06
17 *1319:D *401:82 2.2684e-05
18 *1319:D *427:20 2.27109e-05
19 *391:16 *412:18 6.31747e-05
20 *391:24 *407:14 9.73407e-05
21 *391:24 *453:24 0.000418698
22 *391:24 *453:42 0.000930798
23 *391:38 *1309:D 4.6368e-06
24 *391:38 *1309:GATE 4.92861e-05
25 *391:38 *1320:D 0.000190758
26 *391:38 *1611:A 6.58202e-05
27 *391:38 *1613:A 5.92535e-05
28 *391:38 *423:32 5.51063e-06
29 *391:38 *479:30 0.000106201
30 N1BEG[1] *391:16 0.000575495
31 N1BEG[2] *391:16 0.000444179
32 N2BEGb[7] *391:24 0.000188877
33 N4BEG[13] *391:24 0.000342789
34 N4BEG[5] *391:24 6.872e-05
35 *498:DIODE *1319:D 3.82728e-05
36 *498:DIODE *391:38 0.000107028
37 *1252:S0 *1319:D 8.34281e-06
38 *1252:S1 *1319:D 0.000294796
39 *1260:S1 *1319:D 3.21081e-06
40 *1268:S0 *1287:D 4.91081e-05
41 *1311:D *1287:D 0.000192489
42 *1311:D *1319:D 8.23457e-05
43 *1325:A *391:38 2.5424e-05
44 *1326:A *391:38 1.17114e-05
45 *1343:A *391:38 0.000134915
46 *1347:A *391:38 4.67655e-05
47 *1390:A *1319:D 0.00024258
48 *1462:A *391:24 5.2045e-05
49 *1464:A *391:24 0.000394474
50 *1466:A *391:38 0.000363051
51 *1483:A *391:38 0.000364396
52 *1514:A *1319:D 5.88497e-05
53 *1543:A *391:16 9.1566e-05
54 *1554:A *391:16 0
55 *1587:A *391:38 5.41782e-05
56 *295:48 *1287:D 8.23457e-05
57 *295:48 *1319:D 7.14699e-05
58 *309:30 *1319:D 6.72737e-05
59 *310:40 *391:24 0.000638909
60 *322:42 *391:38 2.65451e-05
61 *333:24 *391:24 0
62 *343:32 *391:24 0.000752534
63 *369:16 *391:16 0.00114153
64 *380:12 *391:16 0.00114153
*RES
1 *1446:X *391:16 25.655 
2 *391:16 *391:24 46.04 
3 *391:24 *391:38 20.895 
4 *391:38 *1287:D 4.81 
5 *391:38 *1351:A 1.6 
6 *391:38 *1319:D 19.31 
*END

*D_NET *392 0.00959012
*CONN
*I *1596:A I *D sky130_fd_sc_hd__buf_2
*I *1257:X O *D sky130_fd_sc_hd__mux4_1
*CAP
1 *1596:A 0
2 *1257:X 0.00294589
3 *392:20 0.00294589
4 *392:20 *1277:D 0.000105573
5 *392:20 *1355:A 0.00044227
6 *392:20 *1423:A 5.8023e-05
7 *392:20 *1598:A 8.31082e-05
8 *392:20 *1600:A 0.000398825
9 *392:20 *412:43 0.000208557
10 *392:20 *412:68 7.39516e-05
11 *392:20 *415:16 0.000422044
12 *490:DIODE *392:20 0.000995231
13 *1250:A1 *392:20 0
14 *1391:A *392:20 0.000459066
15 *291:22 *392:20 0.000451686
*RES
1 *1257:X *392:20 48.695 
2 *392:20 *1596:A 1.6 
*END

*D_NET *393 0.0101478
*CONN
*I *1597:A I *D sky130_fd_sc_hd__buf_2
*I *1256:X O *D sky130_fd_sc_hd__mux4_1
*CAP
1 *1597:A 0
2 *1256:X 0.00059421
3 *393:24 0.00149496
4 *393:16 0.00208917
5 *393:16 *1278:D 1.83847e-05
6 *393:16 *401:28 0.000187833
7 *393:16 *415:22 6.98584e-05
8 *393:16 *443:42 0
9 *393:24 *419:12 0.000187071
10 VALUE_top3 *393:24 0
11 *79:11 *393:24 0.000250155
12 *80:11 *393:16 2.85364e-05
13 *211:9 *393:24 0.000560174
14 *314:14 *393:24 0.00466748
*RES
1 *1256:X *393:16 14.675 
2 *393:16 *393:24 48.685 
3 *393:24 *1597:A 1.6 
*END

*D_NET *394 0.00620784
*CONN
*I *1598:A I *D sky130_fd_sc_hd__buf_2
*I *1255:X O *D sky130_fd_sc_hd__mux4_1
*CAP
1 *1598:A 0.00124525
2 *1255:X 0.00124525
3 *1598:A *1291:D 4.82919e-05
4 *1598:A *1291:GATE 2.68464e-05
5 *1598:A *410:14 9.70166e-05
6 *1598:A *412:43 0.000292438
7 *1598:A *413:26 0.00100267
8 *1598:A *415:16 0.000203178
9 *1598:A *466:66 0
10 *1266:S0 *1598:A 0.000105689
11 *1266:S1 *1598:A 0.000195255
12 *1389:A *1598:A 0.000670617
13 *1546:A *1598:A 0.000433687
14 *1554:A *1598:A 0.000558547
15 *392:20 *1598:A 8.31082e-05
*RES
1 *1255:X *1598:A 37.845 
*END

*D_NET *395 0.0146335
*CONN
*I *1599:A I *D sky130_fd_sc_hd__buf_2
*I *1254:X O *D sky130_fd_sc_hd__mux4_1
*CAP
1 *1599:A 0.000173242
2 *1254:X 0.000544238
3 *395:14 0.00110769
4 *395:12 0.00147869
5 *395:12 *1256:A0 0
6 *395:14 *397:14 0.00353031
7 *395:14 *419:14 0.000940931
8 *395:14 *443:42 0
9 VALUE_top4 *1599:A 0
10 VALUE_top5 *1599:A 0
11 *1363:A *395:14 0.000275651
12 *1387:A *395:12 0.000254777
13 *1566:A *395:14 0.000126737
14 *1591:A *395:12 0.000261212
15 *80:11 *395:14 5.83497e-05
16 *299:34 *395:12 0.000411484
17 *306:30 *395:12 1.56428e-05
18 *309:30 *395:12 9.6394e-05
19 *314:14 *395:14 0.0051554
20 *351:24 *395:14 0.000202785
*RES
1 *1254:X *395:12 16.355 
2 *395:12 *395:14 50.82 
3 *395:14 *1599:A 8.255 
*END

*D_NET *396 0.00563821
*CONN
*I *1600:A I *D sky130_fd_sc_hd__buf_2
*I *1253:X O *D sky130_fd_sc_hd__mux4_1
*CAP
1 *1600:A 0.000627494
2 *1253:X 0.000627494
3 *1600:A *1415:A 0.000309707
4 *1600:A *1602:A 0.000160314
5 *1600:A *1603:A 0.000847639
6 *1600:A *415:16 0.000732691
7 *1600:A *443:34 0.000109786
8 *490:DIODE *1600:A 0.00145231
9 *1553:A *1600:A 0.000371959
10 *392:20 *1600:A 0.000398825
*RES
1 *1253:X *1600:A 31.23 
*END

*D_NET *397 0.0101354
*CONN
*I *1601:A I *D sky130_fd_sc_hd__buf_2
*I *1252:X O *D sky130_fd_sc_hd__mux4_1
*CAP
1 *1601:A 0.000197542
2 *1252:X 0.000996276
3 *397:14 0.00119382
4 *397:14 *1272:A0 7.9642e-06
5 *397:14 *1339:A 0
6 *397:14 *419:14 0.00353314
7 *397:14 *420:30 0.000101392
8 *397:14 *443:42 0
9 *397:14 *444:42 0.000128773
10 *397:14 *461:53 0
11 VALUE_top6 *1601:A 0
12 *1382:A *397:14 7.878e-05
13 *1551:A *1601:A 0
14 *1566:A *397:14 0.000101392
15 *300:10 *397:14 0.000265972
16 *395:14 *397:14 0.00353031
*RES
1 *1252:X *397:14 48.31 
2 *397:14 *1601:A 6.51 
*END

*D_NET *398 0.00223777
*CONN
*I *1602:A I *D sky130_fd_sc_hd__buf_2
*I *1251:X O *D sky130_fd_sc_hd__mux4_1
*CAP
1 *1602:A 0.000623903
2 *1251:X 0.000623903
3 *1602:A *1292:GATE 2.68464e-05
4 *1602:A *1415:A 0.000382893
5 *1602:A *412:43 6.4376e-05
6 *1602:A *415:16 0.000161467
7 *490:DIODE *1602:A 0.000194069
8 *1600:A *1602:A 0.000160314
9 *351:24 *1602:A 0
*RES
1 *1251:X *1602:A 19.275 
*END

*D_NET *399 0.0167507
*CONN
*I *1335:A I *D sky130_fd_sc_hd__buf_1
*I *1303:D I *D sky130_fd_sc_hd__dlxtp_1
*I *1447:X O *D sky130_fd_sc_hd__buf_1
*CAP
1 *1335:A 0.000181854
2 *1303:D 0
3 *1447:X 0.00345798
4 *399:26 0.00363983
5 *1335:A *1303:GATE 0.000212679
6 *399:26 *487:DIODE 2.77005e-05
7 *399:26 *1256:A2 2.3463e-05
8 *399:26 *1256:A3 9.83042e-05
9 *399:26 *1278:D 2.58096e-05
10 *399:26 *1303:GATE 8.7152e-06
11 *399:26 *1377:A 0.000738883
12 *399:26 *1415:A 0.000152088
13 *399:26 *1421:A 0.000118081
14 *399:26 *419:12 0.000523115
15 *399:26 *461:30 0.000275262
16 *399:26 *464:42 0.000160178
17 *490:DIODE *399:26 0
18 *1252:S0 *1335:A 8.41307e-05
19 *1252:S0 *399:26 7.56834e-05
20 *1252:S1 *1335:A 9.76407e-06
21 *1260:S1 *1335:A 6.5172e-05
22 *1268:S1 *1335:A 0.000205631
23 *1268:S1 *399:26 0.000313758
24 *1270:S1 *399:26 0.00297778
25 *1273:S1 *399:26 4.14843e-05
26 *1285:D *399:26 0.000452627
27 *1319:D *1335:A 4.87465e-06
28 *1382:A *399:26 0.000122457
29 *1390:A *1335:A 0
30 *1431:A *399:26 8.14251e-05
31 *1461:A *399:26 4.89295e-05
32 *1542:A *399:26 0.000671218
33 *1553:A *399:26 0
34 *1585:A *399:26 0.000116846
35 *1586:A *399:26 4.43871e-06
36 *1591:A *399:26 0.000435954
37 *1592:A *399:26 0.000466152
38 *67:13 *399:26 0
39 *263:28 *399:26 3.69055e-05
40 *291:22 *399:26 0.000891552
*RES
1 *1447:X *399:26 45.8312 
2 *399:26 *1303:D 3.6 
3 *399:26 *1335:A 8.1 
*END

*D_NET *400 0.0136372
*CONN
*I *1292:GATE I *D sky130_fd_sc_hd__dlxtp_1
*I *1291:GATE I *D sky130_fd_sc_hd__dlxtp_1
*I *1275:GATE I *D sky130_fd_sc_hd__dlxtp_1
*I *1283:GATE I *D sky130_fd_sc_hd__dlxtp_1
*I *1284:GATE I *D sky130_fd_sc_hd__dlxtp_1
*I *1280:GATE I *D sky130_fd_sc_hd__dlxtp_1
*I *1287:GATE I *D sky130_fd_sc_hd__dlxtp_1
*I *1288:GATE I *D sky130_fd_sc_hd__dlxtp_1
*I *1279:GATE I *D sky130_fd_sc_hd__dlxtp_1
*I *1276:GATE I *D sky130_fd_sc_hd__dlxtp_1
*I *1430:X O *D sky130_fd_sc_hd__clkbuf_2
*CAP
1 *1292:GATE 0.000642324
2 *1291:GATE 1.45076e-05
3 *1275:GATE 0
4 *1283:GATE 0
5 *1284:GATE 7.69428e-05
6 *1280:GATE 0
7 *1287:GATE 0.000102168
8 *1288:GATE 0.000149223
9 *1279:GATE 0
10 *1276:GATE 0.000102295
11 *1430:X 0.000318765
12 *400:117 0.000166286
13 *400:76 0.000454288
14 *400:61 0.00039002
15 *400:57 0.000338626
16 *400:53 0.000845594
17 *400:22 0.00106932
18 *400:12 0.000445226
19 *400:10 0.00102953
20 *1276:GATE *1277:D 3.00381e-05
21 *1276:GATE *1295:GATE 0.000111547
22 *1284:GATE *1268:A0 0.000170624
23 *1284:GATE *1339:A 0.000170624
24 *1287:GATE *1290:D 4.01748e-05
25 *1288:GATE *1272:A0 2.66989e-05
26 *1288:GATE *1339:A 9.32397e-06
27 *1288:GATE *1616:A 8.7152e-06
28 *1291:GATE *412:43 2.68464e-05
29 *1292:GATE *1251:A2 1.00058e-05
30 *1292:GATE *1291:D 0.000118081
31 *1292:GATE *412:43 4.77719e-05
32 *400:10 *1251:A1 2.08979e-05
33 *400:10 *1270:A0 6.57705e-05
34 *400:10 *1377:A 3.99138e-05
35 *400:10 *411:30 0.000276133
36 *400:10 *424:32 4.78726e-05
37 *400:12 *1277:D 4.5615e-05
38 *400:12 *1377:A 1.7635e-05
39 *400:12 *411:30 7.9642e-06
40 *400:22 *1266:A0 0.00059215
41 *400:22 *1277:D 9.54041e-05
42 *400:22 *1407:A 0.000659168
43 *400:22 *418:22 1.32799e-05
44 *400:22 *432:40 8.29922e-05
45 *400:53 *1253:A0 0
46 *400:53 *1272:A0 9.58678e-06
47 *400:53 *1272:A3 9.75952e-05
48 *400:53 *1327:A 0.000302096
49 *400:53 *1407:A 0.000176326
50 *400:53 *1415:A 0.000122036
51 *400:53 *1418:A 0.000339512
52 *400:53 *418:22 0.00023024
53 *400:53 *432:40 0.000119575
54 *400:57 *1418:A 0.000263319
55 *400:57 *407:48 3.86982e-05
56 *400:61 *407:48 0.000241209
57 *400:61 *435:18 4.32569e-05
58 *400:76 *1358:A 5.74263e-05
59 *400:76 *454:45 2.98432e-05
60 *400:76 *476:41 2.65672e-05
61 *400:117 *1272:A0 3.65339e-05
62 *400:117 *1327:A 0.000190715
63 *400:117 *1418:A 3.66286e-05
64 *1250:A2 *1276:GATE 8.49397e-05
65 *1250:A2 *400:22 4.47938e-06
66 *1251:S1 *1292:GATE 3.24624e-05
67 *1253:S0 *400:53 4.06927e-05
68 *1260:S0 *1288:GATE 5.42534e-05
69 *1260:S1 *400:61 0.000278403
70 *1280:D *400:61 1.88605e-05
71 *1284:D *400:57 0.000194393
72 *1382:A *1288:GATE 3.19312e-05
73 *1383:A *400:22 2.77052e-05
74 *1395:A *1288:GATE 2.99036e-05
75 *1544:A *400:10 0.000169028
76 *1580:A *1288:GATE 1.93289e-05
77 *1581:A *400:57 7.27402e-06
78 *1585:A *1276:GATE 1.38481e-05
79 *1585:A *400:22 7.85898e-05
80 *1585:A *400:53 1.92979e-05
81 *1589:A *400:53 0.000155244
82 *1598:A *1291:GATE 2.68464e-05
83 *1602:A *1292:GATE 2.68464e-05
84 *248:18 *400:10 0.000393123
85 *248:18 *400:12 3.86913e-05
86 *248:18 *400:22 5.80614e-05
87 *263:28 *1276:GATE 2.75145e-05
88 *263:28 *400:53 0.000180016
89 *292:43 *400:76 0.00029936
90 *322:42 *1287:GATE 7.20566e-06
91 *322:42 *1288:GATE 7.73646e-05
*RES
1 *1430:X *400:10 10.62 
2 *400:10 *400:12 1.38 
3 *400:12 *400:22 4.65007 
4 *400:22 *1276:GATE 6.39 
5 *400:22 *400:53 11.5285 
6 *400:53 *400:57 5.675 
7 *400:57 *400:61 4.635 
8 *400:61 *1279:GATE 3.6 
9 *400:61 *400:76 1.50413 
10 *400:76 *1288:GATE 6.4275 
11 *400:76 *1287:GATE 5.565 
12 *400:57 *1280:GATE 3.6 
13 *400:53 *400:117 2.19 
14 *400:117 *1284:GATE 7.745 
15 *400:117 *1283:GATE 1.6 
16 *400:22 *1275:GATE 3.6 
17 *400:12 *1291:GATE 4.05 
18 *400:10 *1292:GATE 11.325 
*END

*D_NET *401 0.0114306
*CONN
*I *1290:GATE I *D sky130_fd_sc_hd__dlxtp_1
*I *1289:GATE I *D sky130_fd_sc_hd__dlxtp_1
*I *1282:GATE I *D sky130_fd_sc_hd__dlxtp_1
*I *1358:A I *D sky130_fd_sc_hd__clkbuf_1
*I *1281:GATE I *D sky130_fd_sc_hd__dlxtp_1
*I *1286:GATE I *D sky130_fd_sc_hd__dlxtp_1
*I *1285:GATE I *D sky130_fd_sc_hd__dlxtp_1
*I *1278:GATE I *D sky130_fd_sc_hd__dlxtp_1
*I *1277:GATE I *D sky130_fd_sc_hd__dlxtp_1
*I *1431:X O *D sky130_fd_sc_hd__clkbuf_2
*CAP
1 *1290:GATE 2.79267e-05
2 *1289:GATE 0.000173137
3 *1282:GATE 0.00027313
4 *1358:A 0.000578318
5 *1281:GATE 0
6 *1286:GATE 0
7 *1285:GATE 0
8 *1278:GATE 0
9 *1277:GATE 0.000320643
10 *1431:X 2.79267e-05
11 *401:82 0.000769865
12 *401:74 0.000734355
13 *401:59 0.000371815
14 *401:28 0.00104462
15 *401:16 0.000813559
16 *401:12 0.000597101
17 *401:4 0.000578514
18 *1277:GATE *1253:A1 4.99619e-05
19 *1277:GATE *1253:A3 0.000168987
20 *1277:GATE *1277:D 8.64421e-05
21 *1277:GATE *1327:A 3.51072e-05
22 *1277:GATE *463:58 4.95846e-05
23 *1289:GATE *1256:A0 0
24 *1289:GATE *1420:A 8.52845e-05
25 *1290:GATE *1256:A2 4.89295e-05
26 *1290:GATE *1290:D 4.24534e-05
27 *1358:A *1272:A0 0.000139356
28 *1358:A *1290:D 2.06786e-05
29 *1358:A *1303:GATE 0.000212071
30 *1358:A *1310:D 4.77719e-05
31 *1358:A *1310:GATE 9.03508e-06
32 *1358:A *1333:A 8.23457e-05
33 *1358:A *1336:A 4.66108e-05
34 *1358:A *403:54 5.72996e-05
35 *401:12 *1290:D 0.000131836
36 *401:12 *1420:A 0.000137753
37 *401:12 *1426:A 8.35068e-05
38 *401:12 *404:10 5.83121e-06
39 *401:16 *1256:A1 5.82654e-05
40 *401:16 *419:22 2.81282e-05
41 *401:28 *1256:A0 4.66108e-05
42 *401:28 *1256:A2 2.20665e-05
43 *401:28 *1278:D 0.000122797
44 *401:59 *1252:A0 1.88602e-05
45 *401:59 *1256:A1 4.55381e-05
46 *401:59 *1290:D 9.50015e-05
47 *401:59 *419:22 1.62893e-05
48 *401:74 *1256:A1 6.11277e-05
49 *401:74 *1334:A 0.000291838
50 *401:74 *419:22 3.80343e-05
51 *401:82 *1320:D 1.90818e-05
52 *401:82 *1333:A 7.9642e-06
53 *1253:S0 *1277:GATE 0
54 *1253:S1 *1277:GATE 4.65607e-05
55 *1256:S0 *1289:GATE 0
56 *1256:S0 *401:28 0.000120379
57 *1268:S1 *1358:A 7.9099e-05
58 *1269:S0 *1289:GATE 1.92867e-05
59 *1273:S0 *401:28 0.000655566
60 *1281:D *1282:GATE 1.67131e-05
61 *1281:D *1358:A 4.25209e-05
62 *1281:D *401:82 0.000119866
63 *1282:D *1282:GATE 7.84086e-05
64 *1319:D *401:82 2.2684e-05
65 *1348:A *401:74 0.000216184
66 *1382:A *1358:A 0.000147317
67 *1387:A *401:12 9.80943e-06
68 *1395:A *1358:A 1.88904e-05
69 *1520:A *1282:GATE 3.91004e-05
70 *1520:A *1358:A 2.66733e-05
71 *1520:A *401:74 6.9418e-05
72 *1520:A *401:82 5.35181e-06
73 *1560:A *401:74 1.88656e-05
74 *1582:A *401:12 4.82919e-05
75 *1582:A *401:16 2.85364e-05
76 *1582:A *401:59 0.000128019
77 *292:43 *1358:A 3.16939e-05
78 *307:30 *401:74 6.95753e-05
79 *322:42 *1358:A 4.1704e-05
80 *325:40 *1358:A 0.000235461
81 *380:45 *1358:A 0.00012602
82 *393:16 *401:28 0.000187833
83 *400:76 *1358:A 5.74263e-05
*RES
1 *1431:X *401:4 1.6 
2 *401:4 *401:12 8.09 
3 *401:12 *401:16 3.635 
4 *401:16 *401:28 15.45 
5 *401:28 *1277:GATE 11.525 
6 *401:28 *1278:GATE 1.6 
7 *401:16 *1285:GATE 1.6 
8 *401:12 *401:59 2.4 
9 *401:59 *1286:GATE 3.6 
10 *401:59 *401:74 8.27 
11 *401:74 *401:82 6.445 
12 *401:82 *1281:GATE 1.6 
13 *401:82 *1358:A 17.7328 
14 *401:74 *1282:GATE 6.37 
15 *401:4 *1289:GATE 8.03 
16 *1431:X *1290:GATE 4.01 
*END

*D_NET *402 0.0105382
*CONN
*I *1300:GATE I *D sky130_fd_sc_hd__dlxtp_1
*I *1313:GATE I *D sky130_fd_sc_hd__dlxtp_1
*I *1296:GATE I *D sky130_fd_sc_hd__dlxtp_1
*I *1317:GATE I *D sky130_fd_sc_hd__dlxtp_1
*I *1295:GATE I *D sky130_fd_sc_hd__dlxtp_1
*I *1324:GATE I *D sky130_fd_sc_hd__dlxtp_1
*I *1314:GATE I *D sky130_fd_sc_hd__dlxtp_1
*I *1322:GATE I *D sky130_fd_sc_hd__dlxtp_1
*I *1299:GATE I *D sky130_fd_sc_hd__dlxtp_1
*I *1321:GATE I *D sky130_fd_sc_hd__dlxtp_1
*I *1432:X O *D sky130_fd_sc_hd__clkbuf_2
*CAP
1 *1300:GATE 0.000268503
2 *1313:GATE 8.22179e-05
3 *1296:GATE 0.000105534
4 *1317:GATE 0
5 *1295:GATE 4.18268e-05
6 *1324:GATE 0
7 *1314:GATE 0.000358423
8 *1322:GATE 0
9 *1299:GATE 0.000176351
10 *1321:GATE 0.000177273
11 *1432:X 4.00918e-05
12 *402:71 0.000715277
13 *402:65 0.000600616
14 *402:57 0.000319799
15 *402:53 0.000418229
16 *402:49 0.000353999
17 *402:47 0.000345453
18 *402:20 0.000429915
19 *402:14 0.000117793
20 *402:6 8.15935e-05
21 *1296:GATE *1331:A 5.00949e-05
22 *1296:GATE *413:26 0.000121018
23 *1299:GATE *1299:D 0.000119866
24 *1300:GATE *1300:D 5.92535e-05
25 *1300:GATE *424:32 2.70596e-05
26 *1300:GATE *456:54 3.91574e-05
27 *1300:GATE *456:66 5.75488e-05
28 *1313:GATE *1257:A2 0.00018955
29 *1314:GATE *412:68 2.82846e-05
30 *1314:GATE *461:78 0.000153816
31 *1321:GATE *1270:A0 0
32 *1321:GATE *1299:D 4.66108e-05
33 *1321:GATE *1321:D 4.66108e-05
34 *402:6 *1323:GATE 0.000154981
35 *402:6 *1380:A 0.000144105
36 *402:14 *1323:GATE 0.000120458
37 *402:14 *1380:A 8.23457e-05
38 *402:20 *1299:D 0.000127984
39 *402:53 *1380:A 8.96616e-05
40 *402:57 *1331:A 3.67633e-05
41 *402:57 *413:26 0.00030606
42 *402:57 *416:34 4.51961e-05
43 *402:65 *1415:A 1.15436e-05
44 *402:65 *416:28 4.40325e-06
45 *402:65 *416:34 0.000112893
46 *402:65 *448:70 0.000136281
47 *402:65 *448:76 4.04634e-05
48 *402:71 *1275:D 1.56428e-05
49 *402:71 *412:68 4.66108e-05
50 *402:71 *416:28 2.86265e-06
51 *402:71 *443:16 0.000131946
52 *1253:S0 *1296:GATE 4.7003e-05
53 *1255:S1 *1314:GATE 0.000271052
54 *1257:S0 *1300:GATE 0.000267091
55 *1257:S0 *402:20 5.97507e-05
56 *1257:S0 *402:49 0.000160258
57 *1257:S0 *402:53 0.00018974
58 *1257:S1 *1313:GATE 3.93162e-05
59 *1264:S1 *1300:GATE 0.000336484
60 *1264:S1 *402:49 0.000168222
61 *1264:S1 *402:53 0.000370595
62 *1272:S1 *402:14 1.90998e-05
63 *1274:S1 *402:71 4.66742e-05
64 *1276:GATE *1295:GATE 0.000111547
65 *1314:D *1314:GATE 4.82919e-05
66 *1383:A *402:65 1.56428e-05
67 *1383:A *402:71 3.03684e-05
68 *1391:A *1314:GATE 0.000471708
69 *1556:A *1314:GATE 8.09849e-05
70 *1585:A *1295:GATE 0.000112892
71 *1585:A *402:65 5.26806e-05
72 *1587:A *1300:GATE 8.23457e-05
73 *263:28 *402:65 8.53113e-06
74 *325:40 *1313:GATE 3.83194e-05
75 *336:57 *1300:GATE 0
76 *336:57 *1321:GATE 6.76941e-05
77 *347:46 *1300:GATE 2.39856e-05
78 *372:22 *1314:GATE 4.52678e-05
79 *380:26 *1300:GATE 0
80 *380:26 *1313:GATE 0.000190712
*RES
1 *1432:X *402:6 3.085 
2 *402:6 *402:14 1.485 
3 *402:14 *402:20 5.635 
4 *402:20 *1321:GATE 4.495 
5 *402:20 *1299:GATE 4.135 
6 *402:14 *1322:GATE 1.6 
7 *402:6 *402:47 2 
8 *402:47 *402:49 2.145 
9 *402:49 *402:53 6.695 
10 *402:53 *402:57 3.225 
11 *402:57 *402:65 7.795 
12 *402:65 *402:71 5.31 
13 *402:71 *1314:GATE 14.105 
14 *402:71 *1324:GATE 1.6 
15 *402:65 *1295:GATE 6.98 
16 *402:57 *1317:GATE 1.6 
17 *402:53 *1296:GATE 4.135 
18 *402:49 *1313:GATE 6.12 
19 *402:47 *1300:GATE 10.365 
*END

*D_NET *403 0.0135946
*CONN
*I *1309:GATE I *D sky130_fd_sc_hd__dlxtp_1
*I *1432:A I *D sky130_fd_sc_hd__clkbuf_2
*I *1323:GATE I *D sky130_fd_sc_hd__dlxtp_1
*I *1303:GATE I *D sky130_fd_sc_hd__dlxtp_1
*I *1310:GATE I *D sky130_fd_sc_hd__dlxtp_1
*I *1318:GATE I *D sky130_fd_sc_hd__dlxtp_1
*I *1304:GATE I *D sky130_fd_sc_hd__dlxtp_1
*I *1433:X O *D sky130_fd_sc_hd__dlymetal6s2s_1
*CAP
1 *1309:GATE 0.000697885
2 *1432:A 0
3 *1323:GATE 0.000385933
4 *1303:GATE 0.000312971
5 *1310:GATE 1.99436e-05
6 *1318:GATE 5.40789e-05
7 *1304:GATE 0.000192738
8 *1433:X 0.000843642
9 *403:86 0.000694823
10 *403:54 0.000687997
11 *403:41 0.000447693
12 *403:26 0.00106166
13 *403:10 0.00128504
14 *1303:GATE *487:DIODE 4.66108e-05
15 *1303:GATE *1320:D 0.000119554
16 *1303:GATE *1331:A 2.97593e-05
17 *1304:GATE *1355:A 6.61627e-05
18 *1304:GATE *1418:A 0.000117392
19 *1309:GATE *1611:A 4.35312e-05
20 *1309:GATE *423:32 1.76403e-05
21 *1323:GATE *1322:D 0.00015639
22 *1323:GATE *1379:A 0.000235063
23 *1323:GATE *1380:A 1.43191e-05
24 *1323:GATE *408:24 0.00026617
25 *1323:GATE *408:44 7.13192e-05
26 *403:10 *1260:A2 2.17343e-05
27 *403:10 *435:18 0
28 *403:10 *463:40 2.99518e-06
29 *403:10 *463:56 6.60907e-06
30 *403:26 *1253:A1 0.000107444
31 *403:26 *1260:A2 2.53191e-06
32 *403:26 *1260:A3 1.9417e-05
33 *403:26 *1357:A 2.10582e-05
34 *403:26 *407:48 0.000118889
35 *403:26 *435:18 1.87725e-05
36 *403:54 *1310:D 1.56428e-05
37 *403:86 *1257:A1 2.21463e-05
38 *403:86 *1260:A0 1.8498e-05
39 *403:86 *1260:A1 5.22955e-05
40 *403:86 *426:26 1.82167e-05
41 Co *403:86 0.000156142
42 *1252:S0 *1303:GATE 0.00023031
43 *1257:S0 *403:10 0.000159156
44 *1257:S1 *1318:GATE 2.49909e-05
45 *1260:S0 *403:86 4.77719e-05
46 *1260:S1 *1304:GATE 5.53458e-05
47 *1264:S0 *403:10 4.6449e-05
48 *1264:S0 *403:26 4.13306e-05
49 *1268:S1 *1303:GATE 4.82064e-05
50 *1319:D *1303:GATE 0
51 *1325:A *1309:GATE 0
52 *1335:A *1303:GATE 0.000212679
53 *1345:A *1303:GATE 7.01104e-05
54 *1358:A *1303:GATE 0.000212071
55 *1358:A *1310:GATE 9.03508e-06
56 *1358:A *403:54 5.72996e-05
57 *1382:A *1304:GATE 0.000125719
58 *1382:A *403:41 6.76938e-05
59 *1395:A *1303:GATE 8.51862e-05
60 *1395:A *1304:GATE 5.38986e-06
61 *1395:A *403:41 1.44779e-05
62 *1545:A *1323:GATE 0.00127725
63 *1580:A *403:86 0.000194282
64 *1587:A *1309:GATE 0.000817703
65 *1587:A *403:10 9.10058e-05
66 *1590:A *403:86 5.34069e-05
67 *310:40 *403:26 0.000154718
68 *325:26 *1323:GATE 6.97643e-05
69 *325:40 *1318:GATE 2.01504e-05
70 *325:40 *403:26 0.000476958
71 *325:40 *403:54 1.13357e-05
72 *380:45 *1318:GATE 8.23457e-05
73 *380:45 *403:41 2.82887e-05
74 *391:38 *1309:GATE 4.92861e-05
75 *399:26 *1303:GATE 8.7152e-06
76 *402:6 *1323:GATE 0.000154981
77 *402:14 *1323:GATE 0.000120458
*RES
1 *1433:X *403:10 6.72 
2 *403:10 *403:26 15.94 
3 *403:26 *1304:GATE 7.41 
4 *403:26 *403:41 2.87 
5 *403:41 *1318:GATE 2.74 
6 *403:41 *403:54 4.185 
7 *403:54 *1310:GATE 1.96 
8 *403:54 *1303:GATE 13.265 
9 *403:10 *403:86 12.045 
10 *403:86 *1323:GATE 14.14 
11 *403:86 *1432:A 1.6 
12 *1433:X *1309:GATE 16.4925 
*END

*D_NET *404 0.0163706
*CONN
*I *1301:GATE I *D sky130_fd_sc_hd__dlxtp_1
*I *1294:GATE I *D sky130_fd_sc_hd__dlxtp_1
*I *1293:GATE I *D sky130_fd_sc_hd__dlxtp_1
*I *1302:GATE I *D sky130_fd_sc_hd__dlxtp_1
*I *1312:GATE I *D sky130_fd_sc_hd__dlxtp_1
*I *1311:GATE I *D sky130_fd_sc_hd__dlxtp_1
*I *1297:GATE I *D sky130_fd_sc_hd__dlxtp_1
*I *1320:GATE I *D sky130_fd_sc_hd__dlxtp_1
*I *1319:GATE I *D sky130_fd_sc_hd__dlxtp_1
*I *1357:A I *D sky130_fd_sc_hd__buf_1
*I *1434:X O *D sky130_fd_sc_hd__clkbuf_2
*CAP
1 *1301:GATE 0.000144879
2 *1294:GATE 0
3 *1293:GATE 8.95474e-05
4 *1302:GATE 0
5 *1312:GATE 5.80121e-05
6 *1311:GATE 0
7 *1297:GATE 0
8 *1320:GATE 0
9 *1319:GATE 3.15551e-05
10 *1357:A 0.00109333
11 *1434:X 0.000171456
12 *404:143 0.000437523
13 *404:128 0.000544111
14 *404:116 0.000686144
15 *404:101 0.000559846
16 *404:92 0.000324568
17 *404:77 0.000225899
18 *404:70 0.000412802
19 *404:55 0.00110987
20 *404:10 0.00198833
21 *1301:GATE *1263:A2 1.453e-05
22 *1301:GATE *1301:D 0.000198293
23 *1301:GATE *1307:D 0.00013892
24 *1312:GATE *405:10 0.00012969
25 *1319:GATE *1320:D 8.35068e-05
26 *1357:A *1268:A3 0.000136409
27 *1357:A *1328:A 0.000348601
28 *1357:A *1419:A 7.19538e-05
29 *1357:A *1422:A 1.51915e-05
30 *1357:A *432:40 0.000262019
31 *1357:A *435:18 0.000123598
32 *404:10 *1252:A1 5.08304e-06
33 *404:10 *1605:A 9.95347e-05
34 *404:10 *419:22 0.000269071
35 *404:55 *1254:A2 9.24451e-06
36 *404:55 *1254:A3 6.69608e-06
37 *404:55 *1302:D 1.7635e-05
38 *404:55 *1334:A 7.05007e-05
39 *404:55 *1605:A 0.000102534
40 *404:55 *419:22 3.86479e-05
41 *404:55 *447:10 0.000108201
42 *404:70 *1254:A0 3.55992e-06
43 *404:70 *1320:D 0.000171418
44 *404:77 *1420:A 6.0011e-05
45 *404:77 *473:14 1.46744e-05
46 *404:92 *1258:A1 7.44754e-05
47 *404:92 *1258:A3 0.000107444
48 *404:92 *1297:D 4.66108e-05
49 *404:92 *1329:A 4.82919e-05
50 *404:92 *1420:A 2.35435e-05
51 *404:92 *451:16 2.31046e-05
52 *404:92 *473:14 0.000191335
53 *404:101 *1261:A0 3.84712e-05
54 *404:101 *1428:A 2.76356e-05
55 *404:101 *445:42 5.83121e-06
56 *404:116 *1261:A1 1.91597e-05
57 *404:116 *445:42 0.000283747
58 *404:128 *1307:D 9.02036e-05
59 *404:128 *405:49 8.81023e-05
60 *404:143 *1298:GATE 1.10085e-05
61 *404:143 *1302:D 0.00012205
62 *404:143 *405:49 4.82919e-05
63 *404:143 *473:14 0.000102806
64 UserCLKo *1301:GATE 1.1071e-05
65 *500:DIODE *1293:GATE 0.0001514
66 *500:DIODE *404:143 0.00012917
67 *1252:S1 *1319:GATE 2.67977e-05
68 *1254:S0 *404:143 5.20265e-05
69 *1254:S1 *404:55 8.31212e-06
70 *1258:S0 *1301:GATE 3.05601e-05
71 *1258:S0 *404:128 0.000151811
72 *1265:S1 *1312:GATE 0.000127985
73 *1269:S1 *404:128 8.73147e-06
74 *1269:S1 *404:143 0.0001445
75 *1271:S0 *404:55 5.8023e-05
76 *1315:D *404:116 0.000225285
77 *1315:D *404:128 4.38278e-05
78 *1362:A *1293:GATE 0.000109963
79 *1362:A *404:143 8.7152e-06
80 *1368:A *1293:GATE 4.66108e-05
81 *1386:A *1293:GATE 1.44259e-05
82 *1386:A *404:143 0.000186692
83 *1387:A *404:10 0.000118081
84 *1395:A *1357:A 0.000847809
85 *1434:A *404:10 2.68526e-05
86 *1498:A *1301:GATE 0.000109551
87 *1560:A *1357:A 8.70354e-05
88 *1577:A *404:70 8.73389e-06
89 *1577:A *404:77 0.000160641
90 *1582:A *404:10 1.19928e-05
91 *67:38 *404:10 0.000137052
92 *261:36 *404:101 4.99619e-05
93 *284:24 *404:116 0.000410785
94 *306:30 *404:55 0.000470713
95 *309:30 *404:55 0.000157276
96 *325:40 *1357:A 0.000228855
97 *358:40 *1357:A 2.41099e-05
98 *380:26 *1357:A 0.000228855
99 *401:12 *404:10 5.83121e-06
100 *403:26 *1357:A 2.10582e-05
*RES
1 *1434:X *404:10 8.16 
2 *404:10 *1357:A 26.725 
3 *404:10 *404:55 17.73 
4 *404:55 *1319:GATE 2.395 
5 *404:55 *404:70 5.145 
6 *404:70 *1320:GATE 1.6 
7 *404:70 *404:77 1.83 
8 *404:77 *1297:GATE 1.6 
9 *404:77 *404:92 8.08 
10 *404:92 *1311:GATE 1.6 
11 *404:92 *404:101 2.535 
12 *404:101 *1312:GATE 7.235 
13 *404:101 *404:116 9.35 
14 *404:116 *404:128 9.645 
15 *404:128 *1302:GATE 1.6 
16 *404:128 *404:143 10.685 
17 *404:143 *1293:GATE 5.94 
18 *404:143 *1294:GATE 3.6 
19 *404:116 *1301:GATE 7.275 
*END

*D_NET *405 0.0100883
*CONN
*I *1308:GATE I *D sky130_fd_sc_hd__dlxtp_1
*I *1315:GATE I *D sky130_fd_sc_hd__dlxtp_1
*I *1307:GATE I *D sky130_fd_sc_hd__dlxtp_1
*I *1316:GATE I *D sky130_fd_sc_hd__dlxtp_1
*I *1298:GATE I *D sky130_fd_sc_hd__dlxtp_1
*I *1305:GATE I *D sky130_fd_sc_hd__dlxtp_1
*I *1306:GATE I *D sky130_fd_sc_hd__dlxtp_1
*I *1435:X O *D sky130_fd_sc_hd__dlymetal6s2s_1
*CAP
1 *1308:GATE 0.000121625
2 *1315:GATE 0.000109798
3 *1307:GATE 0.000118375
4 *1316:GATE 0.000293252
5 *1298:GATE 1.7423e-05
6 *1305:GATE 3.70426e-05
7 *1306:GATE 0.000123753
8 *1435:X 0.000454773
9 *405:76 0.00028437
10 *405:55 0.000595637
11 *405:49 0.000431409
12 *405:36 0.000327218
13 *405:12 0.000255084
14 *405:10 0.00079526
15 *1305:GATE *1305:D 0.000119762
16 *1306:GATE *1258:A3 0.00014742
17 *1306:GATE *1608:A 8.63479e-05
18 *1306:GATE *445:42 0.000149094
19 *1306:GATE *447:47 6.68411e-05
20 *1307:GATE *1271:A3 0
21 *1308:GATE *1307:D 0.000120655
22 *1316:GATE *1607:A 0.000375343
23 *405:10 *1265:A3 7.67538e-05
24 *405:10 *1611:A 2.85864e-05
25 *405:10 *445:24 1.52352e-05
26 *405:10 *445:42 0.000118229
27 *405:10 *451:16 2.90267e-05
28 *405:10 *460:76 1.30972e-05
29 *405:12 *1258:A3 0.000117084
30 *405:12 *445:42 0.000202641
31 *405:36 *1329:A 0.00029933
32 *405:36 *473:14 0.000812493
33 *405:49 *473:14 8.23457e-05
34 *405:55 *1261:A2 1.26118e-05
35 *405:76 *1271:A3 0
36 *1254:S0 *1305:GATE 6.58423e-05
37 *1254:S0 *405:36 0.00014689
38 *1254:S0 *405:49 7.68414e-06
39 *1258:S0 *1308:GATE 3.66137e-05
40 *1258:S1 *405:12 1.01182e-05
41 *1259:S0 *1316:GATE 0.000208806
42 *1261:S0 *1308:GATE 0.000130372
43 *1263:S1 *405:10 0.000453138
44 *1263:S1 *405:12 7.0706e-05
45 *1265:S1 *405:10 0.000187962
46 *1269:S1 *1308:GATE 0.000211747
47 *1269:S1 *405:49 8.81023e-05
48 *1312:GATE *405:10 0.00012969
49 *1315:D *1315:GATE 9.49759e-05
50 *1315:D *405:55 0.00010119
51 *1394:A *1316:GATE 0
52 *1401:A *405:10 4.66474e-05
53 *1402:A *405:10 7.39166e-05
54 *1518:A *1316:GATE 4.41506e-05
55 *1536:A *1316:GATE 0.000174633
56 *1537:A *1307:GATE 0.000125217
57 *1537:A *1316:GATE 0.000111011
58 *1537:A *405:76 8.25944e-05
59 *1538:A *1316:GATE 0.000174633
60 *261:36 *405:10 8.35106e-05
61 *284:24 *1315:GATE 0.000122184
62 *304:26 *1308:GATE 0.000120655
63 *404:128 *405:49 8.81023e-05
64 *404:143 *1298:GATE 1.10085e-05
65 *404:143 *405:49 4.82919e-05
*RES
1 *1435:X *405:10 14.445 
2 *405:10 *405:12 2.655 
3 *405:12 *1306:GATE 6.975 
4 *405:12 *1305:GATE 4.74 
5 *405:10 *405:36 9.695 
6 *405:36 *1298:GATE 1.96 
7 *405:36 *405:49 3.92 
8 *405:49 *405:55 6.865 
9 *405:55 *1316:GATE 15.475 
10 *405:55 *405:76 1.125 
11 *405:76 *1307:GATE 5.685 
12 *405:76 *1315:GATE 5.895 
13 *405:49 *1308:GATE 7.395 
*END

*D_NET *406 0.0211578
*CONN
*I *1352:A I *D sky130_fd_sc_hd__buf_1
*I *1320:D I *D sky130_fd_sc_hd__dlxtp_1
*I *1288:D I *D sky130_fd_sc_hd__dlxtp_1
*I *1448:X O *D sky130_fd_sc_hd__buf_1
*CAP
1 *1352:A 8.95416e-05
2 *1320:D 0.000984096
3 *1288:D 8.19481e-05
4 *1448:X 0.000181644
5 *406:39 0.00112598
6 *406:26 0.000697029
7 *406:12 0.00177872
8 *406:10 0.00139762
9 *1288:D *1342:A 1.16578e-05
10 *1288:D *1616:A 0.000156954
11 *1320:D *1254:A0 0.000229838
12 *1320:D *1256:A0 1.69186e-05
13 *1320:D *1333:A 3.9141e-05
14 *1320:D *1418:A 0.000832606
15 *1320:D *477:26 0.000838495
16 *1352:A *1328:A 0
17 *406:12 *407:14 0.00377258
18 *406:12 *408:18 0.00344581
19 *406:12 *428:22 2.03356e-05
20 *406:12 *446:22 0.000891056
21 *406:12 *450:16 0.00184114
22 *406:26 *1272:A0 8.68332e-06
23 *406:26 *1308:D 0.000146127
24 *406:26 *1309:D 1.88602e-05
25 *406:26 *1327:A 0.000254659
26 *406:26 *1341:A 4.88862e-05
27 *406:26 *1342:A 3.02513e-05
28 *406:26 *448:52 2.79017e-05
29 *406:26 *479:30 1.92621e-05
30 *406:26 *481:24 4.09056e-05
31 *406:26 *484:48 4.29782e-05
32 *406:39 *1328:A 6.13221e-05
33 *406:39 *1342:A 0.000150326
34 *406:39 *479:30 0.000161467
35 *498:DIODE *1320:D 2.0262e-05
36 *1252:S1 *1320:D 2.86792e-05
37 *1260:S0 *1288:D 0
38 *1271:S0 *1320:D 1.69186e-05
39 *1282:D *1352:A 1.16578e-05
40 *1303:GATE *1320:D 0.000119554
41 *1312:D *406:26 5.79855e-05
42 *1319:D *1320:D 6.4484e-05
43 *1319:GATE *1320:D 8.35068e-05
44 *1345:A *1320:D 0.000102435
45 *1347:A *406:26 1.9445e-05
46 *1452:A *406:10 0
47 *1481:A *406:26 0.000231735
48 *1482:A *406:26 5.06382e-06
49 *1580:A *1288:D 8.86472e-05
50 *1580:A *1352:A 0.00012406
51 *1580:A *406:39 6.48235e-05
52 *1584:A *406:26 4.45058e-05
53 *295:48 *1320:D 0.000127746
54 *295:48 *1352:A 0.000120252
55 *391:38 *1320:D 0.000190758
56 *401:82 *1320:D 1.90818e-05
57 *404:70 *1320:D 0.000171418
*RES
1 *1448:X *406:10 8.51 
2 *406:10 *406:12 50.13 
3 *406:12 *406:26 14.995 
4 *406:26 *1288:D 3.895 
5 *406:26 *406:39 2.52 
6 *406:39 *1320:D 20.4881 
7 *406:39 *1352:A 4.135 
*END

*D_NET *407 0.0258159
*CONN
*I *1321:D I *D sky130_fd_sc_hd__dlxtp_1
*I *1353:A I *D sky130_fd_sc_hd__buf_1
*I *1289:D I *D sky130_fd_sc_hd__dlxtp_1
*I *1449:X O *D sky130_fd_sc_hd__dlymetal6s2s_1
*CAP
1 *1321:D 6.86094e-05
2 *1353:A 0.000615421
3 *1289:D 0.000264795
4 *1449:X 0.000250002
5 *407:48 0.00278393
6 *407:16 0.00243475
7 *407:14 0.00200762
8 *407:10 0.00179519
9 *1289:D *1256:A3 9.70195e-05
10 *1289:D *460:34 7.56599e-05
11 *1321:D *1270:A0 1.08758e-05
12 *1353:A *1416:A 7.39166e-05
13 *1353:A *420:14 9.50189e-06
14 *1353:A *460:34 0.000544586
15 *1353:A *468:22 0.000118081
16 *407:10 *408:18 0
17 *407:14 *408:18 0.000183926
18 *407:14 *446:22 0.000447419
19 *407:14 *453:42 0.00032146
20 *407:16 *448:70 0.000130756
21 *407:48 *1252:A0 3.83904e-05
22 *407:48 *1260:A3 1.74394e-06
23 *407:48 *1268:A3 0.000344508
24 *407:48 *1290:D 4.2145e-05
25 *407:48 *1419:A 4.36573e-06
26 *407:48 *415:22 0.00020658
27 *407:48 *418:22 0.000776127
28 *407:48 *435:18 0.000349499
29 *407:48 *444:42 0.000133576
30 *407:48 *448:70 6.10392e-05
31 *407:48 *454:45 0.000133548
32 *407:48 *465:57 0.000387438
33 N2BEGb[7] *407:14 5.21706e-05
34 N4BEG[5] *407:14 0.000631345
35 NN4BEG[3] *407:16 7.02017e-05
36 NN4BEG[4] *407:16 0.000293148
37 *1256:S0 *1289:D 0.000250179
38 *1256:S1 *1289:D 2.34475e-05
39 *1262:S0 *1321:D 6.33103e-05
40 *1262:S0 *407:16 2.77378e-05
41 *1273:S0 *1289:D 0.000562301
42 *1273:S1 *407:48 0.000562518
43 *1284:D *407:48 6.05375e-05
44 *1312:D *1353:A 0.000152342
45 *1321:GATE *1321:D 4.66108e-05
46 *1390:A *1353:A 0.000310615
47 *1431:A *407:48 8.39258e-05
48 *1450:A *407:10 0
49 *1453:A *407:10 0
50 *1520:A *1353:A 5.63183e-05
51 *1547:A *407:48 0.000242517
52 *1582:A *407:48 0.0012219
53 *1585:A *407:16 1.30972e-05
54 *1589:A *407:16 1.72133e-05
55 *1591:A *407:16 1.93834e-05
56 *1623:A *1353:A 5.99393e-05
57 *292:16 *407:48 0.00072821
58 *299:34 *1289:D 0.000177592
59 *299:34 *1353:A 0.000250704
60 *309:30 *1353:A 8.89169e-05
61 *310:40 *407:48 0.00011315
62 *336:57 *1321:D 3.59784e-05
63 *358:40 *407:16 0.000151712
64 *358:40 *407:48 6.26955e-05
65 *361:26 *407:16 0.00035724
66 *373:26 *407:16 4.77701e-05
67 *391:24 *407:14 9.73407e-05
68 *400:57 *407:48 3.86982e-05
69 *400:61 *407:48 0.000241209
70 *403:26 *407:48 0.000118889
71 *406:12 *407:14 0.00377258
*RES
1 *1449:X *407:10 9.53 
2 *407:10 *407:14 43.85 
3 *407:14 *407:16 10.05 
4 *407:16 *407:48 18.6384 
5 *407:48 *1289:D 11.6625 
6 *407:48 *1353:A 17.6475 
7 *407:16 *1321:D 5.085 
*END

*D_NET *408 0.0216803
*CONN
*I *1322:D I *D sky130_fd_sc_hd__dlxtp_1
*I *1290:D I *D sky130_fd_sc_hd__dlxtp_1
*I *1354:A I *D sky130_fd_sc_hd__buf_1
*I *1450:X O *D sky130_fd_sc_hd__dlymetal6s2s_1
*CAP
1 *1322:D 3.71118e-05
2 *1290:D 0.00151634
3 *1354:A 0
4 *1450:X 0.00127019
5 *408:44 0.00233078
6 *408:24 0.0013668
7 *408:18 0.00178543
8 *1290:D *494:DIODE 1.23247e-05
9 *1290:D *1252:A0 3.92756e-05
10 *1290:D *1256:A1 9.50015e-05
11 *1290:D *1256:A2 0.000185234
12 *1290:D *1301:D 7.53186e-05
13 *1290:D *1334:A 0.000118946
14 *1290:D *1420:A 0.000415824
15 *1290:D *1426:A 8.35068e-05
16 *1290:D *420:30 0.00066262
17 *1290:D *427:20 0
18 *408:18 *428:22 3.83194e-05
19 *408:24 *433:34 0.00013487
20 *408:24 *437:28 0
21 *408:24 *446:28 2.48804e-05
22 *408:44 *1380:A 0.000220029
23 N4BEG[14] *408:24 0.000403757
24 N4BEG[15] *408:24 0.00054331
25 *1250:A2 *408:24 3.60648e-06
26 *1251:S1 *408:24 4.9526e-05
27 *1251:S1 *408:44 0
28 *1272:S1 *408:44 0.000307834
29 *1279:D *408:44 0.000293736
30 *1287:D *1290:D 8.15136e-05
31 *1287:GATE *1290:D 4.01748e-05
32 *1290:GATE *1290:D 4.24534e-05
33 *1311:D *1290:D 0.0003908
34 *1323:GATE *1322:D 0.00015639
35 *1323:GATE *408:24 0.00026617
36 *1323:GATE *408:44 7.13192e-05
37 *1326:A *1290:D 0.000670669
38 *1348:A *1290:D 0.000156555
39 *1358:A *1290:D 2.06786e-05
40 *1387:A *1290:D 0.000338015
41 *1452:A *408:18 0.000112299
42 *1544:A *408:18 0.000229426
43 *1545:A *408:44 5.84698e-05
44 *1547:A *1290:D 0.000154977
45 *1567:A *408:24 0.000456999
46 *1588:A *408:18 0.00189841
47 *1590:A *408:44 3.07764e-05
48 *292:43 *1290:D 9.03508e-06
49 *292:43 *408:44 0.000387018
50 *303:24 *1290:D 8.73389e-06
51 *303:24 *408:44 8.19783e-05
52 *322:42 *1290:D 2.49909e-05
53 *325:26 *408:24 5.83121e-06
54 *380:45 *1290:D 7.33639e-05
55 *401:12 *1290:D 0.000131836
56 *401:59 *1290:D 9.50015e-05
57 *406:12 *408:18 0.00344581
58 *407:10 *408:18 0
59 *407:14 *408:18 0.000183926
60 *407:48 *1290:D 4.2145e-05
*RES
1 *1450:X *408:18 46.525 
2 *408:18 *408:24 15.845 
3 *408:24 *408:44 18.61 
4 *408:44 *1354:A 1.6 
5 *408:44 *1290:D 31.1425 
6 *408:24 *1322:D 3.085 
*END

*D_NET *409 0.0161983
*CONN
*I *1327:A I *D sky130_fd_sc_hd__buf_1
*I *1295:D I *D sky130_fd_sc_hd__dlxtp_1
*I *1451:X O *D sky130_fd_sc_hd__buf_1
*CAP
1 *1327:A 0.00205642
2 *1295:D 0
3 *1451:X 0.0019004
4 *409:20 0.00395682
5 *1327:A *1253:A1 4.44339e-05
6 *1327:A *1268:A3 0
7 *1327:A *1272:A0 0.000812715
8 *1327:A *1277:D 0.000433518
9 *1327:A *1342:A 0.000343391
10 *1327:A *1422:A 7.9319e-05
11 *1327:A *1611:A 0.000118081
12 *1327:A *444:42 9.60582e-07
13 *1327:A *461:53 6.67488e-05
14 *1327:A *476:41 1.88656e-05
15 *1327:A *477:26 0.000226095
16 *1327:A *479:30 8.7846e-05
17 *1327:A *484:48 3.83194e-05
18 *409:20 *1415:A 4.61701e-06
19 *409:20 *1423:A 0.000740897
20 *409:20 *413:20 4.01548e-05
21 *409:20 *418:22 0.00242249
22 *409:20 *466:66 0.000826466
23 *489:DIODE *409:20 8.07863e-05
24 *1260:S0 *1327:A 8.46299e-05
25 *1264:S1 *1327:A 2.04902e-05
26 *1270:S1 *409:20 0.000518442
27 *1277:GATE *1327:A 3.51072e-05
28 *1282:D *1327:A 6.07575e-06
29 *1312:D *1327:A 5.99393e-05
30 *1381:A *409:20 0.000125337
31 *1549:A *1327:A 1.67131e-05
32 *1585:A *409:20 9.58678e-06
33 *263:28 *1327:A 1.83847e-05
34 *291:22 *409:20 0
35 *300:10 *1327:A 0.000227718
36 *303:51 *1327:A 2.90708e-05
37 *400:53 *1327:A 0.000302096
38 *400:117 *1327:A 0.000190715
39 *406:26 *1327:A 0.000254659
*RES
1 *1451:X *409:20 26.3738 
2 *409:20 *1295:D 1.6 
3 *409:20 *1327:A 45.465 
*END

*D_NET *410 0.015348
*CONN
*I *1336:A I *D sky130_fd_sc_hd__buf_1
*I *1304:D I *D sky130_fd_sc_hd__dlxtp_1
*I *1458:X O *D sky130_fd_sc_hd__buf_1
*CAP
1 *1336:A 0.000116511
2 *1304:D 6.8879e-06
3 *1458:X 0.00396809
4 *410:14 0.00409149
5 *1304:D *1328:A 1.88602e-05
6 *1304:D *412:68 1.88602e-05
7 *1336:A *487:DIODE 0.000140579
8 *1336:A *1418:A 4.76666e-05
9 *1336:A *412:68 0.000141177
10 *410:14 *1251:A2 2.42781e-05
11 *410:14 *1418:A 9.79957e-06
12 *410:14 *412:43 2.30292e-05
13 *410:14 *432:40 0.000166306
14 *410:14 *466:52 0.000406342
15 *410:14 *466:66 5.92691e-05
16 *410:14 *476:14 0.000171034
17 *410:14 *476:41 4.50325e-05
18 *496:DIODE *410:14 0.000505322
19 *1251:S1 *410:14 2.10433e-05
20 *1266:S1 *410:14 0.00144401
21 *1268:S1 *1336:A 4.66108e-05
22 *1274:S1 *410:14 6.25766e-05
23 *1358:A *1336:A 4.66108e-05
24 *1555:A *1336:A 7.0577e-05
25 *1555:A *410:14 0.00296372
26 *1567:A *410:14 0.000439306
27 *1583:A *410:14 0.000195991
28 *1598:A *410:14 9.70166e-05
*RES
1 *1458:X *410:14 39.3601 
2 *410:14 *1304:D 4.3325 
3 *410:14 *1336:A 6.46703 
*END

*D_NET *411 0.0157428
*CONN
*I *1323:D I *D sky130_fd_sc_hd__dlxtp_1
*I *1355:A I *D sky130_fd_sc_hd__buf_1
*I *1291:D I *D sky130_fd_sc_hd__dlxtp_1
*I *1452:X O *D sky130_fd_sc_hd__buf_1
*CAP
1 *1323:D 5.23638e-05
2 *1355:A 0.00124126
3 *1291:D 0.000150742
4 *1452:X 0.00221418
5 *411:30 0.00164626
6 *411:18 0.0025208
7 *1291:D *1251:A1 1.08758e-05
8 *1291:D *1427:A 7.66388e-05
9 *1291:D *412:43 1.56428e-05
10 *1355:A *1251:A1 4.82919e-05
11 *1355:A *1257:A0 5.43477e-05
12 *1355:A *1418:A 6.62872e-05
13 *1355:A *1419:A 0.000411883
14 *1355:A *1422:A 0.000119242
15 *1355:A *1427:A 0.000717912
16 *1355:A *459:83 0.000188089
17 *411:18 *1270:A2 0.000199377
18 *411:18 *1417:A 0.000155025
19 *411:18 *1427:A 0.000326636
20 *411:18 *450:34 0.00129393
21 *411:18 *453:60 0.000128511
22 *411:18 *458:40 0
23 *411:18 *461:78 0.000301011
24 *411:30 *1251:A1 0.000235745
25 *411:30 *1277:D 2.07838e-05
26 *411:30 *454:14 0.000126561
27 *1260:S1 *1355:A 0.000382781
28 *1270:S1 *411:18 0.000115254
29 *1274:S1 *411:18 0.000118081
30 *1280:D *1355:A 0.000155601
31 *1292:GATE *1291:D 0.000118081
32 *1304:GATE *1355:A 6.61627e-05
33 *1385:A *411:18 0
34 *1543:A *411:18 7.60965e-05
35 *1545:A *411:18 7.35729e-05
36 *1547:A *411:30 6.06433e-05
37 *1554:A *411:18 1.80324e-05
38 *1563:A *1291:D 0.000148115
39 *1563:A *1323:D 5.84717e-05
40 *1563:A *411:18 3.51809e-05
41 *1590:A *1355:A 0.000121027
42 *1598:A *1291:D 4.82919e-05
43 *248:18 *1291:D 0.000146884
44 *248:18 *1323:D 0.00012205
45 *248:18 *411:18 0.000100354
46 *347:46 *411:18 0.000104776
47 *358:40 *1355:A 0.00013535
48 *372:22 *411:18 1.6408e-05
49 *380:12 *411:18 0.000472771
50 *392:20 *1355:A 0.00044227
51 *400:10 *411:30 0.000276133
52 *400:12 *411:30 7.9642e-06
*RES
1 *1452:X *411:18 45.3625 
2 *411:18 *411:30 7.1203 
3 *411:30 *1291:D 9.425 
4 *411:30 *1355:A 25.705 
5 *411:18 *1323:D 5.1075 
*END

*D_NET *412 0.0188835
*CONN
*I *1356:A I *D sky130_fd_sc_hd__buf_1
*I *1324:D I *D sky130_fd_sc_hd__dlxtp_1
*I *1292:D I *D sky130_fd_sc_hd__dlxtp_1
*I *1453:X O *D sky130_fd_sc_hd__buf_1
*CAP
1 *1356:A 0.000187508
2 *1324:D 0
3 *1292:D 0
4 *1453:X 0.00143414
5 *412:68 0.00276791
6 *412:43 0.00343487
7 *412:18 0.00228861
8 *412:18 *1409:A 0.000681511
9 *412:18 *443:16 0.000972529
10 *412:18 *465:20 0.000300551
11 *412:43 *1277:D 0.000138752
12 *412:43 *1407:A 1.7635e-05
13 *412:43 *413:26 1.13785e-05
14 *412:68 *487:DIODE 0.00018731
15 *412:68 *1268:A2 0.000179863
16 *412:68 *1268:A3 4.97019e-05
17 *412:68 *1328:A 0.000220676
18 *412:68 *1603:A 0
19 *412:68 *443:16 0.000153816
20 *412:68 *443:34 0
21 *412:68 *461:53 2.39679e-05
22 N1BEG[0] *412:18 3.37941e-05
23 N1BEG[2] *412:18 0.000120819
24 N2BEG[0] *412:18 4.82863e-05
25 N2BEG[2] *412:18 2.97004e-06
26 *490:DIODE *412:43 0
27 *490:DIODE *412:68 0.000349581
28 *1252:S1 *412:68 0.000277487
29 *1256:S1 *412:68 0.000132548
30 *1266:S0 *412:18 1.36124e-05
31 *1266:S1 *412:43 0.000268042
32 *1268:S0 *1356:A 0.000121027
33 *1268:S0 *412:68 6.17847e-05
34 *1268:S1 *412:68 0.000172236
35 *1270:S1 *412:18 0
36 *1274:S1 *412:68 4.01778e-05
37 *1287:D *1356:A 4.11718e-05
38 *1291:D *412:43 1.56428e-05
39 *1291:GATE *412:43 2.68464e-05
40 *1292:GATE *412:43 4.77719e-05
41 *1304:D *412:68 1.88602e-05
42 *1311:D *1356:A 4.05706e-05
43 *1314:GATE *412:68 2.82846e-05
44 *1336:A *412:68 0.000141177
45 *1345:A *412:68 1.56615e-05
46 *1385:A *412:18 9.70174e-05
47 *1391:A *412:68 8.57735e-05
48 *1430:A *412:68 0
49 *1546:A *412:18 0.000358
50 *1556:A *412:68 0.000156364
51 *1558:A *412:18 1.13341e-05
52 *1591:A *412:68 0.000108608
53 *1598:A *412:43 0.000292438
54 *1602:A *412:43 6.4376e-05
55 *295:48 *1356:A 0.000162487
56 *300:10 *412:68 0
57 *344:14 *412:68 0.00200717
58 *351:24 *412:43 0
59 *357:32 *412:18 4.21973e-05
60 *364:14 *412:68 1.33285e-05
61 *391:16 *412:18 6.31747e-05
62 *392:20 *412:43 0.000208557
63 *392:20 *412:68 7.39516e-05
64 *402:71 *412:68 4.66108e-05
65 *410:14 *412:43 2.30292e-05
*RES
1 *1453:X *412:18 35.45 
2 *412:18 *1292:D 1.6 
3 *412:18 *412:43 22.7 
4 *412:43 *1324:D 1.6 
5 *412:43 *412:68 49.41 
6 *412:68 *1356:A 7.455 
*END

*D_NET *413 0.0154937
*CONN
*I *1328:A I *D sky130_fd_sc_hd__buf_1
*I *1296:D I *D sky130_fd_sc_hd__dlxtp_1
*I *1454:X O *D sky130_fd_sc_hd__buf_1
*CAP
1 *1328:A 0.000747415
2 *1296:D 0
3 *1454:X 0.00168912
4 *413:26 0.00267501
5 *413:20 0.00361672
6 *1328:A *1331:A 0.00016384
7 *1328:A *1342:A 0.000127865
8 *1328:A *1616:A 5.75488e-05
9 *1328:A *432:40 0.000179976
10 *1328:A *459:83 0.000735275
11 *413:20 *1266:A2 1.30169e-05
12 *413:20 *416:28 9.52915e-05
13 *413:20 *417:24 0.00080638
14 *413:20 *443:16 0.000198344
15 *413:26 *1255:A1 5.55284e-05
16 *413:26 *1255:A2 9.3229e-06
17 *413:26 *1331:A 3.59945e-05
18 *413:26 *416:34 3.1562e-06
19 *489:DIODE *413:20 0.000279716
20 *1255:S0 *413:26 1.7386e-05
21 *1260:S0 *1328:A 5.9168e-05
22 *1268:S0 *1328:A 0.000450423
23 *1268:S1 *1328:A 0.000366723
24 *1296:GATE *413:26 0.000121018
25 *1304:D *1328:A 1.88602e-05
26 *1352:A *1328:A 0
27 *1357:A *1328:A 0.000348601
28 *1381:A *413:20 1.3926e-05
29 *1385:A *413:20 0.00010491
30 *1395:A *1328:A 0.000375056
31 *1586:A *413:20 3.67779e-05
32 *1592:A *413:20 0.00015851
33 *1598:A *413:26 0.00100267
34 *295:48 *1328:A 5.61451e-05
35 *383:20 *413:20 0.000234436
36 *402:57 *413:26 0.00030606
37 *406:39 *1328:A 6.13221e-05
38 *409:20 *413:20 4.01548e-05
39 *412:43 *413:26 1.13785e-05
40 *412:68 *1328:A 0.000220676
*RES
1 *1454:X *413:20 33.765 
2 *413:20 *413:26 23.595 
3 *413:26 *1296:D 1.6 
4 *413:26 *1328:A 26.6 
*END

*D_NET *414 0.0253021
*CONN
*I *1329:A I *D sky130_fd_sc_hd__buf_1
*I *1297:D I *D sky130_fd_sc_hd__dlxtp_1
*I *1455:X O *D sky130_fd_sc_hd__dlymetal6s2s_1
*CAP
1 *1329:A 0.000448281
2 *1297:D 1.83028e-05
3 *1455:X 0.000193365
4 *414:26 0.00127512
5 *414:12 0.00207413
6 *414:10 0.00145896
7 *1297:D *1420:A 1.56428e-05
8 *1329:A *1263:A2 4.82919e-05
9 *1329:A *1271:A1 9.66834e-05
10 *1329:A *1273:A0 0.000469171
11 *1329:A *1420:A 0.00016955
12 *1329:A *473:14 0.00013738
13 *414:12 *421:12 0.00135254
14 *414:26 *1258:A0 7.73312e-05
15 *414:26 *1258:A1 0.000650369
16 *414:26 *1258:A3 4.60424e-05
17 *414:26 *474:18 0
18 VALUE_top0 *414:10 0
19 *491:DIODE *414:12 0.00010204
20 *1254:S0 *1329:A 4.01778e-05
21 *1263:S1 *1329:A 4.41506e-05
22 *1362:A *414:12 0.000126737
23 *1366:A *414:26 0.000158578
24 *1436:A *414:10 0
25 *1566:A *414:26 0.000584417
26 *1569:A *1329:A 1.39456e-05
27 *1595:A *414:10 0.000464723
28 *269:36 *414:26 0
29 *284:24 *1329:A 0.000250467
30 *306:30 *414:26 2.75605e-05
31 *342:12 *414:12 0.00611988
32 *390:10 *414:26 0.000122374
33 *390:12 *414:12 0.00832169
34 *404:92 *1297:D 4.66108e-05
35 *404:92 *1329:A 4.82919e-05
36 *405:36 *1329:A 0.00029933
*RES
1 *1455:X *414:10 10.805 
2 *414:10 *414:12 77.04 
3 *414:12 *414:26 20.77 
4 *414:26 *1297:D 2.05 
5 *414:26 *1329:A 17.645 
*END

*D_NET *415 0.0276279
*CONN
*I *1298:D I *D sky130_fd_sc_hd__dlxtp_1
*I *1330:A I *D sky130_fd_sc_hd__buf_1
*I *1456:X O *D sky130_fd_sc_hd__dlymetal6s2s_1
*CAP
1 *1298:D 0.00112452
2 *1330:A 0.00135307
3 *1456:X 0.000453697
4 *415:22 0.00383198
5 *415:16 0.00316482
6 *415:12 0.00226412
7 *1298:D *1302:D 0.000248897
8 *1298:D *1307:D 0.00028362
9 *1298:D *447:47 0.00028362
10 *1330:A *494:DIODE 0.000504215
11 *1330:A *1613:A 3.96676e-05
12 *1330:A *1616:A 0.000461844
13 *415:12 *419:12 0
14 *415:16 *1603:A 0.000737855
15 *415:16 *443:34 0.00136957
16 *415:22 *1268:A2 0.000122778
17 *415:22 *1268:A3 7.72475e-05
18 *415:22 *1278:D 6.04355e-05
19 *415:22 *1302:D 0.000525346
20 *415:22 *1332:A 0.00101969
21 *415:22 *1422:A 4.97251e-05
22 *415:22 *1605:A 0.000174227
23 *415:22 *444:64 0.00034675
24 *415:22 *459:55 3.60076e-05
25 ENABLE_top *415:16 8.65961e-05
26 VALUE_top1 *415:16 8.58558e-05
27 VALUE_top2 *415:16 0.000201508
28 VALUE_top3 *415:16 8.65961e-05
29 VALUE_top4 *415:16 8.65961e-05
30 VALUE_top5 *415:16 8.65961e-05
31 VALUE_top6 *415:16 8.60799e-05
32 VALUE_top7 *415:16 8.50664e-05
33 *490:DIODE *415:16 1.12578e-05
34 *499:DIODE *1330:A 3.92756e-05
35 *1267:S1 *1298:D 0.000945723
36 *1270:S1 *415:22 2.11235e-05
37 *1284:D *415:22 0.000280306
38 *1312:D *1330:A 3.41554e-05
39 *1316:D *1298:D 0.000386344
40 *1384:A *1330:A 0.000241729
41 *1439:A *415:12 0.000155701
42 *1451:A *415:12 0.000118137
43 *1520:A *1298:D 0.00176256
44 *1520:A *415:22 0.000256459
45 *1553:A *415:16 0.000163128
46 *1560:A *415:22 4.4969e-05
47 *1598:A *415:16 0.000203178
48 *1600:A *415:16 0.000732691
49 *1602:A *415:16 0.000161467
50 *67:13 *415:16 0.0014082
51 *67:38 *415:22 0.000122085
52 *291:22 *415:16 0.000160171
53 *299:34 *1330:A 0.000271021
54 *314:12 *415:12 4.82863e-05
55 *343:28 *1330:A 2.28476e-05
56 *347:66 *415:22 0
57 *392:20 *415:16 0.000422044
58 *393:16 *415:22 6.98584e-05
59 *407:48 *415:22 0.00020658
*RES
1 *1456:X *415:12 13.88 
2 *415:12 *415:16 48.68 
3 *415:16 *415:22 11.0716 
4 *415:22 *1330:A 11.1139 
5 *415:22 *1298:D 11.2132 
*END

*D_NET *416 0.0158087
*CONN
*I *1331:A I *D sky130_fd_sc_hd__buf_1
*I *1299:D I *D sky130_fd_sc_hd__dlxtp_1
*I *1457:X O *D sky130_fd_sc_hd__buf_1
*CAP
1 *1331:A 0.00145569
2 *1299:D 0.000350371
3 *1457:X 0.00280399
4 *416:34 0.00203706
5 *416:28 0.00303499
6 *1299:D *1257:A2 0.000147889
7 *1299:D *1380:A 1.1071e-05
8 *1331:A *459:83 0.000735275
9 *416:28 *1266:A2 1.59999e-05
10 *416:28 *1275:D 1.91597e-05
11 *416:28 *1423:A 0.000176264
12 *416:28 *417:24 0.000154779
13 *416:28 *418:22 0.000116624
14 *416:28 *443:16 0.00100155
15 *416:28 *466:66 6.50632e-05
16 *416:34 *448:70 5.11616e-05
17 *1253:S0 *1331:A 8.41307e-05
18 *1257:S0 *1299:D 1.14918e-05
19 *1264:S0 *1331:A 8.35106e-05
20 *1272:S1 *1299:D 0.000409671
21 *1274:S1 *416:28 6.96175e-05
22 *1296:GATE *1331:A 5.00949e-05
23 *1299:GATE *1299:D 0.000119866
24 *1303:GATE *1331:A 2.97593e-05
25 *1317:D *1299:D 5.63183e-05
26 *1321:GATE *1299:D 4.66108e-05
27 *1328:A *1331:A 0.00016384
28 *1383:A *416:28 6.71882e-05
29 *1385:A *416:28 0.000599076
30 *1395:A *1331:A 7.4415e-05
31 *1454:A *416:28 2.11084e-05
32 *1585:A *416:34 0.000174446
33 *1589:A *1299:D 4.67541e-05
34 *263:28 *416:28 0.00045541
35 *306:30 *1331:A 1.67131e-05
36 *336:57 *1299:D 3.64998e-06
37 *351:24 *416:28 4.47289e-05
38 *373:26 *416:28 0.000125262
39 *380:26 *1299:D 0.000295477
40 *383:20 *416:28 0.000118081
41 *402:20 *1299:D 0.000127984
42 *402:57 *1331:A 3.67633e-05
43 *402:57 *416:34 4.51961e-05
44 *402:65 *416:28 4.40325e-06
45 *402:65 *416:34 0.000112893
46 *402:71 *416:28 2.86265e-06
47 *413:20 *416:28 9.52915e-05
48 *413:26 *1331:A 3.59945e-05
49 *413:26 *416:34 3.1562e-06
*RES
1 *1457:X *416:28 48.865 
2 *416:28 *416:34 5.975 
3 *416:34 *1299:D 14.585 
4 *416:34 *1331:A 21.79 
*END

*D_NET *417 0.0199005
*CONN
*I *1300:D I *D sky130_fd_sc_hd__dlxtp_1
*I *1332:A I *D sky130_fd_sc_hd__buf_1
*I *1459:X O *D sky130_fd_sc_hd__buf_1
*CAP
1 *1300:D 0.000455364
2 *1332:A 0.00107798
3 *1459:X 0.00232091
4 *417:24 0.00385425
5 *1300:D *456:66 0.000917342
6 *1332:A *1252:A1 1.88656e-05
7 *1332:A *1605:A 1.7635e-05
8 *1332:A *432:40 5.01852e-05
9 *1332:A *444:64 5.47235e-05
10 *1332:A *456:66 0.000103315
11 *1332:A *459:83 0.000409902
12 *417:24 *1266:A0 0.000209503
13 *417:24 *1377:A 0.000206733
14 *417:24 *1421:A 0.000198651
15 *417:24 *432:40 0.001472
16 *417:24 *454:14 0
17 *417:24 *466:66 3.09233e-05
18 *417:24 *476:14 0
19 *1300:GATE *1300:D 5.92535e-05
20 *1317:D *1300:D 2.65252e-05
21 *1317:D *417:24 4.2145e-05
22 *1385:A *417:24 0.000230908
23 *1395:A *1332:A 8.35068e-05
24 *1454:A *417:24 8.50512e-05
25 *1457:A *417:24 3.93698e-05
26 *1546:A *417:24 0.00010617
27 *1549:A *1300:D 3.92756e-05
28 *1555:A *417:24 0.000968558
29 *1558:A *417:24 0.000104178
30 *1560:A *1332:A 0.00166622
31 *1560:A *417:24 0.0019437
32 *1591:A *1300:D 0.00093563
33 *1591:A *1332:A 0.000103315
34 *306:30 *1332:A 4.66108e-05
35 *347:46 *1300:D 2.18433e-05
36 *358:40 *1332:A 1.90963e-05
37 *413:20 *417:24 0.00080638
38 *415:22 *1332:A 0.00101969
39 *416:28 *417:24 0.000154779
*RES
1 *1459:X *417:24 24.8973 
2 *417:24 *1332:A 8.81823 
3 *417:24 *1300:D 7.25643 
*END

*D_NET *418 0.0263161
*CONN
*I *1301:D I *D sky130_fd_sc_hd__dlxtp_1
*I *1333:A I *D sky130_fd_sc_hd__buf_1
*I *1460:X O *D sky130_fd_sc_hd__dlymetal6s2s_1
*CAP
1 *1301:D 0.00176872
2 *1333:A 5.38337e-05
3 *1460:X 0.00497193
4 *418:22 0.00679448
5 *1301:D *1418:A 0.000181319
6 *1301:D *1616:A 1.59601e-05
7 *1301:D *455:65 0.000668849
8 *1301:D *484:48 3.03684e-05
9 *418:22 *1266:A0 0.000508871
10 *418:22 *1407:A 0.000192436
11 *418:22 *1423:A 9.03826e-05
12 *418:22 *432:40 7.48934e-06
13 *418:22 *444:64 2.8053e-05
14 *418:22 *461:30 0.000200697
15 *418:22 *463:56 2.90617e-05
16 UserCLKo *1301:D 5.70071e-05
17 VALUE_top0 *418:22 0
18 *496:DIODE *418:22 0.000196009
19 *498:DIODE *418:22 6.217e-05
20 *1258:S0 *1301:D 1.7635e-05
21 *1261:S0 *1301:D 7.14775e-05
22 *1281:D *1333:A 8.35106e-05
23 *1286:D *1301:D 3.14528e-05
24 *1290:D *1301:D 7.53186e-05
25 *1301:GATE *1301:D 0.000198293
26 *1319:D *1333:A 8.03588e-06
27 *1320:D *1333:A 3.9141e-05
28 *1358:A *1333:A 8.23457e-05
29 *1398:A *1301:D 3.21081e-06
30 *1431:A *418:22 0.00167287
31 *1514:A *1301:D 0.00112938
32 *1582:A *418:22 0.000141726
33 *1584:A *1301:D 0.000942493
34 *1584:A *418:22 0.000122081
35 *1595:A *418:22 1.88602e-05
36 *67:38 *418:22 0.00058431
37 *269:36 *1301:D 0.000900144
38 *291:22 *418:22 0
39 *297:44 *1301:D 0.000415008
40 *380:45 *1301:D 0.000105832
41 *380:45 *418:22 0.000248577
42 *400:22 *418:22 1.32799e-05
43 *400:53 *418:22 0.00023024
44 *401:82 *1333:A 7.9642e-06
45 *407:48 *418:22 0.000776127
46 *409:20 *418:22 0.00242249
47 *416:28 *418:22 0.000116624
*RES
1 *1460:X *418:22 17.3481 
2 *418:22 *1333:A 5.3825 
3 *418:22 *1301:D 12.4388 
*END

*D_NET *419 0.023833
*CONN
*I *1334:A I *D sky130_fd_sc_hd__buf_1
*I *1302:D I *D sky130_fd_sc_hd__dlxtp_1
*I *1461:X O *D sky130_fd_sc_hd__buf_1
*CAP
1 *1334:A 0.000299764
2 *1302:D 0.001323
3 *1461:X 0.000997218
4 *419:22 0.00217608
5 *419:14 0.00252448
6 *419:12 0.00296838
7 *1302:D *1254:A2 1.79483e-05
8 *1302:D *1256:A0 0
9 *1302:D *1258:A3 0.000279024
10 *1302:D *442:57 0.000520677
11 *1302:D *447:10 3.80278e-05
12 *1302:D *477:26 4.58159e-05
13 *1334:A *1252:A1 0.000248245
14 *1334:A *1605:A 3.26485e-05
15 *1334:A *427:20 3.34879e-05
16 *419:12 *466:66 0
17 *419:14 *420:30 0.000126737
18 *419:14 *421:12 0
19 *419:14 *443:42 0.000316387
20 *419:22 *1252:A0 2.05571e-05
21 *419:22 *1256:A0 0.000156197
22 VALUE_top3 *419:12 0
23 *1269:S1 *1302:D 0.0001207
24 *1271:S0 *1302:D 0.000655299
25 *1290:D *1334:A 0.000118946
26 *1298:D *1302:D 0.000248897
27 *1316:D *1302:D 0.0026562
28 *1319:D *1334:A 1.03503e-05
29 *1326:A *419:22 3.41334e-05
30 *1348:A *1334:A 5.53936e-05
31 *1393:A *419:12 0
32 *1550:A *419:12 2.46089e-05
33 *1555:A *1334:A 1.88602e-05
34 *1560:A *1302:D 9.27169e-05
35 *1582:A *419:22 0.000140435
36 *67:13 *419:22 0.000349811
37 *67:38 *419:22 3.00015e-05
38 *295:48 *1334:A 0
39 *307:30 *419:22 6.95753e-05
40 *314:14 *419:14 0.00032876
41 *314:18 *419:22 0.000151847
42 *393:24 *419:12 0.000187071
43 *395:14 *419:14 0.000940931
44 *397:14 *419:14 0.00353314
45 *399:26 *419:12 0.000523115
46 *401:16 *419:22 2.81282e-05
47 *401:59 *419:22 1.62893e-05
48 *401:74 *1334:A 0.000291838
49 *401:74 *419:22 3.80343e-05
50 *404:10 *419:22 0.000269071
51 *404:55 *1302:D 1.7635e-05
52 *404:55 *1334:A 7.05007e-05
53 *404:55 *419:22 3.86479e-05
54 *404:143 *1302:D 0.00012205
55 *415:12 *419:12 0
56 *415:22 *1302:D 0.000525346
*RES
1 *1461:X *419:12 21.035 
2 *419:12 *419:14 53.925 
3 *419:14 *419:22 13.7525 
4 *419:22 *1302:D 12.6785 
5 *419:22 *1334:A 10.6575 
*END

*D_NET *420 0.0200711
*CONN
*I *1254:A0 I *D sky130_fd_sc_hd__mux4_1
*I *1380:A I *D sky130_fd_sc_hd__clkbuf_1
*I *1250:B2 I *D sky130_fd_sc_hd__a22o_1
*I *1462:X O *D sky130_fd_sc_hd__buf_1
*CAP
1 *1254:A0 0.000930824
2 *1380:A 0.000693519
3 *1250:B2 0.000173946
4 *1462:X 0.000423429
5 *420:30 0.00295902
6 *420:14 0.00344581
7 *1250:B2 *1415:A 0.000199833
8 *1254:A0 *494:DIODE 0.000231532
9 *1254:A0 *1254:A1 9.387e-06
10 *1254:A0 *1256:A0 0.000343982
11 *1254:A0 *1616:A 7.56727e-05
12 *1254:A0 *1619:A 3.85231e-05
13 *1254:A0 *449:12 6.2367e-05
14 *1254:A0 *449:14 1.02692e-05
15 *1254:A0 *460:34 0.000307208
16 *1380:A *1253:A2 0
17 *1380:A *1272:A3 1.00941e-05
18 *1380:A *1415:A 6.65478e-05
19 *420:14 *1252:A0 1.0129e-05
20 *420:14 *1256:A1 0.000166107
21 *420:14 *1416:A 5.66369e-05
22 *420:14 *433:34 0.000128174
23 *420:14 *460:34 4.66474e-05
24 *420:30 *494:DIODE 5.27166e-05
25 *420:30 *1252:A0 0.000794882
26 *420:30 *1616:A 1.86715e-05
27 *420:30 *444:42 2.606e-05
28 *498:DIODE *420:30 0.000417621
29 *499:DIODE *420:14 6.39581e-05
30 *1250:B1 *1250:B2 1.67131e-05
31 *1252:S1 *1254:A0 2.71912e-06
32 *1253:S0 *420:30 0
33 *1253:S1 *1380:A 2.67006e-05
34 *1257:S0 *1380:A 0.000329312
35 *1264:S1 *1380:A 7.50862e-05
36 *1272:S1 *1380:A 0.00109761
37 *1290:D *420:30 0.00066262
38 *1299:D *1380:A 1.1071e-05
39 *1312:D *420:14 2.24358e-05
40 *1319:D *1254:A0 6.98693e-05
41 *1320:D *1254:A0 0.000229838
42 *1323:GATE *1380:A 1.43191e-05
43 *1326:A *420:30 0.000337359
44 *1353:A *420:14 9.50189e-06
45 *1387:A *1254:A0 4.34097e-05
46 *1431:A *1380:A 8.56439e-05
47 *1473:A *420:14 4.91032e-05
48 *1514:A *1254:A0 2.38233e-05
49 *1566:A *420:30 0.00233467
50 *1577:A *1254:A0 0.000209308
51 *78:5 *1380:A 7.30481e-05
52 *78:5 *420:30 0.000428133
53 *295:48 *420:14 3.19977e-05
54 *309:30 *1254:A0 0.000256409
55 *353:24 *420:30 0.00109898
56 *397:14 *420:30 0.000101392
57 *402:6 *1380:A 0.000144105
58 *402:14 *1380:A 8.23457e-05
59 *402:53 *1380:A 8.96616e-05
60 *404:70 *1254:A0 3.55992e-06
61 *408:44 *1380:A 0.000220029
62 *419:14 *420:30 0.000126737
*RES
1 *1462:X *420:14 10.8425 
2 *420:14 *420:30 13.4762 
3 *420:30 *1250:B2 6.825 
4 *420:30 *1380:A 20.895 
5 *420:14 *1254:A0 21.539 
*END

*D_NET *421 0.0243562
*CONN
*I *1337:A I *D sky130_fd_sc_hd__buf_1
*I *1305:D I *D sky130_fd_sc_hd__dlxtp_1
*I *1469:X O *D sky130_fd_sc_hd__buf_1
*CAP
1 *1337:A 0.000570443
2 *1305:D 0.000233792
3 *1469:X 0.000576849
4 *421:20 0.00137968
5 *421:12 0.00294138
6 *421:10 0.00294278
7 *1305:D *474:18 0.000269103
8 *1337:A *1258:A1 7.23961e-06
9 *1337:A *1265:A0 1.91597e-05
10 *1337:A *473:14 0.00019123
11 *1337:A *474:18 0.000792199
12 *421:10 *432:40 4.18603e-06
13 *421:12 *443:42 0.000184234
14 *421:20 *1258:A1 7.18452e-06
15 *1254:S0 *1305:D 7.88115e-05
16 *1254:S1 *1305:D 0.000404415
17 *1267:S1 *421:20 2.43124e-05
18 *1294:D *421:20 0.000278993
19 *1305:GATE *1305:D 0.000119762
20 *1365:A *421:20 0.000110013
21 *1390:A *1337:A 5.8023e-05
22 *1398:A *1337:A 0.000138818
23 *1404:A *1337:A 0.000118081
24 *1458:A *421:10 0
25 *1518:A *1305:D 3.07149e-05
26 *1575:A *1337:A 0.00015639
27 *1577:A *1337:A 3.69766e-05
28 *1595:A *421:10 0.000904338
29 *269:36 *421:20 2.32997e-05
30 *276:40 *1337:A 5.44379e-05
31 *276:40 *421:20 0.000365541
32 *300:12 *421:12 0.00198699
33 *306:30 *1305:D 0.000194694
34 *306:30 *421:20 0
35 *307:30 *421:20 0.000687096
36 *314:14 *421:12 0
37 *342:12 *421:12 0.00589519
38 *353:24 *421:12 0.00113979
39 *390:10 *421:20 7.75544e-05
40 *414:12 *421:12 0.00135254
41 *419:14 *421:12 0
*RES
1 *1469:X *421:10 17.945 
2 *421:10 *421:12 74.28 
3 *421:12 *421:20 15.755 
4 *421:20 *1305:D 10.74 
5 *421:20 *1337:A 15.75 
*END

*D_NET *422 0.00782817
*CONN
*I *1253:A0 I *D sky130_fd_sc_hd__mux4_1
*I *1248:A I *D sky130_fd_sc_hd__or2_1
*I *1379:A I *D sky130_fd_sc_hd__clkbuf_1
*I *1463:X O *D sky130_fd_sc_hd__buf_1
*CAP
1 *1253:A0 0.000814205
2 *1248:A 0
3 *1379:A 0.000252236
4 *1463:X 0
5 *422:18 0.000929428
6 *422:4 0.0014914
7 *1253:A0 *1253:A1 4.63929e-05
8 *1253:A0 *1253:A3 0.000100879
9 *1253:A0 *1257:A1 1.453e-05
10 *1253:A0 *1272:A1 1.88656e-05
11 *1253:A0 *424:32 0.00019391
12 *1253:A0 *432:40 5.63183e-05
13 *1253:A0 *444:64 0.000255899
14 *1253:A0 *463:58 0.000212634
15 *1379:A *446:28 2.85364e-05
16 *422:18 *1264:A3 3.45117e-05
17 *422:18 *446:28 2.49909e-05
18 *422:18 *448:52 6.98933e-05
19 *422:18 *448:70 0.000121496
20 Co *1253:A0 1.88605e-05
21 N4BEG[15] *422:18 8.8266e-05
22 NN4BEG[1] *422:18 8.57024e-05
23 *492:DIODE *422:18 9.52646e-05
24 *1248:B *422:18 4.87465e-06
25 *1253:S1 *1253:A0 0.00080346
26 *1264:S0 *1253:A0 6.61914e-05
27 *1279:D *1253:A0 6.21023e-05
28 *1323:GATE *1379:A 0.000235063
29 *1391:A *422:18 4.79784e-05
30 *1430:A *1379:A 0.000107032
31 *1567:A *1379:A 0.000101604
32 *1580:A *1253:A0 0.000233386
33 *1585:A *422:18 8.41376e-05
34 *1587:A *422:18 2.52887e-05
35 *1593:A *1253:A0 0.000582612
36 *325:26 *1379:A 0.000126385
37 *361:26 *422:18 6.00027e-05
38 *372:22 *1379:A 0.000333834
39 *400:53 *1253:A0 0
*RES
1 *1463:X *422:4 1.6 
2 *422:4 *422:18 14.77 
3 *422:18 *1379:A 12.755 
4 *422:18 *1248:A 1.6 
5 *422:4 *1253:A0 25.13 
*END

*D_NET *423 0.012931
*CONN
*I *1378:A I *D sky130_fd_sc_hd__buf_1
*I *1252:A0 I *D sky130_fd_sc_hd__mux4_1
*I *1464:X O *D sky130_fd_sc_hd__buf_1
*CAP
1 *1378:A 0.000791861
2 *1252:A0 0.000689497
3 *1464:X 0.0011392
4 *423:32 0.00262056
5 *1252:A0 *1252:A1 8.35106e-05
6 *1252:A0 *1605:A 0.000216797
7 *1252:A0 *1611:A 3.92756e-05
8 *1252:A0 *1616:A 0.000192109
9 *1252:A0 *444:42 0.00105217
10 *1252:A0 *484:48 4.09223e-05
11 *1378:A *1254:A1 2.21782e-05
12 *1378:A *1416:A 0.000268049
13 *423:32 *1274:A0 8.39495e-05
14 *423:32 *1416:A 8.23457e-05
15 *423:32 *1611:A 4.06889e-05
16 *423:32 *1613:A 2.47723e-05
17 *423:32 *425:14 8.53307e-05
18 *423:32 *427:20 2.4521e-05
19 *423:32 *430:28 0.000874652
20 *423:32 *437:28 4.77719e-05
21 *423:32 *456:36 0.000875813
22 *423:32 *456:54 0.000517227
23 *423:32 *463:40 0.000165652
24 *423:32 *479:30 0.000265864
25 NN4BEG[10] *423:32 8.97256e-05
26 NN4BEG[11] *423:32 8.84382e-05
27 *499:DIODE *1252:A0 1.92979e-05
28 *1290:D *1252:A0 3.92756e-05
29 *1309:GATE *423:32 1.76403e-05
30 *1312:D *1252:A0 3.91191e-05
31 *1325:A *423:32 1.75833e-05
32 *1384:A *1378:A 0.00067779
33 *1384:A *423:32 0.000108438
34 *1468:A *423:32 2.14213e-05
35 *1549:A *423:32 3.85204e-05
36 *1575:A *1378:A 2.42043e-05
37 *1582:A *1252:A0 2.22315e-05
38 *1587:A *423:32 8.10563e-05
39 *276:40 *1378:A 0.00021556
40 *299:34 *423:32 0.000212573
41 *322:42 *423:32 8.247e-05
42 *367:12 *1378:A 2.56752e-06
43 *391:38 *423:32 5.51063e-06
44 *401:59 *1252:A0 1.88602e-05
45 *407:48 *1252:A0 3.83904e-05
46 *419:22 *1252:A0 2.05571e-05
47 *420:14 *1252:A0 1.0129e-05
48 *420:30 *1252:A0 0.000794882
*RES
1 *1464:X *423:32 36.675 
2 *423:32 *1252:A0 12.0058 
3 *423:32 *1378:A 17.45 
*END

*D_NET *424 0.0112653
*CONN
*I *1251:A0 I *D sky130_fd_sc_hd__mux4_1
*I *1377:A I *D sky130_fd_sc_hd__clkbuf_1
*I *1465:X O *D sky130_fd_sc_hd__buf_1
*CAP
1 *1251:A0 0
2 *1377:A 0.000946358
3 *1465:X 0.00139222
4 *424:32 0.00233858
5 *424:32 *1257:A2 1.10377e-05
6 *424:32 *1427:A 0.000428671
7 *424:32 *456:54 8.43167e-05
8 *424:32 *456:66 5.8678e-05
9 *424:32 *459:83 6.55362e-05
10 *424:32 *461:78 0.000225285
11 *1250:A1 *1377:A 0.000322352
12 *1251:S1 *424:32 0.000405641
13 *1253:A0 *424:32 0.00019391
14 *1264:S1 *424:32 0.000619214
15 *1274:S0 *1377:A 0.000324023
16 *1300:GATE *424:32 2.70596e-05
17 *1463:A *424:32 4.82919e-05
18 *1465:A *424:32 1.14169e-05
19 *1555:A *1377:A 0.000204699
20 *1563:A *1377:A 0.000419762
21 *1586:A *1377:A 4.82863e-05
22 *1587:A *424:32 9.24735e-05
23 *1590:A *424:32 0.000797904
24 *1592:A *1377:A 0.000790977
25 *248:18 *1377:A 5.75488e-05
26 *248:18 *424:32 4.0388e-05
27 *347:46 *424:32 0.000259629
28 *399:26 *1377:A 0.000738883
29 *400:10 *1377:A 3.99138e-05
30 *400:10 *424:32 4.78726e-05
31 *400:12 *1377:A 1.7635e-05
32 *417:24 *1377:A 0.000206733
*RES
1 *1465:X *424:32 36.355 
2 *424:32 *1377:A 24.7143 
3 *424:32 *1251:A0 3.6 
*END

*D_NET *425 0.0177954
*CONN
*I *1259:A0 I *D sky130_fd_sc_hd__mux4_1
*I *1254:A1 I *D sky130_fd_sc_hd__mux4_1
*I *1466:X O *D sky130_fd_sc_hd__buf_1
*CAP
1 *1259:A0 4.20984e-05
2 *1254:A1 0.000807727
3 *1466:X 0.000528628
4 *425:49 0.00223436
5 *425:14 0.00352862
6 *1254:A1 *1261:A0 0.000192165
7 *1254:A1 *1420:A 0.000125239
8 *1254:A1 *449:12 0
9 *425:14 *1308:D 6.91939e-06
10 *425:14 *426:26 1.56428e-05
11 *425:14 *428:22 0.00029854
12 *425:14 *440:18 0.00142117
13 *425:14 *479:30 2.78201e-05
14 *425:14 *481:24 5.16479e-05
15 *425:14 *481:28 0.00102631
16 *425:49 *1408:A 0.000343664
17 *425:49 *440:18 0.000865363
18 *425:49 *452:22 5.38122e-05
19 *425:49 *453:20 0.000603222
20 *425:49 *463:28 0.000104341
21 *425:49 *481:28 0.00116727
22 *425:49 *484:48 1.46744e-05
23 FrameStrobe_O[2] *425:49 1.7635e-05
24 *1254:A0 *1254:A1 9.387e-06
25 *1378:A *1254:A1 2.21782e-05
26 *1400:A *425:49 0.000419272
27 *1404:A *1254:A1 0.000513155
28 *1468:A *425:14 0.00014506
29 *1498:A *425:49 6.16166e-05
30 *1505:A *425:49 0.00021575
31 *1513:A *1259:A0 0.000111906
32 *1528:A *1259:A0 0.000111906
33 *1534:A *425:49 0
34 *1537:A *425:49 0.000233386
35 *1577:A *1254:A1 0.000207958
36 *269:36 *425:49 0.00114666
37 *276:40 *1254:A1 0.000176583
38 *297:44 *1254:A1 0.000133685
39 *333:22 *1254:A1 0.000152091
40 *367:12 *1254:A1 0.000572638
41 *423:32 *425:14 8.53307e-05
*RES
1 *1466:X *425:14 21.845 
2 *425:14 *1254:A1 23.09 
3 *425:14 *425:49 49.135 
4 *425:49 *1259:A0 4.98 
*END

*D_NET *426 0.00693162
*CONN
*I *1253:A1 I *D sky130_fd_sc_hd__mux4_1
*I *1260:A0 I *D sky130_fd_sc_hd__mux4_1
*I *1467:X O *D sky130_fd_sc_hd__buf_1
*CAP
1 *1253:A1 0.000664075
2 *1260:A0 0.00013244
3 *1467:X 0.00098783
4 *426:26 0.00178434
5 *1253:A1 *1268:A3 0
6 *1253:A1 *1422:A 0.000342622
7 *1253:A1 *459:83 7.83475e-05
8 *1260:A0 *1260:A1 1.85674e-05
9 *426:26 *1260:A2 1.10377e-05
10 *426:26 *1274:A0 1.19928e-05
11 *426:26 *1308:D 0.000290709
12 *426:26 *435:18 3.26076e-05
13 *426:26 *448:52 0.00012168
14 *426:26 *481:24 0.000123225
15 Co *1260:A0 1.77665e-05
16 NN4BEG[14] *426:26 5.83121e-06
17 *1253:A0 *1253:A1 4.63929e-05
18 *1253:S1 *1253:A1 0.000306068
19 *1260:S0 *426:26 8.51859e-05
20 *1260:S1 *426:26 5.75547e-05
21 *1264:S0 *1253:A1 0.00056012
22 *1270:S1 *1253:A1 0
23 *1277:GATE *1253:A1 4.99619e-05
24 *1327:A *1253:A1 4.44339e-05
25 *1433:A *426:26 0.000173958
26 *1466:A *426:26 4.77757e-05
27 *1475:A *426:26 3.85212e-05
28 *1476:A *426:26 7.41038e-05
29 *1478:A *426:26 7.39223e-05
30 *1481:A *426:26 2.10152e-05
31 *1482:A *426:26 0.000122435
32 *1581:A *426:26 2.98989e-05
33 *1584:A *426:26 6.47467e-05
34 *293:12 *426:26 6.72196e-05
35 *303:51 *426:26 0.000285429
36 *403:26 *1253:A1 0.000107444
37 *403:86 *1260:A0 1.8498e-05
38 *403:86 *426:26 1.82167e-05
39 *425:14 *426:26 1.56428e-05
*RES
1 *1467:X *426:26 24.47 
2 *426:26 *1260:A0 3.355 
3 *426:26 *1253:A1 19.67 
*END

*D_NET *427 0.0107166
*CONN
*I *1261:A0 I *D sky130_fd_sc_hd__mux4_1
*I *1252:A1 I *D sky130_fd_sc_hd__mux4_1
*I *1468:X O *D sky130_fd_sc_hd__buf_1
*CAP
1 *1261:A0 0.00194351
2 *1252:A1 0.000552653
3 *1468:X 0.000548639
4 *427:20 0.0030448
5 *1252:A1 *1252:A2 0.00011098
6 *1252:A1 *1605:A 0.000130247
7 *1252:A1 *444:42 2.61023e-05
8 *1261:A0 *1261:A1 5.8825e-05
9 *1261:A0 *1308:D 0.000268036
10 *1261:A0 *1428:A 0.000410001
11 *1261:A0 *445:42 0.000288233
12 *427:20 *494:DIODE 9.95146e-05
13 *427:20 *1308:D 8.49205e-05
14 *427:20 *1604:A 2.05641e-05
15 *427:20 *468:22 8.41703e-06
16 *498:DIODE *427:20 2.3492e-05
17 *1252:A0 *1252:A1 8.35106e-05
18 *1252:S0 *1252:A1 0.000252823
19 *1252:S1 *1252:A1 1.06624e-05
20 *1254:A1 *1261:A0 0.000192165
21 *1256:S1 *1261:A0 0.000266361
22 *1282:D *427:20 0.000241759
23 *1290:D *427:20 0
24 *1311:D *1261:A0 0.000299125
25 *1315:D *1261:A0 2.8185e-05
26 *1319:D *1252:A1 0.000229891
27 *1319:D *427:20 2.27109e-05
28 *1325:A *427:20 0.000176554
29 *1332:A *1252:A1 1.88656e-05
30 *1334:A *1252:A1 0.000248245
31 *1334:A *427:20 3.34879e-05
32 *1347:A *427:20 5.044e-05
33 *1348:A *427:20 0
34 *1390:A *1261:A0 1.46828e-05
35 *1514:A *427:20 2.61912e-05
36 *1549:A *427:20 1.42087e-05
37 *1555:A *1252:A1 3.63701e-06
38 *276:40 *1261:A0 0.000190505
39 *295:48 *427:20 8.41703e-06
40 *309:30 *1261:A0 0.000439695
41 *322:42 *427:20 0.000177482
42 *404:10 *1252:A1 5.08304e-06
43 *404:101 *1261:A0 3.84712e-05
44 *423:32 *427:20 2.4521e-05
*RES
1 *1468:X *427:20 14.22 
2 *427:20 *1252:A1 18.385 
3 *427:20 *1261:A0 34.75 
*END

*D_NET *428 0.0108328
*CONN
*I *1262:A0 I *D sky130_fd_sc_hd__mux4_1
*I *1251:A1 I *D sky130_fd_sc_hd__mux4_1
*I *1470:X O *D sky130_fd_sc_hd__buf_1
*CAP
1 *1262:A0 0
2 *1251:A1 0.000327272
3 *1470:X 0.00122748
4 *428:22 0.00155476
5 *1251:A1 *1277:D 0.000441044
6 *1251:A1 *1427:A 4.66108e-05
7 *1251:A1 *446:46 5.14451e-05
8 *1251:A1 *465:57 8.41527e-05
9 *428:22 *1274:A0 0.00241984
10 *428:22 *440:18 0.000113005
11 *428:22 *446:30 4.82919e-05
12 *428:22 *450:16 0.000696865
13 *428:22 *481:24 0.000848422
14 N4BEG[10] *428:22 0.000362431
15 N4BEG[11] *428:22 0.000258944
16 NN4BEG[14] *428:22 0.00045462
17 *1248:B *428:22 7.10578e-05
18 *1291:D *1251:A1 1.08758e-05
19 *1314:D *1251:A1 5.38986e-06
20 *1355:A *1251:A1 4.82919e-05
21 *1391:A *1251:A1 7.90657e-06
22 *1470:A *428:22 2.11084e-05
23 *1473:A *428:22 0.000165469
24 *1544:A *1251:A1 0.000392146
25 *1548:A *428:22 0.000136184
26 *1556:A *428:22 2.8185e-05
27 *1588:A *428:22 0.000230435
28 *295:48 *428:22 0.000166694
29 *400:10 *1251:A1 2.08979e-05
30 *406:12 *428:22 2.03356e-05
31 *408:18 *428:22 3.83194e-05
32 *411:30 *1251:A1 0.000235745
33 *425:14 *428:22 0.00029854
*RES
1 *1470:X *428:22 47.775 
2 *428:22 *1251:A1 14.57 
3 *428:22 *1262:A0 1.6 
*END

*D_NET *429 0.00768499
*CONN
*I *1258:A1 I *D sky130_fd_sc_hd__mux4_2
*I *1263:A0 I *D sky130_fd_sc_hd__mux4_1
*I *1471:X O *D sky130_fd_sc_hd__buf_1
*CAP
1 *1258:A1 0.000784472
2 *1263:A0 0
3 *1471:X 0.000823057
4 *429:22 0.00160753
5 *1258:A1 *1254:A3 0.000561873
6 *1258:A1 *1258:A0 4.82919e-05
7 *1258:A1 *1258:A3 2.97872e-06
8 *1258:A1 *451:16 0
9 *1258:A1 *474:18 4.29792e-05
10 *429:22 *1265:A2 0
11 *429:22 *1308:D 0.000496272
12 *429:22 *1338:A 2.77924e-05
13 *429:22 *446:22 0.000171631
14 *429:22 *450:16 4.77719e-05
15 *429:22 *456:36 6.03468e-05
16 *429:22 *460:34 0.000173099
17 *429:22 *460:76 4.82863e-05
18 *429:22 *466:28 9.94248e-05
19 *429:22 *474:18 0.000272183
20 *1267:S1 *1258:A1 2.09024e-05
21 *1269:S0 *429:22 5.93638e-05
22 *1273:S0 *1258:A1 8.43862e-05
23 *1337:A *1258:A1 7.23961e-06
24 *1382:A *1258:A1 1.00941e-05
25 *1390:A *429:22 1.67799e-05
26 *1398:A *429:22 7.62511e-05
27 *1435:A *429:22 0.000161676
28 *1462:A *429:22 4.66474e-05
29 *1472:A *429:22 4.82919e-05
30 *1487:A *429:22 4.82863e-05
31 *1489:A *429:22 0.000415591
32 *1492:A *429:22 0.000118081
33 *1572:A *429:22 9.21931e-05
34 *1575:A *429:22 4.66474e-05
35 *1580:A *1258:A1 0.000129772
36 *1580:A *429:22 1.81185e-05
37 *261:36 *1258:A1 2.53191e-06
38 *297:44 *1258:A1 6.65964e-05
39 *306:30 *1258:A1 0.000167089
40 *307:30 *1258:A1 4.84334e-05
41 *404:92 *1258:A1 7.44754e-05
42 *414:26 *1258:A1 0.000650369
43 *421:20 *1258:A1 7.18452e-06
*RES
1 *1471:X *429:22 27.37 
2 *429:22 *1263:A0 3.6 
3 *429:22 *1258:A1 20.82 
*END

*D_NET *430 0.00843759
*CONN
*I *1264:A0 I *D sky130_fd_sc_hd__mux4_1
*I *1257:A1 I *D sky130_fd_sc_hd__mux4_1
*I *1472:X O *D sky130_fd_sc_hd__buf_1
*CAP
1 *1264:A0 0
2 *1257:A1 0.000552914
3 *1472:X 0.00180205
4 *430:28 0.00235496
5 *1257:A1 *1257:A0 4.89295e-05
6 *1257:A1 *1260:A1 0.00030736
7 *1257:A1 *444:64 9.64855e-05
8 *1257:A1 *448:52 4.55864e-06
9 *430:28 *434:24 1.45854e-05
10 *430:28 *435:18 0
11 *430:28 *436:42 0.000120701
12 *430:28 *456:36 8.99673e-05
13 *430:28 *456:54 8.53113e-06
14 *430:28 *459:30 0.000406535
15 *430:28 *463:40 0.000123399
16 NN4BEG[15] *430:28 7.93043e-05
17 *1253:A0 *1257:A1 1.453e-05
18 *1264:S0 *1257:A1 0.000154977
19 *1264:S0 *430:28 5.74791e-05
20 *1465:A *430:28 1.30972e-05
21 *1484:A *430:28 0.00017074
22 *1567:A *1257:A1 2.75368e-05
23 *1575:A *430:28 2.53366e-05
24 *1581:A *430:28 2.55475e-05
25 *1582:A *430:28 0.000163091
26 *1583:A *430:28 0.000109786
27 *1587:A *1257:A1 5.00879e-05
28 *1587:A *430:28 6.33103e-05
29 *1590:A *1257:A1 0
30 *1593:A *1257:A1 0.000460201
31 *325:40 *1257:A1 8.41307e-05
32 *347:46 *430:28 2.08064e-05
33 *358:40 *1257:A1 8.98551e-05
34 *403:86 *1257:A1 2.21463e-05
35 *423:32 *430:28 0.000874652
*RES
1 *1472:X *430:28 35.085 
2 *430:28 *1257:A1 21.51 
3 *430:28 *1264:A0 1.6 
*END

*D_NET *431 0.00930203
*CONN
*I *1265:A0 I *D sky130_fd_sc_hd__mux4_1
*I *1256:A1 I *D sky130_fd_sc_hd__mux4_1
*I *1473:X O *D sky130_fd_sc_hd__buf_1
*CAP
1 *1265:A0 0.000917753
2 *1256:A1 0.001069
3 *1473:X 0.000262487
4 *431:10 0.00224924
5 *1256:A1 *1256:A0 1.79483e-05
6 *1256:A1 *1416:A 9.49631e-05
7 *1256:A1 *1619:A 2.90597e-05
8 *1256:A1 *444:42 0.000284227
9 *1256:A1 *460:34 2.83195e-05
10 *1256:A1 *484:48 0.000351852
11 *1265:A0 *1265:A2 7.80093e-05
12 *1265:A0 *1420:A 9.12424e-05
13 *1265:A0 *467:65 0
14 *431:10 *1618:A 0.000104286
15 *431:10 *436:42 0.000199922
16 *431:10 *444:42 9.50015e-05
17 *1256:S1 *1256:A1 0.000114746
18 *1269:S0 *1265:A0 0.000649603
19 *1282:D *1256:A1 0.000226909
20 *1285:D *1256:A1 4.04634e-05
21 *1286:D *1256:A1 0.000353056
22 *1290:D *1256:A1 9.50015e-05
23 *1337:A *1265:A0 1.91597e-05
24 *1348:A *1256:A1 3.51029e-05
25 *1350:A *1256:A1 7.56599e-05
26 *1384:A *1265:A0 2.26024e-05
27 *1387:A *1256:A1 0.000116048
28 *1387:A *1265:A0 0.000159697
29 *1390:A *1265:A0 2.97522e-05
30 *1403:A *1265:A0 0.000268138
31 *1404:A *1265:A0 0.000192125
32 *1520:A *1256:A1 0.000431499
33 *1575:A *1265:A0 0.00010799
34 *295:48 *1256:A1 8.23652e-06
35 *299:34 *1256:A1 4.82172e-06
36 *299:34 *431:10 7.24439e-06
37 *343:28 *1265:A0 8.35106e-05
38 *343:28 *431:10 5.63183e-05
39 *401:16 *1256:A1 5.82654e-05
40 *401:59 *1256:A1 4.55381e-05
41 *401:74 *1256:A1 6.11277e-05
42 *420:14 *1256:A1 0.000166107
*RES
1 *1473:X *431:10 7.7175 
2 *431:10 *1256:A1 24.0249 
3 *431:10 *1265:A0 19.965 
*END

*D_NET *432 0.0263262
*CONN
*I *1338:A I *D sky130_fd_sc_hd__buf_1
*I *1306:D I *D sky130_fd_sc_hd__dlxtp_1
*I *1480:X O *D sky130_fd_sc_hd__buf_1
*CAP
1 *1338:A 0.000472905
2 *1306:D 0.000562879
3 *1480:X 0.0048883
4 *432:40 0.00592408
5 *1306:D *1273:A0 0.000417882
6 *1306:D *1418:A 0.000610403
7 *1306:D *1420:A 0.000135389
8 *1306:D *1608:A 2.49909e-05
9 *1306:D *447:47 1.83756e-05
10 *1306:D *477:26 0.00015566
11 *1338:A *1258:A0 0.00071553
12 *1338:A *1611:A 7.81994e-05
13 *1338:A *1613:A 7.54285e-05
14 *1338:A *445:24 4.66108e-05
15 *1338:A *474:18 1.88656e-05
16 *432:40 *1258:A0 0.000149459
17 *432:40 *1266:A0 0.00170661
18 *432:40 *1272:A3 0.000103065
19 *432:40 *1407:A 5.79676e-05
20 *432:40 *1415:A 4.49137e-05
21 *432:40 *1418:A 0.000156402
22 *432:40 *444:64 0.000120769
23 *432:40 *459:83 0.000313855
24 *432:40 *477:26 0.00123072
25 *1253:A0 *432:40 5.63183e-05
26 *1263:S0 *1306:D 0.000324886
27 *1265:S0 *1306:D 0.000140061
28 *1271:S0 *432:40 0.000649735
29 *1316:D *432:40 0.00028256
30 *1328:A *432:40 0.000179976
31 *1332:A *432:40 5.01852e-05
32 *1357:A *432:40 0.000262019
33 *1398:A *1338:A 6.03468e-05
34 *1435:A *1338:A 4.66108e-05
35 *1458:A *432:40 0
36 *1510:A *432:40 0
37 *1555:A *432:40 0.000943348
38 *1560:A *432:40 0.00192183
39 *1577:A *1338:A 0.000268322
40 *1577:A *432:40 2.50323e-05
41 *1581:A *432:40 0.000154731
42 *358:55 *432:40 0.00105059
43 *400:22 *432:40 8.29922e-05
44 *400:53 *432:40 0.000119575
45 *410:14 *432:40 0.000166306
46 *417:24 *432:40 0.001472
47 *418:22 *432:40 7.48934e-06
48 *421:10 *432:40 4.18603e-06
49 *429:22 *1338:A 2.77924e-05
*RES
1 *1480:X *432:40 31.2291 
2 *432:40 *1306:D 11.3819 
3 *432:40 *1338:A 7.33403 
*END

*D_NET *433 0.018048
*CONN
*I *1255:A1 I *D sky130_fd_sc_hd__mux4_1
*I *1266:A0 I *D sky130_fd_sc_hd__mux4_1
*I *1474:X O *D sky130_fd_sc_hd__buf_1
*CAP
1 *1255:A1 0.000150642
2 *1266:A0 0.00206021
3 *1474:X 0.00207181
4 *433:34 0.00428266
5 *1266:A0 *1276:D 0.000101704
6 *433:34 *1276:D 0.000317373
7 *433:34 *1611:A 0.000317399
8 *433:34 *1613:A 0.000178619
9 *433:34 *1618:A 1.61831e-05
10 *433:34 *436:42 0.000153732
11 *433:34 *448:52 0.000359841
12 *433:34 *454:45 0.00018236
13 *433:34 *456:66 0.000147189
14 *433:34 *465:57 0.000440236
15 *433:34 *477:26 3.82125e-06
16 *433:34 *484:48 5.99333e-05
17 *1250:A2 *1266:A0 0.000100354
18 *1250:A2 *433:34 0.000736918
19 *1312:D *433:34 0.000641461
20 *1343:A *433:34 0.000111721
21 *1462:A *433:34 1.88656e-05
22 *1546:A *1266:A0 0.000207675
23 *1549:A *433:34 0.000349503
24 *1567:A *433:34 1.08879e-05
25 *1575:A *433:34 0.000101975
26 *295:48 *433:34 0.000130077
27 *325:26 *433:34 6.0745e-05
28 *336:57 *433:34 0.00097645
29 *347:46 *433:34 0.000176975
30 *358:40 *433:34 0.00024495
31 *400:22 *1266:A0 0.00059215
32 *408:24 *433:34 0.00013487
33 *413:26 *1255:A1 5.55284e-05
34 *417:24 *1266:A0 0.000209503
35 *418:22 *1266:A0 0.000508871
36 *420:14 *433:34 0.000128174
37 *432:40 *1266:A0 0.00170661
*RES
1 *1474:X *433:34 22.5631 
2 *433:34 *1266:A0 13.1528 
3 *433:34 *1255:A1 5.79 
*END

*D_NET *434 0.0198075
*CONN
*I *1267:A0 I *D sky130_fd_sc_hd__mux4_1
*I *1258:A0 I *D sky130_fd_sc_hd__mux4_2
*I *1475:X O *D sky130_fd_sc_hd__buf_1
*CAP
1 *1267:A0 0.00136657
2 *1258:A0 0.00118318
3 *1475:X 0.00155165
4 *434:24 0.00410141
5 *1258:A0 *442:30 0
6 *1258:A0 *457:26 7.27932e-05
7 *1267:A0 *1259:A3 1.90973e-05
8 *1267:A0 *1613:A 0.000965154
9 *1267:A0 *1618:A 0.00121044
10 *1267:A0 *442:90 9.75691e-05
11 *1267:A0 *456:36 0.00136448
12 *1267:A0 *479:38 5.69238e-05
13 *434:24 *1271:A0 0.00154554
14 *434:24 *1308:D 3.143e-05
15 *434:24 *1618:A 0.000531854
16 *434:24 *448:52 0.00130012
17 *434:24 *456:36 7.81994e-05
18 *434:24 *458:26 2.16821e-05
19 FrameStrobe_O[17] *1267:A0 2.02787e-05
20 *1258:A1 *1258:A0 4.82919e-05
21 *1263:S0 *1258:A0 0.000136337
22 *1271:S0 *1258:A0 0.000532607
23 *1273:S0 *1258:A0 4.66108e-05
24 *1285:D *434:24 0.000469658
25 *1294:D *1258:A0 4.2145e-05
26 *1338:A *1258:A0 0.00071553
27 *1347:A *434:24 8.42316e-05
28 *1349:A *434:24 1.88602e-05
29 *1514:A *1267:A0 0.000737214
30 *1526:A *1267:A0 0
31 *1527:A *1267:A0 5.03626e-05
32 *1529:A *1267:A0 3.01317e-05
33 *1539:A *1267:A0 0.000229542
34 *1566:A *1258:A0 7.56599e-05
35 *1577:A *1258:A0 1.55612e-05
36 *1581:A *434:24 1.79189e-05
37 *295:48 *1267:A0 0.000220253
38 *295:48 *434:24 0.000512505
39 *347:46 *434:24 7.9642e-06
40 *369:41 *434:24 5.63198e-05
41 *414:26 *1258:A0 7.73312e-05
42 *430:28 *434:24 1.45854e-05
43 *432:40 *1258:A0 0.000149459
*RES
1 *1475:X *434:24 9.6495 
2 *434:24 *1258:A0 9.6673 
3 *434:24 *1267:A0 11.7022 
*END

*D_NET *435 0.00579776
*CONN
*I *1268:A0 I *D sky130_fd_sc_hd__mux4_1
*I *1257:A0 I *D sky130_fd_sc_hd__mux4_1
*I *1476:X O *D sky130_fd_sc_hd__buf_1
*CAP
1 *1268:A0 0.000545488
2 *1257:A0 0.000343881
3 *1476:X 0.000545358
4 *435:18 0.00143473
5 *1257:A0 *1419:A 3.9232e-05
6 *1268:A0 *1268:A3 1.61831e-05
7 *1268:A0 *1339:A 4.9449e-05
8 *1268:A0 *1418:A 0.000192125
9 *1268:A0 *444:42 8.35106e-05
10 *1268:A0 *444:64 0.000219932
11 *435:18 *1260:A2 0.000116965
12 *435:18 *1419:A 6.95177e-05
13 *1257:A1 *1257:A0 4.89295e-05
14 *1260:S1 *435:18 9.29869e-05
15 *1272:S0 *1257:A0 0.000343456
16 *1273:S1 *1268:A0 6.5172e-05
17 *1280:D *1257:A0 3.64998e-06
18 *1280:D *1268:A0 5.12248e-05
19 *1284:GATE *1268:A0 0.000170624
20 *1355:A *1257:A0 5.43477e-05
21 *1357:A *435:18 0.000123598
22 *1382:A *1268:A0 9.39617e-05
23 *1395:A *1268:A0 0.00014506
24 *1581:A *435:18 0.000171365
25 *292:43 *435:18 7.2891e-06
26 *358:40 *1257:A0 0.000325592
27 *400:61 *435:18 4.32569e-05
28 *403:10 *435:18 0
29 *403:26 *435:18 1.87725e-05
30 *407:48 *435:18 0.000349499
31 *426:26 *435:18 3.26076e-05
32 *430:28 *435:18 0
*RES
1 *1476:X *435:18 17.015 
2 *435:18 *1257:A0 8.395 
3 *435:18 *1268:A0 15.41 
*END

*D_NET *436 0.0162904
*CONN
*I *1269:A0 I *D sky130_fd_sc_hd__mux4_1
*I *1256:A0 I *D sky130_fd_sc_hd__mux4_1
*I *1477:X O *D sky130_fd_sc_hd__buf_1
*CAP
1 *1269:A0 0.000878972
2 *1256:A0 0.00129971
3 *1477:X 0.0013766
4 *436:42 0.00355529
5 *1256:A0 *444:42 2.05641e-05
6 *1256:A0 *447:10 0
7 *1256:A0 *468:22 0.000235339
8 *1269:A0 *1263:A2 0.000370437
9 *1269:A0 *1263:A3 0.00012324
10 *1269:A0 *1416:A 0.000551751
11 *1269:A0 *462:50 4.75797e-06
12 *1269:A0 *464:10 7.9642e-06
13 *1269:A0 *464:26 0.000109206
14 *1269:A0 *468:22 0.000180905
15 *436:42 *1271:A0 0.000219152
16 *436:42 *1618:A 6.91382e-05
17 *436:42 *444:42 0
18 *436:42 *448:52 9.5799e-06
19 *436:42 *458:26 0.000504958
20 *436:42 *459:30 0.000714622
21 *436:42 *460:34 9.71184e-05
22 *436:42 *461:30 9.75311e-05
23 *1254:A0 *1256:A0 0.000343982
24 *1256:A1 *1256:A0 1.79483e-05
25 *1256:S0 *1256:A0 2.49909e-05
26 *1269:S0 *1256:A0 0
27 *1271:S0 *1256:A0 0
28 *1285:D *436:42 0.000145637
29 *1289:GATE *1256:A0 0
30 *1294:D *1256:A0 0.000541207
31 *1302:D *1256:A0 0
32 *1320:D *1256:A0 1.69186e-05
33 *1326:A *1256:A0 1.88602e-05
34 *1347:A *436:42 0.000384818
35 *1387:A *1256:A0 6.14291e-05
36 *1400:A *1269:A0 0.000110555
37 *1431:A *1256:A0 9.5799e-06
38 *1474:A *436:42 1.90857e-05
39 *1476:A *436:42 8.53113e-06
40 *1477:A *436:42 8.40213e-05
41 *1486:A *436:42 3.98456e-05
42 *1549:A *436:42 0.000143362
43 *1575:A *436:42 0.000565177
44 *1580:A *1256:A0 0.000234181
45 *1580:A *1269:A0 0.000734318
46 *1584:A *436:42 0.000319154
47 *294:32 *1256:A0 1.22875e-05
48 *303:51 *436:42 1.7635e-05
49 *306:30 *1256:A0 0.000105528
50 *309:30 *1256:A0 0.00068945
51 *347:66 *1256:A0 0.000537862
52 *395:12 *1256:A0 0
53 *401:28 *1256:A0 4.66108e-05
54 *419:22 *1256:A0 0.000156197
55 *430:28 *436:42 0.000120701
56 *431:10 *436:42 0.000199922
57 *433:34 *436:42 0.000153732
*RES
1 *1477:X *436:42 26.8847 
2 *436:42 *1256:A0 37.305 
3 *436:42 *1269:A0 22.04 
*END

*D_NET *437 0.0110921
*CONN
*I *1270:A0 I *D sky130_fd_sc_hd__mux4_1
*I *1255:A0 I *D sky130_fd_sc_hd__mux4_1
*I *1478:X O *D sky130_fd_sc_hd__buf_1
*CAP
1 *1270:A0 0.00113765
2 *1255:A0 0.0002879
3 *1478:X 0.00111656
4 *437:28 0.00254211
5 *1270:A0 *1270:A1 0.00015896
6 *1270:A0 *1274:A2 1.10377e-05
7 *437:28 *450:26 7.0723e-05
8 *437:28 *456:54 3.46783e-05
9 *437:28 *458:26 6.32418e-06
10 N4BEG[15] *437:28 2.53191e-06
11 NN4BEG[0] *437:28 1.88904e-05
12 NN4BEG[10] *437:28 0.000123955
13 NN4BEG[11] *437:28 0
14 NN4BEG[13] *437:28 8.40213e-05
15 NN4BEG[1] *437:28 0.0001798
16 NN4BEG[8] *437:28 4.7878e-05
17 NN4BEG[9] *437:28 1.16578e-05
18 *1250:A2 *437:28 0.000111937
19 *1251:S0 *1270:A0 0.000280608
20 *1262:S0 *1255:A0 9.50342e-06
21 *1262:S0 *437:28 0.000174541
22 *1270:S0 *1270:A0 0.000180973
23 *1321:D *1270:A0 1.08758e-05
24 *1321:GATE *1270:A0 0
25 *1381:A *1270:A0 0.000631804
26 *1383:A *1255:A0 0.000606391
27 *1383:A *1270:A0 0.00037426
28 *1383:A *437:28 4.21314e-05
29 *1430:A *1270:A0 0.000297705
30 *1464:A *437:28 0.000195064
31 *1547:A *1270:A0 3.9232e-05
32 *1579:A *437:28 3.09774e-05
33 *1581:A *437:28 0.000157106
34 *1584:A *437:28 0.000272994
35 *1585:A *1255:A0 0.000300832
36 *1590:A *437:28 5.8678e-05
37 *1591:A *437:28 9.53615e-05
38 *1592:A *437:28 0.000403117
39 *1593:A *437:28 8.61608e-05
40 *336:20 *1270:A0 0.00016876
41 *336:57 *1270:A0 6.07575e-06
42 *369:16 *437:28 0.000344939
43 *369:41 *437:28 0.000263876
44 *400:10 *1270:A0 6.57705e-05
45 *408:24 *437:28 0
46 *423:32 *437:28 4.77719e-05
*RES
1 *1478:X *437:28 22.717 
2 *437:28 *1255:A0 11.1 
3 *437:28 *1270:A0 25.26 
*END

*D_NET *438 0.0155989
*CONN
*I *1271:A0 I *D sky130_fd_sc_hd__mux4_1
*I *1479:X O *D sky130_fd_sc_hd__buf_1
*CAP
1 *1271:A0 0.00376431
2 *1479:X 0.00376431
3 *1271:A0 *1271:A1 8.35106e-05
4 *1271:A0 *1272:A0 4.55864e-06
5 *1271:A0 *1604:A 0
6 *1271:A0 *1605:A 1.09082e-05
7 *1271:A0 *458:26 0.000794942
8 *1271:A0 *466:28 0.000950927
9 *1271:A0 *481:24 3.16057e-06
10 FrameStrobe_O[7] *1271:A0 5.18735e-06
11 *1271:S0 *1271:A0 4.49232e-05
12 *1347:A *1271:A0 0.000397266
13 *1359:A *1271:A0 3.72952e-05
14 *1369:A *1271:A0 0
15 *1370:A *1271:A0 4.66108e-05
16 *1477:A *1271:A0 2.05571e-05
17 *1539:A *1271:A0 0.00143617
18 *1594:A *1271:A0 9.47267e-06
19 *295:48 *1271:A0 0.0023506
20 *343:28 *1271:A0 0.000109535
21 *434:24 *1271:A0 0.00154554
22 *436:42 *1271:A0 0.000219152
*RES
1 *1479:X *1271:A0 21.0747 
*END

*D_NET *439 0.00572569
*CONN
*I *1272:A0 I *D sky130_fd_sc_hd__mux4_1
*I *1481:X O *D sky130_fd_sc_hd__clkbuf_1
*CAP
1 *1272:A0 0.00152964
2 *1481:X 0.00152964
3 *1272:A0 *1272:A1 6.29385e-06
4 *1272:A0 *1308:D 2.68568e-05
5 *1272:A0 *1418:A 9.52541e-05
6 *1272:A0 *1609:A 6.12805e-05
7 *1272:A0 *1616:A 2.50235e-05
8 *1272:A0 *459:83 0.000157992
9 *1272:A0 *463:58 1.98177e-05
10 *1272:A0 *477:26 0.000224327
11 *1272:A0 *481:24 8.77864e-05
12 *1253:S0 *1272:A0 9.13448e-06
13 *1271:A0 *1272:A0 4.55864e-06
14 *1288:GATE *1272:A0 2.66989e-05
15 *1327:A *1272:A0 0.000812715
16 *1358:A *1272:A0 0.000139356
17 *1382:A *1272:A0 0.000259271
18 *1477:A *1272:A0 1.9239e-05
19 *263:28 *1272:A0 0.000377313
20 *300:10 *1272:A0 4.59206e-05
21 *336:57 *1272:A0 0.000204803
22 *397:14 *1272:A0 7.9642e-06
23 *400:53 *1272:A0 9.58678e-06
24 *400:117 *1272:A0 3.65339e-05
25 *406:26 *1272:A0 8.68332e-06
*RES
1 *1481:X *1272:A0 37.78 
*END

*D_NET *440 0.010877
*CONN
*I *1273:A0 I *D sky130_fd_sc_hd__mux4_1
*I *1482:X O *D sky130_fd_sc_hd__clkbuf_1
*CAP
1 *1273:A0 0.00071184
2 *1482:X 0.00102437
3 *440:18 0.00173621
4 *1273:A0 *1271:A1 0.000157928
5 *1273:A0 *1420:A 0.000125744
6 *1273:A0 *462:14 0.000302365
7 *1273:A0 *462:18 6.59891e-05
8 *440:18 *1274:A0 8.23457e-05
9 *440:18 *453:20 5.69898e-06
10 *440:18 *456:36 0.00189088
11 *440:18 *463:28 0.000367912
12 *440:18 *463:40 7.9642e-06
13 *1265:S0 *1273:A0 8.53051e-05
14 *1265:S1 *1273:A0 2.64352e-05
15 *1306:D *1273:A0 0.000417882
16 *1329:A *1273:A0 0.000469171
17 *1399:A *440:18 0.000349763
18 *1481:A *440:18 7.75037e-05
19 *1482:A *440:18 0.000128011
20 *1569:A *1273:A0 9.26482e-05
21 *1569:A *440:18 3.55883e-05
22 *1570:A *440:18 0.000312305
23 *276:40 *1273:A0 3.64998e-06
24 *425:14 *440:18 0.00142117
25 *425:49 *440:18 0.000865363
26 *428:22 *440:18 0.000113005
*RES
1 *1482:X *440:18 39.235 
2 *440:18 *1273:A0 19.71 
*END

*D_NET *441 0.00833969
*CONN
*I *1274:A0 I *D sky130_fd_sc_hd__mux4_1
*I *1483:X O *D sky130_fd_sc_hd__clkbuf_1
*CAP
1 *1274:A0 0.00139547
2 *1483:X 0.00139547
3 *1274:A0 *453:42 8.30115e-05
4 *1274:A0 *456:36 1.43191e-05
5 *1274:A0 *456:54 7.00053e-05
6 *1274:A0 *463:40 0.000888693
7 N4BEG[6] *1274:A0 0.000332886
8 N4BEG[7] *1274:A0 0.00015358
9 N4BEG[8] *1274:A0 3.07379e-05
10 *1262:S0 *1274:A0 0.000138439
11 *1482:A *1274:A0 0.000149187
12 *1483:A *1274:A0 0.000143356
13 *1544:A *1274:A0 0.000225285
14 *1545:A *1274:A0 1.0505e-05
15 *1548:A *1274:A0 4.79712e-05
16 *1563:A *1274:A0 9.49779e-05
17 *1564:A *1274:A0 1.96981e-05
18 *1588:A *1274:A0 0.000157156
19 *248:18 *1274:A0 0.000233116
20 *373:26 *1274:A0 0.000157687
21 *423:32 *1274:A0 8.39495e-05
22 *426:26 *1274:A0 1.19928e-05
23 *428:22 *1274:A0 0.00241984
24 *440:18 *1274:A0 8.23457e-05
*RES
1 *1483:X *1274:A0 48.505 
*END

*D_NET *442 0.0169935
*CONN
*I *1259:A1 I *D sky130_fd_sc_hd__mux4_1
*I *1267:A1 I *D sky130_fd_sc_hd__mux4_1
*I *1412:A I *D sky130_fd_sc_hd__buf_1
*I *1258:A2 I *D sky130_fd_sc_hd__mux4_2
*I *1484:X O *D sky130_fd_sc_hd__buf_1
*CAP
1 *1259:A1 2.65816e-05
2 *1267:A1 0
3 *1412:A 0
4 *1258:A2 0.000544461
5 *1484:X 0.00182699
6 *442:90 0.000782747
7 *442:57 0.00180362
8 *442:30 0.0034189
9 *1258:A2 *457:26 0.000498215
10 *442:30 *1308:D 5.87532e-05
11 *442:30 *1604:A 0.00011545
12 *442:30 *445:24 9.47972e-06
13 *442:30 *448:52 0.000268146
14 *442:30 *450:16 0.00015639
15 *442:30 *455:65 0.000320222
16 *442:30 *457:26 0.000476548
17 *442:30 *461:30 2.14725e-05
18 *442:30 *481:28 0.000851892
19 *442:57 *1258:A3 5.18735e-06
20 *442:57 *477:26 0.00199675
21 *442:90 *1259:A3 0.000225705
22 *442:90 *1408:A 0.000393073
23 *442:90 *1618:A 9.97985e-05
24 *1258:A0 *442:30 0
25 *1258:S1 *1258:A2 5.75434e-05
26 *1259:S1 *442:90 6.55011e-05
27 *1265:S1 *1258:A2 2.70428e-05
28 *1267:A0 *442:90 9.75691e-05
29 *1267:S1 *442:57 0.000162959
30 *1271:S0 *1258:A2 7.5434e-05
31 *1294:D *1258:A2 7.87237e-05
32 *1302:D *442:57 0.000520677
33 *1316:D *442:57 0.00010915
34 *1485:A *442:30 0
35 *1488:A *442:30 0.000169623
36 *1492:A *442:30 0.000225317
37 *1501:A *442:30 4.10092e-05
38 *1503:A *442:30 3.86814e-05
39 *1523:A *442:57 0.000189256
40 *1524:A *442:57 0.000187906
41 *1527:A *442:90 4.99496e-05
42 *1570:A *442:30 0.000224522
43 *1575:A *442:30 0.000232411
44 *1577:A *442:30 0
45 *269:36 *442:90 5.4112e-05
46 *284:24 *1259:A1 1.91597e-05
47 *284:24 *442:90 5.63748e-05
48 *294:38 *442:30 0.000353582
49 *295:48 *442:30 5.2999e-05
50 *361:12 *442:90 3.64998e-06
*RES
1 *1484:X *442:30 27.9641 
2 *442:30 *1258:A2 6.62563 
3 *442:30 *442:57 8.42777 
4 *442:57 *1412:A 1.6 
5 *442:57 *442:90 22.0245 
6 *442:90 *1267:A1 1.6 
7 *442:90 *1259:A1 2.05 
*END

*D_NET *443 0.0298456
*CONN
*I *1275:D I *D sky130_fd_sc_hd__dlxtp_1
*I *1339:A I *D sky130_fd_sc_hd__buf_1
*I *1307:D I *D sky130_fd_sc_hd__dlxtp_1
*I *1491:X O *D sky130_fd_sc_hd__dlymetal6s2s_1
*CAP
1 *1275:D 1.96913e-05
2 *1339:A 0.000796521
3 *1307:D 0.000926732
4 *1491:X 0.00182781
5 *443:42 0.00199726
6 *443:34 0.00248509
7 *443:16 0.00246555
8 *1307:D *1263:A2 0.00023745
9 *1307:D *447:47 0.000120065
10 *1339:A *1425:A 2.05571e-05
11 *1339:A *1616:A 0.000107608
12 *1339:A *444:64 7.27402e-06
13 *1339:A *461:53 0.000112987
14 *443:16 *1407:A 0.00078166
15 *443:16 *1409:A 0.000574658
16 *443:16 *1415:A 0.000231585
17 *443:34 *1276:D 0.000201257
18 *443:34 *1603:A 8.73147e-06
19 *498:DIODE *443:42 0.00013827
20 *1250:A2 *443:34 0.000338771
21 *1257:S0 *1339:A 5.05521e-05
22 *1258:S0 *1307:D 0.000202435
23 *1266:S0 *443:16 0.000527447
24 *1268:A0 *1339:A 4.9449e-05
25 *1274:S1 *443:16 9.27255e-06
26 *1284:GATE *1339:A 0.000170624
27 *1288:GATE *1339:A 9.32397e-06
28 *1298:D *1307:D 0.00028362
29 *1301:GATE *1307:D 0.00013892
30 *1308:GATE *1307:D 0.000120655
31 *1345:A *1339:A 2.84757e-05
32 *1362:A *1307:D 5.22017e-05
33 *1363:A *1307:D 0.000715156
34 *1363:A *443:42 0
35 *1364:A *443:42 0.000547771
36 *1367:A *443:42 0.000389606
37 *1368:A *1307:D 0
38 *1395:A *1339:A 0.000635618
39 *1553:A *443:34 4.66474e-05
40 *1555:A *443:16 0
41 *1581:A *1339:A 0.00131342
42 *1585:A *443:34 0
43 *1586:A *443:16 0
44 *1587:A *1339:A 8.65961e-05
45 *1592:A *443:16 0.000195263
46 *1600:A *443:34 0.000109786
47 *1624:A *1307:D 0.000414254
48 *67:13 *443:34 0.000217523
49 *80:11 *443:42 0
50 *291:22 *443:34 0.000160171
51 *300:10 *443:42 0
52 *300:12 *443:42 0.00327325
53 *304:26 *1307:D 0.000118666
54 *347:66 *1339:A 5.99389e-05
55 *347:66 *443:34 8.65905e-05
56 *351:24 *1307:D 0.000216388
57 *364:14 *443:34 0.00146561
58 *373:26 *443:16 0.000297494
59 *393:16 *443:42 0
60 *395:14 *443:42 0
61 *397:14 *1339:A 0
62 *397:14 *443:42 0
63 *402:71 *1275:D 1.56428e-05
64 *402:71 *443:16 0.000131946
65 *404:128 *1307:D 9.02036e-05
66 *412:18 *443:16 0.000972529
67 *412:68 *443:16 0.000153816
68 *412:68 *443:34 0
69 *413:20 *443:16 0.000198344
70 *415:16 *443:34 0.00136957
71 *416:28 *1275:D 1.91597e-05
72 *416:28 *443:16 0.00100155
73 *419:14 *443:42 0.000316387
74 *421:12 *443:42 0.000184234
*RES
1 *1491:X *443:16 49.175 
2 *443:16 *443:34 28.095 
3 *443:34 *443:42 40.465 
4 *443:42 *1307:D 26.775 
5 *443:34 *1339:A 23.37 
6 *443:16 *1275:D 2.05 
*END

*D_NET *444 0.0136549
*CONN
*I *1268:A1 I *D sky130_fd_sc_hd__mux4_1
*I *1411:A I *D sky130_fd_sc_hd__clkbuf_1
*I *1260:A1 I *D sky130_fd_sc_hd__mux4_1
*I *1257:A2 I *D sky130_fd_sc_hd__mux4_1
*I *1485:X O *D sky130_fd_sc_hd__clkbuf_1
*CAP
1 *1268:A1 0
2 *1411:A 0
3 *1260:A1 0.000226662
4 *1257:A2 0.000203755
5 *1485:X 0.00180274
6 *444:66 0.000452048
7 *444:64 0.00106991
8 *444:42 0.00285102
9 *1257:A2 *1427:A 2.16105e-05
10 *444:42 *494:DIODE 0.000572405
11 *444:42 *1252:A2 6.39926e-05
12 *444:42 *1252:A3 4.41506e-05
13 *444:42 *1268:A3 8.97077e-05
14 *444:42 *1605:A 3.45596e-05
15 *444:42 *1616:A 9.2372e-05
16 *444:42 *1619:A 0.000184973
17 *444:64 *1422:A 0.000348919
18 *444:64 *459:55 7.5434e-05
19 *444:64 *459:83 5.1282e-05
20 *444:64 *463:56 7.54285e-05
21 Co *1260:A1 2.49909e-05
22 *1252:A0 *444:42 0.00105217
23 *1252:A1 *444:42 2.61023e-05
24 *1253:A0 *444:64 0.000255899
25 *1253:S0 *444:64 0
26 *1256:A0 *444:42 2.05641e-05
27 *1256:A1 *444:42 0.000284227
28 *1256:S1 *444:42 1.7635e-05
29 *1257:A1 *1260:A1 0.00030736
30 *1257:A1 *444:64 9.64855e-05
31 *1260:A0 *1260:A1 1.85674e-05
32 *1268:A0 *444:42 8.35106e-05
33 *1268:A0 *444:64 0.000219932
34 *1272:S0 *444:64 0
35 *1273:S1 *444:42 3.61977e-05
36 *1286:D *444:42 3.64998e-06
37 *1299:D *1257:A2 0.000147889
38 *1313:GATE *1257:A2 0.00018955
39 *1327:A *444:42 9.60582e-07
40 *1332:A *444:64 5.47235e-05
41 *1339:A *444:64 7.27402e-06
42 *1382:A *444:64 0.000239274
43 *1387:A *444:42 1.97442e-05
44 *1486:A *444:42 1.88656e-05
45 *1567:A *1260:A1 2.10582e-05
46 *1582:A *444:64 2.43191e-05
47 *1589:A *1257:A2 0.000150464
48 *1590:A *1260:A1 0
49 *300:10 *444:42 0.000127543
50 *303:24 *1260:A1 7.59785e-05
51 *325:40 *1257:A2 0.000481935
52 *325:40 *444:66 7.20899e-05
53 *347:58 *444:64 7.54285e-05
54 *380:26 *1257:A2 0.000214833
55 *380:26 *444:66 8.23457e-05
56 *397:14 *444:42 0.000128773
57 *403:86 *1260:A1 5.22955e-05
58 *407:48 *444:42 0.000133576
59 *415:22 *444:64 0.00034675
60 *418:22 *444:64 2.8053e-05
61 *420:30 *444:42 2.606e-05
62 *424:32 *1257:A2 1.10377e-05
63 *431:10 *444:42 9.50015e-05
64 *432:40 *444:64 0.000120769
65 *436:42 *444:42 0
*RES
1 *1485:X *444:42 29.7651 
2 *444:42 *444:64 15.917 
3 *444:64 *444:66 0.795 
4 *444:66 *1257:A2 12.2788 
5 *444:66 *1260:A1 10.34 
6 *444:64 *1411:A 1.6 
7 *444:42 *1268:A1 1.6 
*END

*D_NET *445 0.0130864
*CONN
*I *1269:A1 I *D sky130_fd_sc_hd__mux4_1
*I *1261:A1 I *D sky130_fd_sc_hd__mux4_1
*I *1410:A I *D sky130_fd_sc_hd__buf_1
*I *1256:A2 I *D sky130_fd_sc_hd__mux4_1
*I *1486:X O *D sky130_fd_sc_hd__buf_1
*CAP
1 *1269:A1 0
2 *1261:A1 4.02479e-05
3 *1410:A 0
4 *1256:A2 0.00164815
5 *1486:X 0.0012003
6 *445:42 0.00209531
7 *445:32 0.000788819
8 *445:24 0.00150171
9 *1256:A2 *487:DIODE 0.00011504
10 *1256:A2 *1256:A3 6.26955e-05
11 *1256:A2 *1273:A2 0.000520194
12 *1256:A2 *1420:A 3.68007e-05
13 *1256:A2 *464:42 5.82364e-05
14 *445:24 *1265:A2 9.43764e-06
15 *445:24 *448:52 1.31227e-05
16 *445:24 *451:64 6.68173e-06
17 *445:24 *453:20 0.000270415
18 *445:24 *464:10 0.000113817
19 *445:24 *468:22 2.45987e-06
20 *445:32 *464:10 2.19913e-05
21 *445:32 *464:26 0.000326079
22 *445:42 *1608:A 6.58339e-05
23 *445:42 *447:47 0.000157555
24 *1261:A0 *1261:A1 5.8825e-05
25 *1261:A0 *445:42 0.000288233
26 *1265:S1 *1256:A2 1.79877e-05
27 *1265:S1 *445:42 0.000471306
28 *1267:S1 *1256:A2 0.000228128
29 *1273:S0 *1256:A2 1.10377e-05
30 *1273:S1 *1256:A2 1.35862e-05
31 *1290:D *1256:A2 0.000185234
32 *1290:GATE *1256:A2 4.89295e-05
33 *1306:GATE *445:42 0.000149094
34 *1315:D *1261:A1 8.23457e-05
35 *1315:D *445:32 2.85364e-05
36 *1338:A *445:24 4.66108e-05
37 *1387:A *1256:A2 0.000515525
38 *1398:A *445:32 1.7635e-05
39 *1401:A *445:24 0.000158072
40 *1402:A *445:24 4.1527e-05
41 *1435:A *445:24 0.000228276
42 *1488:A *445:24 8.64421e-05
43 *1489:A *445:24 5.23262e-05
44 *1566:A *1256:A2 6.1728e-05
45 *1569:A *445:24 5.38577e-05
46 *1569:A *445:32 9.31562e-05
47 *1575:A *445:24 5.83121e-06
48 *67:13 *1256:A2 1.39525e-05
49 *67:38 *1256:A2 4.25999e-05
50 *261:36 *445:24 1.27611e-05
51 *269:36 *1256:A2 3.12433e-05
52 *364:10 *445:32 0.000286916
53 *399:26 *1256:A2 2.3463e-05
54 *401:28 *1256:A2 2.20665e-05
55 *404:101 *445:42 5.83121e-06
56 *404:116 *1261:A1 1.91597e-05
57 *404:116 *445:42 0.000283747
58 *405:10 *445:24 1.52352e-05
59 *405:10 *445:42 0.000118229
60 *405:12 *445:42 0.000202641
61 *442:30 *445:24 9.47972e-06
*RES
1 *1486:X *445:24 20.985 
2 *445:24 *445:32 9.035 
3 *445:32 *445:42 16.39 
4 *445:42 *1256:A2 37.9637 
5 *445:42 *1410:A 1.6 
6 *445:32 *1261:A1 2.74 
7 *445:24 *1269:A1 3.6 
*END

*D_NET *446 0.0227748
*CONN
*I *1255:A2 I *D sky130_fd_sc_hd__mux4_1
*I *1262:A1 I *D sky130_fd_sc_hd__mux4_1
*I *1270:A1 I *D sky130_fd_sc_hd__mux4_1
*I *1409:A I *D sky130_fd_sc_hd__clkbuf_1
*I *1487:X O *D sky130_fd_sc_hd__dlymetal6s2s_1
*CAP
1 *1255:A2 0.000468692
2 *1262:A1 0
3 *1270:A1 3.30173e-05
4 *1409:A 0.000862135
5 *1487:X 0.00122654
6 *446:46 0.00177568
7 *446:30 0.000906697
8 *446:28 0.000750896
9 *446:22 0.00148258
10 *1255:A2 *461:78 0.000168997
11 *1409:A *1270:A2 0.000335065
12 *446:22 *450:16 8.34281e-06
13 *446:22 *453:24 0.000143068
14 *446:22 *453:42 0.00191687
15 *446:22 *461:30 0.000848422
16 *446:22 *463:28 0.000739432
17 *446:22 *466:28 0.000405745
18 *446:46 *1274:A1 7.33639e-05
19 *446:46 *1274:A3 7.45841e-05
20 *446:46 *453:60 0.000735758
21 *446:46 *465:20 0.000693299
22 *446:46 *465:57 6.04344e-05
23 N4BEG[12] *446:22 0.000179566
24 N4BEG[12] *446:28 3.27177e-05
25 N4BEG[14] *446:22 4.88518e-05
26 N4BEG[14] *446:28 0.000123395
27 *489:DIODE *1409:A 0.000255729
28 *1248:B *446:28 3.03775e-05
29 *1248:B *446:30 1.34503e-05
30 *1249:A *1409:A 0
31 *1251:A1 *446:46 5.14451e-05
32 *1251:S1 *1255:A2 0.000129898
33 *1255:S1 *1255:A2 2.76356e-05
34 *1270:A0 *1270:A1 0.00015896
35 *1270:S0 *1270:A1 0.00015896
36 *1379:A *446:28 2.85364e-05
37 *1391:A *1255:A2 0.000352621
38 *1391:A *446:28 0.000182414
39 *1391:A *446:30 4.66108e-05
40 *1391:A *446:46 7.97189e-05
41 *1430:A *1255:A2 1.44839e-05
42 *1462:A *446:22 0.000284157
43 *1472:A *446:22 4.66108e-05
44 *1487:A *446:22 4.66108e-05
45 *1548:A *1255:A2 0.000129539
46 *1548:A *446:28 0
47 *1555:A *1409:A 0
48 *1556:A *1255:A2 0.000617809
49 *1556:A *446:30 1.91597e-05
50 *1560:A *446:46 7.61574e-05
51 *1567:A *446:28 0.000146765
52 *1575:A *446:22 0.000274531
53 *1588:A *446:22 0.000238591
54 *1592:A *446:46 7.89282e-05
55 *357:32 *1409:A 0.00158331
56 *358:40 *446:46 0.000121643
57 *372:22 *1255:A2 4.41506e-05
58 *372:22 *446:28 6.80806e-05
59 *373:26 *1409:A 0.000211951
60 *373:26 *446:46 3.06837e-05
61 *383:20 *1409:A 0.000257403
62 *406:12 *446:22 0.000891056
63 *407:14 *446:22 0.000447419
64 *408:24 *446:28 2.48804e-05
65 *412:18 *1409:A 0.000681511
66 *413:26 *1255:A2 9.3229e-06
67 *422:18 *446:28 2.49909e-05
68 *428:22 *446:30 4.82919e-05
69 *429:22 *446:22 0.000171631
70 *443:16 *1409:A 0.000574658
*RES
1 *1487:X *446:22 47.6575 
2 *446:22 *446:28 7.8875 
3 *446:28 *446:30 0.795 
4 *446:30 *446:46 6.97947 
5 *446:46 *1409:A 32.275 
6 *446:46 *1270:A1 5.085 
7 *446:30 *1262:A1 1.6 
8 *446:28 *1255:A2 21.3037 
*END

*D_NET *447 0.0209024
*CONN
*I *1263:A2 I *D sky130_fd_sc_hd__mux4_1
*I *1408:A I *D sky130_fd_sc_hd__buf_1
*I *1271:A2 I *D sky130_fd_sc_hd__mux4_1
*I *1254:A2 I *D sky130_fd_sc_hd__mux4_1
*I *1488:X O *D sky130_fd_sc_hd__buf_1
*CAP
1 *1263:A2 0.000542151
2 *1408:A 0.000704691
3 *1271:A2 0.000779506
4 *1254:A2 0.000119657
5 *1488:X 0.000550355
6 *447:57 0.00234736
7 *447:47 0.00256641
8 *447:10 0.00183111
9 *1254:A2 *1252:A2 0.000123615
10 *1263:A2 *452:32 0.000380924
11 *1263:A2 *462:50 8.20986e-05
12 *1271:A2 *1608:A 1.71034e-05
13 *1408:A *1613:A 0.000157221
14 *1408:A *484:48 0.00116839
15 *447:10 *460:34 0.000347254
16 *447:47 *1252:A2 0.00014355
17 *447:47 *1414:A 0.000406568
18 *447:47 *1608:A 0.000106068
19 *447:57 *1261:A3 0.000321056
20 *447:57 *1611:A 0.00138867
21 *447:57 *477:26 0.000652771
22 *1254:S1 *1254:A2 6.66948e-05
23 *1256:A0 *447:10 0
24 *1259:S1 *1263:A2 1.73598e-05
25 *1259:S1 *447:47 0.000204864
26 *1269:A0 *1263:A2 0.000370437
27 *1269:S0 *447:10 0.00100838
28 *1271:S0 *447:10 5.74874e-05
29 *1298:D *447:47 0.00028362
30 *1301:GATE *1263:A2 1.453e-05
31 *1302:D *1254:A2 1.79483e-05
32 *1302:D *447:10 3.80278e-05
33 *1306:D *447:47 1.83756e-05
34 *1306:GATE *447:47 6.68411e-05
35 *1307:D *1263:A2 0.00023745
36 *1307:D *447:47 0.000120065
37 *1329:A *1263:A2 4.82919e-05
38 *1388:A *1271:A2 0.000116165
39 *1398:A *1263:A2 0.000263595
40 *1403:A *447:10 1.88889e-05
41 *1498:A *1263:A2 0.00015235
42 *1525:A *1271:A2 0.000375056
43 *1526:A *1271:A2 0.000299837
44 *1526:A *1408:A 0.000206034
45 *1527:A *1271:A2 0
46 *1532:A *1408:A 0
47 *1540:A *1271:A2 8.17241e-05
48 *1541:A *1271:A2 2.42236e-05
49 *1564:A *1408:A 6.96175e-05
50 *1566:A *447:47 3.09774e-05
51 *1569:A *1263:A2 1.56406e-05
52 *1575:A *447:10 4.37173e-06
53 *1584:A *447:10 2.98383e-05
54 *269:36 *1408:A 8.53113e-06
55 *276:40 *1271:A2 9.3229e-06
56 *306:30 *1254:A2 2.24292e-05
57 *306:30 *447:47 9.74799e-05
58 *307:30 *1254:A2 0.000121481
59 *307:30 *447:47 0.000485123
60 *351:24 *447:47 0.000151068
61 *404:55 *1254:A2 9.24451e-06
62 *404:55 *447:10 0.000108201
63 *425:49 *1408:A 0.000343664
64 *442:90 *1408:A 0.000393073
65 *445:42 *447:47 0.000157555
*RES
1 *1488:X *447:10 18.965 
2 *447:10 *1254:A2 8.9375 
3 *447:10 *447:47 25.0325 
4 *447:47 *447:57 3.8804 
5 *447:57 *1271:A2 20.7213 
6 *447:57 *1408:A 25.1125 
7 *447:47 *1263:A2 15.885 
*END

*D_NET *448 0.0168542
*CONN
*I *1264:A2 I *D sky130_fd_sc_hd__mux4_1
*I *1407:A I *D sky130_fd_sc_hd__clkbuf_1
*I *1253:A2 I *D sky130_fd_sc_hd__mux4_1
*I *1272:A2 I *D sky130_fd_sc_hd__mux4_1
*I *1489:X O *D sky130_fd_sc_hd__buf_1
*CAP
1 *1264:A2 0
2 *1407:A 0.000552179
3 *1253:A2 0.000284981
4 *1272:A2 0
5 *1489:X 0.00198572
6 *448:76 0.000372952
7 *448:70 0.00139561
8 *448:52 0.00274117
9 *1407:A *1277:D 1.88904e-05
10 *448:52 *1264:A3 1.42511e-05
11 *448:52 *1308:D 0.000119866
12 *448:52 *1604:A 7.61574e-05
13 *448:52 *1613:A 0.000179941
14 *448:52 *1618:A 2.38557e-05
15 *448:52 *458:26 0.000687997
16 *448:70 *1415:A 4.55864e-06
17 *448:76 *1415:A 1.9488e-05
18 *1253:S0 *1253:A2 0.000281321
19 *1253:S1 *1253:A2 3.75396e-05
20 *1257:A1 *448:52 4.55864e-06
21 *1257:S0 *448:52 6.88221e-05
22 *1257:S0 *448:70 7.72636e-05
23 *1257:S1 *448:70 0.000215317
24 *1264:S1 *1253:A2 0.000111543
25 *1272:S0 *1253:A2 7.9642e-06
26 *1272:S1 *448:70 0
27 *1274:S1 *1407:A 0.000471463
28 *1347:A *448:52 0.000119531
29 *1380:A *1253:A2 0
30 *1391:A *448:70 4.66108e-05
31 *1474:A *448:52 1.7635e-05
32 *1476:A *448:52 4.00257e-05
33 *1477:A *448:52 3.86814e-05
34 *1488:A *448:52 3.74448e-05
35 *1549:A *448:52 0.000318561
36 *1563:A *1407:A 1.60203e-05
37 *1575:A *448:52 8.05167e-05
38 *1582:A *448:52 0.000149459
39 *1585:A *448:70 0.000108958
40 *1587:A *448:52 1.88602e-05
41 *1589:A *1253:A2 5.40146e-05
42 *1589:A *448:70 0.000582304
43 *1589:A *448:76 6.9387e-05
44 *1592:A *1407:A 0.000196045
45 *1593:A *448:52 1.88269e-05
46 *263:28 *1253:A2 7.92538e-05
47 *263:28 *448:76 0.000123432
48 *358:40 *448:70 0.0002394
49 *369:41 *448:52 0.000149201
50 *400:22 *1407:A 0.000659168
51 *400:53 *1407:A 0.000176326
52 *402:65 *448:70 0.000136281
53 *402:65 *448:76 4.04634e-05
54 *406:26 *448:52 2.79017e-05
55 *407:16 *448:70 0.000130756
56 *407:48 *448:70 6.10392e-05
57 *412:43 *1407:A 1.7635e-05
58 *416:34 *448:70 5.11616e-05
59 *418:22 *1407:A 0.000192436
60 *422:18 *448:52 6.98933e-05
61 *422:18 *448:70 0.000121496
62 *426:26 *448:52 0.00012168
63 *432:40 *1407:A 5.79676e-05
64 *433:34 *448:52 0.000359841
65 *434:24 *448:52 0.00130012
66 *436:42 *448:52 9.5799e-06
67 *442:30 *448:52 0.000268146
68 *443:16 *1407:A 0.00078166
69 *445:24 *448:52 1.31227e-05
*RES
1 *1489:X *448:52 28.7611 
2 *448:52 *448:70 18.7437 
3 *448:70 *448:76 4.49 
4 *448:76 *1272:A2 1.6 
5 *448:76 *1253:A2 11.0413 
6 *448:70 *1407:A 13.4441 
7 *448:52 *1264:A2 1.6 
*END

*D_NET *449 0.010697
*CONN
*I *1265:A2 I *D sky130_fd_sc_hd__mux4_1
*I *1406:A I *D sky130_fd_sc_hd__buf_1
*I *1252:A2 I *D sky130_fd_sc_hd__mux4_1
*I *1273:A2 I *D sky130_fd_sc_hd__mux4_1
*I *1490:X O *D sky130_fd_sc_hd__clkbuf_1
*CAP
1 *1265:A2 0.000425038
2 *1406:A 0.000144157
3 *1252:A2 0.000649435
4 *1273:A2 0.000348424
5 *1490:X 0
6 *449:14 0.00111001
7 *449:12 0.000979903
8 *449:4 0.00114863
9 *1252:A2 *487:DIODE 5.56629e-05
10 *1252:A2 *1252:A3 2.76356e-05
11 *1265:A2 *451:16 3.60738e-06
12 *1265:A2 *468:22 0.000374266
13 *1273:A2 *1420:A 0.000115522
14 *449:12 *1308:D 0.000114662
15 *449:12 *468:22 0.000280518
16 *449:14 *1420:A 0
17 *1252:A1 *1252:A2 0.00011098
18 *1254:A0 *449:12 6.2367e-05
19 *1254:A0 *449:14 1.02692e-05
20 *1254:A1 *449:12 0
21 *1254:A2 *1252:A2 0.000123615
22 *1254:S0 *1406:A 0.00026564
23 *1254:S1 *1406:A 0.000127534
24 *1256:A2 *1273:A2 0.000520194
25 *1256:S0 *1273:A2 1.72133e-05
26 *1256:S1 *1252:A2 0.000653484
27 *1256:S1 *1273:A2 2.82846e-05
28 *1256:S1 *449:12 0.000424958
29 *1256:S1 *449:14 0.000162383
30 *1265:A0 *1265:A2 7.80093e-05
31 *1268:S1 *1252:A2 5.23362e-05
32 *1269:S0 *1265:A2 0.000157174
33 *1269:S0 *449:12 2.97872e-06
34 *1286:D *1252:A2 4.77719e-05
35 *1311:D *449:12 1.45232e-05
36 *1435:A *1265:A2 0.000449214
37 *1435:A *449:12 2.8531e-05
38 *1489:A *449:12 7.9642e-06
39 *1490:A *449:12 1.90818e-05
40 *1509:A *1265:A2 8.73147e-06
41 *1572:A *1265:A2 9.11255e-05
42 *1573:A *1265:A2 3.59531e-06
43 *1585:A *1273:A2 0.000107721
44 *261:36 *1265:A2 0.000216455
45 *276:40 *1273:A2 0.000163175
46 *276:40 *449:12 0.000194344
47 *297:44 *449:12 2.3654e-05
48 *306:30 *1252:A2 2.05056e-05
49 *307:30 *1252:A2 0.000488499
50 *367:12 *449:12 2.0247e-05
51 *429:22 *1265:A2 0
52 *444:42 *1252:A2 6.39926e-05
53 *445:24 *1265:A2 9.43764e-06
54 *447:47 *1252:A2 0.00014355
*RES
1 *1490:X *449:4 1.6 
2 *449:4 *449:12 15.5 
3 *449:12 *449:14 2.145 
4 *449:14 *1273:A2 12.2325 
5 *449:14 *1252:A2 22.2138 
6 *449:12 *1406:A 6.93 
7 *449:4 *1265:A2 15.9125 
*END

*D_NET *450 0.0223154
*CONN
*I *1274:A2 I *D sky130_fd_sc_hd__mux4_1
*I *1251:A2 I *D sky130_fd_sc_hd__mux4_1
*I *1266:A2 I *D sky130_fd_sc_hd__mux4_1
*I *1405:A I *D sky130_fd_sc_hd__clkbuf_1
*I *1492:X O *D sky130_fd_sc_hd__dlymetal6s2s_1
*CAP
1 *1274:A2 7.28897e-06
2 *1251:A2 0.000123304
3 *1266:A2 0.000365752
4 *1405:A 0.000532358
5 *1492:X 0.00108032
6 *450:34 0.00133713
7 *450:28 0.000732976
8 *450:26 0.000910854
9 *450:16 0.00181324
10 *1251:A2 *461:78 4.92861e-05
11 *1251:A2 *466:52 4.68176e-05
12 *1251:A2 *466:66 1.25152e-05
13 *1266:A2 *1266:A3 0.000349466
14 *1266:A2 *1417:A 0
15 *1266:A2 *458:40 4.43871e-06
16 *1405:A *1413:A 0.00113489
17 *1405:A *454:14 0.000184925
18 *450:16 *461:30 0.00040234
19 *450:16 *481:24 0.000959979
20 *450:16 *481:28 0.000330483
21 *450:26 *1262:A2 4.92909e-05
22 *450:26 *1274:A3 8.53113e-06
23 *450:28 *1262:A2 0.000142306
24 *450:28 *1274:A3 1.93765e-05
25 *450:28 *461:78 0.000148589
26 *450:34 *454:14 0.000272984
27 N4BEG[15] *450:26 0.000532002
28 NN4BEG[0] *450:26 0.000381645
29 NN4BEG[14] *450:16 0.000452945
30 *1251:S1 *1251:A2 3.22425e-05
31 *1262:S0 *450:26 0.000688305
32 *1262:S1 *450:26 2.93823e-05
33 *1266:S1 *1266:A2 0.000366068
34 *1270:A0 *1274:A2 1.10377e-05
35 *1274:S1 *1251:A2 3.31204e-05
36 *1274:S1 *450:28 0.000105349
37 *1292:GATE *1251:A2 1.00058e-05
38 *1403:A *450:16 0.000249175
39 *1435:A *450:16 4.66108e-05
40 *1490:A *450:16 0.00024795
41 *1510:A *1405:A 1.85048e-05
42 *1549:A *450:26 0.000163629
43 *1576:A *450:26 7.87587e-06
44 *1576:A *450:28 1.22898e-05
45 *1583:A *1251:A2 6.17895e-06
46 *1592:A *1251:A2 1.07684e-05
47 *1592:A *450:26 0.00011016
48 *1592:A *450:28 5.60354e-05
49 *1592:A *450:34 8.7373e-06
50 *295:48 *450:16 0.000847427
51 *336:20 *1274:A2 2.05864e-05
52 *347:46 *450:26 0.000986307
53 *372:22 *1405:A 0.00102382
54 *372:22 *450:34 0.000669357
55 *406:12 *450:16 0.00184114
56 *410:14 *1251:A2 2.42781e-05
57 *411:18 *450:34 0.00129393
58 *413:20 *1266:A2 1.30169e-05
59 *416:28 *1266:A2 1.59999e-05
60 *428:22 *450:16 0.000696865
61 *429:22 *450:16 4.77719e-05
62 *437:28 *450:26 7.0723e-05
63 *442:30 *450:16 0.00015639
64 *446:22 *450:16 8.34281e-06
*RES
1 *1492:X *450:16 43.75 
2 *450:16 *450:26 12.1979 
3 *450:26 *450:28 4.185 
4 *450:28 *450:34 16.355 
5 *450:34 *1405:A 20.945 
6 *450:34 *1266:A2 13.8875 
7 *450:28 *1251:A2 6.46875 
8 *450:26 *1274:A2 3.79875 
*END

*D_NET *451 0.0147867
*CONN
*I *1259:A2 I *D sky130_fd_sc_hd__mux4_1
*I *1267:A2 I *D sky130_fd_sc_hd__mux4_1
*I *1428:A I *D sky130_fd_sc_hd__clkbuf_1
*I *1258:A3 I *D sky130_fd_sc_hd__mux4_2
*I *1493:X O *D sky130_fd_sc_hd__buf_1
*CAP
1 *1259:A2 0.000766042
2 *1267:A2 5.91331e-05
3 *1428:A 0.000274828
4 *1258:A3 0.000653954
5 *1493:X 0.000143561
6 *451:64 0.00209633
7 *451:16 0.00137283
8 *451:10 0.00185877
9 *1258:A3 *1273:A3 1.66065e-05
10 *1258:A3 *1414:A 0.000121613
11 *1258:A3 *477:26 0.000139906
12 *1259:A2 *1259:A3 6.20601e-05
13 *1259:A2 *1612:A 0.000601808
14 *1267:A2 *467:65 3.04189e-05
15 *451:10 *460:76 0.000226619
16 *451:16 *460:76 0.000117715
17 *451:64 *452:22 0.000114025
18 *451:64 *453:20 0.000116845
19 *451:64 *456:36 9.61183e-05
20 *451:64 *458:26 4.77757e-05
21 FrameStrobe_O[0] *451:64 0.000158506
22 FrameStrobe_O[10] *451:64 4.99619e-05
23 FrameStrobe_O[12] *1259:A2 1.4389e-05
24 FrameStrobe_O[14] *1259:A2 2.32133e-05
25 FrameStrobe_O[14] *451:64 5.43481e-05
26 FrameStrobe_O[4] *451:64 0.000238077
27 FrameStrobe_O[6] *451:64 5.74438e-05
28 FrameStrobe_O[8] *451:64 0.000268431
29 *1256:S0 *1428:A 0.000230867
30 *1258:A1 *1258:A3 2.97872e-06
31 *1258:A1 *451:16 0
32 *1258:S1 *1258:A3 0.000357984
33 *1259:S1 *1259:A2 3.59531e-06
34 *1261:A0 *1428:A 0.000410001
35 *1265:A2 *451:16 3.60738e-06
36 *1265:S1 *1258:A3 9.87636e-06
37 *1265:S1 *451:16 0.000412652
38 *1267:S1 *1267:A2 8.7152e-06
39 *1271:S1 *1267:A2 0.000111547
40 *1273:S0 *1258:A3 0.000131721
41 *1302:D *1258:A3 0.000279024
42 *1306:GATE *1258:A3 0.00014742
43 *1311:D *1428:A 0.000522533
44 *1396:A *1259:A2 1.32668e-05
45 *1499:A *451:64 0.000374596
46 *1508:A *451:64 0.000131069
47 *1523:A *451:64 8.23457e-05
48 *1524:A *1267:A2 5.61653e-05
49 *1531:A *1259:A2 2.53191e-06
50 *1532:A *1259:A2 4.27614e-05
51 *1535:A *451:64 4.77757e-05
52 *1536:A *451:64 0.000123592
53 *1538:A *451:64 8.61546e-05
54 *1540:A *451:64 4.82919e-05
55 *1566:A *1258:A3 0
56 *1573:A *451:10 5.8499e-05
57 *1573:A *451:16 8.7152e-06
58 *261:36 *1258:A3 0
59 *261:36 *1428:A 6.42845e-05
60 *261:36 *451:16 0.00049673
61 *261:36 *451:64 0.000229645
62 *269:36 *1258:A3 6.48366e-05
63 *269:36 *451:16 5.70946e-05
64 *284:24 *1259:A2 6.90889e-06
65 *284:24 *1267:A2 1.54111e-05
66 *404:92 *1258:A3 0.000107444
67 *404:92 *451:16 2.31046e-05
68 *404:101 *1428:A 2.76356e-05
69 *405:10 *451:16 2.90267e-05
70 *405:12 *1258:A3 0.000117084
71 *414:26 *1258:A3 4.60424e-05
72 *442:57 *1258:A3 5.18735e-06
73 *445:24 *451:64 6.68173e-06
*RES
1 *1493:X *451:10 5.955 
2 *451:10 *451:16 10.185 
3 *451:16 *1258:A3 15.9509 
4 *451:16 *1428:A 11.31 
5 *451:10 *451:64 24.95 
6 *451:64 *1267:A2 7.2575 
7 *451:64 *1259:A2 15.8188 
*END

*D_NET *452 0.0160107
*CONN
*I *1269:A3 I *D sky130_fd_sc_hd__mux4_1
*I *1261:A3 I *D sky130_fd_sc_hd__mux4_1
*I *1418:A I *D sky130_fd_sc_hd__clkbuf_1
*I *1494:X O *D sky130_fd_sc_hd__buf_1
*CAP
1 *1269:A3 0
2 *1261:A3 9.99565e-05
3 *1418:A 0.00225188
4 *1494:X 0.000551319
5 *452:32 0.00267951
6 *452:22 0.000878989
7 *1261:A3 *1261:A2 8.7152e-06
8 *1261:A3 *1611:A 0.000365368
9 *1261:A3 *477:26 5.38299e-06
10 *1418:A *1611:A 0.000555002
11 *1418:A *476:41 0.000234221
12 *1418:A *477:26 0.000332182
13 *452:22 *1269:A2 2.05864e-05
14 *452:22 *456:36 0.000169618
15 *452:22 *458:26 2.4393e-05
16 *452:22 *467:65 0.000180992
17 *452:32 *467:65 7.47366e-05
18 FrameStrobe_O[2] *452:22 1.7635e-05
19 FrameStrobe_O[4] *452:22 0.000170602
20 FrameStrobe_O[6] *452:22 1.51915e-05
21 *496:DIODE *1418:A 0.000361567
22 *1259:S1 *452:22 0.000334126
23 *1259:S1 *452:32 0.000491177
24 *1261:S1 *1261:A3 3.63701e-06
25 *1263:A2 *452:32 0.000380924
26 *1263:S0 *1418:A 0.000101912
27 *1268:A0 *1418:A 0.000192125
28 *1269:S0 *452:32 5.29032e-05
29 *1269:S1 *1261:A3 1.92979e-05
30 *1272:A0 *1418:A 9.52541e-05
31 *1280:D *1418:A 5.83121e-06
32 *1284:D *1418:A 1.07797e-05
33 *1301:D *1418:A 0.000181319
34 *1304:GATE *1418:A 0.000117392
35 *1306:D *1418:A 0.000610403
36 *1320:D *1418:A 0.000832606
37 *1336:A *1418:A 4.76666e-05
38 *1355:A *1418:A 6.62872e-05
39 *1395:A *1418:A 0.000119063
40 *1400:A *452:32 1.6383e-05
41 *1494:A *452:22 2.49909e-05
42 *1495:A *452:22 0.000157549
43 *1498:A *452:32 4.82003e-05
44 *1537:A *452:22 1.43823e-05
45 *1555:A *1418:A 3.02247e-05
46 *1577:A *1418:A 7.95888e-05
47 *1581:A *1418:A 5.20622e-05
48 *1584:A *1418:A 0.00123581
49 *263:28 *1418:A 6.98693e-05
50 *269:36 *1418:A 9.57285e-05
51 *297:44 *1418:A 0.000211966
52 *347:58 *1418:A 1.03592e-05
53 *347:66 *1418:A 8.53113e-06
54 *400:53 *1418:A 0.000339512
55 *400:57 *1418:A 0.000263319
56 *400:117 *1418:A 3.66286e-05
57 *410:14 *1418:A 9.79957e-06
58 *425:49 *452:22 5.38122e-05
59 *432:40 *1418:A 0.000156402
60 *447:57 *1261:A3 0.000321056
61 *451:64 *452:22 0.000114025
*RES
1 *1494:X *452:22 21.18 
2 *452:22 *452:32 10.7875 
3 *452:32 *1418:A 24.4134 
4 *452:32 *1261:A3 4.8949 
5 *452:22 *1269:A3 1.6 
*END

*D_NET *453 0.0284109
*CONN
*I *1262:A3 I *D sky130_fd_sc_hd__mux4_1
*I *1270:A3 I *D sky130_fd_sc_hd__mux4_1
*I *1417:A I *D sky130_fd_sc_hd__buf_1
*I *1495:X O *D sky130_fd_sc_hd__buf_1
*CAP
1 *1262:A3 9.27401e-05
2 *1270:A3 0
3 *1417:A 0.000861096
4 *1495:X 0.0006852
5 *453:60 0.00185708
6 *453:42 0.00243329
7 *453:24 0.00202153
8 *453:20 0.00136216
9 *1417:A *1270:A2 0.000196802
10 *1417:A *454:14 1.88904e-05
11 *1417:A *466:66 0.000394699
12 *453:20 *456:36 0.000325463
13 *453:20 *462:14 0.000150052
14 *453:20 *467:65 4.89295e-05
15 *453:24 *463:28 0.00158689
16 *453:24 *479:30 0.000246271
17 FrameStrobe_O[6] *453:20 2.92522e-05
18 N4BEG[0] *453:42 0
19 N4BEG[13] *453:42 0.000196304
20 N4BEG[1] *453:42 3.55292e-05
21 N4BEG[3] *453:42 0.000448205
22 N4BEG[5] *453:42 0.000192125
23 N4BEG[8] *453:42 1.7635e-05
24 *1248:B *1262:A3 1.19928e-05
25 *1249:A *453:60 0.000616512
26 *1249:B *1262:A3 6.57306e-05
27 *1266:A2 *1417:A 0
28 *1266:S1 *1417:A 0
29 *1274:A0 *453:42 8.30115e-05
30 *1381:A *1417:A 0.000393024
31 *1389:A *1417:A 0.000148916
32 *1399:A *453:20 0.000170818
33 *1399:A *453:24 0.000784466
34 *1435:A *453:24 0.000924035
35 *1462:A *453:24 1.48096e-05
36 *1495:A *453:20 3.10438e-05
37 *1499:A *453:20 0.000118237
38 *1507:A *453:20 0.000377739
39 *1508:A *453:20 0.000563942
40 *1522:A *453:20 7.40446e-05
41 *1533:A *453:24 0.000930351
42 *1544:A *453:42 0.000206445
43 *1544:A *453:60 5.8023e-05
44 *1549:A *453:60 8.30691e-05
45 *1554:A *1417:A 0.000445834
46 *1554:A *453:60 0.000250036
47 *1556:A *1262:A3 0.000126523
48 *1560:A *453:60 2.22315e-05
49 *1572:A *453:42 0.000270276
50 *1592:A *453:42 0.000418062
51 *248:18 *453:42 6.15535e-05
52 *248:18 *453:60 5.8023e-05
53 *261:36 *453:20 1.75833e-05
54 *310:50 *453:20 4.82863e-05
55 *347:46 *453:60 0.000853362
56 *358:40 *453:60 0.000838468
57 *369:16 *453:42 0.000397889
58 *391:24 *453:24 0.000418698
59 *391:24 *453:42 0.000930798
60 *407:14 *453:42 0.00032146
61 *411:18 *1417:A 0.000155025
62 *411:18 *453:60 0.000128511
63 *425:49 *453:20 0.000603222
64 *440:18 *453:20 5.69898e-06
65 *445:24 *453:20 0.000270415
66 *446:22 *453:24 0.000143068
67 *446:22 *453:42 0.00191687
68 *446:46 *453:60 0.000735758
69 *451:64 *453:20 0.000116845
*RES
1 *1495:X *453:20 28.965 
2 *453:20 *453:24 26.34 
3 *453:24 *453:42 38.0907 
4 *453:42 *453:60 8.7744 
5 *453:60 *1417:A 21.84 
6 *453:60 *1270:A3 3.6 
7 *453:42 *1262:A3 5.775 
*END

*D_NET *454 0.0278328
*CONN
*I *1308:D I *D sky130_fd_sc_hd__dlxtp_1
*I *1340:A I *D sky130_fd_sc_hd__buf_1
*I *1276:D I *D sky130_fd_sc_hd__dlxtp_1
*I *1502:X O *D sky130_fd_sc_hd__dlymetal6s2s_1
*CAP
1 *1308:D 0.00230201
2 *1340:A 0
3 *1276:D 0.000345109
4 *1502:X 0.00160633
5 *454:45 0.00382379
6 *454:14 0.00347322
7 *1308:D *1618:A 4.12303e-05
8 *1308:D *1619:A 7.33639e-05
9 *1308:D *466:28 6.07575e-06
10 *1308:D *481:24 8.89169e-05
11 *1308:D *484:48 8.35106e-05
12 *454:14 *1413:A 0.00113489
13 *454:14 *458:40 0.000504762
14 *454:14 *465:20 0.00114064
15 *454:14 *476:14 0.0021173
16 *454:45 *459:30 0.000106069
17 *454:45 *468:45 0.000375255
18 *454:45 *476:14 0.00132626
19 *454:45 *476:41 0.0001619
20 *454:45 *484:48 4.77719e-05
21 *499:DIODE *1308:D 0.000412358
22 *1250:A1 *454:14 0.000173541
23 *1250:A2 *1276:D 3.63518e-05
24 *1255:S0 *1276:D 0.000115867
25 *1256:S1 *1308:D 8.05167e-05
26 *1258:S1 *1308:D 0.000158502
27 *1261:A0 *1308:D 0.000268036
28 *1266:A0 *1276:D 0.000101704
29 *1269:S0 *1308:D 1.453e-05
30 *1272:A0 *1308:D 2.68568e-05
31 *1311:D *1308:D 7.9642e-06
32 *1312:D *1308:D 0.000146356
33 *1390:A *1308:D 0.000377032
34 *1405:A *454:14 0.000184925
35 *1417:A *454:14 1.88904e-05
36 *1430:A *1276:D 0.000125411
37 *1467:A *1308:D 1.7386e-05
38 *1470:A *1308:D 0.00030536
39 *1476:A *454:45 1.80337e-05
40 *1477:A *454:45 1.67297e-05
41 *1484:A *1308:D 8.23457e-05
42 *1488:A *1308:D 5.8678e-05
43 *1489:A *1308:D 0.000195211
44 *1547:A *454:14 0.00020239
45 *1547:A *454:45 0.000352733
46 *1554:A *454:14 1.7635e-05
47 *1567:A *1276:D 6.22239e-05
48 *1576:A *454:14 0.000102922
49 *1592:A *454:14 7.87237e-05
50 *1624:A *1308:D 0.000524657
51 *294:32 *1308:D 0.000454434
52 *297:44 *1308:D 0.000243473
53 *303:51 *1308:D 6.11042e-05
54 *303:51 *454:45 8.31647e-05
55 *304:26 *1308:D 9.1799e-05
56 *310:40 *454:45 6.80026e-05
57 *325:26 *1276:D 1.92979e-05
58 *336:57 *454:45 0.000225813
59 *347:58 *454:45 0.000546218
60 *372:22 *454:14 0.000383646
61 *400:76 *454:45 2.98432e-05
62 *406:26 *1308:D 0.000146127
63 *407:48 *454:45 0.000133548
64 *411:30 *454:14 0.000126561
65 *417:24 *454:14 0
66 *425:14 *1308:D 6.91939e-06
67 *426:26 *1308:D 0.000290709
68 *427:20 *1308:D 8.49205e-05
69 *429:22 *1308:D 0.000496272
70 *433:34 *1276:D 0.000317373
71 *433:34 *454:45 0.00018236
72 *434:24 *1308:D 3.143e-05
73 *442:30 *1308:D 5.87532e-05
74 *443:34 *1276:D 0.000201257
75 *448:52 *1308:D 0.000119866
76 *449:12 *1308:D 0.000114662
77 *450:34 *454:14 0.000272984
*RES
1 *1502:X *454:14 26.5432 
2 *454:14 *1276:D 12.7475 
3 *454:14 *454:45 10.3354 
4 *454:45 *1340:A 1.6 
5 *454:45 *1308:D 49.5035 
*END

*D_NET *455 0.0147811
*CONN
*I *1263:A3 I *D sky130_fd_sc_hd__mux4_1
*I *1416:A I *D sky130_fd_sc_hd__clkbuf_1
*I *1271:A3 I *D sky130_fd_sc_hd__mux4_1
*I *1496:X O *D sky130_fd_sc_hd__buf_1
*CAP
1 *1263:A3 7.40224e-05
2 *1416:A 0.000966438
3 *1271:A3 0.000996934
4 *1496:X 0.000365659
5 *455:65 0.00198611
6 *455:18 0.00230825
7 *1263:A3 *462:50 4.40436e-05
8 *1271:A3 *1607:A 0.000413036
9 *1416:A *1263:A1 4.60188e-05
10 *1416:A *1619:A 0.000124363
11 *1416:A *462:50 6.33996e-05
12 *1416:A *468:22 8.30829e-05
13 *1416:A *484:48 0.000169245
14 *455:65 *1611:A 5.82029e-05
15 *455:65 *1616:A 0.00126056
16 *455:65 *484:48 0.000368831
17 *1254:S0 *1271:A3 0.0001088
18 *1256:A1 *1416:A 9.49631e-05
19 *1259:S1 *455:18 0.000193017
20 *1269:A0 *1263:A3 0.00012324
21 *1269:A0 *1416:A 0.000551751
22 *1271:S0 *1271:A3 5.18317e-06
23 *1282:D *1416:A 0.000121143
24 *1301:D *455:65 0.000668849
25 *1307:GATE *1271:A3 0
26 *1312:D *1416:A 1.30972e-05
27 *1326:A *1416:A 2.64452e-05
28 *1353:A *1416:A 7.39166e-05
29 *1370:A *1271:A3 4.15433e-05
30 *1378:A *1416:A 0.000268049
31 *1388:A *1271:A3 0.000410731
32 *1390:A *455:65 7.73312e-05
33 *1394:A *1271:A3 6.88421e-05
34 *1498:A *455:18 0.000110862
35 *1514:A *455:18 0.000127411
36 *1534:A *1271:A3 0.000147377
37 *1534:A *455:18 0.000157677
38 *1537:A *455:18 0
39 *1538:A *1271:A3 0
40 *1540:A *1271:A3 4.60061e-05
41 *1623:A *1416:A 0.000155601
42 *1623:A *455:65 0.000367673
43 *261:36 *455:65 6.50497e-05
44 *269:36 *455:65 0.000165296
45 *276:40 *1271:A3 3.20641e-05
46 *276:40 *1416:A 1.49994e-05
47 *295:48 *1416:A 2.18287e-05
48 *297:44 *1416:A 0.000598032
49 *299:34 *1416:A 6.57705e-05
50 *322:42 *1416:A 7.11219e-05
51 *405:76 *1271:A3 0
52 *420:14 *1416:A 5.66369e-05
53 *423:32 *1416:A 8.23457e-05
54 *442:30 *455:65 0.000320222
*RES
1 *1496:X *455:18 10.3425 
2 *455:18 *1271:A3 23.8825 
3 *455:18 *455:65 8.2199 
4 *455:65 *1416:A 25.343 
5 *455:65 *1263:A3 3.55 
*END

*D_NET *456 0.0268234
*CONN
*I *1264:A3 I *D sky130_fd_sc_hd__mux4_1
*I *1272:A3 I *D sky130_fd_sc_hd__mux4_1
*I *1415:A I *D sky130_fd_sc_hd__clkbuf_1
*I *1497:X O *D sky130_fd_sc_hd__buf_1
*CAP
1 *1264:A3 0.000146725
2 *1272:A3 4.61386e-05
3 *1415:A 0.00127387
4 *1497:X 0.00159935
5 *456:66 0.00204347
6 *456:54 0.00180809
7 *456:36 0.00253725
8 *456:36 *458:26 4.94457e-05
9 *456:36 *459:30 0.00140091
10 *456:36 *463:28 7.39166e-05
11 *456:36 *463:40 0.000589313
12 *456:36 *466:28 1.7635e-05
13 *456:36 *467:65 4.78103e-05
14 FrameStrobe_O[2] *456:36 0.000118659
15 FrameStrobe_O[6] *456:36 8.73147e-06
16 NN4BEG[15] *456:54 4.84768e-05
17 NN4BEG[5] *456:54 0
18 NN4BEG[7] *456:54 2.67022e-05
19 NN4BEG[8] *456:54 0.000150174
20 *490:DIODE *1415:A 0.000384118
21 *1250:B1 *1415:A 0.00152379
22 *1250:B2 *1415:A 0.000199833
23 *1259:S1 *456:36 0.000344923
24 *1264:S1 *1272:A3 1.92979e-05
25 *1267:A0 *456:36 0.00136448
26 *1272:S1 *1415:A 1.00941e-05
27 *1274:A0 *456:36 1.43191e-05
28 *1274:A0 *456:54 7.00053e-05
29 *1300:D *456:66 0.000917342
30 *1300:GATE *456:54 3.91574e-05
31 *1300:GATE *456:66 5.75488e-05
32 *1317:D *456:66 0.000852451
33 *1332:A *456:66 0.000103315
34 *1380:A *1272:A3 1.00941e-05
35 *1380:A *1415:A 6.65478e-05
36 *1398:A *456:36 5.64743e-05
37 *1431:A *1415:A 3.74097e-05
38 *1433:A *456:54 3.63701e-06
39 *1493:A *456:36 0.000108669
40 *1495:A *456:36 5.63792e-05
41 *1496:A *456:36 0.000158716
42 *1499:A *456:36 4.82919e-05
43 *1534:A *456:36 6.17244e-05
44 *1537:A *456:36 5.88488e-05
45 *1549:A *456:66 5.49838e-05
46 *1572:A *456:36 0.000101226
47 *1583:A *456:54 1.41634e-05
48 *1585:A *1415:A 0
49 *1587:A *1264:A3 0.000118081
50 *1590:A *1264:A3 0.000110888
51 *1590:A *456:54 6.13929e-06
52 *1591:A *456:66 7.75177e-05
53 *1592:A *1415:A 0.000231585
54 *1592:A *456:54 2.19824e-05
55 *1600:A *1415:A 0.000309707
56 *1602:A *1415:A 0.000382893
57 *78:5 *1415:A 4.98472e-05
58 *263:28 *1415:A 3.67779e-05
59 *295:48 *456:36 0.00146594
60 *347:46 *456:54 1.02692e-05
61 *399:26 *1415:A 0.000152088
62 *400:53 *1272:A3 9.75952e-05
63 *400:53 *1415:A 0.000122036
64 *402:65 *1415:A 1.15436e-05
65 *409:20 *1415:A 4.61701e-06
66 *422:18 *1264:A3 3.45117e-05
67 *423:32 *456:36 0.000875813
68 *423:32 *456:54 0.000517227
69 *424:32 *456:54 8.43167e-05
70 *424:32 *456:66 5.8678e-05
71 *429:22 *456:36 6.03468e-05
72 *430:28 *456:36 8.99673e-05
73 *430:28 *456:54 8.53113e-06
74 *432:40 *1272:A3 0.000103065
75 *432:40 *1415:A 4.49137e-05
76 *433:34 *456:66 0.000147189
77 *434:24 *456:36 7.81994e-05
78 *437:28 *456:54 3.46783e-05
79 *440:18 *456:36 0.00189088
80 *443:16 *1415:A 0.000231585
81 *448:52 *1264:A3 1.42511e-05
82 *448:70 *1415:A 4.55864e-06
83 *448:76 *1415:A 1.9488e-05
84 *451:64 *456:36 9.61183e-05
85 *452:22 *456:36 0.000169618
86 *453:20 *456:36 0.000325463
*RES
1 *1497:X *456:36 49.5554 
2 *456:36 *456:54 19.155 
3 *456:54 *456:66 4.67577 
4 *456:66 *1415:A 36.2962 
5 *456:66 *1272:A3 4.51617 
6 *456:54 *1264:A3 10.12 
*END

*D_NET *457 0.00889126
*CONN
*I *1265:A3 I *D sky130_fd_sc_hd__mux4_1
*I *1414:A I *D sky130_fd_sc_hd__buf_1
*I *1273:A3 I *D sky130_fd_sc_hd__mux4_1
*I *1498:X O *D sky130_fd_sc_hd__buf_1
*CAP
1 *1265:A3 0.000148174
2 *1414:A 0.000289399
3 *1273:A3 2.10966e-05
4 *1498:X 0.000471864
5 *457:26 0.00102582
6 *457:14 0.00133536
7 *1265:A3 *1611:A 0.000219339
8 *457:14 *1619:A 0.00116234
9 *457:26 *1616:A 4.03734e-05
10 *457:26 *1619:A 0.000108948
11 UserCLKo *457:14 8.41307e-05
12 *1258:A0 *457:26 7.27932e-05
13 *1258:A2 *457:26 0.000498215
14 *1258:A3 *1273:A3 1.66065e-05
15 *1258:A3 *1414:A 0.000121613
16 *1263:S0 *457:26 0.000362544
17 *1263:S1 *1265:A3 5.93727e-05
18 *1265:S1 *1414:A 9.04636e-05
19 *1269:S1 *457:26 7.78114e-05
20 *1271:S0 *457:26 8.48649e-05
21 *1273:S1 *1273:A3 1.16597e-05
22 *1514:A *457:14 0.00115669
23 *1514:A *457:26 2.22315e-05
24 *1537:A *457:14 4.36573e-06
25 *269:36 *1414:A 0.000245267
26 *306:30 *1414:A 0.000191335
27 *354:18 *457:14 8.7152e-06
28 *405:10 *1265:A3 7.67538e-05
29 *442:30 *457:26 0.000476548
30 *447:47 *1414:A 0.000406568
*RES
1 *1498:X *457:14 6.97177 
2 *457:14 *457:26 3.742 
3 *457:26 *1273:A3 4.0875 
4 *457:26 *1414:A 11.3175 
5 *457:14 *1265:A3 7.3325 
*END

*D_NET *458 0.0266054
*CONN
*I *1274:A3 I *D sky130_fd_sc_hd__mux4_1
*I *1413:A I *D sky130_fd_sc_hd__clkbuf_1
*I *1266:A3 I *D sky130_fd_sc_hd__mux4_1
*I *1499:X O *D sky130_fd_sc_hd__dlymetal6s2s_1
*CAP
1 *1274:A3 8.54444e-05
2 *1413:A 0.000190983
3 *1266:A3 0.000305361
4 *1499:X 0.00421365
5 *458:40 0.00186543
6 *458:26 0.00566818
7 *1274:A3 *1262:A2 1.00941e-05
8 *1274:A3 *465:20 0.000149759
9 *458:26 *1604:A 0.000168728
10 *458:26 *1609:A 0.000148391
11 *458:26 *459:30 0.000570537
12 *458:26 *466:28 0.000498957
13 *458:26 *466:42 4.67438e-06
14 *458:40 *465:20 0.000128413
15 FrameStrobe_O[3] *458:26 2.59225e-05
16 FrameStrobe_O[5] *458:26 9.31238e-05
17 FrameStrobe_O[6] *458:26 0
18 N4BEG[4] *458:26 2.9972e-05
19 *496:DIODE *458:26 0.000145637
20 *1250:A1 *458:40 0.000118673
21 *1266:A2 *1266:A3 0.000349466
22 *1266:A2 *458:40 4.43871e-06
23 *1271:A0 *458:26 0.000794942
24 *1385:A *1266:A3 0.000319126
25 *1385:A *458:40 6.27339e-05
26 *1405:A *1413:A 0.00113489
27 *1533:A *458:26 0.000109786
28 *1537:A *458:26 0.000113372
29 *1545:A *458:26 7.86939e-05
30 *1547:A *458:40 0.000543154
31 *1566:A *458:26 0.000309652
32 *1566:A *458:40 8.23764e-05
33 *1570:A *458:26 0.000247069
34 *1573:A *458:26 0.00230039
35 *1583:A *458:26 0.000514795
36 *1591:A *458:26 0.000341583
37 *1592:A *1274:A3 5.18735e-06
38 *1592:A *458:26 0.000501888
39 *1592:A *458:40 0.000209214
40 *303:24 *458:40 0.000726102
41 *343:28 *458:26 0.000212273
42 *369:41 *458:26 4.62594e-05
43 *372:22 *1266:A3 4.9968e-05
44 *372:22 *458:40 4.14369e-05
45 *411:18 *458:40 0
46 *434:24 *458:26 2.16821e-05
47 *436:42 *458:26 0.000504958
48 *437:28 *458:26 6.32418e-06
49 *446:46 *1274:A3 7.45841e-05
50 *448:52 *458:26 0.000687997
51 *450:26 *1274:A3 8.53113e-06
52 *450:28 *1274:A3 1.93765e-05
53 *451:64 *458:26 4.77757e-05
54 *452:22 *458:26 2.4393e-05
55 *454:14 *1413:A 0.00113489
56 *454:14 *458:40 0.000504762
57 *456:36 *458:26 4.94457e-05
*RES
1 *1499:X *458:26 21.3171 
2 *458:26 *458:40 6.45397 
3 *458:40 *1266:A3 11.61 
4 *458:40 *1413:A 14.055 
5 *458:26 *1274:A3 5.07443 
*END

*D_NET *459 0.0221629
*CONN
*I *1268:A2 I *D sky130_fd_sc_hd__mux4_1
*I *1257:A3 I *D sky130_fd_sc_hd__mux4_1
*I *1427:A I *D sky130_fd_sc_hd__clkbuf_1
*I *1260:A2 I *D sky130_fd_sc_hd__mux4_1
*I *1500:X O *D sky130_fd_sc_hd__buf_1
*CAP
1 *1268:A2 0.00024103
2 *1257:A3 0
3 *1427:A 0.000549461
4 *1260:A2 0.000153628
5 *1500:X 0.00159201
6 *459:83 0.00124575
7 *459:55 0.00152914
8 *459:30 0.00233746
9 *1260:A2 *1260:A3 3.92416e-05
10 *1260:A2 *465:57 0.000150602
11 *1268:A2 *1268:A3 3.03684e-05
12 *1268:A2 *1422:A 0.000217252
13 *1427:A *461:78 0.000226961
14 *459:30 *463:28 0.000226961
15 *459:55 *1422:A 0.000149831
16 *459:55 *465:57 0.000206944
17 *1251:A1 *1427:A 4.66108e-05
18 *1251:S1 *1427:A 3.83194e-05
19 *1253:A1 *459:83 7.83475e-05
20 *1253:S1 *459:83 7.85951e-05
21 *1257:A2 *1427:A 2.16105e-05
22 *1260:S0 *1260:A2 2.05864e-05
23 *1264:S1 *459:83 0.000204249
24 *1268:S0 *1268:A2 0.000160042
25 *1272:A0 *459:83 0.000157992
26 *1272:S0 *459:83 0.000182772
27 *1273:S1 *1268:A2 7.13691e-05
28 *1285:D *459:55 0.0002824
29 *1291:D *1427:A 7.66388e-05
30 *1328:A *459:83 0.000735275
31 *1331:A *459:83 0.000735275
32 *1332:A *459:83 0.000409902
33 *1355:A *1427:A 0.000717912
34 *1355:A *459:83 0.000188089
35 *1382:A *459:83 0.000157992
36 *1470:A *459:30 3.82072e-05
37 *1471:A *459:30 3.69766e-05
38 *1488:A *459:30 0.00029854
39 *1500:A *459:30 6.95739e-05
40 *1501:A *459:30 6.95739e-05
41 *1563:A *1427:A 0.000146405
42 *1573:A *459:30 0.00020716
43 *1583:A *459:30 5.18735e-06
44 *1584:A *459:30 0.000243312
45 *1584:A *459:55 0.000462851
46 *248:18 *1427:A 8.49878e-05
47 *300:10 *1268:A2 7.27402e-06
48 *310:40 *459:30 0.000538393
49 *333:22 *459:30 0.000191065
50 *336:57 *1260:A2 0.000144248
51 *336:57 *459:55 0.000227542
52 *347:58 *459:30 9.76497e-05
53 *347:58 *459:55 0.000978552
54 *372:22 *1427:A 0.000103792
55 *403:10 *1260:A2 2.17343e-05
56 *403:26 *1260:A2 2.53191e-06
57 *411:18 *1427:A 0.000326636
58 *412:68 *1268:A2 0.000179863
59 *415:22 *1268:A2 0.000122778
60 *415:22 *459:55 3.60076e-05
61 *424:32 *1427:A 0.000428671
62 *424:32 *459:83 6.55362e-05
63 *426:26 *1260:A2 1.10377e-05
64 *430:28 *459:30 0.000406535
65 *432:40 *459:83 0.000313855
66 *435:18 *1260:A2 0.000116965
67 *436:42 *459:30 0.000714622
68 *444:64 *459:55 7.5434e-05
69 *444:64 *459:83 5.1282e-05
70 *454:45 *459:30 0.000106069
71 *456:36 *459:30 0.00140091
72 *458:26 *459:30 0.000570537
*RES
1 *1500:X *459:30 29.2644 
2 *459:30 *1260:A2 6.04818 
3 *459:30 *459:55 3.56247 
4 *459:55 *459:83 23.3664 
5 *459:83 *1427:A 20.93 
6 *459:83 *1257:A3 1.6 
7 *459:55 *1268:A2 7.99385 
*END

*D_NET *460 0.0150935
*CONN
*I *1269:A2 I *D sky130_fd_sc_hd__mux4_1
*I *1261:A2 I *D sky130_fd_sc_hd__mux4_1
*I *1426:A I *D sky130_fd_sc_hd__clkbuf_1
*I *1256:A3 I *D sky130_fd_sc_hd__mux4_1
*I *1501:X O *D sky130_fd_sc_hd__buf_1
*CAP
1 *1269:A2 7.28897e-06
2 *1261:A2 0.00041199
3 *1426:A 2.07607e-05
4 *1256:A3 0.000294827
5 *1501:X 0
6 *460:76 0.00119057
7 *460:34 0.00188956
8 *460:4 0.00234526
9 *1256:A3 *464:42 0.000497531
10 *1261:A2 *484:48 3.03684e-05
11 *1269:A2 *467:65 1.10377e-05
12 *460:34 *1611:A 2.35896e-05
13 *460:34 *1613:A 9.04081e-05
14 *460:34 *1616:A 5.9941e-05
15 *460:34 *1619:A 0.000588
16 *460:76 *1611:A 0.000212849
17 *460:76 *1613:A 0.000954007
18 *460:76 *1618:A 9.21198e-05
19 UserCLKo *1261:A2 0.000279582
20 UserCLKo *460:76 9.46355e-05
21 *499:DIODE *460:34 3.92756e-05
22 *1254:A0 *460:34 0.000307208
23 *1256:A1 *460:34 2.83195e-05
24 *1256:A2 *1256:A3 6.26955e-05
25 *1256:S1 *1256:A3 9.67062e-05
26 *1256:S1 *460:34 0.00011605
27 *1261:A3 *1261:A2 8.7152e-06
28 *1261:S1 *1261:A2 4.43871e-06
29 *1269:S1 *1261:A2 0.000405924
30 *1269:S1 *460:76 4.43871e-06
31 *1282:D *460:34 0.000185463
32 *1285:D *1256:A3 1.95008e-05
33 *1286:D *460:34 0.000475734
34 *1289:D *1256:A3 9.70195e-05
35 *1289:D *460:34 7.56599e-05
36 *1290:D *1426:A 8.35068e-05
37 *1315:D *1261:A2 2.05864e-05
38 *1353:A *460:34 0.000544586
39 *1382:A *1256:A3 0.000610588
40 *1386:A *1261:A2 8.67666e-06
41 *1397:A *1261:A2 7.9642e-06
42 *1397:A *460:76 6.36438e-07
43 *1401:A *460:76 0.000164402
44 *1403:A *460:34 0.000182734
45 *1488:A *460:34 0.000128654
46 *1489:A *460:34 0.000155601
47 *1500:A *460:76 2.05056e-05
48 *1501:A *460:76 0.00019637
49 *1504:A *460:76 5.83121e-06
50 *1520:A *460:34 5.79855e-05
51 *1573:A *460:76 8.73147e-06
52 *1575:A *460:34 5.83429e-05
53 *1623:A *460:76 0.000293783
54 *269:36 *1261:A2 6.97936e-05
55 *294:32 *460:34 0.000167932
56 *399:26 *1256:A3 9.83042e-05
57 *401:12 *1426:A 8.35068e-05
58 *405:10 *460:76 1.30972e-05
59 *405:55 *1261:A2 1.26118e-05
60 *420:14 *460:34 4.66474e-05
61 *429:22 *460:34 0.000173099
62 *429:22 *460:76 4.82863e-05
63 *436:42 *460:34 9.71184e-05
64 *447:10 *460:34 0.000347254
65 *451:10 *460:76 0.000226619
66 *451:16 *460:76 0.000117715
67 *452:22 *1269:A2 2.05864e-05
*RES
1 *1501:X *460:4 1.6 
2 *460:4 *460:34 29.3348 
3 *460:34 *1256:A3 7.56527 
4 *460:34 *1426:A 4.395 
5 *460:4 *460:76 12.1897 
6 *460:76 *1261:A2 16.1838 
7 *460:76 *1269:A2 3.79875 
*END

*D_NET *461 0.0259679
*CONN
*I *1262:A2 I *D sky130_fd_sc_hd__mux4_1
*I *1270:A2 I *D sky130_fd_sc_hd__mux4_1
*I *1255:A3 I *D sky130_fd_sc_hd__mux4_1
*I *1425:A I *D sky130_fd_sc_hd__clkbuf_1
*I *1503:X O *D sky130_fd_sc_hd__dlymetal6s2s_1
*CAP
1 *1262:A2 0.000309544
2 *1270:A2 0.000636514
3 *1255:A3 0
4 *1425:A 1.03024e-05
5 *1503:X 0.00220878
6 *461:78 0.00164246
7 *461:53 0.00208762
8 *461:30 0.0036103
9 *1270:A2 *476:14 0.000118081
10 *461:30 *1609:A 0.000842496
11 *461:30 *463:28 0.000837919
12 *461:53 *1268:A3 0.000304468
13 *461:53 *1277:D 0.00110033
14 *461:78 *1277:D 0.000107444
15 *496:DIODE *461:30 0.000160029
16 *498:DIODE *461:30 0
17 *1249:B *1262:A2 1.01489e-05
18 *1250:A1 *1262:A2 8.80183e-05
19 *1250:A1 *461:78 7.73646e-05
20 *1251:A2 *461:78 4.92861e-05
21 *1255:A2 *461:78 0.000168997
22 *1270:S1 *461:53 8.48512e-05
23 *1273:S1 *461:53 9.09963e-05
24 *1274:A3 *1262:A2 1.00941e-05
25 *1274:S0 *1262:A2 8.99861e-05
26 *1274:S0 *461:78 6.13929e-06
27 *1274:S1 *1270:A2 0.000118081
28 *1284:D *461:53 0.000124895
29 *1285:D *461:30 0.00161007
30 *1314:GATE *461:78 0.000153816
31 *1327:A *461:53 6.67488e-05
32 *1339:A *1425:A 2.05571e-05
33 *1339:A *461:53 0.000112987
34 *1343:A *461:30 0.000142683
35 *1382:A *461:30 7.71938e-05
36 *1382:A *461:53 1.22811e-05
37 *1391:A *461:78 0.000107444
38 *1399:A *461:30 7.85634e-05
39 *1401:A *461:30 0.00031702
40 *1402:A *461:30 0.00031702
41 *1409:A *1270:A2 0.000335065
42 *1417:A *1270:A2 0.000196802
43 *1427:A *461:78 0.000226961
44 *1430:A *461:53 0.000377404
45 *1430:A *461:78 0.000191507
46 *1431:A *461:30 4.90957e-05
47 *1433:A *461:30 3.99991e-05
48 *1477:A *461:30 0
49 *1481:A *461:30 4.51682e-05
50 *1509:A *461:30 0.000301905
51 *1545:A *1262:A2 4.25994e-05
52 *1556:A *1262:A2 1.58519e-05
53 *1556:A *461:53 0.00014974
54 *1556:A *461:78 6.51234e-06
55 *1557:A *461:30 3.99991e-05
56 *1583:A *461:78 8.93639e-05
57 *1584:A *461:30 3.13637e-05
58 *292:16 *1262:A2 5.38986e-06
59 *292:16 *1270:A2 0.00132763
60 *294:38 *461:30 0.000774389
61 *295:48 *461:30 0.000847427
62 *303:24 *1270:A2 2.05864e-05
63 *372:22 *461:78 6.0147e-06
64 *397:14 *461:53 0
65 *399:26 *461:30 0.000275262
66 *411:18 *1270:A2 0.000199377
67 *411:18 *461:78 0.000301011
68 *412:68 *461:53 2.39679e-05
69 *418:22 *461:30 0.000200697
70 *424:32 *461:78 0.000225285
71 *436:42 *461:30 9.75311e-05
72 *442:30 *461:30 2.14725e-05
73 *446:22 *461:30 0.000848422
74 *450:16 *461:30 0.00040234
75 *450:26 *1262:A2 4.92909e-05
76 *450:28 *1262:A2 0.000142306
77 *450:28 *461:78 0.000148589
*RES
1 *1503:X *461:30 42.3999 
2 *461:30 *1425:A 3.8325 
3 *461:30 *461:53 27.6775 
4 *461:53 *1255:A3 3.6 
5 *461:53 *461:78 21.29 
6 *461:78 *1270:A2 22.7237 
7 *461:78 *1262:A2 9.2175 
*END

*D_NET *462 0.0114885
*CONN
*I *1254:A3 I *D sky130_fd_sc_hd__mux4_1
*I *1263:A1 I *D sky130_fd_sc_hd__mux4_1
*I *1271:A1 I *D sky130_fd_sc_hd__mux4_1
*I *1424:A I *D sky130_fd_sc_hd__clkbuf_1
*I *1504:X O *D sky130_fd_sc_hd__clkbuf_1
*CAP
1 *1254:A3 0.000737249
2 *1263:A1 0.000106661
3 *1271:A1 0.00126667
4 *1424:A 0.000146527
5 *1504:X 0.000484941
6 *462:50 0.00134813
7 *462:18 0.0014502
8 *462:14 0.00102616
9 *1254:A3 *474:18 0.000553392
10 *1271:A1 *464:26 0.00010804
11 *1271:A1 *464:42 1.56296e-05
12 *462:14 *1420:A 0.000203183
13 *462:14 *1611:A 3.44655e-05
14 *462:18 *1420:A 6.59891e-05
15 *491:DIODE *1271:A1 1.56428e-05
16 *1254:S0 *1254:A3 0.000521036
17 *1254:S1 *1254:A3 3.19479e-05
18 *1258:A1 *1254:A3 0.000561873
19 *1263:A2 *462:50 8.20986e-05
20 *1263:A3 *462:50 4.40436e-05
21 *1263:S0 *1271:A1 9.98744e-05
22 *1265:S0 *1271:A1 1.61831e-05
23 *1265:S1 *1271:A1 0
24 *1269:A0 *462:50 4.75797e-06
25 *1271:A0 *1271:A1 8.35106e-05
26 *1273:A0 *1271:A1 0.000157928
27 *1273:A0 *462:14 0.000302365
28 *1273:A0 *462:18 6.59891e-05
29 *1329:A *1271:A1 9.66834e-05
30 *1361:A *1271:A1 4.89295e-05
31 *1402:A *462:14 1.01276e-05
32 *1416:A *1263:A1 4.60188e-05
33 *1416:A *462:50 6.33996e-05
34 *1429:A *1271:A1 2.85364e-05
35 *1507:A *462:14 0.00010163
36 *1537:A *1271:A1 4.82919e-05
37 *1594:A *1271:A1 0.000322047
38 *1624:A *1271:A1 0.000143833
39 *1624:A *1424:A 0.000119762
40 *261:36 *462:14 8.65612e-05
41 *284:24 *1271:A1 0.000166226
42 *297:44 *1424:A 7.39476e-05
43 *304:26 *1271:A1 0.000108201
44 *364:10 *1271:A1 0.000333111
45 *404:55 *1254:A3 6.69608e-06
46 *453:20 *462:14 0.000150052
*RES
1 *1504:X *462:14 12.555 
2 *462:14 *462:18 2.87 
3 *462:18 *1424:A 3.7 
4 *462:18 *1271:A1 29.24 
5 *462:14 *462:50 7.625 
6 *462:50 *1263:A1 3.01 
7 *462:50 *1254:A3 19.28 
*END

*D_NET *463 0.0233666
*CONN
*I *1264:A1 I *D sky130_fd_sc_hd__mux4_1
*I *1272:A1 I *D sky130_fd_sc_hd__mux4_1
*I *1423:A I *D sky130_fd_sc_hd__clkbuf_1
*I *1253:A3 I *D sky130_fd_sc_hd__mux4_1
*I *1505:X O *D sky130_fd_sc_hd__dlymetal6s2s_1
*CAP
1 *1264:A1 0
2 *1272:A1 4.93529e-06
3 *1423:A 0.00121858
4 *1253:A3 0.00021061
5 *1505:X 0.00148707
6 *463:58 0.00155915
7 *463:56 0.00121857
8 *463:40 0.00158237
9 *463:28 0.00198576
10 *1423:A *1277:D 9.72473e-05
11 *463:28 *481:28 0.000122751
12 *463:56 *465:57 0.000111721
13 Co *463:40 0.000519498
14 Co *463:56 9.90036e-05
15 FrameStrobe_O[2] *463:28 0.000130764
16 FrameStrobe_O[3] *463:28 0.000130764
17 *1250:A1 *1423:A 0
18 *1253:A0 *1253:A3 0.000100879
19 *1253:A0 *1272:A1 1.88656e-05
20 *1253:A0 *463:58 0.000212634
21 *1253:S0 *1253:A3 7.43215e-05
22 *1253:S0 *463:58 0
23 *1253:S1 *1253:A3 8.74117e-05
24 *1264:S0 *463:56 7.84315e-05
25 *1270:S1 *1423:A 0.00042814
26 *1272:A0 *1272:A1 6.29385e-06
27 *1272:A0 *463:58 1.98177e-05
28 *1274:A0 *463:40 0.000888693
29 *1277:GATE *1253:A3 0.000168987
30 *1277:GATE *463:58 4.95846e-05
31 *1398:A *463:28 0.000118862
32 *1399:A *463:28 0.000157551
33 *1430:A *1423:A 0.000646137
34 *1431:A *1423:A 0.000491122
35 *1465:A *463:40 0.000357355
36 *1481:A *463:28 8.91696e-05
37 *1481:A *463:40 2.6657e-05
38 *1482:A *463:28 0.000125719
39 *1482:A *463:40 1.38676e-05
40 *1493:A *463:28 7.56409e-05
41 *1533:A *463:28 0.000590359
42 *1582:A *463:56 0.00098767
43 *263:28 *1423:A 0.0010207
44 *336:57 *463:56 4.95724e-05
45 *392:20 *1423:A 5.8023e-05
46 *403:10 *463:40 2.99518e-06
47 *403:10 *463:56 6.60907e-06
48 *409:20 *1423:A 0.000740897
49 *416:28 *1423:A 0.000176264
50 *418:22 *1423:A 9.03826e-05
51 *418:22 *463:56 2.90617e-05
52 *423:32 *463:40 0.000165652
53 *425:49 *463:28 0.000104341
54 *430:28 *463:40 0.000123399
55 *440:18 *463:28 0.000367912
56 *440:18 *463:40 7.9642e-06
57 *444:64 *463:56 7.54285e-05
58 *446:22 *463:28 0.000739432
59 *453:24 *463:28 0.00158689
60 *456:36 *463:28 7.39166e-05
61 *456:36 *463:40 0.000589313
62 *459:30 *463:28 0.000226961
63 *461:30 *463:28 0.000837919
*RES
1 *1505:X *463:28 49.685 
2 *463:28 *463:40 19.93 
3 *463:40 *463:56 5.4945 
4 *463:56 *463:58 2.655 
5 *463:58 *1253:A3 8.3475 
6 *463:58 *1423:A 19.7164 
7 *463:56 *1272:A1 3.8325 
8 *463:40 *1264:A1 3.6 
*END

*D_NET *464 0.0168493
*CONN
*I *1265:A1 I *D sky130_fd_sc_hd__mux4_1
*I *1273:A1 I *D sky130_fd_sc_hd__mux4_1
*I *1422:A I *D sky130_fd_sc_hd__clkbuf_1
*I *1252:A3 I *D sky130_fd_sc_hd__mux4_1
*I *1506:X O *D sky130_fd_sc_hd__buf_1
*CAP
1 *1265:A1 2.86122e-05
2 *1273:A1 0
3 *1422:A 0.000881598
4 *1252:A3 3.73699e-05
5 *1506:X 0.000263862
6 *464:42 0.00223021
7 *464:26 0.00200269
8 *464:10 0.000983931
9 *1265:A1 *1420:A 4.66742e-05
10 *1422:A *1268:A3 0
11 *464:10 *467:10 9.26619e-05
12 *1252:A2 *1252:A3 2.76356e-05
13 *1252:S0 *464:42 7.9642e-06
14 *1253:A1 *1422:A 0.000342622
15 *1253:S1 *1422:A 0.00011504
16 *1256:A2 *464:42 5.82364e-05
17 *1256:A3 *464:42 0.000497531
18 *1259:S1 *464:26 0.000828029
19 *1264:S0 *1422:A 0.000166438
20 *1265:S0 *464:26 0.000270415
21 *1265:S1 *464:42 3.91596e-05
22 *1268:A2 *1422:A 0.000217252
23 *1269:A0 *464:10 7.9642e-06
24 *1269:A0 *464:26 0.000109206
25 *1269:S0 *1265:A1 4.66742e-05
26 *1271:A1 *464:26 0.00010804
27 *1271:A1 *464:42 1.56296e-05
28 *1273:S1 *464:42 3.91137e-05
29 *1285:D *464:42 0.000404117
30 *1293:D *464:42 0.000745144
31 *1294:D *464:42 0.000915648
32 *1315:D *464:26 0.000663866
33 *1327:A *1422:A 7.9319e-05
34 *1355:A *1422:A 0.000119242
35 *1357:A *1422:A 1.51915e-05
36 *1365:A *464:42 0.00100167
37 *1382:A *464:42 0.000423601
38 *1400:A *464:10 9.6656e-05
39 *1400:A *464:26 4.97842e-05
40 *1429:A *464:42 3.33402e-05
41 *1507:A *464:10 7.10578e-05
42 *1560:A *1422:A 2.0231e-05
43 *1569:A *464:10 4.26845e-05
44 *1582:A *1422:A 0.00113782
45 *67:38 *1422:A 0.000116399
46 *276:40 *464:42 7.96104e-06
47 *347:58 *1422:A 7.87237e-05
48 *351:24 *464:26 4.98237e-05
49 *358:40 *1422:A 9.77232e-05
50 *399:26 *464:42 0.000160178
51 *415:22 *1422:A 4.97251e-05
52 *444:42 *1252:A3 4.41506e-05
53 *444:64 *1422:A 0.000348919
54 *445:24 *464:10 0.000113817
55 *445:32 *464:10 2.19913e-05
56 *445:32 *464:26 0.000326079
57 *459:55 *1422:A 0.000149831
*RES
1 *1506:X *464:10 8.415 
2 *464:10 *464:26 20.12 
3 *464:26 *464:42 12.8288 
4 *464:42 *1252:A3 4.395 
5 *464:42 *1422:A 18.5968 
6 *464:26 *1273:A1 1.6 
7 *464:10 *1265:A1 4.395 
*END

*D_NET *465 0.0212507
*CONN
*I *1341:A I *D sky130_fd_sc_hd__buf_1
*I *1309:D I *D sky130_fd_sc_hd__dlxtp_1
*I *1277:D I *D sky130_fd_sc_hd__dlxtp_1
*I *1510:X O *D sky130_fd_sc_hd__buf_1
*CAP
1 *1341:A 9.68407e-05
2 *1309:D 7.5142e-05
3 *1277:D 0.00104808
4 *1510:X 0.00173479
5 *465:57 0.00199115
6 *465:20 0.00460204
7 *1309:D *484:48 1.7635e-05
8 *1341:A *484:48 0.000141797
9 *465:20 *1274:A1 3.3846e-05
10 *465:57 *1260:A3 0.0001804
11 *465:57 *1609:A 0.000164127
12 *465:57 *468:22 0.000306101
13 *465:57 *477:26 8.72438e-06
14 *1249:B *465:20 0.000127315
15 *1250:A1 *1277:D 0
16 *1251:A1 *1277:D 0.000441044
17 *1251:A1 *465:57 8.41527e-05
18 *1260:A2 *465:57 0.000150602
19 *1270:S1 *465:20 0
20 *1274:A3 *465:20 0.000149759
21 *1276:GATE *1277:D 3.00381e-05
22 *1277:GATE *1277:D 8.64421e-05
23 *1312:D *1341:A 5.8023e-05
24 *1314:D *1277:D 0.000284077
25 *1314:D *465:57 9.04636e-05
26 *1327:A *1277:D 0.000433518
27 *1385:A *465:20 0.000265931
28 *1391:A *1277:D 3.78504e-05
29 *1407:A *1277:D 1.88904e-05
30 *1423:A *1277:D 9.72473e-05
31 *1576:A *465:20 0.00113896
32 *1587:A *1309:D 0.000156765
33 *1592:A *465:20 3.59976e-05
34 *248:18 *1277:D 4.26331e-05
35 *263:28 *1277:D 0.000268171
36 *292:16 *465:20 0.000418045
37 *292:16 *465:57 0.000252269
38 *303:24 *465:20 0.000460243
39 *336:57 *465:57 0.000222387
40 *358:40 *465:20 0.000200536
41 *358:40 *465:57 0.000142746
42 *391:38 *1309:D 4.6368e-06
43 *392:20 *1277:D 0.000105573
44 *400:12 *1277:D 4.5615e-05
45 *400:22 *1277:D 9.54041e-05
46 *406:26 *1309:D 1.88602e-05
47 *406:26 *1341:A 4.88862e-05
48 *407:48 *465:57 0.000387438
49 *411:30 *1277:D 2.07838e-05
50 *412:18 *465:20 0.000300551
51 *412:43 *1277:D 0.000138752
52 *433:34 *465:57 0.000440236
53 *446:46 *465:20 0.000693299
54 *446:46 *465:57 6.04344e-05
55 *454:14 *465:20 0.00114064
56 *458:40 *465:20 0.000128413
57 *459:55 *465:57 0.000206944
58 *461:53 *1277:D 0.00110033
59 *461:78 *1277:D 0.000107444
60 *463:56 *465:57 0.000111721
*RES
1 *1510:X *465:20 22.2986 
2 *465:20 *1277:D 30.2475 
3 *465:20 *465:57 6.44687 
4 *465:57 *1309:D 5.3175 
5 *465:57 *1341:A 5.9175 
*END

*D_NET *466 0.0246738
*CONN
*I *1274:A1 I *D sky130_fd_sc_hd__mux4_1
*I *1251:A3 I *D sky130_fd_sc_hd__mux4_1
*I *1421:A I *D sky130_fd_sc_hd__buf_1
*I *1266:A1 I *D sky130_fd_sc_hd__mux4_1
*I *1507:X O *D sky130_fd_sc_hd__dlymetal6s2s_1
*CAP
1 *1274:A1 6.69928e-05
2 *1251:A3 0
3 *1421:A 0.000138385
4 *1266:A1 0
5 *1507:X 0.00174378
6 *466:66 0.00145252
7 *466:52 0.00192512
8 *466:42 0.00291223
9 *466:28 0.00397803
10 N4BEG[8] *466:42 0.000167873
11 N4BEG[9] *466:42 0.000164384
12 *1250:A1 *466:66 0
13 *1250:B1 *466:66 0.000985946
14 *1251:A2 *466:52 4.68176e-05
15 *1251:A2 *466:66 1.25152e-05
16 *1271:A0 *466:28 0.000950927
17 *1274:S0 *466:52 2.93823e-05
18 *1274:S0 *466:66 0.000234801
19 *1274:S1 *466:66 0
20 *1308:D *466:28 6.07575e-06
21 *1381:A *466:66 0.000188649
22 *1393:A *1421:A 1.61227e-05
23 *1393:A *466:66 4.18603e-06
24 *1398:A *466:28 1.88904e-05
25 *1400:A *466:28 2.5424e-05
26 *1417:A *466:66 0.000394699
27 *1435:A *466:28 0.00044682
28 *1462:A *466:28 0.000382291
29 *1470:A *466:28 1.56428e-05
30 *1473:A *466:28 0.000561236
31 *1478:A *466:42 0.000100189
32 *1484:A *466:28 5.26874e-05
33 *1494:A *466:28 0.000238396
34 *1505:A *466:28 8.49205e-05
35 *1507:A *466:28 0.000122325
36 *1544:A *1274:A1 3.96153e-05
37 *1546:A *466:66 4.9312e-05
38 *1557:A *466:42 4.12303e-05
39 *1558:A *1421:A 0.000138551
40 *1566:A *466:42 0.00046661
41 *1566:A *466:52 0.000496075
42 *1569:A *466:28 1.23015e-05
43 *1569:A *466:42 2.08619e-05
44 *1583:A *466:42 0
45 *1583:A *466:52 0.000405409
46 *1598:A *466:66 0
47 *248:18 *1274:A1 4.12756e-05
48 *322:42 *466:42 8.63479e-05
49 *333:24 *466:42 9.67581e-05
50 *351:24 *466:66 0
51 *354:26 *466:42 0.000216136
52 *361:14 *466:42 0.00036682
53 *367:16 *466:42 0.00180537
54 *383:20 *466:66 8.43946e-05
55 *399:26 *1421:A 0.000118081
56 *409:20 *466:66 0.000826466
57 *410:14 *466:52 0.000406342
58 *410:14 *466:66 5.92691e-05
59 *416:28 *466:66 6.50632e-05
60 *417:24 *1421:A 0.000198651
61 *417:24 *466:66 3.09233e-05
62 *419:12 *466:66 0
63 *429:22 *466:28 9.94248e-05
64 *446:22 *466:28 0.000405745
65 *446:46 *1274:A1 7.33639e-05
66 *456:36 *466:28 1.7635e-05
67 *458:26 *466:28 0.000498957
68 *458:26 *466:42 4.67438e-06
69 *465:20 *1274:A1 3.3846e-05
*RES
1 *1507:X *466:28 33.9797 
2 *466:28 *466:42 36.8787 
3 *466:42 *466:52 3.37777 
4 *466:52 *466:66 33.955 
5 *466:66 *1266:A1 3.6 
6 *466:66 *1421:A 7.14 
7 *466:52 *1251:A3 3.6 
8 *466:42 *1274:A1 5.2129 
*END

*D_NET *467 0.0131133
*CONN
*I *1259:A3 I *D sky130_fd_sc_hd__mux4_1
*I *1267:A3 I *D sky130_fd_sc_hd__mux4_1
*I *1420:A I *D sky130_fd_sc_hd__clkbuf_1
*I *1508:X O *D sky130_fd_sc_hd__buf_1
*CAP
1 *1259:A3 0.00046733
2 *1267:A3 0
3 *1420:A 0.00185281
4 *1508:X 4.20019e-05
5 *467:65 0.001661
6 *467:10 0.00308849
7 *1259:A3 *1613:A 0.000542015
8 *1259:A3 *1618:A 0.000244435
9 *1420:A *1611:A 1.1071e-05
10 FrameStrobe_O[2] *467:65 4.77719e-05
11 *1254:A1 *1420:A 0.000125239
12 *1254:S0 *1420:A 8.40269e-05
13 *1256:A2 *1420:A 3.68007e-05
14 *1259:A2 *1259:A3 6.20601e-05
15 *1259:S1 *1259:A3 9.77231e-05
16 *1259:S1 *467:65 0.000205464
17 *1263:S1 *1420:A 8.35106e-05
18 *1265:A0 *1420:A 9.12424e-05
19 *1265:A0 *467:65 0
20 *1265:A1 *1420:A 4.66742e-05
21 *1265:S0 *1420:A 0.000641884
22 *1267:A0 *1259:A3 1.90973e-05
23 *1267:A2 *467:65 3.04189e-05
24 *1269:A2 *467:65 1.10377e-05
25 *1269:S0 *1420:A 0.000125795
26 *1269:S0 *467:65 8.50801e-06
27 *1273:A0 *1420:A 0.000125744
28 *1273:A2 *1420:A 0.000115522
29 *1289:GATE *1420:A 8.52845e-05
30 *1290:D *1420:A 0.000415824
31 *1297:D *1420:A 1.56428e-05
32 *1306:D *1420:A 0.000135389
33 *1329:A *1420:A 0.00016955
34 *1400:A *467:10 9.02937e-05
35 *1495:A *467:65 4.66108e-05
36 *1496:A *467:65 0.000341589
37 *1497:A *467:65 2.05056e-05
38 *1526:A *1259:A3 0
39 *1531:A *1259:A3 0.000122045
40 *1534:A *467:65 4.77719e-05
41 *1577:A *1420:A 2.24942e-05
42 *269:36 *1420:A 0.00014506
43 *276:40 *1420:A 0.000243383
44 *284:24 *1259:A3 9.14405e-05
45 *284:24 *467:65 9.14126e-05
46 *401:12 *1420:A 0.000137753
47 *404:77 *1420:A 6.0011e-05
48 *404:92 *1420:A 2.35435e-05
49 *442:90 *1259:A3 0.000225705
50 *449:14 *1420:A 0
51 *452:22 *467:65 0.000180992
52 *452:32 *467:65 7.47366e-05
53 *453:20 *467:65 4.89295e-05
54 *456:36 *467:65 4.78103e-05
55 *462:14 *1420:A 0.000203183
56 *462:18 *1420:A 6.59891e-05
57 *464:10 *467:10 9.26619e-05
*RES
1 *1508:X *467:10 6.725 
2 *467:10 *1420:A 43.86 
3 *467:10 *467:65 18.24 
4 *467:65 *1267:A3 1.6 
5 *467:65 *1259:A3 13.0937 
*END

*D_NET *468 0.0144556
*CONN
*I *1419:A I *D sky130_fd_sc_hd__clkbuf_1
*I *1268:A3 I *D sky130_fd_sc_hd__mux4_1
*I *1260:A3 I *D sky130_fd_sc_hd__mux4_1
*I *1509:X O *D sky130_fd_sc_hd__buf_1
*CAP
1 *1419:A 0.000140214
2 *1268:A3 0.000931372
3 *1260:A3 0.000151145
4 *1509:X 0.00149079
5 *468:45 0.00148011
6 *468:22 0.00205047
7 *1268:A3 *487:DIODE 4.97019e-05
8 *468:22 *1609:A 3.41952e-05
9 *468:22 *477:26 0.00040551
10 *468:22 *484:48 7.43546e-05
11 *468:45 *1278:D 0.000239385
12 *1253:A1 *1268:A3 0
13 *1256:A0 *468:22 0.000235339
14 *1257:A0 *1419:A 3.9232e-05
15 *1260:A2 *1260:A3 3.92416e-05
16 *1265:A2 *468:22 0.000374266
17 *1268:A0 *1268:A3 1.61831e-05
18 *1268:A2 *1268:A3 3.03684e-05
19 *1269:A0 *468:22 0.000180905
20 *1269:S0 *468:22 7.46323e-05
21 *1270:S1 *1268:A3 8.30853e-06
22 *1273:S1 *1268:A3 1.94092e-05
23 *1282:D *468:22 0.000157954
24 *1325:A *468:22 7.81994e-05
25 *1326:A *468:22 0.000168573
26 *1327:A *1268:A3 0
27 *1345:A *468:22 0.000523758
28 *1348:A *468:22 4.66108e-05
29 *1353:A *468:22 0.000118081
30 *1355:A *1419:A 0.000411883
31 *1357:A *1268:A3 0.000136409
32 *1357:A *1419:A 7.19538e-05
33 *1403:A *468:22 0.000210378
34 *1416:A *468:22 8.30829e-05
35 *1422:A *1268:A3 0
36 *1489:A *468:22 6.57705e-05
37 *1490:A *468:22 6.87336e-05
38 *1547:A *1260:A3 4.48945e-05
39 *1547:A *468:22 1.74943e-05
40 *1555:A *468:45 0.000144096
41 *1580:A *468:22 0.000166211
42 *1623:A *468:22 5.44896e-05
43 *295:48 *468:22 1.37923e-05
44 *297:44 *468:22 0.000716736
45 *310:40 *468:45 0.000286613
46 *322:42 *468:22 7.32296e-05
47 *347:58 *468:45 0.00014783
48 *358:40 *1419:A 0.000301115
49 *358:40 *468:45 0.000126566
50 *358:55 *468:45 4.2145e-05
51 *403:26 *1260:A3 1.9417e-05
52 *407:48 *1260:A3 1.74394e-06
53 *407:48 *1268:A3 0.000344508
54 *407:48 *1419:A 4.36573e-06
55 *412:68 *1268:A3 4.97019e-05
56 *415:22 *1268:A3 7.72475e-05
57 *427:20 *468:22 8.41703e-06
58 *435:18 *1419:A 6.95177e-05
59 *444:42 *1268:A3 8.97077e-05
60 *445:24 *468:22 2.45987e-06
61 *449:12 *468:22 0.000280518
62 *454:45 *468:45 0.000375255
63 *461:53 *1268:A3 0.000304468
64 *465:57 *1260:A3 0.0001804
65 *465:57 *468:22 0.000306101
*RES
1 *1509:X *468:22 28.7361 
2 *468:22 *1260:A3 4.8877 
3 *468:22 *468:45 2.9858 
4 *468:45 *1268:A3 21.8725 
5 *468:45 *1419:A 8.4975 
*END

*D_NET *469 0.00211466
*CONN
*I *1603:A I *D sky130_fd_sc_hd__buf_2
*I *1250:X O *D sky130_fd_sc_hd__a22o_1
*CAP
1 *1603:A 0.000181416
2 *1250:X 0.000181416
3 *1553:A *1603:A 0.000157599
4 *1600:A *1603:A 0.000847639
5 *412:68 *1603:A 0
6 *415:16 *1603:A 0.000737855
7 *443:34 *1603:A 8.73147e-06
*RES
1 *1250:X *1603:A 15.495 
*END

*D_NET *470 0.0175045
*CONN
*I *1604:A I *D sky130_fd_sc_hd__buf_2
*I *1325:X O *D sky130_fd_sc_hd__buf_1
*CAP
1 *1604:A 0.0044422
2 *1325:X 0.0044422
3 *1604:A *1613:A 8.31907e-05
4 FrameStrobe_O[12] *1604:A 0.000509474
5 FrameStrobe_O[15] *1604:A 4.12013e-05
6 FrameStrobe_O[4] *1604:A 0.000317376
7 *1259:S0 *1604:A 0.000691126
8 *1271:A0 *1604:A 0
9 *1347:A *1604:A 1.88656e-05
10 *1373:A *1604:A 9.24049e-05
11 *1374:A *1604:A 0
12 *1513:A *1604:A 0.00015262
13 *1519:A *1604:A 0.000696005
14 *1530:A *1604:A 0.000649227
15 *1531:A *1604:A 0.000199983
16 *1557:A *1604:A 0.00355457
17 *1570:A *1604:A 0.000165886
18 *1572:A *1604:A 0.00059606
19 *1575:A *1604:A 0.000338942
20 *1620:A *1604:A 0
21 *67:38 *1604:A 5.81547e-05
22 *294:32 *1604:A 7.40874e-05
23 *295:48 *1604:A 0
24 *427:20 *1604:A 2.05641e-05
25 *442:30 *1604:A 0.00011545
26 *448:52 *1604:A 7.61574e-05
27 *458:26 *1604:A 0.000168728
*RES
1 *1325:X *1604:A 49.124 
*END

*D_NET *471 0.0147321
*CONN
*I *1605:A I *D sky130_fd_sc_hd__buf_2
*I *1335:X O *D sky130_fd_sc_hd__buf_1
*CAP
1 *1605:A 0.00359492
2 *1335:X 0.00359492
3 *1252:A0 *1605:A 0.000216797
4 *1252:A1 *1605:A 0.000130247
5 *1269:S1 *1605:A 0.00136653
6 *1271:A0 *1605:A 1.09082e-05
7 *1271:S0 *1605:A 0.00015755
8 *1273:S1 *1605:A 8.82035e-05
9 *1332:A *1605:A 1.7635e-05
10 *1334:A *1605:A 3.26485e-05
11 *1518:A *1605:A 1.34363e-05
12 *1520:A *1605:A 0.00502338
13 *1555:A *1605:A 8.7152e-06
14 *1582:A *1605:A 4.14776e-05
15 *67:38 *1605:A 2.38557e-05
16 *404:10 *1605:A 9.95347e-05
17 *404:55 *1605:A 0.000102534
18 *415:22 *1605:A 0.000174227
19 *444:42 *1605:A 3.45596e-05
*RES
1 *1335:X *1605:A 21.4817 
*END

*D_NET *472 0.0186005
*CONN
*I *1606:A I *D sky130_fd_sc_hd__buf_2
*I *487:DIODE I *D sky130_fd_sc_hd__diode_2
*I *1336:X O *D sky130_fd_sc_hd__buf_1
*CAP
1 *1606:A 2.32169e-05
2 *487:DIODE 0.00333437
3 *1336:X 0.00331115
4 *487:DIODE *494:DIODE 0.00362894
5 *487:DIODE *1608:A 0.000114024
6 *1606:A *1608:A 2.75229e-05
7 FrameData_O[10] *487:DIODE 4.66108e-05
8 FrameData_O[1] *487:DIODE 3.86745e-05
9 FrameData_O[3] *487:DIODE 0.000123885
10 *491:DIODE *487:DIODE 0.000178668
11 *498:DIODE *487:DIODE 0.000110065
12 *499:DIODE *487:DIODE 0.00234062
13 *1252:A2 *487:DIODE 5.56629e-05
14 *1252:S1 *487:DIODE 0.000187678
15 *1256:A2 *487:DIODE 0.00011504
16 *1256:S1 *487:DIODE 0.000122189
17 *1268:A3 *487:DIODE 4.97019e-05
18 *1268:S1 *487:DIODE 0.000460244
19 *1285:D *487:DIODE 0.000278679
20 *1293:D *487:DIODE 0.000606692
21 *1303:GATE *487:DIODE 4.66108e-05
22 *1325:A *487:DIODE 4.32417e-05
23 *1336:A *487:DIODE 0.000140579
24 *1345:A *487:DIODE 7.22535e-05
25 *1364:A *487:DIODE 0.000180497
26 *1374:A *487:DIODE 0
27 *1375:A *487:DIODE 0.000332597
28 *1585:A *487:DIODE 1.66628e-05
29 *1591:A *487:DIODE 0.000826144
30 *299:40 *487:DIODE 2.4997e-05
31 *307:30 *487:DIODE 0.00124792
32 *309:32 *487:DIODE 0.000156708
33 *344:14 *487:DIODE 0.000143637
34 *399:26 *487:DIODE 2.77005e-05
35 *412:68 *487:DIODE 0.00018731
*RES
1 *1336:X *487:DIODE 45.1683 
2 *487:DIODE *1606:A 3.65 
*END

*D_NET *473 0.0109575
*CONN
*I *1607:A I *D sky130_fd_sc_hd__buf_2
*I *1337:X O *D sky130_fd_sc_hd__buf_1
*CAP
1 *1607:A 0.00148191
2 *1337:X 0.00144655
3 *473:14 0.00292846
4 *1607:A *1609:A 1.39456e-05
5 *1607:A *477:26 0.000161668
6 FrameData_O[14] *1607:A 2.10556e-05
7 *1254:S0 *1607:A 4.25279e-05
8 *1254:S0 *473:14 2.86265e-06
9 *1259:S0 *1607:A 0.000308586
10 *1261:S1 *1607:A 0.000194169
11 *1271:A3 *1607:A 0.000413036
12 *1316:GATE *1607:A 0.000375343
13 *1329:A *473:14 0.00013738
14 *1337:A *473:14 0.00019123
15 *1375:A *1607:A 0.00054624
16 *1390:A *473:14 5.97512e-05
17 *1396:A *1607:A 0.000604881
18 *1398:A *473:14 0.000100702
19 *1516:A *1607:A 6.75416e-05
20 *1531:A *1607:A 4.99619e-05
21 *1577:A *473:14 6.59214e-05
22 *276:40 *473:14 0.000366233
23 *333:22 *473:14 0.000173902
24 *404:77 *473:14 1.46744e-05
25 *404:92 *473:14 0.000191335
26 *404:143 *473:14 0.000102806
27 *405:36 *473:14 0.000812493
28 *405:49 *473:14 8.23457e-05
*RES
1 *1337:X *473:14 27.545 
2 *473:14 *1607:A 33.89 
*END

*D_NET *474 0.0121353
*CONN
*I *1608:A I *D sky130_fd_sc_hd__buf_2
*I *1338:X O *D sky130_fd_sc_hd__buf_1
*CAP
1 *1608:A 0.0032846
2 *1338:X 0.000605735
3 *474:18 0.00389034
4 *487:DIODE *1608:A 0.000114024
5 *1254:A3 *474:18 0.000553392
6 *1254:S0 *474:18 0.000267949
7 *1258:A1 *474:18 4.29792e-05
8 *1271:A2 *1608:A 1.71034e-05
9 *1305:D *474:18 0.000269103
10 *1306:D *1608:A 2.49909e-05
11 *1306:GATE *1608:A 8.63479e-05
12 *1337:A *474:18 0.000792199
13 *1338:A *474:18 1.88656e-05
14 *1369:A *1608:A 4.57056e-05
15 *1370:A *1608:A 0.000158415
16 *1374:A *1608:A 0.000232262
17 *1376:A *1608:A 0.000116158
18 *1398:A *474:18 5.01863e-05
19 *1516:A *1608:A 0.000116158
20 *1520:A *1608:A 0.000165928
21 *1525:A *1608:A 1.74678e-05
22 *1538:A *1608:A 0.000615624
23 *1606:A *1608:A 2.75229e-05
24 *269:36 *474:18 0.000129147
25 *306:30 *474:18 4.90031e-05
26 *414:26 *474:18 0
27 *429:22 *474:18 0.000272183
28 *445:42 *1608:A 6.58339e-05
29 *447:47 *1608:A 0.000106068
*RES
1 *1338:X *474:18 25.335 
2 *474:18 *1608:A 45.035 
*END

*D_NET *475 0.021284
*CONN
*I *1609:A I *D sky130_fd_sc_hd__buf_2
*I *1339:X O *D sky130_fd_sc_hd__buf_1
*CAP
1 *1609:A 0.00533777
2 *1339:X 0.00533777
3 *1609:A *1611:A 0.000710046
4 *1609:A *1616:A 1.82517e-05
5 *1609:A *477:26 0.000883357
6 *496:DIODE *1609:A 0.00514487
7 *1257:S0 *1609:A 2.68464e-05
8 *1272:A0 *1609:A 6.12805e-05
9 *1343:A *1609:A 0.000110083
10 *1400:A *1609:A 0.000695593
11 *1490:A *1609:A 0.000170387
12 *1516:A *1609:A 0
13 *1557:A *1609:A 0.00145845
14 *1564:A *1609:A 3.58855e-05
15 *1569:A *1609:A 7.5434e-05
16 *1607:A *1609:A 1.39456e-05
17 *336:57 *1609:A 1.48313e-05
18 *458:26 *1609:A 0.000148391
19 *461:30 *1609:A 0.000842496
20 *465:57 *1609:A 0.000164127
21 *468:22 *1609:A 3.41952e-05
*RES
1 *1339:X *1609:A 28.8897 
*END

*D_NET *476 0.0186502
*CONN
*I *1342:A I *D sky130_fd_sc_hd__buf_1
*I *1310:D I *D sky130_fd_sc_hd__dlxtp_1
*I *1278:D I *D sky130_fd_sc_hd__dlxtp_1
*I *1511:X O *D sky130_fd_sc_hd__buf_1
*CAP
1 *1342:A 0.000227162
2 *1310:D 1.66227e-05
3 *1278:D 0.000943168
4 *1511:X 0.00325378
5 *476:41 0.000552889
6 *476:14 0.00450605
7 *1342:A *1616:A 1.16578e-05
8 *496:DIODE *476:41 6.93328e-05
9 *1260:S0 *1342:A 0.000301299
10 *1260:S0 *476:41 1.7635e-05
11 *1270:A2 *476:14 0.000118081
12 *1270:S1 *1278:D 4.95188e-05
13 *1285:D *1278:D 0
14 *1288:D *1342:A 1.16578e-05
15 *1327:A *1342:A 0.000343391
16 *1327:A *476:41 1.88656e-05
17 *1328:A *1342:A 0.000127865
18 *1358:A *1310:D 4.77719e-05
19 *1381:A *476:14 0.000140503
20 *1418:A *476:41 0.000234221
21 *1431:A *1278:D 1.81196e-05
22 *1554:A *476:14 0.000142227
23 *1555:A *476:14 0.00010779
24 *1567:A *476:14 0.000842684
25 *1583:A *476:14 0.000765042
26 *1584:A *476:41 0.000180899
27 *292:16 *476:14 0.000967122
28 *347:58 *1278:D 9.47206e-05
29 *380:45 *476:41 2.89929e-05
30 *393:16 *1278:D 1.83847e-05
31 *399:26 *1278:D 2.58096e-05
32 *400:76 *476:41 2.65672e-05
33 *401:28 *1278:D 0.000122797
34 *403:54 *1310:D 1.56428e-05
35 *406:26 *1342:A 3.02513e-05
36 *406:39 *1342:A 0.000150326
37 *410:14 *476:14 0.000171034
38 *410:14 *476:41 4.50325e-05
39 *415:22 *1278:D 6.04355e-05
40 *417:24 *476:14 0
41 *454:14 *476:14 0.0021173
42 *454:45 *476:14 0.00132626
43 *454:45 *476:41 0.0001619
44 *468:45 *1278:D 0.000239385
*RES
1 *1511:X *476:14 27.7267 
2 *476:14 *1278:D 8.63803 
3 *476:14 *476:41 1.61537 
4 *476:41 *1310:D 4.05 
5 *476:41 *1342:A 10.065 
*END

*D_NET *477 0.0174995
*CONN
*I *1610:A I *D sky130_fd_sc_hd__buf_2
*I *493:DIODE I *D sky130_fd_sc_hd__diode_2
*I *1340:X O *D sky130_fd_sc_hd__buf_1
*CAP
1 *1610:A 6.06003e-05
2 *493:DIODE 0
3 *1340:X 0.00380111
4 *477:26 0.00386171
5 *477:26 *1611:A 2.54963e-05
6 *477:26 *484:48 0.000257918
7 FrameData_O[14] *477:26 3.37302e-05
8 *498:DIODE *477:26 0.000326601
9 *1258:A3 *477:26 0.000139906
10 *1261:A3 *477:26 5.38299e-06
11 *1263:S0 *477:26 0.00051446
12 *1267:S1 *477:26 1.63614e-05
13 *1272:A0 *477:26 0.000224327
14 *1302:D *477:26 4.58159e-05
15 *1306:D *477:26 0.00015566
16 *1320:D *477:26 0.000838495
17 *1325:A *477:26 0.000148983
18 *1327:A *477:26 0.000226095
19 *1375:A *477:26 0.000115347
20 *1418:A *477:26 0.000332182
21 *1516:A *477:26 1.79536e-05
22 *1520:A *477:26 0
23 *1555:A *477:26 0.000255582
24 *1577:A *477:26 0.0001614
25 *1607:A *477:26 0.000161668
26 *1609:A *477:26 0.000883357
27 *67:38 *477:26 0.000591101
28 *432:40 *477:26 0.00123072
29 *433:34 *477:26 3.82125e-06
30 *442:57 *477:26 0.00199675
31 *447:57 *477:26 0.000652771
32 *465:57 *477:26 8.72438e-06
33 *468:22 *477:26 0.00040551
*RES
1 *1340:X *477:26 21.8123 
2 *477:26 *493:DIODE 1.6 
3 *477:26 *1610:A 2.395 
*END

*D_NET *478 0.0163734
*CONN
*I *1611:A I *D sky130_fd_sc_hd__buf_2
*I *1341:X O *D sky130_fd_sc_hd__buf_1
*CAP
1 *1611:A 0.00355471
2 *1341:X 0.00355471
3 *1611:A *1612:A 4.11223e-05
4 *1611:A *1613:A 0.000281188
5 *1611:A *1616:A 0.000777318
6 *1611:A *484:48 0.00029083
7 *499:DIODE *1611:A 0.000619034
8 *1252:A0 *1611:A 3.92756e-05
9 *1258:S1 *1611:A 9.89165e-05
10 *1261:A3 *1611:A 0.000365368
11 *1263:S1 *1611:A 2.56594e-05
12 *1265:A3 *1611:A 0.000219339
13 *1265:S0 *1611:A 0.000433996
14 *1309:GATE *1611:A 4.35312e-05
15 *1312:D *1611:A 6.41515e-05
16 *1325:A *1611:A 1.37992e-05
17 *1327:A *1611:A 0.000118081
18 *1338:A *1611:A 7.81994e-05
19 *1418:A *1611:A 0.000555002
20 *1420:A *1611:A 1.1071e-05
21 *1514:A *1611:A 8.88593e-05
22 *1609:A *1611:A 0.000710046
23 *1623:A *1611:A 0.00119553
24 *269:36 *1611:A 0.000997902
25 *391:38 *1611:A 6.58202e-05
26 *405:10 *1611:A 2.85864e-05
27 *423:32 *1611:A 4.06889e-05
28 *433:34 *1611:A 0.000317399
29 *447:57 *1611:A 0.00138867
30 *455:65 *1611:A 5.82029e-05
31 *460:34 *1611:A 2.35896e-05
32 *460:76 *1611:A 0.000212849
33 *462:14 *1611:A 3.44655e-05
34 *477:26 *1611:A 2.54963e-05
*RES
1 *1341:X *1611:A 29.551 
*END

*D_NET *479 0.0184176
*CONN
*I *1612:A I *D sky130_fd_sc_hd__buf_2
*I *1342:X O *D sky130_fd_sc_hd__buf_1
*CAP
1 *1612:A 0.000991222
2 *1342:X 0.00106619
3 *479:38 0.00228694
4 *479:30 0.0023619
5 *1612:A *1614:A 0.000181229
6 *1612:A *1616:A 0.000143406
7 *1612:A *1619:A 0.00030287
8 *479:30 *1613:A 8.7152e-06
9 *479:30 *484:48 0.000210096
10 FrameData_O[16] *1612:A 4.92062e-05
11 FrameData_O[18] *1612:A 2.05641e-05
12 FrameData_O[23] *1612:A 0.000108647
13 FrameStrobe_O[12] *479:38 0
14 FrameStrobe_O[15] *479:38 0
15 FrameStrobe_O[19] *479:38 0.000426128
16 *1259:A2 *1612:A 0.000601808
17 *1267:A0 *479:38 5.69238e-05
18 *1282:D *479:30 0.000118313
19 *1327:A *479:30 8.7846e-05
20 *1343:A *479:30 0.000134915
21 *1376:A *1612:A 0
22 *1404:A *479:30 0.00041435
23 *1435:A *479:30 0.000963032
24 *1462:A *479:30 0.000115714
25 *1466:A *479:30 0.000385448
26 *1467:A *479:30 0.000122325
27 *1468:A *479:30 4.43886e-05
28 *1472:A *479:30 0.000418493
29 *1485:A *479:30 7.66388e-05
30 *1496:A *479:38 2.54522e-05
31 *1497:A *479:38 0.00125235
32 *1514:A *479:38 5.63183e-05
33 *1516:A *1612:A 7.88262e-05
34 *1526:A *479:38 0
35 *1527:A *1612:A 0.000122331
36 *1533:A *479:30 0.00022707
37 *1533:A *479:38 0.000378371
38 *1580:A *479:30 0.000160314
39 *1611:A *1612:A 4.11223e-05
40 *1620:A *1612:A 0.000458847
41 *1624:A *1612:A 0
42 *1625:A *1612:A 4.66108e-05
43 *293:14 *479:30 0.000100795
44 *293:14 *479:38 0.00294505
45 *294:38 *479:38 0
46 *391:38 *479:30 0.000106201
47 *406:26 *479:30 1.92621e-05
48 *406:39 *479:30 0.000161467
49 *423:32 *479:30 0.000265864
50 *425:14 *479:30 2.78201e-05
51 *453:24 *479:30 0.000246271
*RES
1 *1342:X *479:30 39.705 
2 *479:30 *479:38 39.715 
3 *479:38 *1612:A 27.62 
*END

*D_NET *480 0.015615
*CONN
*I *1613:A I *D sky130_fd_sc_hd__buf_2
*I *1343:X O *D sky130_fd_sc_hd__buf_1
*CAP
1 *1613:A 0.00323913
2 *1343:X 0.00323913
3 *1613:A *1618:A 0.00288753
4 FrameStrobe_O[17] *1613:A 5.49337e-05
5 FrameStrobe_O[2] *1613:A 0.00011863
6 *499:DIODE *1613:A 0.000188209
7 *1259:A3 *1613:A 0.000542015
8 *1267:A0 *1613:A 0.000965154
9 *1312:D *1613:A 0.00065334
10 *1330:A *1613:A 3.96676e-05
11 *1338:A *1613:A 7.54285e-05
12 *1376:A *1613:A 0.000233561
13 *1408:A *1613:A 0.000157221
14 *1539:A *1613:A 0.000224886
15 *1549:A *1613:A 0.00013557
16 *1564:A *1613:A 7.37e-05
17 *1604:A *1613:A 8.31907e-05
18 *1611:A *1613:A 0.000281188
19 *1623:A *1613:A 0.00020843
20 *1624:A *1613:A 0.000373754
21 *295:48 *1613:A 0.000159149
22 *304:26 *1613:A 0.000110007
23 *343:28 *1613:A 7.54285e-05
24 *391:38 *1613:A 5.92535e-05
25 *423:32 *1613:A 2.47723e-05
26 *433:34 *1613:A 0.000178619
27 *448:52 *1613:A 0.000179941
28 *460:34 *1613:A 9.04081e-05
29 *460:76 *1613:A 0.000954007
30 *479:30 *1613:A 8.7152e-06
*RES
1 *1343:X *1613:A 25.9711 
*END

*D_NET *481 0.0161224
*CONN
*I *1614:A I *D sky130_fd_sc_hd__buf_2
*I *1344:X O *D sky130_fd_sc_hd__buf_1
*CAP
1 *1614:A 0.000737333
2 *1344:X 0.000591245
3 *481:28 0.00255148
4 *481:24 0.00240539
5 *1614:A *1619:A 7.98745e-06
6 FrameData_O[19] *1614:A 1.26626e-05
7 FrameData_O[20] *1614:A 0
8 FrameData_O[21] *1614:A 4.72538e-05
9 FrameData_O[22] *1614:A 8.66976e-06
10 FrameData_O[23] *1614:A 0.000103983
11 FrameData_O[25] *1614:A 1.37812e-05
12 FrameData_O[27] *1614:A 0.000148431
13 FrameData_O[28] *1614:A 0
14 FrameData_O[29] *1614:A 0
15 FrameStrobe_O[10] *481:28 0.000129686
16 FrameStrobe_O[15] *481:28 7.27217e-05
17 *1271:A0 *481:24 3.16057e-06
18 *1271:S1 *481:28 0.00205362
19 *1272:A0 *481:24 8.77864e-05
20 *1282:D *481:24 0.000120407
21 *1308:D *481:24 8.89169e-05
22 *1376:A *1614:A 3.09164e-05
23 *1477:A *481:24 0.000224883
24 *1533:A *481:28 6.3124e-06
25 *1584:A *481:24 0.00016434
26 *1612:A *1614:A 0.000181229
27 *294:38 *1614:A 0.000173995
28 *294:38 *481:28 0.000633317
29 *406:26 *481:24 4.09056e-05
30 *425:14 *481:24 5.16479e-05
31 *425:14 *481:28 0.00102631
32 *425:49 *481:28 0.00116727
33 *426:26 *481:24 0.000123225
34 *428:22 *481:24 0.000848422
35 *442:30 *481:28 0.000851892
36 *450:16 *481:24 0.000959979
37 *450:16 *481:28 0.000330483
38 *463:28 *481:28 0.000122751
*RES
1 *1344:X *481:24 25.86 
2 *481:24 *481:28 48.8475 
3 *481:28 *1614:A 19.8425 
*END

*D_NET *482 0.0156673
*CONN
*I *1615:A I *D sky130_fd_sc_hd__buf_2
*I *494:DIODE I *D sky130_fd_sc_hd__diode_2
*I *1326:X O *D sky130_fd_sc_hd__buf_1
*CAP
1 *1615:A 2.22788e-05
2 *494:DIODE 0.00318653
3 *1326:X 0.00316425
4 *494:DIODE *1616:A 0.000208304
5 *494:DIODE *1619:A 3.03914e-05
6 *487:DIODE *494:DIODE 0.00362894
7 *499:DIODE *494:DIODE 0.00210483
8 *1254:A0 *494:DIODE 0.000231532
9 *1290:D *494:DIODE 1.23247e-05
10 *1330:A *494:DIODE 0.000504215
11 *1348:A *494:DIODE 0
12 *1374:A *494:DIODE 1.00941e-05
13 *1514:A *494:DIODE 0.000463563
14 *1515:A *1615:A 4.82863e-05
15 *1585:A *494:DIODE 0.000214887
16 *295:48 *494:DIODE 4.66108e-05
17 *307:30 *494:DIODE 0.000696613
18 *347:66 *494:DIODE 0.000143637
19 *351:24 *494:DIODE 6.86145e-05
20 *364:14 *494:DIODE 0.000156708
21 *420:30 *494:DIODE 5.27166e-05
22 *427:20 *494:DIODE 9.95146e-05
23 *444:42 *494:DIODE 0.000572405
*RES
1 *1326:X *494:DIODE 21.7471 
2 *494:DIODE *1615:A 3.65 
*END

*D_NET *483 0.0184702
*CONN
*I *1616:A I *D sky130_fd_sc_hd__buf_2
*I *1345:X O *D sky130_fd_sc_hd__buf_1
*CAP
1 *1616:A 0.0045064
2 *1345:X 0.0045064
3 *1616:A *1619:A 0.00110364
4 *494:DIODE *1616:A 0.000208304
5 *498:DIODE *1616:A 2.08619e-05
6 *1252:A0 *1616:A 0.000192109
7 *1254:A0 *1616:A 7.56727e-05
8 *1260:S0 *1616:A 0.000250206
9 *1263:S0 *1616:A 0.000114785
10 *1272:A0 *1616:A 2.50235e-05
11 *1288:D *1616:A 0.000156954
12 *1288:GATE *1616:A 8.7152e-06
13 *1301:D *1616:A 1.59601e-05
14 *1311:D *1616:A 7.53239e-05
15 *1325:A *1616:A 3.02789e-05
16 *1326:A *1616:A 0.000192539
17 *1328:A *1616:A 5.75488e-05
18 *1330:A *1616:A 0.000461844
19 *1339:A *1616:A 0.000107608
20 *1342:A *1616:A 1.16578e-05
21 *1390:A *1616:A 0.000235769
22 *1514:A *1616:A 0.00268963
23 *1580:A *1616:A 9.77048e-06
24 *1609:A *1616:A 1.82517e-05
25 *1611:A *1616:A 0.000777318
26 *1612:A *1616:A 0.000143406
27 *1624:A *1616:A 0
28 *67:38 *1616:A 0
29 *292:43 *1616:A 7.81994e-05
30 *294:32 *1616:A 0.000335452
31 *304:26 *1616:A 0.000108553
32 *322:42 *1616:A 0.000417207
33 *380:45 *1616:A 6.29072e-05
34 *420:30 *1616:A 1.86715e-05
35 *444:42 *1616:A 9.2372e-05
36 *455:65 *1616:A 0.00126056
37 *457:26 *1616:A 4.03734e-05
38 *460:34 *1616:A 5.9941e-05
*RES
1 *1345:X *1616:A 32.5293 
*END

*D_NET *484 0.0156935
*CONN
*I *1617:A I *D sky130_fd_sc_hd__buf_2
*I *1346:X O *D sky130_fd_sc_hd__buf_1
*CAP
1 *1617:A 5.74947e-05
2 *1346:X 0.00360179
3 *484:48 0.00365929
4 *484:48 *1619:A 0.000753369
5 FrameData_O[20] *1617:A 8.65905e-05
6 FrameData_O[20] *484:48 9.53428e-06
7 UserCLKo *484:48 9.45861e-05
8 *1252:A0 *484:48 4.09223e-05
9 *1256:A1 *484:48 0.000351852
10 *1259:S1 *484:48 0.000173541
11 *1261:A2 *484:48 3.03684e-05
12 *1282:D *484:48 0.00025356
13 *1301:D *484:48 3.03684e-05
14 *1308:D *484:48 8.35106e-05
15 *1309:D *484:48 1.7635e-05
16 *1312:D *484:48 8.23457e-05
17 *1325:A *484:48 7.54285e-05
18 *1327:A *484:48 3.83194e-05
19 *1341:A *484:48 0.000141797
20 *1343:A *484:48 5.29499e-05
21 *1346:A *484:48 6.10277e-05
22 *1397:A *484:48 0.000266538
23 *1398:A *484:48 0.000896655
24 *1408:A *484:48 0.00116839
25 *1416:A *484:48 0.000169245
26 *1498:A *484:48 1.88602e-05
27 *1611:A *484:48 0.00029083
28 *1623:A *484:48 0.000823319
29 *269:36 *484:48 0.00125387
30 *303:51 *484:48 1.53053e-05
31 *354:18 *484:48 1.7635e-05
32 *406:26 *484:48 4.29782e-05
33 *425:49 *484:48 1.46744e-05
34 *433:34 *484:48 5.99333e-05
35 *454:45 *484:48 4.77719e-05
36 *455:65 *484:48 0.000368831
37 *468:22 *484:48 7.43546e-05
38 *477:26 *484:48 0.000257918
39 *479:30 *484:48 0.000210096
*RES
1 *1346:X *484:48 49.5795 
2 *484:48 *1617:A 2.74 
*END

*D_NET *485 0.0146797
*CONN
*I *1618:A I *D sky130_fd_sc_hd__buf_2
*I *1347:X O *D sky130_fd_sc_hd__buf_1
*CAP
1 *1618:A 0.00283237
2 *1347:X 0.00283237
3 FrameData_O[28] *1618:A 2.61299e-05
4 FrameStrobe_O[2] *1618:A 0.000216237
5 UserCLKo *1618:A 1.88958e-05
6 *1259:A3 *1618:A 0.000244435
7 *1267:A0 *1618:A 0.00121044
8 *1308:D *1618:A 4.12303e-05
9 *1392:A *1618:A 0.000247997
10 *1396:A *1618:A 0.000172629
11 *1397:A *1618:A 8.4476e-05
12 *1462:A *1618:A 6.0637e-05
13 *1474:A *1618:A 3.72952e-05
14 *1532:A *1618:A 4.04634e-05
15 *1564:A *1618:A 4.82863e-05
16 *1575:A *1618:A 0.000106604
17 *1613:A *1618:A 0.00288753
18 *1623:A *1618:A 0.00233879
19 *1624:A *1618:A 0.000196669
20 *284:24 *1618:A 6.20444e-05
21 *310:50 *1618:A 3.69766e-05
22 *431:10 *1618:A 0.000104286
23 *433:34 *1618:A 1.61831e-05
24 *434:24 *1618:A 0.000531854
25 *436:42 *1618:A 6.91382e-05
26 *442:90 *1618:A 9.97985e-05
27 *448:52 *1618:A 2.38557e-05
28 *460:76 *1618:A 9.21198e-05
*RES
1 *1347:X *1618:A 32.2493 
*END

*D_NET *486 0.0141671
*CONN
*I *1619:A I *D sky130_fd_sc_hd__buf_2
*I *1348:X O *D sky130_fd_sc_hd__buf_1
*CAP
1 *1619:A 0.00342051
2 *1348:X 0.00342051
3 *494:DIODE *1619:A 3.03914e-05
4 *1254:A0 *1619:A 3.85231e-05
5 *1256:A1 *1619:A 2.90597e-05
6 *1259:S1 *1619:A 0.000286028
7 *1263:S0 *1619:A 5.98808e-05
8 *1308:D *1619:A 7.33639e-05
9 *1326:A *1619:A 5.40483e-06
10 *1348:A *1619:A 1.7635e-05
11 *1390:A *1619:A 0.000118139
12 *1398:A *1619:A 0.000899845
13 *1416:A *1619:A 0.000124363
14 *1514:A *1619:A 0.000523745
15 *1612:A *1619:A 0.00030287
16 *1614:A *1619:A 7.98745e-06
17 *1616:A *1619:A 0.00110364
18 *1623:A *1619:A 0.000427844
19 *1624:A *1619:A 0
20 *294:32 *1619:A 4.00942e-05
21 *354:18 *1619:A 0.000439688
22 *444:42 *1619:A 0.000184973
23 *457:14 *1619:A 0.00116234
24 *457:26 *1619:A 0.000108948
25 *460:34 *1619:A 0.000588
26 *484:48 *1619:A 0.000753369
*RES
1 *1348:X *1619:A 22.9769 
*END
