*SPEF "ieee 1481-1999"
*DESIGN "W_IO4"
*DATE "09:30:41 Sunday May 11, 2025"
*VENDOR "The OpenROAD Project"
*PROGRAM "OpenROAD"
*VERSION "87af90f72f3f9be1fdfa1d886f0dd8d8b8f34694"
*DESIGN_FLOW "NAME_SCOPE LOCAL" "PIN_CAP NONE"
*DIVIDER /
*DELIMITER :
*BUS_DELIMITER []
*T_UNIT 1 NS
*C_UNIT 1 PF
*R_UNIT 1 OHM
*L_UNIT 1 HENRY

*NAME_MAP
*1 A_I_top
*2 A_O_top
*3 A_T_top
*4 A_config_C_bit0
*5 A_config_C_bit1
*6 A_config_C_bit2
*7 A_config_C_bit3
*8 B_I_top
*9 B_O_top
*10 B_T_top
*11 B_config_C_bit0
*12 B_config_C_bit1
*13 B_config_C_bit2
*14 B_config_C_bit3
*15 C_I_top
*16 C_O_top
*17 C_T_top
*18 C_config_C_bit0
*19 C_config_C_bit1
*20 C_config_C_bit2
*21 C_config_C_bit3
*22 D_I_top
*23 D_O_top
*24 D_T_top
*25 D_config_C_bit0
*26 D_config_C_bit1
*27 D_config_C_bit2
*28 D_config_C_bit3
*29 E1BEG[0]
*30 E1BEG[1]
*31 E1BEG[2]
*32 E1BEG[3]
*33 E2BEG[0]
*34 E2BEG[1]
*35 E2BEG[2]
*36 E2BEG[3]
*37 E2BEG[4]
*38 E2BEG[5]
*39 E2BEG[6]
*40 E2BEG[7]
*41 E2BEGb[0]
*42 E2BEGb[1]
*43 E2BEGb[2]
*44 E2BEGb[3]
*45 E2BEGb[4]
*46 E2BEGb[5]
*47 E2BEGb[6]
*48 E2BEGb[7]
*49 E6BEG[0]
*50 E6BEG[10]
*51 E6BEG[11]
*52 E6BEG[1]
*53 E6BEG[2]
*54 E6BEG[3]
*55 E6BEG[4]
*56 E6BEG[5]
*57 E6BEG[6]
*58 E6BEG[7]
*59 E6BEG[8]
*60 E6BEG[9]
*61 EE4BEG[0]
*62 EE4BEG[10]
*63 EE4BEG[11]
*64 EE4BEG[12]
*65 EE4BEG[13]
*66 EE4BEG[14]
*67 EE4BEG[15]
*68 EE4BEG[1]
*69 EE4BEG[2]
*70 EE4BEG[3]
*71 EE4BEG[4]
*72 EE4BEG[5]
*73 EE4BEG[6]
*74 EE4BEG[7]
*75 EE4BEG[8]
*76 EE4BEG[9]
*77 FrameData[0]
*78 FrameData[10]
*79 FrameData[11]
*80 FrameData[12]
*81 FrameData[13]
*82 FrameData[14]
*83 FrameData[15]
*84 FrameData[16]
*85 FrameData[17]
*86 FrameData[18]
*87 FrameData[19]
*88 FrameData[1]
*89 FrameData[20]
*90 FrameData[21]
*91 FrameData[22]
*92 FrameData[23]
*93 FrameData[24]
*94 FrameData[25]
*95 FrameData[26]
*96 FrameData[27]
*97 FrameData[28]
*98 FrameData[29]
*99 FrameData[2]
*100 FrameData[30]
*101 FrameData[31]
*102 FrameData[3]
*103 FrameData[4]
*104 FrameData[5]
*105 FrameData[6]
*106 FrameData[7]
*107 FrameData[8]
*108 FrameData[9]
*109 FrameData_O[0]
*110 FrameData_O[10]
*111 FrameData_O[11]
*112 FrameData_O[12]
*113 FrameData_O[13]
*114 FrameData_O[14]
*115 FrameData_O[15]
*116 FrameData_O[16]
*117 FrameData_O[17]
*118 FrameData_O[18]
*119 FrameData_O[19]
*120 FrameData_O[1]
*121 FrameData_O[20]
*122 FrameData_O[21]
*123 FrameData_O[22]
*124 FrameData_O[23]
*125 FrameData_O[24]
*126 FrameData_O[25]
*127 FrameData_O[26]
*128 FrameData_O[27]
*129 FrameData_O[28]
*130 FrameData_O[29]
*131 FrameData_O[2]
*132 FrameData_O[30]
*133 FrameData_O[31]
*134 FrameData_O[3]
*135 FrameData_O[4]
*136 FrameData_O[5]
*137 FrameData_O[6]
*138 FrameData_O[7]
*139 FrameData_O[8]
*140 FrameData_O[9]
*141 FrameStrobe[0]
*142 FrameStrobe[10]
*143 FrameStrobe[11]
*144 FrameStrobe[12]
*145 FrameStrobe[13]
*146 FrameStrobe[14]
*147 FrameStrobe[15]
*148 FrameStrobe[16]
*149 FrameStrobe[17]
*150 FrameStrobe[18]
*151 FrameStrobe[19]
*152 FrameStrobe[1]
*153 FrameStrobe[2]
*154 FrameStrobe[3]
*155 FrameStrobe[4]
*156 FrameStrobe[5]
*157 FrameStrobe[6]
*158 FrameStrobe[7]
*159 FrameStrobe[8]
*160 FrameStrobe[9]
*161 FrameStrobe_O[0]
*162 FrameStrobe_O[10]
*163 FrameStrobe_O[11]
*164 FrameStrobe_O[12]
*165 FrameStrobe_O[13]
*166 FrameStrobe_O[14]
*167 FrameStrobe_O[15]
*168 FrameStrobe_O[16]
*169 FrameStrobe_O[17]
*170 FrameStrobe_O[18]
*171 FrameStrobe_O[19]
*172 FrameStrobe_O[1]
*173 FrameStrobe_O[2]
*174 FrameStrobe_O[3]
*175 FrameStrobe_O[4]
*176 FrameStrobe_O[5]
*177 FrameStrobe_O[6]
*178 FrameStrobe_O[7]
*179 FrameStrobe_O[8]
*180 FrameStrobe_O[9]
*181 UserCLK
*182 UserCLKo
*185 W1END[0]
*186 W1END[1]
*187 W1END[2]
*188 W1END[3]
*189 W2END[0]
*190 W2END[1]
*191 W2END[2]
*192 W2END[3]
*193 W2END[4]
*194 W2END[5]
*195 W2END[6]
*196 W2END[7]
*197 W2MID[0]
*198 W2MID[1]
*199 W2MID[2]
*200 W2MID[3]
*201 W2MID[4]
*202 W2MID[5]
*203 W2MID[6]
*204 W2MID[7]
*205 W6END[0]
*206 W6END[10]
*207 W6END[11]
*208 W6END[1]
*209 W6END[2]
*210 W6END[3]
*211 W6END[4]
*212 W6END[5]
*213 W6END[6]
*214 W6END[7]
*215 W6END[8]
*216 W6END[9]
*217 WW4END[0]
*218 WW4END[10]
*219 WW4END[11]
*220 WW4END[12]
*221 WW4END[13]
*222 WW4END[14]
*223 WW4END[15]
*224 WW4END[1]
*225 WW4END[2]
*226 WW4END[3]
*227 WW4END[4]
*228 WW4END[5]
*229 WW4END[6]
*230 WW4END[7]
*231 WW4END[8]
*232 WW4END[9]
*233 Inst_A_IO_1_bidirectional_frame_config_pass\.Q
*234 Inst_B_IO_1_bidirectional_frame_config_pass\.Q
*235 Inst_C_IO_1_bidirectional_frame_config_pass\.Q
*236 Inst_D_IO_1_bidirectional_frame_config_pass\.Q
*237 Inst_W_IO4_ConfigMem\.Inst_frame0_bit0\.Q
*238 Inst_W_IO4_ConfigMem\.Inst_frame0_bit1\.Q
*239 Inst_W_IO4_ConfigMem\.Inst_frame0_bit10\.Q
*240 Inst_W_IO4_ConfigMem\.Inst_frame0_bit11\.Q
*241 Inst_W_IO4_ConfigMem\.Inst_frame0_bit12\.Q
*242 Inst_W_IO4_ConfigMem\.Inst_frame0_bit13\.Q
*243 Inst_W_IO4_ConfigMem\.Inst_frame0_bit14\.Q
*244 Inst_W_IO4_ConfigMem\.Inst_frame0_bit15\.Q
*245 Inst_W_IO4_ConfigMem\.Inst_frame0_bit16\.Q
*246 Inst_W_IO4_ConfigMem\.Inst_frame0_bit17\.Q
*247 Inst_W_IO4_ConfigMem\.Inst_frame0_bit18\.Q
*248 Inst_W_IO4_ConfigMem\.Inst_frame0_bit19\.Q
*249 Inst_W_IO4_ConfigMem\.Inst_frame0_bit2\.Q
*250 Inst_W_IO4_ConfigMem\.Inst_frame0_bit20\.Q
*251 Inst_W_IO4_ConfigMem\.Inst_frame0_bit21\.Q
*252 Inst_W_IO4_ConfigMem\.Inst_frame0_bit22\.Q
*253 Inst_W_IO4_ConfigMem\.Inst_frame0_bit23\.Q
*254 Inst_W_IO4_ConfigMem\.Inst_frame0_bit24\.Q
*255 Inst_W_IO4_ConfigMem\.Inst_frame0_bit25\.Q
*256 Inst_W_IO4_ConfigMem\.Inst_frame0_bit26\.Q
*257 Inst_W_IO4_ConfigMem\.Inst_frame0_bit27\.Q
*258 Inst_W_IO4_ConfigMem\.Inst_frame0_bit28\.Q
*259 Inst_W_IO4_ConfigMem\.Inst_frame0_bit29\.Q
*260 Inst_W_IO4_ConfigMem\.Inst_frame0_bit3\.Q
*261 Inst_W_IO4_ConfigMem\.Inst_frame0_bit30\.Q
*262 Inst_W_IO4_ConfigMem\.Inst_frame0_bit31\.Q
*263 Inst_W_IO4_ConfigMem\.Inst_frame0_bit4\.Q
*264 Inst_W_IO4_ConfigMem\.Inst_frame0_bit5\.Q
*265 Inst_W_IO4_ConfigMem\.Inst_frame0_bit6\.Q
*266 Inst_W_IO4_ConfigMem\.Inst_frame0_bit7\.Q
*267 Inst_W_IO4_ConfigMem\.Inst_frame0_bit8\.Q
*268 Inst_W_IO4_ConfigMem\.Inst_frame0_bit9\.Q
*269 Inst_W_IO4_ConfigMem\.Inst_frame1_bit0\.Q
*270 Inst_W_IO4_ConfigMem\.Inst_frame1_bit1\.Q
*271 Inst_W_IO4_ConfigMem\.Inst_frame1_bit10\.Q
*272 Inst_W_IO4_ConfigMem\.Inst_frame1_bit11\.Q
*273 Inst_W_IO4_ConfigMem\.Inst_frame1_bit12\.Q
*274 Inst_W_IO4_ConfigMem\.Inst_frame1_bit13\.Q
*275 Inst_W_IO4_ConfigMem\.Inst_frame1_bit14\.Q
*276 Inst_W_IO4_ConfigMem\.Inst_frame1_bit15\.Q
*277 Inst_W_IO4_ConfigMem\.Inst_frame1_bit16\.Q
*278 Inst_W_IO4_ConfigMem\.Inst_frame1_bit17\.Q
*279 Inst_W_IO4_ConfigMem\.Inst_frame1_bit18\.Q
*280 Inst_W_IO4_ConfigMem\.Inst_frame1_bit19\.Q
*281 Inst_W_IO4_ConfigMem\.Inst_frame1_bit2\.Q
*282 Inst_W_IO4_ConfigMem\.Inst_frame1_bit20\.Q
*283 Inst_W_IO4_ConfigMem\.Inst_frame1_bit21\.Q
*284 Inst_W_IO4_ConfigMem\.Inst_frame1_bit22\.Q
*285 Inst_W_IO4_ConfigMem\.Inst_frame1_bit23\.Q
*286 Inst_W_IO4_ConfigMem\.Inst_frame1_bit24\.Q
*287 Inst_W_IO4_ConfigMem\.Inst_frame1_bit25\.Q
*288 Inst_W_IO4_ConfigMem\.Inst_frame1_bit26\.Q
*289 Inst_W_IO4_ConfigMem\.Inst_frame1_bit27\.Q
*290 Inst_W_IO4_ConfigMem\.Inst_frame1_bit28\.Q
*291 Inst_W_IO4_ConfigMem\.Inst_frame1_bit29\.Q
*292 Inst_W_IO4_ConfigMem\.Inst_frame1_bit3\.Q
*293 Inst_W_IO4_ConfigMem\.Inst_frame1_bit30\.Q
*294 Inst_W_IO4_ConfigMem\.Inst_frame1_bit31\.Q
*295 Inst_W_IO4_ConfigMem\.Inst_frame1_bit4\.Q
*296 Inst_W_IO4_ConfigMem\.Inst_frame1_bit5\.Q
*297 Inst_W_IO4_ConfigMem\.Inst_frame1_bit6\.Q
*298 Inst_W_IO4_ConfigMem\.Inst_frame1_bit7\.Q
*299 Inst_W_IO4_ConfigMem\.Inst_frame1_bit8\.Q
*300 Inst_W_IO4_ConfigMem\.Inst_frame1_bit9\.Q
*301 Inst_W_IO4_ConfigMem\.Inst_frame2_bit0\.Q
*302 Inst_W_IO4_ConfigMem\.Inst_frame2_bit1\.Q
*303 Inst_W_IO4_ConfigMem\.Inst_frame2_bit10\.Q
*304 Inst_W_IO4_ConfigMem\.Inst_frame2_bit11\.Q
*305 Inst_W_IO4_ConfigMem\.Inst_frame2_bit12\.Q
*306 Inst_W_IO4_ConfigMem\.Inst_frame2_bit13\.Q
*307 Inst_W_IO4_ConfigMem\.Inst_frame2_bit14\.Q
*308 Inst_W_IO4_ConfigMem\.Inst_frame2_bit15\.Q
*309 Inst_W_IO4_ConfigMem\.Inst_frame2_bit16\.Q
*310 Inst_W_IO4_ConfigMem\.Inst_frame2_bit17\.Q
*311 Inst_W_IO4_ConfigMem\.Inst_frame2_bit18\.Q
*312 Inst_W_IO4_ConfigMem\.Inst_frame2_bit19\.Q
*313 Inst_W_IO4_ConfigMem\.Inst_frame2_bit2\.Q
*314 Inst_W_IO4_ConfigMem\.Inst_frame2_bit20\.Q
*315 Inst_W_IO4_ConfigMem\.Inst_frame2_bit21\.Q
*316 Inst_W_IO4_ConfigMem\.Inst_frame2_bit22\.Q
*317 Inst_W_IO4_ConfigMem\.Inst_frame2_bit23\.Q
*318 Inst_W_IO4_ConfigMem\.Inst_frame2_bit24\.Q
*319 Inst_W_IO4_ConfigMem\.Inst_frame2_bit25\.Q
*320 Inst_W_IO4_ConfigMem\.Inst_frame2_bit26\.Q
*321 Inst_W_IO4_ConfigMem\.Inst_frame2_bit27\.Q
*322 Inst_W_IO4_ConfigMem\.Inst_frame2_bit28\.Q
*323 Inst_W_IO4_ConfigMem\.Inst_frame2_bit29\.Q
*324 Inst_W_IO4_ConfigMem\.Inst_frame2_bit3\.Q
*325 Inst_W_IO4_ConfigMem\.Inst_frame2_bit30\.Q
*326 Inst_W_IO4_ConfigMem\.Inst_frame2_bit31\.Q
*327 Inst_W_IO4_ConfigMem\.Inst_frame2_bit4\.Q
*328 Inst_W_IO4_ConfigMem\.Inst_frame2_bit5\.Q
*329 Inst_W_IO4_ConfigMem\.Inst_frame2_bit6\.Q
*330 Inst_W_IO4_ConfigMem\.Inst_frame2_bit7\.Q
*331 Inst_W_IO4_ConfigMem\.Inst_frame2_bit8\.Q
*332 Inst_W_IO4_ConfigMem\.Inst_frame2_bit9\.Q
*333 Inst_W_IO4_ConfigMem\.Inst_frame3_bit10\.Q
*334 Inst_W_IO4_ConfigMem\.Inst_frame3_bit11\.Q
*335 Inst_W_IO4_ConfigMem\.Inst_frame3_bit12\.Q
*336 Inst_W_IO4_ConfigMem\.Inst_frame3_bit13\.Q
*337 Inst_W_IO4_ConfigMem\.Inst_frame3_bit14\.Q
*338 Inst_W_IO4_ConfigMem\.Inst_frame3_bit15\.Q
*339 Inst_W_IO4_ConfigMem\.Inst_frame3_bit16\.Q
*340 Inst_W_IO4_ConfigMem\.Inst_frame3_bit17\.Q
*341 Inst_W_IO4_ConfigMem\.Inst_frame3_bit18\.Q
*342 Inst_W_IO4_ConfigMem\.Inst_frame3_bit19\.Q
*343 Inst_W_IO4_ConfigMem\.Inst_frame3_bit20\.Q
*344 Inst_W_IO4_ConfigMem\.Inst_frame3_bit21\.Q
*345 Inst_W_IO4_ConfigMem\.Inst_frame3_bit22\.Q
*346 Inst_W_IO4_ConfigMem\.Inst_frame3_bit23\.Q
*347 Inst_W_IO4_ConfigMem\.Inst_frame3_bit24\.Q
*348 Inst_W_IO4_ConfigMem\.Inst_frame3_bit25\.Q
*349 Inst_W_IO4_ConfigMem\.Inst_frame3_bit26\.Q
*350 Inst_W_IO4_ConfigMem\.Inst_frame3_bit27\.Q
*351 Inst_W_IO4_ConfigMem\.Inst_frame3_bit28\.Q
*352 Inst_W_IO4_ConfigMem\.Inst_frame3_bit29\.Q
*353 Inst_W_IO4_ConfigMem\.Inst_frame3_bit30\.Q
*354 Inst_W_IO4_ConfigMem\.Inst_frame3_bit31\.Q
*355 Inst_W_IO4_ConfigMem\.Inst_frame3_bit4\.Q
*356 Inst_W_IO4_ConfigMem\.Inst_frame3_bit5\.Q
*357 Inst_W_IO4_ConfigMem\.Inst_frame3_bit6\.Q
*358 Inst_W_IO4_ConfigMem\.Inst_frame3_bit7\.Q
*359 Inst_W_IO4_ConfigMem\.Inst_frame3_bit8\.Q
*360 Inst_W_IO4_ConfigMem\.Inst_frame3_bit9\.Q
*361 Inst_W_IO4_switch_matrix\.E1BEG0
*362 Inst_W_IO4_switch_matrix\.E1BEG1
*363 Inst_W_IO4_switch_matrix\.E1BEG2
*364 Inst_W_IO4_switch_matrix\.E1BEG3
*365 Inst_W_IO4_switch_matrix\.E2BEG0
*366 Inst_W_IO4_switch_matrix\.E2BEG1
*367 Inst_W_IO4_switch_matrix\.E2BEG2
*368 Inst_W_IO4_switch_matrix\.E2BEG3
*369 Inst_W_IO4_switch_matrix\.E2BEG4
*370 Inst_W_IO4_switch_matrix\.E2BEG5
*371 Inst_W_IO4_switch_matrix\.E2BEG6
*372 Inst_W_IO4_switch_matrix\.E2BEG7
*373 Inst_W_IO4_switch_matrix\.E2BEGb0
*374 Inst_W_IO4_switch_matrix\.E2BEGb1
*375 Inst_W_IO4_switch_matrix\.E2BEGb2
*376 Inst_W_IO4_switch_matrix\.E2BEGb3
*377 Inst_W_IO4_switch_matrix\.E2BEGb4
*378 Inst_W_IO4_switch_matrix\.E2BEGb5
*379 Inst_W_IO4_switch_matrix\.E2BEGb6
*380 Inst_W_IO4_switch_matrix\.E2BEGb7
*381 Inst_W_IO4_switch_matrix\.E6BEG0
*382 Inst_W_IO4_switch_matrix\.E6BEG1
*383 Inst_W_IO4_switch_matrix\.E6BEG10
*384 Inst_W_IO4_switch_matrix\.E6BEG11
*385 Inst_W_IO4_switch_matrix\.E6BEG2
*386 Inst_W_IO4_switch_matrix\.E6BEG3
*387 Inst_W_IO4_switch_matrix\.E6BEG4
*388 Inst_W_IO4_switch_matrix\.E6BEG5
*389 Inst_W_IO4_switch_matrix\.E6BEG6
*390 Inst_W_IO4_switch_matrix\.E6BEG7
*391 Inst_W_IO4_switch_matrix\.E6BEG8
*392 Inst_W_IO4_switch_matrix\.E6BEG9
*393 Inst_W_IO4_switch_matrix\.EE4BEG0
*394 Inst_W_IO4_switch_matrix\.EE4BEG1
*395 Inst_W_IO4_switch_matrix\.EE4BEG10
*396 Inst_W_IO4_switch_matrix\.EE4BEG11
*397 Inst_W_IO4_switch_matrix\.EE4BEG12
*398 Inst_W_IO4_switch_matrix\.EE4BEG13
*399 Inst_W_IO4_switch_matrix\.EE4BEG14
*400 Inst_W_IO4_switch_matrix\.EE4BEG15
*401 Inst_W_IO4_switch_matrix\.EE4BEG2
*402 Inst_W_IO4_switch_matrix\.EE4BEG3
*403 Inst_W_IO4_switch_matrix\.EE4BEG4
*404 Inst_W_IO4_switch_matrix\.EE4BEG5
*405 Inst_W_IO4_switch_matrix\.EE4BEG6
*406 Inst_W_IO4_switch_matrix\.EE4BEG7
*407 Inst_W_IO4_switch_matrix\.EE4BEG8
*408 Inst_W_IO4_switch_matrix\.EE4BEG9
*409 UserCLK_regs
*410 _000_
*411 _001_
*412 _002_
*413 _003_
*414 _004_
*415 _005_
*416 _006_
*417 _007_
*418 _008_
*419 _009_
*420 _010_
*421 _011_
*422 _012_
*423 _013_
*424 _014_
*425 _015_
*426 _016_
*427 _017_
*428 _018_
*429 _019_
*430 _020_
*431 _021_
*432 _022_
*433 _023_
*434 _024_
*435 _025_
*436 _026_
*437 _027_
*438 _028_
*439 _029_
*440 _030_
*441 _031_
*442 _032_
*443 _033_
*444 _034_
*445 _035_
*446 _036_
*447 _037_
*448 _038_
*449 _039_
*450 _040_
*451 _041_
*452 _042_
*453 _043_
*454 _044_
*455 _045_
*456 _046_
*457 _047_
*458 _048_
*459 _049_
*460 _050_
*461 _051_
*462 _052_
*463 _053_
*464 _054_
*465 _055_
*466 _056_
*467 _057_
*468 _058_
*469 _059_
*470 _060_
*471 _061_
*472 _062_
*473 _063_
*474 clknet_0_UserCLK
*475 clknet_0_UserCLK_regs
*476 clknet_1_0__leaf_UserCLK
*477 clknet_1_0__leaf_UserCLK_regs
*478 clknet_1_1__leaf_UserCLK_regs
*479 net1
*480 net10
*481 net100
*482 net101
*483 net102
*484 net103
*485 net104
*486 net105
*487 net106
*488 net107
*489 net108
*490 net109
*491 net11
*492 net110
*493 net111
*494 net112
*495 net113
*496 net114
*497 net115
*498 net116
*499 net117
*500 net118
*501 net119
*502 net12
*503 net120
*504 net121
*505 net122
*506 net123
*507 net124
*508 net125
*509 net126
*510 net127
*511 net128
*512 net129
*513 net13
*514 net130
*515 net131
*516 net132
*517 net133
*518 net134
*519 net135
*520 net136
*521 net137
*522 net138
*523 net139
*524 net14
*525 net140
*526 net141
*527 net142
*528 net143
*529 net144
*530 net145
*531 net146
*532 net147
*533 net148
*534 net149
*535 net15
*536 net150
*537 net151
*538 net152
*539 net153
*540 net154
*541 net155
*542 net156
*543 net157
*544 net158
*545 net159
*546 net16
*547 net160
*548 net161
*549 net162
*550 net163
*551 net164
*552 net165
*553 net166
*554 net167
*555 net168
*556 net169
*557 net17
*558 net170
*559 net171
*560 net172
*561 net173
*562 net174
*563 net175
*564 net176
*565 net177
*566 net178
*567 net179
*568 net18
*569 net180
*570 net181
*571 net182
*572 net183
*573 net184
*574 net185
*575 net186
*576 net187
*577 net188
*578 net189
*579 net19
*580 net190
*581 net191
*582 net192
*583 net193
*584 net194
*585 net195
*586 net196
*587 net197
*588 net198
*589 net199
*590 net2
*591 net20
*592 net200
*593 net201
*594 net202
*595 net203
*596 net204
*597 net205
*598 net206
*599 net207
*600 net208
*601 net209
*602 net21
*603 net210
*604 net211
*605 net212
*606 net213
*607 net214
*608 net215
*609 net216
*610 net217
*611 net218
*612 net219
*613 net22
*614 net220
*615 net221
*616 net222
*617 net223
*618 net224
*619 net225
*620 net226
*621 net227
*622 net228
*623 net229
*624 net23
*625 net230
*626 net24
*627 net25
*628 net26
*629 net27
*630 net28
*631 net29
*632 net3
*633 net30
*634 net31
*635 net32
*636 net33
*637 net34
*638 net35
*639 net36
*640 net37
*641 net38
*642 net39
*643 net4
*644 net40
*645 net41
*646 net42
*647 net43
*648 net44
*649 net45
*650 net46
*651 net47
*652 net48
*653 net49
*654 net5
*655 net50
*656 net51
*657 net52
*658 net53
*659 net54
*660 net55
*661 net56
*662 net57
*663 net58
*664 net59
*665 net6
*666 net60
*667 net61
*668 net62
*669 net63
*670 net64
*671 net65
*672 net66
*673 net67
*674 net68
*675 net69
*676 net7
*677 net70
*678 net71
*679 net72
*680 net73
*681 net74
*682 net75
*683 net76
*684 net77
*685 net78
*686 net79
*687 net8
*688 net80
*689 net81
*690 net82
*691 net83
*692 net84
*693 net85
*694 net86
*695 net87
*696 net88
*697 net89
*698 net9
*699 net90
*700 net91
*701 net92
*702 net93
*703 net94
*704 net95
*705 net96
*706 net97
*707 net98
*708 net99
*709 ANTENNA_1
*710 ANTENNA_10
*711 ANTENNA_11
*712 ANTENNA_12
*713 ANTENNA_13
*714 ANTENNA_14
*715 ANTENNA_15
*716 ANTENNA_16
*717 ANTENNA_17
*718 ANTENNA_18
*719 ANTENNA_19
*720 ANTENNA_2
*721 ANTENNA_20
*722 ANTENNA_21
*723 ANTENNA_22
*724 ANTENNA_23
*725 ANTENNA_24
*726 ANTENNA_25
*727 ANTENNA_26
*728 ANTENNA_27
*729 ANTENNA_28
*730 ANTENNA_29
*731 ANTENNA_3
*732 ANTENNA_30
*733 ANTENNA_31
*734 ANTENNA_32
*735 ANTENNA_33
*736 ANTENNA_34
*737 ANTENNA_35
*738 ANTENNA_4
*739 ANTENNA_5
*740 ANTENNA_6
*741 ANTENNA_7
*742 ANTENNA_8
*743 ANTENNA_9
*744 FILLER_0_11
*745 FILLER_0_14
*746 FILLER_0_20
*747 FILLER_0_23
*748 FILLER_0_26
*749 FILLER_0_29
*750 FILLER_0_32
*751 FILLER_0_35
*752 FILLER_0_38
*753 FILLER_0_41
*754 FILLER_0_44
*755 FILLER_0_47
*756 FILLER_0_50
*757 FILLER_0_53
*758 FILLER_0_57
*759 FILLER_0_60
*760 FILLER_0_63
*761 FILLER_0_66
*762 FILLER_0_69
*763 FILLER_0_72
*764 FILLER_0_75
*765 FILLER_0_78
*766 FILLER_10_23
*767 FILLER_10_26
*768 FILLER_10_29
*769 FILLER_10_32
*770 FILLER_10_43
*771 FILLER_10_46
*772 FILLER_10_49
*773 FILLER_10_52
*774 FILLER_10_75
*775 FILLER_11_53
*776 FILLER_11_7
*777 FILLER_12_10
*778 FILLER_12_13
*779 FILLER_12_27
*780 FILLER_12_7
*781 FILLER_12_80
*782 FILLER_13_15
*783 FILLER_13_18
*784 FILLER_13_21
*785 FILLER_13_24
*786 FILLER_13_27
*787 FILLER_13_49
*788 FILLER_14_23
*789 FILLER_14_26
*790 FILLER_14_29
*791 FILLER_14_76
*792 FILLER_15_28
*793 FILLER_15_3
*794 FILLER_15_31
*795 FILLER_15_34
*796 FILLER_15_37
*797 FILLER_15_40
*798 FILLER_15_43
*799 FILLER_15_46
*800 FILLER_15_49
*801 FILLER_15_52
*802 FILLER_15_57
*803 FILLER_15_80
*804 FILLER_16_13
*805 FILLER_16_16
*806 FILLER_16_19
*807 FILLER_16_22
*808 FILLER_16_25
*809 FILLER_16_29
*810 FILLER_16_32
*811 FILLER_16_7
*812 FILLER_16_79
*813 FILLER_17_22
*814 FILLER_17_25
*815 FILLER_17_28
*816 FILLER_17_31
*817 FILLER_17_34
*818 FILLER_17_37
*819 FILLER_17_41
*820 FILLER_17_44
*821 FILLER_17_47
*822 FILLER_17_50
*823 FILLER_17_53
*824 FILLER_17_57
*825 FILLER_17_60
*826 FILLER_17_7
*827 FILLER_18_10
*828 FILLER_18_25
*829 FILLER_18_3
*830 FILLER_18_52
*831 FILLER_19_3
*832 FILLER_19_50
*833 FILLER_19_71
*834 FILLER_19_74
*835 FILLER_1_21
*836 FILLER_1_24
*837 FILLER_1_27
*838 FILLER_1_3
*839 FILLER_1_30
*840 FILLER_1_44
*841 FILLER_1_47
*842 FILLER_1_52
*843 FILLER_1_55
*844 FILLER_1_57
*845 FILLER_1_6
*846 FILLER_1_60
*847 FILLER_1_63
*848 FILLER_1_66
*849 FILLER_1_69
*850 FILLER_1_72
*851 FILLER_1_75
*852 FILLER_1_78
*853 FILLER_20_19
*854 FILLER_20_22
*855 FILLER_20_25
*856 FILLER_20_29
*857 FILLER_20_32
*858 FILLER_20_35
*859 FILLER_20_38
*860 FILLER_20_41
*861 FILLER_20_44
*862 FILLER_20_47
*863 FILLER_20_62
*864 FILLER_20_79
*865 FILLER_21_19
*866 FILLER_21_22
*867 FILLER_21_25
*868 FILLER_21_28
*869 FILLER_21_31
*870 FILLER_21_34
*871 FILLER_21_37
*872 FILLER_21_40
*873 FILLER_21_45
*874 FILLER_21_48
*875 FILLER_21_51
*876 FILLER_21_54
*877 FILLER_21_57
*878 FILLER_22_16
*879 FILLER_22_19
*880 FILLER_22_22
*881 FILLER_22_25
*882 FILLER_22_3
*883 FILLER_22_36
*884 FILLER_22_39
*885 FILLER_22_42
*886 FILLER_22_45
*887 FILLER_22_48
*888 FILLER_23_10
*889 FILLER_23_13
*890 FILLER_23_33
*891 FILLER_23_7
*892 FILLER_24_23
*893 FILLER_24_42
*894 FILLER_24_45
*895 FILLER_25_22
*896 FILLER_25_3
*897 FILLER_25_40
*898 FILLER_25_43
*899 FILLER_25_57
*900 FILLER_26_11
*901 FILLER_26_14
*902 FILLER_26_17
*903 FILLER_26_20
*904 FILLER_26_23
*905 FILLER_26_26
*906 FILLER_26_29
*907 FILLER_26_36
*908 FILLER_26_39
*909 FILLER_26_42
*910 FILLER_27_15
*911 FILLER_27_18
*912 FILLER_27_21
*913 FILLER_27_24
*914 FILLER_27_27
*915 FILLER_27_31
*916 FILLER_27_34
*917 FILLER_27_37
*918 FILLER_27_40
*919 FILLER_27_43
*920 FILLER_27_46
*921 FILLER_27_49
*922 FILLER_27_52
*923 FILLER_27_55
*924 FILLER_27_57
*925 FILLER_27_60
*926 FILLER_27_80
*927 FILLER_28_3
*928 FILLER_28_41
*929 FILLER_28_44
*930 FILLER_28_47
*931 FILLER_28_50
*932 FILLER_28_53
*933 FILLER_28_56
*934 FILLER_28_59
*935 FILLER_28_62
*936 FILLER_29_55
*937 FILLER_29_69
*938 FILLER_29_7
*939 FILLER_2_26
*940 FILLER_2_33
*941 FILLER_2_7
*942 FILLER_2_71
*943 FILLER_2_76
*944 FILLER_2_79
*945 FILLER_30_29
*946 FILLER_30_37
*947 FILLER_31_17
*948 FILLER_31_3
*949 FILLER_31_51
*950 FILLER_31_57
*951 FILLER_32_17
*952 FILLER_32_20
*953 FILLER_32_23
*954 FILLER_32_26
*955 FILLER_32_29
*956 FILLER_32_3
*957 FILLER_32_32
*958 FILLER_32_35
*959 FILLER_33_11
*960 FILLER_33_14
*961 FILLER_33_17
*962 FILLER_33_20
*963 FILLER_33_23
*964 FILLER_33_26
*965 FILLER_33_41
*966 FILLER_33_44
*967 FILLER_33_47
*968 FILLER_33_50
*969 FILLER_33_57
*970 FILLER_33_79
*971 FILLER_34_10
*972 FILLER_34_13
*973 FILLER_34_16
*974 FILLER_34_19
*975 FILLER_34_22
*976 FILLER_34_25
*977 FILLER_34_41
*978 FILLER_34_44
*979 FILLER_34_47
*980 FILLER_34_50
*981 FILLER_34_53
*982 FILLER_34_56
*983 FILLER_34_7
*984 FILLER_35_18
*985 FILLER_35_57
*986 FILLER_36_19
*987 FILLER_36_23
*988 FILLER_36_26
*989 FILLER_36_29
*990 FILLER_36_32
*991 FILLER_36_35
*992 FILLER_36_38
*993 FILLER_36_69
*994 FILLER_37_29
*995 FILLER_37_3
*996 FILLER_37_32
*997 FILLER_37_57
*998 FILLER_37_80
*999 FILLER_38_16
*1000 FILLER_38_19
*1001 FILLER_38_22
*1002 FILLER_38_25
*1003 FILLER_38_3
*1004 FILLER_38_41
*1005 FILLER_38_44
*1006 FILLER_38_47
*1007 FILLER_38_50
*1008 FILLER_38_58
*1009 FILLER_38_63
*1010 FILLER_38_66
*1011 FILLER_38_79
*1012 FILLER_39_11
*1013 FILLER_39_14
*1014 FILLER_39_17
*1015 FILLER_39_20
*1016 FILLER_39_23
*1017 FILLER_39_37
*1018 FILLER_39_40
*1019 FILLER_39_43
*1020 FILLER_39_46
*1021 FILLER_39_49
*1022 FILLER_39_55
*1023 FILLER_39_57
*1024 FILLER_39_72
*1025 FILLER_3_21
*1026 FILLER_3_24
*1027 FILLER_3_38
*1028 FILLER_3_55
*1029 FILLER_3_7
*1030 FILLER_3_79
*1031 FILLER_40_12
*1032 FILLER_40_15
*1033 FILLER_40_18
*1034 FILLER_40_21
*1035 FILLER_40_25
*1036 FILLER_40_29
*1037 FILLER_40_32
*1038 FILLER_40_35
*1039 FILLER_40_57
*1040 FILLER_40_6
*1041 FILLER_40_60
*1042 FILLER_40_63
*1043 FILLER_40_9
*1044 FILLER_41_29
*1045 FILLER_41_42
*1046 FILLER_41_45
*1047 FILLER_41_48
*1048 FILLER_41_51
*1049 FILLER_41_54
*1050 FILLER_41_7
*1051 FILLER_42_15
*1052 FILLER_42_23
*1053 FILLER_42_26
*1054 FILLER_42_29
*1055 FILLER_42_32
*1056 FILLER_42_35
*1057 FILLER_42_80
*1058 FILLER_43_15
*1059 FILLER_43_18
*1060 FILLER_43_21
*1061 FILLER_43_24
*1062 FILLER_43_27
*1063 FILLER_43_30
*1064 FILLER_43_43
*1065 FILLER_43_46
*1066 FILLER_43_49
*1067 FILLER_43_52
*1068 FILLER_43_55
*1069 FILLER_43_72
*1070 FILLER_44_18
*1071 FILLER_44_21
*1072 FILLER_44_24
*1073 FILLER_44_27
*1074 FILLER_44_29
*1075 FILLER_44_32
*1076 FILLER_44_43
*1077 FILLER_44_46
*1078 FILLER_44_49
*1079 FILLER_44_52
*1080 FILLER_44_58
*1081 FILLER_44_61
*1082 FILLER_44_64
*1083 FILLER_45_17
*1084 FILLER_45_20
*1085 FILLER_45_23
*1086 FILLER_45_3
*1087 FILLER_45_34
*1088 FILLER_45_57
*1089 FILLER_45_71
*1090 FILLER_46_13
*1091 FILLER_46_27
*1092 FILLER_46_44
*1093 FILLER_46_79
*1094 FILLER_47_27
*1095 FILLER_47_42
*1096 FILLER_47_45
*1097 FILLER_47_48
*1098 FILLER_47_51
*1099 FILLER_47_54
*1100 FILLER_47_57
*1101 FILLER_47_60
*1102 FILLER_47_63
*1103 FILLER_47_66
*1104 FILLER_47_69
*1105 FILLER_47_72
*1106 FILLER_48_11
*1107 FILLER_48_25
*1108 FILLER_48_29
*1109 FILLER_48_32
*1110 FILLER_48_35
*1111 FILLER_48_50
*1112 FILLER_48_53
*1113 FILLER_48_56
*1114 FILLER_48_59
*1115 FILLER_48_62
*1116 FILLER_48_65
*1117 FILLER_48_68
*1118 FILLER_48_71
*1119 FILLER_49_16
*1120 FILLER_49_19
*1121 FILLER_49_22
*1122 FILLER_49_25
*1123 FILLER_49_28
*1124 FILLER_49_3
*1125 FILLER_49_50
*1126 FILLER_49_53
*1127 FILLER_4_15
*1128 FILLER_4_18
*1129 FILLER_4_21
*1130 FILLER_4_24
*1131 FILLER_4_27
*1132 FILLER_4_29
*1133 FILLER_4_32
*1134 FILLER_4_36
*1135 FILLER_50_10
*1136 FILLER_50_13
*1137 FILLER_50_29
*1138 FILLER_50_32
*1139 FILLER_50_35
*1140 FILLER_50_38
*1141 FILLER_50_41
*1142 FILLER_50_68
*1143 FILLER_50_73
*1144 FILLER_51_10
*1145 FILLER_51_13
*1146 FILLER_51_16
*1147 FILLER_51_3
*1148 FILLER_51_31
*1149 FILLER_51_34
*1150 FILLER_51_48
*1151 FILLER_51_51
*1152 FILLER_51_54
*1153 FILLER_52_22
*1154 FILLER_52_25
*1155 FILLER_52_29
*1156 FILLER_52_32
*1157 FILLER_52_35
*1158 FILLER_52_48
*1159 FILLER_52_63
*1160 FILLER_52_68
*1161 FILLER_53_13
*1162 FILLER_53_28
*1163 FILLER_53_31
*1164 FILLER_53_34
*1165 FILLER_53_37
*1166 FILLER_53_40
*1167 FILLER_53_43
*1168 FILLER_53_46
*1169 FILLER_53_49
*1170 FILLER_53_52
*1171 FILLER_53_55
*1172 FILLER_53_7
*1173 FILLER_54_10
*1174 FILLER_54_13
*1175 FILLER_54_16
*1176 FILLER_54_19
*1177 FILLER_54_22
*1178 FILLER_54_25
*1179 FILLER_54_29
*1180 FILLER_54_51
*1181 FILLER_54_54
*1182 FILLER_54_57
*1183 FILLER_54_60
*1184 FILLER_54_63
*1185 FILLER_54_66
*1186 FILLER_54_7
*1187 FILLER_55_55
*1188 FILLER_55_57
*1189 FILLER_55_60
*1190 FILLER_55_63
*1191 FILLER_56_29
*1192 FILLER_56_3
*1193 FILLER_56_32
*1194 FILLER_56_35
*1195 FILLER_56_38
*1196 FILLER_56_55
*1197 FILLER_56_79
*1198 FILLER_57_10
*1199 FILLER_57_13
*1200 FILLER_57_38
*1201 FILLER_57_52
*1202 FILLER_58_10
*1203 FILLER_58_13
*1204 FILLER_58_16
*1205 FILLER_58_19
*1206 FILLER_58_22
*1207 FILLER_58_25
*1208 FILLER_58_29
*1209 FILLER_58_32
*1210 FILLER_58_7
*1211 FILLER_58_78
*1212 FILLER_59_15
*1213 FILLER_59_18
*1214 FILLER_59_21
*1215 FILLER_59_24
*1216 FILLER_59_27
*1217 FILLER_59_45
*1218 FILLER_59_48
*1219 FILLER_59_51
*1220 FILLER_59_54
*1221 FILLER_59_57
*1222 FILLER_59_60
*1223 FILLER_59_63
*1224 FILLER_5_19
*1225 FILLER_5_22
*1226 FILLER_5_40
*1227 FILLER_5_43
*1228 FILLER_5_46
*1229 FILLER_5_49
*1230 FILLER_5_52
*1231 FILLER_5_55
*1232 FILLER_5_57
*1233 FILLER_5_60
*1234 FILLER_5_63
*1235 FILLER_60_21
*1236 FILLER_60_24
*1237 FILLER_60_27
*1238 FILLER_60_29
*1239 FILLER_60_3
*1240 FILLER_60_32
*1241 FILLER_60_35
*1242 FILLER_60_53
*1243 FILLER_60_56
*1244 FILLER_61_17
*1245 FILLER_61_3
*1246 FILLER_62_11
*1247 FILLER_62_14
*1248 FILLER_62_27
*1249 FILLER_62_71
*1250 FILLER_63_10
*1251 FILLER_63_13
*1252 FILLER_63_36
*1253 FILLER_63_39
*1254 FILLER_63_42
*1255 FILLER_63_45
*1256 FILLER_63_48
*1257 FILLER_63_51
*1258 FILLER_63_7
*1259 FILLER_64_10
*1260 FILLER_64_13
*1261 FILLER_64_27
*1262 FILLER_64_29
*1263 FILLER_64_58
*1264 FILLER_64_7
*1265 FILLER_64_75
*1266 FILLER_65_15
*1267 FILLER_65_18
*1268 FILLER_65_21
*1269 FILLER_65_24
*1270 FILLER_65_27
*1271 FILLER_65_30
*1272 FILLER_65_54
*1273 FILLER_66_18
*1274 FILLER_66_21
*1275 FILLER_66_24
*1276 FILLER_66_27
*1277 FILLER_66_45
*1278 FILLER_66_75
*1279 FILLER_67_10
*1280 FILLER_67_33
*1281 FILLER_67_54
*1282 FILLER_68_19
*1283 FILLER_68_22
*1284 FILLER_68_25
*1285 FILLER_68_33
*1286 FILLER_68_46
*1287 FILLER_68_6
*1288 FILLER_68_68
*1289 FILLER_69_10
*1290 FILLER_69_13
*1291 FILLER_69_16
*1292 FILLER_69_20
*1293 FILLER_69_23
*1294 FILLER_69_26
*1295 FILLER_69_54
*1296 FILLER_69_7
*1297 FILLER_69_79
*1298 FILLER_6_11
*1299 FILLER_6_26
*1300 FILLER_6_48
*1301 FILLER_6_61
*1302 FILLER_6_64
*1303 FILLER_6_67
*1304 FILLER_6_70
*1305 FILLER_6_73
*1306 FILLER_6_76
*1307 FILLER_6_79
*1308 FILLER_70_14
*1309 FILLER_70_29
*1310 FILLER_70_32
*1311 FILLER_70_35
*1312 FILLER_70_57
*1313 FILLER_71_3
*1314 FILLER_71_80
*1315 FILLER_72_15
*1316 FILLER_72_18
*1317 FILLER_72_21
*1318 FILLER_72_24
*1319 FILLER_72_27
*1320 FILLER_72_29
*1321 FILLER_72_32
*1322 FILLER_72_35
*1323 FILLER_72_38
*1324 FILLER_72_41
*1325 FILLER_72_54
*1326 FILLER_72_7
*1327 FILLER_72_80
*1328 FILLER_73_11
*1329 FILLER_73_14
*1330 FILLER_73_17
*1331 FILLER_73_20
*1332 FILLER_73_23
*1333 FILLER_73_26
*1334 FILLER_73_29
*1335 FILLER_73_3
*1336 FILLER_73_32
*1337 FILLER_73_35
*1338 FILLER_73_39
*1339 FILLER_73_42
*1340 FILLER_73_45
*1341 FILLER_73_48
*1342 FILLER_73_51
*1343 FILLER_73_54
*1344 FILLER_73_8
*1345 FILLER_74_10
*1346 FILLER_74_26
*1347 FILLER_74_50
*1348 FILLER_74_53
*1349 FILLER_74_56
*1350 FILLER_74_59
*1351 FILLER_74_62
*1352 FILLER_74_7
*1353 FILLER_75_10
*1354 FILLER_75_13
*1355 FILLER_75_27
*1356 FILLER_75_30
*1357 FILLER_75_55
*1358 FILLER_76_10
*1359 FILLER_76_26
*1360 FILLER_76_29
*1361 FILLER_76_32
*1362 FILLER_76_45
*1363 FILLER_76_48
*1364 FILLER_76_51
*1365 FILLER_76_54
*1366 FILLER_76_7
*1367 FILLER_77_17
*1368 FILLER_77_20
*1369 FILLER_77_23
*1370 FILLER_77_26
*1371 FILLER_77_29
*1372 FILLER_77_3
*1373 FILLER_77_57
*1374 FILLER_77_60
*1375 FILLER_78_15
*1376 FILLER_78_18
*1377 FILLER_78_21
*1378 FILLER_78_24
*1379 FILLER_78_27
*1380 FILLER_78_29
*1381 FILLER_78_32
*1382 FILLER_78_35
*1383 FILLER_78_38
*1384 FILLER_78_41
*1385 FILLER_78_44
*1386 FILLER_78_57
*1387 FILLER_78_79
*1388 FILLER_79_20
*1389 FILLER_79_23
*1390 FILLER_79_26
*1391 FILLER_79_29
*1392 FILLER_79_32
*1393 FILLER_79_35
*1394 FILLER_79_38
*1395 FILLER_79_43
*1396 FILLER_79_46
*1397 FILLER_79_51
*1398 FILLER_79_54
*1399 FILLER_79_57
*1400 FILLER_79_7
*1401 FILLER_7_26
*1402 FILLER_7_41
*1403 FILLER_7_44
*1404 FILLER_7_47
*1405 FILLER_7_50
*1406 FILLER_7_53
*1407 FILLER_7_57
*1408 FILLER_7_60
*1409 FILLER_7_63
*1410 FILLER_7_7
*1411 FILLER_7_70
*1412 FILLER_7_73
*1413 FILLER_7_76
*1414 FILLER_7_79
*1415 FILLER_80_22
*1416 FILLER_80_25
*1417 FILLER_80_3
*1418 FILLER_80_32
*1419 FILLER_80_47
*1420 FILLER_80_50
*1421 FILLER_80_8
*1422 FILLER_80_80
*1423 FILLER_81_14
*1424 FILLER_81_20
*1425 FILLER_81_47
*1426 FILLER_81_50
*1427 FILLER_81_53
*1428 FILLER_81_57
*1429 FILLER_81_60
*1430 FILLER_81_63
*1431 FILLER_81_66
*1432 FILLER_81_69
*1433 FILLER_81_72
*1434 FILLER_81_78
*1435 FILLER_82_26
*1436 FILLER_82_29
*1437 FILLER_82_43
*1438 FILLER_82_46
*1439 FILLER_82_49
*1440 FILLER_82_52
*1441 FILLER_82_55
*1442 FILLER_82_59
*1443 FILLER_82_62
*1444 FILLER_82_65
*1445 FILLER_82_68
*1446 FILLER_82_7
*1447 FILLER_82_71
*1448 FILLER_82_74
*1449 FILLER_82_77
*1450 FILLER_82_80
*1451 FILLER_83_28
*1452 FILLER_83_31
*1453 FILLER_83_34
*1454 FILLER_83_69
*1455 FILLER_83_72
*1456 FILLER_83_80
*1457 FILLER_84_13
*1458 FILLER_84_16
*1459 FILLER_84_19
*1460 FILLER_84_22
*1461 FILLER_84_26
*1462 FILLER_84_29
*1463 FILLER_84_3
*1464 FILLER_84_76
*1465 FILLER_85_27
*1466 FILLER_85_3
*1467 FILLER_85_52
*1468 FILLER_85_63
*1469 FILLER_85_68
*1470 FILLER_85_78
*1471 FILLER_85_8
*1472 FILLER_86_27
*1473 FILLER_86_32
*1474 FILLER_86_44
*1475 FILLER_86_60
*1476 FILLER_86_63
*1477 FILLER_86_75
*1478 FILLER_87_40
*1479 FILLER_87_43
*1480 FILLER_87_46
*1481 FILLER_87_49
*1482 FILLER_87_57
*1483 FILLER_87_9
*1484 FILLER_88_11
*1485 FILLER_88_36
*1486 FILLER_88_41
*1487 FILLER_88_46
*1488 FILLER_88_51
*1489 FILLER_88_61
*1490 FILLER_88_66
*1491 FILLER_88_69
*1492 FILLER_88_80
*1493 FILLER_8_12
*1494 FILLER_8_15
*1495 FILLER_8_18
*1496 FILLER_8_21
*1497 FILLER_8_24
*1498 FILLER_8_27
*1499 FILLER_8_29
*1500 FILLER_8_32
*1501 FILLER_8_35
*1502 FILLER_8_38
*1503 FILLER_8_56
*1504 FILLER_8_59
*1505 FILLER_8_62
*1506 FILLER_8_65
*1507 FILLER_8_68
*1508 FILLER_8_7
*1509 FILLER_8_71
*1510 FILLER_8_74
*1511 FILLER_8_77
*1512 FILLER_8_80
*1513 FILLER_9_17
*1514 FILLER_9_20
*1515 FILLER_9_23
*1516 FILLER_9_26
*1517 FILLER_9_29
*1518 FILLER_9_3
*1519 FILLER_9_32
*1520 FILLER_9_35
*1521 FILLER_9_38
*1522 FILLER_9_41
*1523 FILLER_9_44
*1524 FILLER_9_47
*1525 FILLER_9_50
*1526 FILLER_9_53
*1527 PHY_EDGE_ROW_0_Left_89
*1528 PHY_EDGE_ROW_0_Right_0
*1529 PHY_EDGE_ROW_10_Left_99
*1530 PHY_EDGE_ROW_10_Right_10
*1531 PHY_EDGE_ROW_11_Left_100
*1532 PHY_EDGE_ROW_11_Right_11
*1533 PHY_EDGE_ROW_12_Left_101
*1534 PHY_EDGE_ROW_12_Right_12
*1535 PHY_EDGE_ROW_13_Left_102
*1536 PHY_EDGE_ROW_13_Right_13
*1537 PHY_EDGE_ROW_14_Left_103
*1538 PHY_EDGE_ROW_14_Right_14
*1539 PHY_EDGE_ROW_15_Left_104
*1540 PHY_EDGE_ROW_15_Right_15
*1541 PHY_EDGE_ROW_16_Left_105
*1542 PHY_EDGE_ROW_16_Right_16
*1543 PHY_EDGE_ROW_17_Left_106
*1544 PHY_EDGE_ROW_17_Right_17
*1545 PHY_EDGE_ROW_18_Left_107
*1546 PHY_EDGE_ROW_18_Right_18
*1547 PHY_EDGE_ROW_19_Left_108
*1548 PHY_EDGE_ROW_19_Right_19
*1549 PHY_EDGE_ROW_1_Left_90
*1550 PHY_EDGE_ROW_1_Right_1
*1551 PHY_EDGE_ROW_20_Left_109
*1552 PHY_EDGE_ROW_20_Right_20
*1553 PHY_EDGE_ROW_21_Left_110
*1554 PHY_EDGE_ROW_21_Right_21
*1555 PHY_EDGE_ROW_22_Left_111
*1556 PHY_EDGE_ROW_22_Right_22
*1557 PHY_EDGE_ROW_23_Left_112
*1558 PHY_EDGE_ROW_23_Right_23
*1559 PHY_EDGE_ROW_24_Left_113
*1560 PHY_EDGE_ROW_24_Right_24
*1561 PHY_EDGE_ROW_25_Left_114
*1562 PHY_EDGE_ROW_25_Right_25
*1563 PHY_EDGE_ROW_26_Left_115
*1564 PHY_EDGE_ROW_26_Right_26
*1565 PHY_EDGE_ROW_27_Left_116
*1566 PHY_EDGE_ROW_27_Right_27
*1567 PHY_EDGE_ROW_28_Left_117
*1568 PHY_EDGE_ROW_28_Right_28
*1569 PHY_EDGE_ROW_29_Left_118
*1570 PHY_EDGE_ROW_29_Right_29
*1571 PHY_EDGE_ROW_2_Left_91
*1572 PHY_EDGE_ROW_2_Right_2
*1573 PHY_EDGE_ROW_30_Left_119
*1574 PHY_EDGE_ROW_30_Right_30
*1575 PHY_EDGE_ROW_31_Left_120
*1576 PHY_EDGE_ROW_31_Right_31
*1577 PHY_EDGE_ROW_32_Left_121
*1578 PHY_EDGE_ROW_32_Right_32
*1579 PHY_EDGE_ROW_33_Left_122
*1580 PHY_EDGE_ROW_33_Right_33
*1581 PHY_EDGE_ROW_34_Left_123
*1582 PHY_EDGE_ROW_34_Right_34
*1583 PHY_EDGE_ROW_35_Left_124
*1584 PHY_EDGE_ROW_35_Right_35
*1585 PHY_EDGE_ROW_36_Left_125
*1586 PHY_EDGE_ROW_36_Right_36
*1587 PHY_EDGE_ROW_37_Left_126
*1588 PHY_EDGE_ROW_37_Right_37
*1589 PHY_EDGE_ROW_38_Left_127
*1590 PHY_EDGE_ROW_38_Right_38
*1591 PHY_EDGE_ROW_39_Left_128
*1592 PHY_EDGE_ROW_39_Right_39
*1593 PHY_EDGE_ROW_3_Left_92
*1594 PHY_EDGE_ROW_3_Right_3
*1595 PHY_EDGE_ROW_40_Left_129
*1596 PHY_EDGE_ROW_40_Right_40
*1597 PHY_EDGE_ROW_41_Left_130
*1598 PHY_EDGE_ROW_41_Right_41
*1599 PHY_EDGE_ROW_42_Left_131
*1600 PHY_EDGE_ROW_42_Right_42
*1601 PHY_EDGE_ROW_43_Left_132
*1602 PHY_EDGE_ROW_43_Right_43
*1603 PHY_EDGE_ROW_44_Left_133
*1604 PHY_EDGE_ROW_44_Right_44
*1605 PHY_EDGE_ROW_45_Left_134
*1606 PHY_EDGE_ROW_45_Right_45
*1607 PHY_EDGE_ROW_46_Left_135
*1608 PHY_EDGE_ROW_46_Right_46
*1609 PHY_EDGE_ROW_47_Left_136
*1610 PHY_EDGE_ROW_47_Right_47
*1611 PHY_EDGE_ROW_48_Left_137
*1612 PHY_EDGE_ROW_48_Right_48
*1613 PHY_EDGE_ROW_49_Left_138
*1614 PHY_EDGE_ROW_49_Right_49
*1615 PHY_EDGE_ROW_4_Left_93
*1616 PHY_EDGE_ROW_4_Right_4
*1617 PHY_EDGE_ROW_50_Left_139
*1618 PHY_EDGE_ROW_50_Right_50
*1619 PHY_EDGE_ROW_51_Left_140
*1620 PHY_EDGE_ROW_51_Right_51
*1621 PHY_EDGE_ROW_52_Left_141
*1622 PHY_EDGE_ROW_52_Right_52
*1623 PHY_EDGE_ROW_53_Left_142
*1624 PHY_EDGE_ROW_53_Right_53
*1625 PHY_EDGE_ROW_54_Left_143
*1626 PHY_EDGE_ROW_54_Right_54
*1627 PHY_EDGE_ROW_55_Left_144
*1628 PHY_EDGE_ROW_55_Right_55
*1629 PHY_EDGE_ROW_56_Left_145
*1630 PHY_EDGE_ROW_56_Right_56
*1631 PHY_EDGE_ROW_57_Left_146
*1632 PHY_EDGE_ROW_57_Right_57
*1633 PHY_EDGE_ROW_58_Left_147
*1634 PHY_EDGE_ROW_58_Right_58
*1635 PHY_EDGE_ROW_59_Left_148
*1636 PHY_EDGE_ROW_59_Right_59
*1637 PHY_EDGE_ROW_5_Left_94
*1638 PHY_EDGE_ROW_5_Right_5
*1639 PHY_EDGE_ROW_60_Left_149
*1640 PHY_EDGE_ROW_60_Right_60
*1641 PHY_EDGE_ROW_61_Left_150
*1642 PHY_EDGE_ROW_61_Right_61
*1643 PHY_EDGE_ROW_62_Left_151
*1644 PHY_EDGE_ROW_62_Right_62
*1645 PHY_EDGE_ROW_63_Left_152
*1646 PHY_EDGE_ROW_63_Right_63
*1647 PHY_EDGE_ROW_64_Left_153
*1648 PHY_EDGE_ROW_64_Right_64
*1649 PHY_EDGE_ROW_65_Left_154
*1650 PHY_EDGE_ROW_65_Right_65
*1651 PHY_EDGE_ROW_66_Left_155
*1652 PHY_EDGE_ROW_66_Right_66
*1653 PHY_EDGE_ROW_67_Left_156
*1654 PHY_EDGE_ROW_67_Right_67
*1655 PHY_EDGE_ROW_68_Left_157
*1656 PHY_EDGE_ROW_68_Right_68
*1657 PHY_EDGE_ROW_69_Left_158
*1658 PHY_EDGE_ROW_69_Right_69
*1659 PHY_EDGE_ROW_6_Left_95
*1660 PHY_EDGE_ROW_6_Right_6
*1661 PHY_EDGE_ROW_70_Left_159
*1662 PHY_EDGE_ROW_70_Right_70
*1663 PHY_EDGE_ROW_71_Left_160
*1664 PHY_EDGE_ROW_71_Right_71
*1665 PHY_EDGE_ROW_72_Left_161
*1666 PHY_EDGE_ROW_72_Right_72
*1667 PHY_EDGE_ROW_73_Left_162
*1668 PHY_EDGE_ROW_73_Right_73
*1669 PHY_EDGE_ROW_74_Left_163
*1670 PHY_EDGE_ROW_74_Right_74
*1671 PHY_EDGE_ROW_75_Left_164
*1672 PHY_EDGE_ROW_75_Right_75
*1673 PHY_EDGE_ROW_76_Left_165
*1674 PHY_EDGE_ROW_76_Right_76
*1675 PHY_EDGE_ROW_77_Left_166
*1676 PHY_EDGE_ROW_77_Right_77
*1677 PHY_EDGE_ROW_78_Left_167
*1678 PHY_EDGE_ROW_78_Right_78
*1679 PHY_EDGE_ROW_79_Left_168
*1680 PHY_EDGE_ROW_79_Right_79
*1681 PHY_EDGE_ROW_7_Left_96
*1682 PHY_EDGE_ROW_7_Right_7
*1683 PHY_EDGE_ROW_80_Left_169
*1684 PHY_EDGE_ROW_80_Right_80
*1685 PHY_EDGE_ROW_81_Left_170
*1686 PHY_EDGE_ROW_81_Right_81
*1687 PHY_EDGE_ROW_82_Left_171
*1688 PHY_EDGE_ROW_82_Right_82
*1689 PHY_EDGE_ROW_83_Left_172
*1690 PHY_EDGE_ROW_83_Right_83
*1691 PHY_EDGE_ROW_84_Left_173
*1692 PHY_EDGE_ROW_84_Right_84
*1693 PHY_EDGE_ROW_85_Left_174
*1694 PHY_EDGE_ROW_85_Right_85
*1695 PHY_EDGE_ROW_86_Left_175
*1696 PHY_EDGE_ROW_86_Right_86
*1697 PHY_EDGE_ROW_87_Left_176
*1698 PHY_EDGE_ROW_87_Right_87
*1699 PHY_EDGE_ROW_88_Left_177
*1700 PHY_EDGE_ROW_88_Right_88
*1701 PHY_EDGE_ROW_8_Left_97
*1702 PHY_EDGE_ROW_8_Right_8
*1703 PHY_EDGE_ROW_9_Left_98
*1704 PHY_EDGE_ROW_9_Right_9
*1705 TAP_TAPCELL_ROW_0_178
*1706 TAP_TAPCELL_ROW_0_179
*1707 TAP_TAPCELL_ROW_10_189
*1708 TAP_TAPCELL_ROW_11_190
*1709 TAP_TAPCELL_ROW_12_191
*1710 TAP_TAPCELL_ROW_13_192
*1711 TAP_TAPCELL_ROW_14_193
*1712 TAP_TAPCELL_ROW_15_194
*1713 TAP_TAPCELL_ROW_16_195
*1714 TAP_TAPCELL_ROW_17_196
*1715 TAP_TAPCELL_ROW_18_197
*1716 TAP_TAPCELL_ROW_19_198
*1717 TAP_TAPCELL_ROW_1_180
*1718 TAP_TAPCELL_ROW_20_199
*1719 TAP_TAPCELL_ROW_21_200
*1720 TAP_TAPCELL_ROW_22_201
*1721 TAP_TAPCELL_ROW_23_202
*1722 TAP_TAPCELL_ROW_24_203
*1723 TAP_TAPCELL_ROW_25_204
*1724 TAP_TAPCELL_ROW_26_205
*1725 TAP_TAPCELL_ROW_27_206
*1726 TAP_TAPCELL_ROW_28_207
*1727 TAP_TAPCELL_ROW_29_208
*1728 TAP_TAPCELL_ROW_2_181
*1729 TAP_TAPCELL_ROW_30_209
*1730 TAP_TAPCELL_ROW_31_210
*1731 TAP_TAPCELL_ROW_32_211
*1732 TAP_TAPCELL_ROW_33_212
*1733 TAP_TAPCELL_ROW_34_213
*1734 TAP_TAPCELL_ROW_35_214
*1735 TAP_TAPCELL_ROW_36_215
*1736 TAP_TAPCELL_ROW_37_216
*1737 TAP_TAPCELL_ROW_38_217
*1738 TAP_TAPCELL_ROW_39_218
*1739 TAP_TAPCELL_ROW_3_182
*1740 TAP_TAPCELL_ROW_40_219
*1741 TAP_TAPCELL_ROW_41_220
*1742 TAP_TAPCELL_ROW_42_221
*1743 TAP_TAPCELL_ROW_43_222
*1744 TAP_TAPCELL_ROW_44_223
*1745 TAP_TAPCELL_ROW_45_224
*1746 TAP_TAPCELL_ROW_46_225
*1747 TAP_TAPCELL_ROW_47_226
*1748 TAP_TAPCELL_ROW_48_227
*1749 TAP_TAPCELL_ROW_49_228
*1750 TAP_TAPCELL_ROW_4_183
*1751 TAP_TAPCELL_ROW_50_229
*1752 TAP_TAPCELL_ROW_51_230
*1753 TAP_TAPCELL_ROW_52_231
*1754 TAP_TAPCELL_ROW_53_232
*1755 TAP_TAPCELL_ROW_54_233
*1756 TAP_TAPCELL_ROW_55_234
*1757 TAP_TAPCELL_ROW_56_235
*1758 TAP_TAPCELL_ROW_57_236
*1759 TAP_TAPCELL_ROW_58_237
*1760 TAP_TAPCELL_ROW_59_238
*1761 TAP_TAPCELL_ROW_5_184
*1762 TAP_TAPCELL_ROW_60_239
*1763 TAP_TAPCELL_ROW_61_240
*1764 TAP_TAPCELL_ROW_62_241
*1765 TAP_TAPCELL_ROW_63_242
*1766 TAP_TAPCELL_ROW_64_243
*1767 TAP_TAPCELL_ROW_65_244
*1768 TAP_TAPCELL_ROW_66_245
*1769 TAP_TAPCELL_ROW_67_246
*1770 TAP_TAPCELL_ROW_68_247
*1771 TAP_TAPCELL_ROW_69_248
*1772 TAP_TAPCELL_ROW_6_185
*1773 TAP_TAPCELL_ROW_70_249
*1774 TAP_TAPCELL_ROW_71_250
*1775 TAP_TAPCELL_ROW_72_251
*1776 TAP_TAPCELL_ROW_73_252
*1777 TAP_TAPCELL_ROW_74_253
*1778 TAP_TAPCELL_ROW_75_254
*1779 TAP_TAPCELL_ROW_76_255
*1780 TAP_TAPCELL_ROW_77_256
*1781 TAP_TAPCELL_ROW_78_257
*1782 TAP_TAPCELL_ROW_79_258
*1783 TAP_TAPCELL_ROW_7_186
*1784 TAP_TAPCELL_ROW_80_259
*1785 TAP_TAPCELL_ROW_81_260
*1786 TAP_TAPCELL_ROW_82_261
*1787 TAP_TAPCELL_ROW_83_262
*1788 TAP_TAPCELL_ROW_84_263
*1789 TAP_TAPCELL_ROW_85_264
*1790 TAP_TAPCELL_ROW_86_265
*1791 TAP_TAPCELL_ROW_87_266
*1792 TAP_TAPCELL_ROW_88_267
*1793 TAP_TAPCELL_ROW_88_268
*1794 TAP_TAPCELL_ROW_8_187
*1795 TAP_TAPCELL_ROW_9_188
*1796 _064_
*1797 _065_
*1798 _066_
*1799 _067_
*1800 _068_
*1801 _069_
*1802 _070_
*1803 _071_
*1804 _072_
*1805 _073_
*1806 _074_
*1807 _075_
*1808 _076_
*1809 _077_
*1810 _078_
*1811 _079_
*1812 _080_
*1813 _081_
*1814 _082_
*1815 _083_
*1816 _084_
*1817 _085_
*1818 _086_
*1819 _087_
*1820 _088_
*1821 _089_
*1822 _090_
*1823 _091_
*1824 _092_
*1825 _093_
*1826 _094_
*1827 _095_
*1828 _096_
*1829 _097_
*1830 _098_
*1831 _099_
*1832 _100_
*1833 _101_
*1834 _102_
*1835 _103_
*1836 _104_
*1837 _105_
*1838 _106_
*1839 _107_
*1840 _108_
*1841 _109_
*1842 _110_
*1843 _111_
*1844 _112_
*1845 _113_
*1846 _114_
*1847 _115_
*1848 _116_
*1849 _117_
*1850 _118_
*1851 _119_
*1852 _120_
*1853 _121_
*1854 _122_
*1855 _123_
*1856 _124_
*1857 _125_
*1858 _126_
*1859 _127_
*1860 _128_
*1861 _129_
*1862 _130_
*1863 _131_
*1864 _132_
*1865 _133_
*1866 _134_
*1867 _135_
*1868 _136_
*1869 _137_
*1870 _138_
*1871 _139_
*1872 _140_
*1873 _141_
*1874 _142_
*1875 _143_
*1876 _144_
*1877 _145_
*1878 _146_
*1879 _147_
*1880 _148_
*1881 _149_
*1882 _150_
*1883 _151_
*1884 _152_
*1885 _153_
*1886 _154_
*1887 _155_
*1888 _156_
*1889 _157_
*1890 _158_
*1891 _159_
*1892 _160_
*1893 _161_
*1894 _162_
*1895 _163_
*1896 _164_
*1897 _165_
*1898 _166_
*1899 _167_
*1900 _168_
*1901 _169_
*1902 _170_
*1903 _171_
*1904 _172_
*1905 _173_
*1906 _174_
*1907 _175_
*1908 _176_
*1909 _177_
*1910 _178_
*1911 _179_
*1912 _180_
*1913 _181_
*1914 _182_
*1915 _183_
*1916 _184_
*1917 _185_
*1918 _186_
*1919 _187_
*1920 _188_
*1921 _189_
*1922 _190_
*1923 _191_
*1924 _192_
*1925 _193_
*1926 _194_
*1927 _195_
*1928 _196_
*1929 _197_
*1930 _198_
*1931 _199_
*1932 _200_
*1933 _201_
*1934 _202_
*1935 _203_
*1936 _204_
*1937 _205_
*1938 _206_
*1939 _207_
*1940 _208_
*1941 _209_
*1942 _210_
*1943 _211_
*1944 _212_
*1945 _213_
*1946 _214_
*1947 _215_
*1948 _216_
*1949 _217_
*1950 _218_
*1951 _219_
*1952 _220_
*1953 _221_
*1954 _222_
*1955 _223_
*1956 _224_
*1957 _225_
*1958 _226_
*1959 _227_
*1960 _228_
*1961 _229_
*1962 _230_
*1963 _231_
*1964 _232_
*1965 _233_
*1966 _234_
*1967 _235_
*1968 _236_
*1969 _237_
*1970 _238_
*1971 _239_
*1972 _240_
*1973 _241_
*1974 _242_
*1975 _243_
*1976 _244_
*1977 _245_
*1978 _246_
*1979 _247_
*1980 _248_
*1981 _249_
*1982 _250_
*1983 _251_
*1984 _252_
*1985 _253_
*1986 _254_
*1987 _255_
*1988 _256_
*1989 _257_
*1990 _258_
*1991 _259_
*1992 _260_
*1993 _261_
*1994 _262_
*1995 _263_
*1996 _264_
*1997 _265_
*1998 _266_
*1999 _267_
*2000 _268_
*2001 _269_
*2002 _270_
*2003 _271_
*2004 _272_
*2005 _273_
*2006 _274_
*2007 _275_
*2008 _276_
*2009 _277_
*2010 _278_
*2011 _279_
*2012 _280_
*2013 _281_
*2014 _282_
*2015 _283_
*2016 _284_
*2017 _285_
*2018 _286_
*2019 _287_
*2020 _288_
*2021 _289_
*2022 _290_
*2023 _291_
*2024 _292_
*2025 _293_
*2026 _294_
*2027 _295_
*2028 _296_
*2029 _297_
*2030 _298_
*2031 _299_
*2032 _300_
*2033 _301_
*2034 _302_
*2035 _303_
*2036 _304_
*2037 _305_
*2038 _306_
*2039 _307_
*2040 _308_
*2041 _309_
*2042 _310_
*2043 _311_
*2044 _312_
*2045 _313_
*2046 _314_
*2047 _315_
*2048 _316_
*2049 _317_
*2050 _318_
*2051 _319_
*2052 _320_
*2053 _321_
*2054 _322_
*2055 _323_
*2056 _324_
*2057 _325_
*2058 _326_
*2059 _327_
*2060 _328_
*2061 _329_
*2062 _330_
*2063 _331_
*2064 _332_
*2065 _333_
*2066 _334_
*2067 _335_
*2068 _336_
*2069 _337_
*2070 _338_
*2071 _339_
*2072 _340_
*2073 _341_
*2074 _342_
*2075 _343_
*2076 _344_
*2077 _345_
*2078 _346_
*2079 _347_
*2080 _348_
*2081 _349_
*2082 _350_
*2083 _351_
*2084 _352_
*2085 _353_
*2086 _354_
*2087 _355_
*2088 _356_
*2089 _357_
*2090 _358_
*2091 _359_
*2092 _360_
*2093 _361_
*2094 _362_
*2095 _363_
*2096 _364_
*2097 _365_
*2098 _366_
*2099 _367_
*2100 _368_
*2101 _369_
*2102 _370_
*2103 _371_
*2104 _372_
*2105 _373_
*2106 _374_
*2107 _375_
*2108 _376_
*2109 _377_
*2110 _378_
*2111 _379_
*2112 _380_
*2113 _381_
*2114 _382_
*2115 _383_
*2116 _384_
*2117 _385_
*2118 _386_
*2119 _387_
*2120 _388_
*2121 _389_
*2122 _390_
*2123 _391_
*2124 _392_
*2125 _393_
*2126 _394_
*2127 _395_
*2128 _396_
*2129 _397_
*2130 _398_
*2131 _399_
*2132 _400_
*2133 _401_
*2134 _402_
*2135 _403_
*2136 _404_
*2137 _405_
*2138 _406_
*2139 _407_
*2140 _408_
*2141 _409_
*2142 _410_
*2143 _411_
*2144 _412_
*2145 _413_
*2146 _414_
*2147 _415_
*2148 _416_
*2149 _417_
*2150 _418_
*2151 _419_
*2152 _420_
*2153 _421_
*2154 _422_
*2155 _423_
*2156 _424_
*2157 _425_
*2158 _426_
*2159 _427_
*2160 _428_
*2161 clkbuf_0_UserCLK
*2162 clkbuf_0_UserCLK_regs
*2163 clkbuf_1_0__f_UserCLK
*2164 clkbuf_1_0__f_UserCLK_regs
*2165 clkbuf_1_1__f_UserCLK_regs
*2166 clkbuf_regs_0_UserCLK
*2167 fanout59
*2168 fanout60
*2169 fanout61
*2170 fanout62
*2171 fanout63
*2172 fanout64
*2173 fanout65
*2174 fanout66
*2175 fanout67
*2176 fanout68
*2177 fanout69
*2178 fanout70
*2179 fanout71
*2180 fanout72
*2181 fanout73
*2182 fanout74
*2183 fanout75
*2184 fanout76
*2185 fanout77
*2186 input1
*2187 input10
*2188 input11
*2189 input12
*2190 input13
*2191 input14
*2192 input15
*2193 input16
*2194 input17
*2195 input18
*2196 input19
*2197 input2
*2198 input20
*2199 input21
*2200 input22
*2201 input23
*2202 input24
*2203 input25
*2204 input26
*2205 input27
*2206 input28
*2207 input29
*2208 input3
*2209 input30
*2210 input31
*2211 input32
*2212 input33
*2213 input34
*2214 input35
*2215 input36
*2216 input37
*2217 input38
*2218 input39
*2219 input4
*2220 input40
*2221 input41
*2222 input42
*2223 input43
*2224 input44
*2225 input45
*2226 input46
*2227 input47
*2228 input48
*2229 input49
*2230 input5
*2231 input50
*2232 input51
*2233 input52
*2234 input53
*2235 input54
*2236 input55
*2237 input56
*2238 input57
*2239 input58
*2240 input59
*2241 input6
*2242 input60
*2243 input61
*2244 input62
*2245 input63
*2246 input64
*2247 input65
*2248 input66
*2249 input67
*2250 input68
*2251 input69
*2252 input7
*2253 input70
*2254 input71
*2255 input72
*2256 input73
*2257 input74
*2258 input75
*2259 input76
*2260 input77
*2261 input78
*2262 input79
*2263 input8
*2264 input80
*2265 input81
*2266 input82
*2267 input83
*2268 input84
*2269 input85
*2270 input86
*2271 input9
*2272 output100
*2273 output101
*2274 output102
*2275 output103
*2276 output104
*2277 output105
*2278 output106
*2279 output107
*2280 output108
*2281 output109
*2282 output110
*2283 output111
*2284 output112
*2285 output113
*2286 output114
*2287 output115
*2288 output116
*2289 output117
*2290 output118
*2291 output119
*2292 output120
*2293 output121
*2294 output122
*2295 output123
*2296 output124
*2297 output125
*2298 output126
*2299 output127
*2300 output128
*2301 output129
*2302 output130
*2303 output131
*2304 output132
*2305 output133
*2306 output134
*2307 output135
*2308 output136
*2309 output137
*2310 output138
*2311 output139
*2312 output140
*2313 output141
*2314 output142
*2315 output143
*2316 output144
*2317 output145
*2318 output146
*2319 output147
*2320 output148
*2321 output149
*2322 output150
*2323 output151
*2324 output152
*2325 output153
*2326 output154
*2327 output155
*2328 output156
*2329 output157
*2330 output158
*2331 output159
*2332 output160
*2333 output161
*2334 output162
*2335 output163
*2336 output164
*2337 output165
*2338 output166
*2339 output167
*2340 output168
*2341 output169
*2342 output170
*2343 output171
*2344 output172
*2345 output173
*2346 output174
*2347 output175
*2348 output176
*2349 output177
*2350 output178
*2351 output179
*2352 output180
*2353 output181
*2354 output182
*2355 output183
*2356 output184
*2357 output185
*2358 output186
*2359 output187
*2360 output188
*2361 output189
*2362 output190
*2363 output191
*2364 output192
*2365 output193
*2366 output194
*2367 output195
*2368 output196
*2369 output197
*2370 output198
*2371 output199
*2372 output200
*2373 output201
*2374 output202
*2375 output203
*2376 output204
*2377 output205
*2378 output206
*2379 output207
*2380 output208
*2381 output209
*2382 output210
*2383 output211
*2384 output87
*2385 output88
*2386 output89
*2387 output90
*2388 output91
*2389 output92
*2390 output93
*2391 output94
*2392 output95
*2393 output96
*2394 output97
*2395 output98
*2396 output99

*PORTS
A_I_top O
A_O_top I
A_T_top O
A_config_C_bit0 O
A_config_C_bit1 O
A_config_C_bit2 O
A_config_C_bit3 O
B_I_top O
B_O_top I
B_T_top O
B_config_C_bit0 O
B_config_C_bit1 O
B_config_C_bit2 O
B_config_C_bit3 O
C_I_top O
C_O_top I
C_T_top O
C_config_C_bit0 O
C_config_C_bit1 O
C_config_C_bit2 O
C_config_C_bit3 O
D_I_top O
D_O_top I
D_T_top O
D_config_C_bit0 O
D_config_C_bit1 O
D_config_C_bit2 O
D_config_C_bit3 O
E1BEG[0] O
E1BEG[1] O
E1BEG[2] O
E1BEG[3] O
E2BEG[0] O
E2BEG[1] O
E2BEG[2] O
E2BEG[3] O
E2BEG[4] O
E2BEG[5] O
E2BEG[6] O
E2BEG[7] O
E2BEGb[0] O
E2BEGb[1] O
E2BEGb[2] O
E2BEGb[3] O
E2BEGb[4] O
E2BEGb[5] O
E2BEGb[6] O
E2BEGb[7] O
E6BEG[0] O
E6BEG[10] O
E6BEG[11] O
E6BEG[1] O
E6BEG[2] O
E6BEG[3] O
E6BEG[4] O
E6BEG[5] O
E6BEG[6] O
E6BEG[7] O
E6BEG[8] O
E6BEG[9] O
EE4BEG[0] O
EE4BEG[10] O
EE4BEG[11] O
EE4BEG[12] O
EE4BEG[13] O
EE4BEG[14] O
EE4BEG[15] O
EE4BEG[1] O
EE4BEG[2] O
EE4BEG[3] O
EE4BEG[4] O
EE4BEG[5] O
EE4BEG[6] O
EE4BEG[7] O
EE4BEG[8] O
EE4BEG[9] O
FrameData[0] I
FrameData[10] I
FrameData[11] I
FrameData[12] I
FrameData[13] I
FrameData[14] I
FrameData[15] I
FrameData[16] I
FrameData[17] I
FrameData[18] I
FrameData[19] I
FrameData[1] I
FrameData[20] I
FrameData[21] I
FrameData[22] I
FrameData[23] I
FrameData[24] I
FrameData[25] I
FrameData[26] I
FrameData[27] I
FrameData[28] I
FrameData[29] I
FrameData[2] I
FrameData[30] I
FrameData[31] I
FrameData[3] I
FrameData[4] I
FrameData[5] I
FrameData[6] I
FrameData[7] I
FrameData[8] I
FrameData[9] I
FrameData_O[0] O
FrameData_O[10] O
FrameData_O[11] O
FrameData_O[12] O
FrameData_O[13] O
FrameData_O[14] O
FrameData_O[15] O
FrameData_O[16] O
FrameData_O[17] O
FrameData_O[18] O
FrameData_O[19] O
FrameData_O[1] O
FrameData_O[20] O
FrameData_O[21] O
FrameData_O[22] O
FrameData_O[23] O
FrameData_O[24] O
FrameData_O[25] O
FrameData_O[26] O
FrameData_O[27] O
FrameData_O[28] O
FrameData_O[29] O
FrameData_O[2] O
FrameData_O[30] O
FrameData_O[31] O
FrameData_O[3] O
FrameData_O[4] O
FrameData_O[5] O
FrameData_O[6] O
FrameData_O[7] O
FrameData_O[8] O
FrameData_O[9] O
FrameStrobe[0] I
FrameStrobe[10] I
FrameStrobe[11] I
FrameStrobe[12] I
FrameStrobe[13] I
FrameStrobe[14] I
FrameStrobe[15] I
FrameStrobe[16] I
FrameStrobe[17] I
FrameStrobe[18] I
FrameStrobe[19] I
FrameStrobe[1] I
FrameStrobe[2] I
FrameStrobe[3] I
FrameStrobe[4] I
FrameStrobe[5] I
FrameStrobe[6] I
FrameStrobe[7] I
FrameStrobe[8] I
FrameStrobe[9] I
FrameStrobe_O[0] O
FrameStrobe_O[10] O
FrameStrobe_O[11] O
FrameStrobe_O[12] O
FrameStrobe_O[13] O
FrameStrobe_O[14] O
FrameStrobe_O[15] O
FrameStrobe_O[16] O
FrameStrobe_O[17] O
FrameStrobe_O[18] O
FrameStrobe_O[19] O
FrameStrobe_O[1] O
FrameStrobe_O[2] O
FrameStrobe_O[3] O
FrameStrobe_O[4] O
FrameStrobe_O[5] O
FrameStrobe_O[6] O
FrameStrobe_O[7] O
FrameStrobe_O[8] O
FrameStrobe_O[9] O
UserCLK I
UserCLKo O
W1END[0] I
W1END[1] I
W1END[2] I
W1END[3] I
W2END[0] I
W2END[1] I
W2END[2] I
W2END[3] I
W2END[4] I
W2END[5] I
W2END[6] I
W2END[7] I
W2MID[0] I
W2MID[1] I
W2MID[2] I
W2MID[3] I
W2MID[4] I
W2MID[5] I
W2MID[6] I
W2MID[7] I
W6END[0] I
W6END[10] I
W6END[11] I
W6END[1] I
W6END[2] I
W6END[3] I
W6END[4] I
W6END[5] I
W6END[6] I
W6END[7] I
W6END[8] I
W6END[9] I
WW4END[0] I
WW4END[10] I
WW4END[11] I
WW4END[12] I
WW4END[13] I
WW4END[14] I
WW4END[15] I
WW4END[1] I
WW4END[2] I
WW4END[3] I
WW4END[4] I
WW4END[5] I
WW4END[6] I
WW4END[7] I
WW4END[8] I
WW4END[9] I

*D_NET *1 0.00114135
*CONN
*P A_I_top O
*I *2384:X O *D sky130_fd_sc_hd__buf_2
*CAP
1 A_I_top 0.00049766
2 *2384:X 0.00049766
3 A_I_top A_T_top 0
4 A_I_top *2186:A 0
5 A_I_top *154:21 3.06589e-05
6 A_I_top *158:19 0
7 A_I_top *640:18 0.000115369
*RES
1 *2384:X A_I_top 19.8667 
*END

*D_NET *2 0.00100531
*CONN
*P A_O_top I
*I *2186:A I *D sky130_fd_sc_hd__buf_2
*CAP
1 A_O_top 0.000396857
2 *2186:A 0.000396857
3 *2186:A *153:21 2.26887e-05
4 *2186:A *154:21 3.42554e-05
5 *2186:A *158:19 0.000154648
6 A_I_top *2186:A 0
*RES
1 A_O_top *2186:A 19.1875 
*END

*D_NET *3 0.000905878
*CONN
*P A_T_top O
*I *2385:X O *D sky130_fd_sc_hd__buf_2
*CAP
1 A_T_top 0.000439735
2 *2385:X 0.000439735
3 A_T_top *2197:A 0
4 A_T_top *583:16 5.7903e-06
5 A_T_top *640:18 2.06178e-05
6 A_I_top A_T_top 0
*RES
1 *2385:X A_T_top 18.6524 
*END

*D_NET *4 0.00136456
*CONN
*P A_config_C_bit0 O
*I *2386:X O *D sky130_fd_sc_hd__buf_2
*CAP
1 A_config_C_bit0 0.000639448
2 *2386:X 0.000639448
3 A_config_C_bit0 A_config_C_bit1 0
4 A_config_C_bit0 D_T_top 0
5 A_config_C_bit0 *2273:A 1.99644e-05
6 A_config_C_bit0 *497:14 6.56976e-05
*RES
1 *2386:X A_config_C_bit0 19.2595 
*END

*D_NET *5 0.00274111
*CONN
*P A_config_C_bit1 O
*I *2387:X O *D sky130_fd_sc_hd__buf_2
*CAP
1 A_config_C_bit1 0.000897083
2 *2387:X 0.000897083
3 A_config_C_bit1 A_config_C_bit2 0
4 A_config_C_bit1 *1925:D 5.65955e-05
5 A_config_C_bit1 *2273:A 0.000137834
6 A_config_C_bit1 *2387:A 9.41642e-05
7 A_config_C_bit1 *557:58 9.95153e-05
8 A_config_C_bit1 *587:24 0.000558836
9 A_config_C_bit0 A_config_C_bit1 0
*RES
1 *2387:X A_config_C_bit1 26.7404 
*END

*D_NET *6 0.00236014
*CONN
*P A_config_C_bit2 O
*I *2388:X O *D sky130_fd_sc_hd__buf_2
*CAP
1 A_config_C_bit2 0.00108374
2 *2388:X 0.00108374
3 A_config_C_bit2 A_config_C_bit3 0
4 A_config_C_bit2 *1926:D 9.56676e-05
5 A_config_C_bit2 *2395:A 1.1257e-05
6 A_config_C_bit2 *157:41 2.95992e-05
7 A_config_C_bit2 *497:14 1.90936e-05
8 A_config_C_bit2 *504:18 2.06178e-05
9 A_config_C_bit2 *505:16 1.64281e-05
10 A_config_C_bit1 A_config_C_bit2 0
*RES
1 *2388:X A_config_C_bit2 23.706 
*END

*D_NET *7 0.00182667
*CONN
*P A_config_C_bit3 O
*I *2389:X O *D sky130_fd_sc_hd__buf_2
*CAP
1 A_config_C_bit3 0.000491237
2 *2389:X 0.000491237
3 A_config_C_bit3 B_config_C_bit0 0
4 A_config_C_bit3 *157:41 0.000410671
5 A_config_C_bit3 *497:14 0.000109627
6 A_config_C_bit3 *561:30 0.000323894
7 A_config_C_bit2 A_config_C_bit3 0
*RES
1 *2389:X A_config_C_bit3 19.8667 
*END

*D_NET *8 0.00113402
*CONN
*P B_I_top O
*I *2390:X O *D sky130_fd_sc_hd__buf_2
*CAP
1 B_I_top 0.000388917
2 *2390:X 0.000388917
3 B_I_top B_T_top 0
4 B_I_top *2197:A 0
5 B_I_top *181:17 0.000314949
6 B_I_top *557:104 2.06178e-05
7 B_I_top *640:18 2.06178e-05
*RES
1 *2390:X B_I_top 18.6524 
*END

*D_NET *9 0.00238057
*CONN
*P B_O_top I
*I *2197:A I *D sky130_fd_sc_hd__buf_2
*CAP
1 B_O_top 0.000881472
2 *2197:A 0.000881472
3 *2197:A *1917:D 0.000411853
4 *2197:A *181:17 0
5 *2197:A *568:122 0.000185199
6 *2197:A *666:145 2.05694e-05
7 A_T_top *2197:A 0
8 B_I_top *2197:A 0
*RES
1 B_O_top *2197:A 21.5701 
*END

*D_NET *10 0.00112891
*CONN
*P B_T_top O
*I *2391:X O *D sky130_fd_sc_hd__buf_2
*CAP
1 B_T_top 0.000449618
2 *2391:X 0.000449618
3 B_T_top *2208:A 0
4 B_T_top *181:17 0.00014321
5 B_T_top *557:104 4.32309e-05
6 B_T_top *640:18 4.32309e-05
7 B_I_top B_T_top 0
*RES
1 *2391:X B_T_top 18.956 
*END

*D_NET *11 0.00145498
*CONN
*P B_config_C_bit0 O
*I *2392:X O *D sky130_fd_sc_hd__buf_2
*CAP
1 B_config_C_bit0 0.000642101
2 *2392:X 0.000642101
3 B_config_C_bit0 B_config_C_bit1 0
4 B_config_C_bit0 *497:14 2.06178e-05
5 B_config_C_bit0 *498:12 2.06178e-05
6 B_config_C_bit0 *561:30 0.000129543
7 A_config_C_bit3 B_config_C_bit0 0
*RES
1 *2392:X B_config_C_bit0 18.7245 
*END

*D_NET *12 0.00201057
*CONN
*P B_config_C_bit1 O
*I *2393:X O *D sky130_fd_sc_hd__buf_2
*CAP
1 B_config_C_bit1 0.000895388
2 *2393:X 0.000895388
3 B_config_C_bit1 B_config_C_bit2 0
4 B_config_C_bit1 *1912:A0 0
5 B_config_C_bit1 *1953:D 2.18838e-05
6 B_config_C_bit1 *561:30 0
7 B_config_C_bit1 *639:52 0.000197909
8 B_config_C_bit0 B_config_C_bit1 0
*RES
1 *2393:X B_config_C_bit1 20.227 
*END

*D_NET *13 0.00154795
*CONN
*P B_config_C_bit2 O
*I *2394:X O *D sky130_fd_sc_hd__buf_2
*CAP
1 B_config_C_bit2 0.000708678
2 *2394:X 0.000708678
3 B_config_C_bit2 B_config_C_bit3 0
4 B_config_C_bit2 *672:184 6.52967e-05
5 B_config_C_bit2 *684:130 6.52967e-05
6 B_config_C_bit1 B_config_C_bit2 0
*RES
1 *2394:X B_config_C_bit2 19.2595 
*END

*D_NET *14 0.00165495
*CONN
*P B_config_C_bit3 O
*I *2395:X O *D sky130_fd_sc_hd__buf_2
*CAP
1 B_config_C_bit3 0.000691796
2 *2395:X 0.000691796
3 B_config_C_bit3 C_config_C_bit0 0
4 B_config_C_bit3 *2395:A 2.80175e-05
5 B_config_C_bit3 *582:28 1.91823e-05
6 B_config_C_bit3 *672:184 0.000111218
7 B_config_C_bit3 *684:130 0.00011294
8 B_config_C_bit2 B_config_C_bit3 0
*RES
1 *2395:X B_config_C_bit3 19.8667 
*END

*D_NET *15 0.00137234
*CONN
*P C_I_top O
*I *2396:X O *D sky130_fd_sc_hd__buf_2
*CAP
1 C_I_top 0.00049117
2 *2396:X 0.00049117
3 C_I_top C_T_top 0
4 C_I_top *2208:A 0
5 C_I_top *2391:A 1.72415e-05
6 C_I_top *154:21 5.90143e-05
7 C_I_top *157:21 0.000107452
8 C_I_top *490:12 1.48756e-05
9 C_I_top *503:14 7.83587e-05
10 C_I_top *640:18 0.000113061
*RES
1 *2396:X C_I_top 19.8667 
*END

*D_NET *16 0.00131611
*CONN
*P C_O_top I
*I *2208:A I *D sky130_fd_sc_hd__buf_2
*CAP
1 C_O_top 0.000461193
2 *2208:A 0.000461193
3 *2208:A *2391:A 0.000117725
4 *2208:A *154:21 6.98512e-06
5 *2208:A *490:12 0.000140379
6 *2208:A *557:94 1.02504e-05
7 *2208:A *640:18 0.000118386
8 B_T_top *2208:A 0
9 C_I_top *2208:A 0
*RES
1 C_O_top *2208:A 20.0982 
*END

*D_NET *17 0.00157588
*CONN
*P C_T_top O
*I *2272:X O *D sky130_fd_sc_hd__buf_2
*CAP
1 C_T_top 0.000502783
2 *2272:X 0.000502783
3 C_T_top *2219:A 0
4 C_T_top *152:13 0.000113647
5 C_T_top *157:21 1.95113e-06
6 C_T_top *590:14 0.000115369
7 C_T_top *640:24 0.000339346
8 C_I_top C_T_top 0
*RES
1 *2272:X C_T_top 22.7009 
*END

*D_NET *18 0.00171609
*CONN
*P C_config_C_bit0 O
*I *2273:X O *D sky130_fd_sc_hd__buf_2
*CAP
1 C_config_C_bit0 0.000519552
2 *2273:X 0.000519552
3 C_config_C_bit0 *2274:A 8.6229e-06
4 C_config_C_bit0 *2395:A 7.69049e-05
5 C_config_C_bit0 *154:75 0.000390723
6 C_config_C_bit0 *156:47 0.000138158
7 C_config_C_bit0 *582:28 3.77315e-05
8 C_config_C_bit0 *587:60 2.06178e-05
9 C_config_C_bit0 *684:130 4.22135e-06
10 B_config_C_bit3 C_config_C_bit0 0
*RES
1 *2273:X C_config_C_bit0 18.7245 
*END

*D_NET *19 0.00259282
*CONN
*P C_config_C_bit1 O
*I *2274:X O *D sky130_fd_sc_hd__buf_2
*CAP
1 C_config_C_bit1 0.000769862
2 *2274:X 0.000769862
3 C_config_C_bit1 C_config_C_bit2 0.000237897
4 C_config_C_bit1 *2274:A 6.57032e-05
5 C_config_C_bit1 *152:33 3.74569e-05
6 C_config_C_bit1 *156:47 6.38277e-05
7 C_config_C_bit1 *157:41 3.22964e-05
8 C_config_C_bit1 *505:24 2.68274e-05
9 C_config_C_bit1 *638:18 0.000334505
10 C_config_C_bit1 *672:152 0.000189256
11 C_config_C_bit1 *706:66 6.53265e-05
*RES
1 *2274:X C_config_C_bit1 26.4706 
*END

*D_NET *20 0.00170395
*CONN
*P C_config_C_bit2 O
*I *2275:X O *D sky130_fd_sc_hd__buf_2
*CAP
1 C_config_C_bit2 0.000691055
2 *2275:X 0.000691055
3 C_config_C_bit2 *152:33 4.79585e-05
4 C_config_C_bit2 *631:106 1.68895e-05
5 C_config_C_bit2 *706:66 1.90936e-05
6 C_config_C_bit1 C_config_C_bit2 0.000237897
*RES
1 *2275:X C_config_C_bit2 20.5427 
*END

*D_NET *21 0.0015914
*CONN
*P C_config_C_bit3 O
*I *2276:X O *D sky130_fd_sc_hd__buf_2
*CAP
1 C_config_C_bit3 0.000624936
2 *2276:X 0.000624936
3 C_config_C_bit3 *152:33 0
4 C_config_C_bit3 *568:88 2.06178e-05
5 C_config_C_bit3 *586:22 0.000118677
6 C_config_C_bit3 *616:26 1.11789e-05
7 C_config_C_bit3 *631:106 0.000170436
8 C_config_C_bit3 *684:130 2.06178e-05
*RES
1 *2276:X C_config_C_bit3 18.6524 
*END

*D_NET *22 0.00148694
*CONN
*P D_I_top O
*I *2277:X O *D sky130_fd_sc_hd__buf_2
*CAP
1 D_I_top 0.000538327
2 *2277:X 0.000538327
3 D_I_top D_T_top 0
4 D_I_top *2219:A 0
5 D_I_top *154:47 8.99486e-05
6 D_I_top *160:39 0.00013915
7 D_I_top *497:14 9.05914e-05
8 D_I_top *503:14 9.05914e-05
*RES
1 *2277:X D_I_top 19.5631 
*END

*D_NET *23 0.00188551
*CONN
*P D_O_top I
*I *2219:A I *D sky130_fd_sc_hd__clkbuf_2
*CAP
1 D_O_top 0.000639998
2 *2219:A 0.000639998
3 *2219:A *157:21 0
4 *2219:A *160:39 8.33667e-06
5 *2219:A *479:20 0.000329125
6 *2219:A *489:10 0.000134548
7 *2219:A *557:94 0.000133498
8 C_T_top *2219:A 0
9 D_I_top *2219:A 0
*RES
1 D_O_top *2219:A 20.4585 
*END

*D_NET *24 0.00137042
*CONN
*P D_T_top O
*I *2278:X O *D sky130_fd_sc_hd__buf_2
*CAP
1 D_T_top 0.000617901
2 *2278:X 0.000617901
3 D_T_top *497:14 2.11419e-05
4 D_T_top *503:14 2.11419e-05
5 D_T_top *586:22 9.23367e-05
6 A_config_C_bit0 D_T_top 0
7 D_I_top D_T_top 0
*RES
1 *2278:X D_T_top 18.6524 
*END

*D_NET *25 0.00280612
*CONN
*P D_config_C_bit0 O
*I *2279:X O *D sky130_fd_sc_hd__buf_2
*CAP
1 D_config_C_bit0 0.00100688
2 *2279:X 0.00100688
3 D_config_C_bit0 *1880:S0 9.09392e-06
4 D_config_C_bit0 *2016:GATE 2.06178e-05
5 D_config_C_bit0 *2279:A 2.36643e-05
6 D_config_C_bit0 *154:75 9.14914e-05
7 D_config_C_bit0 *158:19 8.69554e-05
8 D_config_C_bit0 *544:32 0.000377275
9 D_config_C_bit0 *586:22 8.81375e-05
10 D_config_C_bit0 *587:60 3.47641e-06
11 D_config_C_bit0 *613:107 2.84026e-05
12 D_config_C_bit0 *613:138 2.2185e-05
13 D_config_C_bit0 *616:26 4.10533e-05
*RES
1 *2279:X D_config_C_bit0 24.1167 
*END

*D_NET *26 0.00284224
*CONN
*P D_config_C_bit1 O
*I *2280:X O *D sky130_fd_sc_hd__buf_2
*CAP
1 D_config_C_bit1 0.000863588
2 *2280:X 0.000863588
3 D_config_C_bit1 D_config_C_bit2 2.06178e-05
4 D_config_C_bit1 *2279:A 8.59024e-05
5 D_config_C_bit1 *152:33 2.01997e-05
6 D_config_C_bit1 *154:75 2.3968e-05
7 D_config_C_bit1 *544:32 7.93671e-05
8 D_config_C_bit1 *561:30 0.000114626
9 D_config_C_bit1 *591:94 0.000441648
10 D_config_C_bit1 *602:123 9.13012e-05
11 D_config_C_bit1 *613:107 0.000106894
12 D_config_C_bit1 *680:10 7.71218e-05
13 D_config_C_bit1 *680:46 5.34143e-05
*RES
1 *2280:X D_config_C_bit1 24.1352 
*END

*D_NET *27 0.00163367
*CONN
*P D_config_C_bit2 O
*I *2281:X O *D sky130_fd_sc_hd__buf_2
*CAP
1 D_config_C_bit2 0.000594379
2 *2281:X 0.000594379
3 D_config_C_bit2 *160:79 1.1397e-05
4 D_config_C_bit2 *627:104 0.00015803
5 D_config_C_bit2 *644:52 3.28681e-06
6 D_config_C_bit2 *672:134 0.000230963
7 D_config_C_bit2 *680:46 2.06178e-05
8 D_config_C_bit1 D_config_C_bit2 2.06178e-05
*RES
1 *2281:X D_config_C_bit2 18.6524 
*END

*D_NET *28 0.00238596
*CONN
*P D_config_C_bit3 O
*I *2282:X O *D sky130_fd_sc_hd__buf_2
*CAP
1 D_config_C_bit3 0.000586994
2 *2282:X 0.000586994
3 D_config_C_bit3 *2230:A 7.05143e-06
4 D_config_C_bit3 *2279:A 0.000105469
5 D_config_C_bit3 *160:79 0.000457555
6 D_config_C_bit3 *637:44 0.000456857
7 D_config_C_bit3 *654:20 5.47176e-05
8 D_config_C_bit3 *672:134 3.60822e-05
9 D_config_C_bit3 *680:46 9.42368e-05
*RES
1 *2282:X D_config_C_bit3 20.4745 
*END

*D_NET *29 0.00448597
*CONN
*P E1BEG[0] O
*I *2283:X O *D sky130_fd_sc_hd__buf_2
*CAP
1 E1BEG[0] 0.00123818
2 *2283:X 0.00123818
3 E1BEG[0] E1BEG[1] 0.000159423
4 E1BEG[0] *2243:A 0.000192607
5 E1BEG[0] *146:67 0.000430385
6 E1BEG[0] *514:94 4.65519e-05
7 E1BEG[0] *653:170 0.000353577
8 E1BEG[0] *685:22 0.000220943
9 E1BEG[0] *698:121 8.63795e-05
10 E1BEG[0] *699:66 0.000519741
*RES
1 *2283:X E1BEG[0] 29.2066 
*END

*D_NET *30 0.0041383
*CONN
*P E1BEG[1] O
*I *2284:X O *D sky130_fd_sc_hd__buf_2
*CAP
1 E1BEG[1] 0.00115893
2 *2284:X 0.00115893
3 E1BEG[1] E1BEG[2] 0.000245342
4 E1BEG[1] *2284:A 2.61233e-05
5 E1BEG[1] *2287:A 5.33005e-05
6 E1BEG[1] *146:67 0.000132862
7 E1BEG[1] *329:30 2.20608e-05
8 E1BEG[1] *514:94 1.03517e-05
9 E1BEG[1] *525:40 0.000130803
10 E1BEG[1] *594:38 0.000200948
11 E1BEG[1] *650:168 4.15183e-05
12 E1BEG[1] *653:170 0.000349578
13 E1BEG[1] *696:16 0.00034017
14 E1BEG[1] *697:46 1.90936e-05
15 E1BEG[1] *698:121 0
16 E1BEG[1] *704:44 8.88767e-05
17 E1BEG[0] E1BEG[1] 0.000159423
*RES
1 *2284:X E1BEG[1] 27.4103 
*END

*D_NET *31 0.00306825
*CONN
*P E1BEG[2] O
*I *2285:X O *D sky130_fd_sc_hd__buf_2
*CAP
1 E1BEG[2] 0.000769761
2 *2285:X 0.000769761
3 E1BEG[2] E1BEG[3] 4.54513e-05
4 E1BEG[2] *2079:A 0
5 E1BEG[2] *2243:A 0.000175892
6 E1BEG[2] *146:67 0.000132862
7 E1BEG[2] *148:57 6.13706e-05
8 E1BEG[2] *524:142 0.000695585
9 E1BEG[2] *594:38 0.000109422
10 E1BEG[2] *650:168 6.2802e-05
11 E1BEG[1] E1BEG[2] 0.000245342
*RES
1 *2285:X E1BEG[2] 21.5162 
*END

*D_NET *32 0.00191812
*CONN
*P E1BEG[3] O
*I *2286:X O *D sky130_fd_sc_hd__buf_2
*CAP
1 E1BEG[3] 0.000484316
2 *2286:X 0.000484316
3 E1BEG[3] E2BEG[0] 5.78508e-05
4 E1BEG[3] *2243:A 9.41642e-05
5 E1BEG[3] *144:71 1.94879e-05
6 E1BEG[3] *151:27 1.94879e-05
7 E1BEG[3] *524:142 0.000301262
8 E1BEG[3] *594:38 0.000139187
9 E1BEG[3] *647:189 8.13895e-06
10 E1BEG[3] *651:209 5.00194e-05
11 E1BEG[3] *696:16 0.000214436
12 E1BEG[2] E1BEG[3] 4.54513e-05
*RES
1 *2286:X E1BEG[3] 21.9693 
*END

*D_NET *33 0.00394446
*CONN
*P E2BEG[0] O
*I *2287:X O *D sky130_fd_sc_hd__buf_2
*CAP
1 E2BEG[0] 0.000720399
2 *2287:X 0.000720399
3 E2BEG[0] E2BEG[1] 2.66789e-05
4 E2BEG[0] *2242:A 0.00015614
5 E2BEG[0] *2243:A 1.69153e-05
6 E2BEG[0] *2251:A 0.000125731
7 E2BEG[0] *2293:A 0.00035633
8 E2BEG[0] *142:53 0.000511192
9 E2BEG[0] *532:20 0.000697599
10 E2BEG[0] *637:63 9.58181e-05
11 E2BEG[0] *651:209 4.65519e-05
12 E2BEG[0] *696:16 0.000412857
13 E1BEG[3] E2BEG[0] 5.78508e-05
*RES
1 *2287:X E2BEG[0] 28.5618 
*END

*D_NET *34 0.00224561
*CONN
*P E2BEG[1] O
*I *2288:X O *D sky130_fd_sc_hd__buf_2
*CAP
1 E2BEG[1] 0.00039508
2 *2288:X 0.00039508
3 E2BEG[1] E2BEG[2] 0.00010824
4 E2BEG[1] *2290:A 4.32682e-05
5 E2BEG[1] *2295:A 4.34472e-05
6 E2BEG[1] *142:53 0.000187964
7 E2BEG[1] *146:77 4.15161e-05
8 E2BEG[1] *148:57 0.000426133
9 E2BEG[1] *149:63 2.8078e-05
10 E2BEG[1] *645:62 0.000550124
11 E2BEG[0] E2BEG[1] 2.66789e-05
*RES
1 *2288:X E2BEG[1] 24.1103 
*END

*D_NET *35 0.00286517
*CONN
*P E2BEG[2] O
*I *2289:X O *D sky130_fd_sc_hd__buf_2
*CAP
1 E2BEG[2] 0.000842196
2 *2289:X 0.000842196
3 E2BEG[2] E2BEG[3] 0.000204978
4 E2BEG[2] *2291:A 1.98839e-05
5 E2BEG[2] *2293:A 1.88615e-05
6 E2BEG[2] *142:53 0.000142504
7 E2BEG[2] *147:75 0.000178425
8 E2BEG[2] *642:34 0.000375128
9 E2BEG[2] *659:161 2.42516e-05
10 E2BEG[2] *698:121 0.000108505
11 E2BEG[1] E2BEG[2] 0.00010824
*RES
1 *2289:X E2BEG[2] 22.9387 
*END

*D_NET *36 0.00195874
*CONN
*P E2BEG[3] O
*I *2290:X O *D sky130_fd_sc_hd__buf_2
*CAP
1 E2BEG[3] 0.000514828
2 *2290:X 0.000514828
3 E2BEG[3] E2BEG[4] 0.000169466
4 E2BEG[3] E2BEG[5] 5.08017e-06
5 E2BEG[3] *2293:A 6.28948e-05
6 E2BEG[3] *144:71 4.65519e-05
7 E2BEG[3] *481:50 2.37836e-05
8 E2BEG[3] *642:34 0.000329376
9 E2BEG[3] *665:83 8.69554e-05
10 E2BEG[2] E2BEG[3] 0.000204978
*RES
1 *2290:X E2BEG[3] 19.2595 
*END

*D_NET *37 0.00206687
*CONN
*P E2BEG[4] O
*I *2291:X O *D sky130_fd_sc_hd__buf_2
*CAP
1 E2BEG[4] 0.000496856
2 *2291:X 0.000496856
3 E2BEG[4] E2BEG[5] 0.00018168
4 E2BEG[4] E2BEG[6] 0.000219289
5 E2BEG[4] *144:71 2.63501e-05
6 E2BEG[4] *516:58 1.90936e-05
7 E2BEG[4] *659:161 0.000436795
8 E2BEG[4] *691:16 2.04825e-05
9 E2BEG[3] E2BEG[4] 0.000169466
*RES
1 *2291:X E2BEG[4] 22.4521 
*END

*D_NET *38 0.00246709
*CONN
*P E2BEG[5] O
*I *2292:X O *D sky130_fd_sc_hd__buf_2
*CAP
1 E2BEG[5] 0.000656331
2 *2292:X 0.000656331
3 E2BEG[5] E2BEG[6] 0.000540853
4 E2BEG[5] E2BEGb[0] 0.000191506
5 E2BEG[5] *2107:A 2.63501e-05
6 E2BEG[5] *144:71 4.75671e-06
7 E2BEG[5] *236:116 0.000135028
8 E2BEG[5] *481:50 2.63501e-05
9 E2BEG[5] *521:12 2.22043e-05
10 E2BEG[5] *691:16 2.06178e-05
11 E2BEG[3] E2BEG[5] 5.08017e-06
12 E2BEG[4] E2BEG[5] 0.00018168
*RES
1 *2292:X E2BEG[5] 23.8463 
*END

*D_NET *39 0.00365259
*CONN
*P E2BEG[6] O
*I *2293:X O *D sky130_fd_sc_hd__buf_2
*CAP
1 E2BEG[6] 0.000936485
2 *2293:X 0.000936485
3 E2BEG[6] E2BEG[7] 0.000270009
4 E2BEG[6] E2BEGb[0] 5.34566e-05
5 E2BEG[6] *2107:A 0.000314114
6 E2BEG[6] *2295:A 0.00030355
7 E2BEG[6] *236:116 6.52971e-06
8 E2BEG[6] *659:161 1.97695e-05
9 E2BEG[6] *698:121 5.20515e-05
10 E2BEG[4] E2BEG[6] 0.000219289
11 E2BEG[5] E2BEG[6] 0.000540853
*RES
1 *2293:X E2BEG[6] 26.4043 
*END

*D_NET *40 0.0022443
*CONN
*P E2BEG[7] O
*I *2294:X O *D sky130_fd_sc_hd__buf_2
*CAP
1 E2BEG[7] 0.000687301
2 *2294:X 0.000687301
3 E2BEG[7] E2BEGb[0] 0.00053048
4 E2BEG[7] *144:71 3.79901e-06
5 E2BEG[7] *481:84 6.54117e-05
6 E2BEG[6] E2BEG[7] 0.000270009
*RES
1 *2294:X E2BEG[7] 21.366 
*END

*D_NET *41 0.00322805
*CONN
*P E2BEGb[0] O
*I *2295:X O *D sky130_fd_sc_hd__buf_2
*CAP
1 E2BEGb[0] 0.000849715
2 *2295:X 0.000849715
3 E2BEGb[0] E2BEGb[1] 0.00025501
4 E2BEGb[0] *2295:A 0.000180079
5 E2BEGb[0] *236:116 7.60546e-05
6 E2BEGb[0] *481:84 2.68654e-05
7 E2BEGb[0] *521:12 0.000154557
8 E2BEGb[0] *647:222 4.29471e-05
9 E2BEGb[0] *659:161 0
10 E2BEGb[0] *698:121 1.76649e-05
11 E2BEG[5] E2BEGb[0] 0.000191506
12 E2BEG[6] E2BEGb[0] 5.34566e-05
13 E2BEG[7] E2BEGb[0] 0.00053048
*RES
1 *2295:X E2BEGb[0] 35.5797 
*END

*D_NET *42 0.00208835
*CONN
*P E2BEGb[1] O
*I *2296:X O *D sky130_fd_sc_hd__buf_2
*CAP
1 E2BEGb[1] 0.000633595
2 *2296:X 0.000633595
3 E2BEGb[1] E2BEGb[2] 0.000175699
4 E2BEGb[1] *1822:A1 5.6879e-05
5 E2BEGb[1] *2298:A 7.19623e-05
6 E2BEGb[1] *144:71 0.000167762
7 E2BEGb[1] *481:84 1.66388e-05
8 E2BEGb[1] *521:12 2.06178e-05
9 E2BEGb[1] *569:62 5.65955e-05
10 E2BEGb[0] E2BEGb[1] 0.00025501
*RES
1 *2296:X E2BEGb[1] 21.5261 
*END

*D_NET *43 0.00276639
*CONN
*P E2BEGb[2] O
*I *2297:X O *D sky130_fd_sc_hd__buf_2
*CAP
1 E2BEGb[2] 0.000841856
2 *2297:X 0.000841856
3 E2BEGb[2] E2BEGb[3] 0.000213457
4 E2BEGb[2] *2092:A 0.000265276
5 E2BEGb[2] *2300:A 2.59355e-05
6 E2BEGb[2] *144:71 8.69554e-05
7 E2BEGb[2] *481:84 9.41642e-05
8 E2BEGb[2] *521:12 0.000106863
9 E2BEGb[2] *569:62 6.58294e-06
10 E2BEGb[2] *691:16 0.000107746
11 E2BEGb[1] E2BEGb[2] 0.000175699
*RES
1 *2297:X E2BEGb[2] 24.632 
*END

*D_NET *44 0.0019196
*CONN
*P E2BEGb[3] O
*I *2298:X O *D sky130_fd_sc_hd__buf_2
*CAP
1 E2BEGb[3] 0.000517878
2 *2298:X 0.000517878
3 E2BEGb[3] E2BEGb[4] 0.000178367
4 E2BEGb[3] *2298:A 6.24939e-05
5 E2BEGb[3] *2300:A 6.09762e-05
6 E2BEGb[3] *569:62 0.000167762
7 E2BEGb[3] *704:44 0.000200787
8 E2BEGb[2] E2BEGb[3] 0.000213457
*RES
1 *2298:X E2BEGb[3] 19.2595 
*END

*D_NET *45 0.00197633
*CONN
*P E2BEGb[4] O
*I *2299:X O *D sky130_fd_sc_hd__buf_2
*CAP
1 E2BEGb[4] 0.00069388
2 *2299:X 0.00069388
3 E2BEGb[4] E2BEGb[5] 0.000166933
4 E2BEGb[4] *2092:A 0.000127833
5 E2BEGb[4] *481:84 1.78534e-05
6 E2BEGb[4] *516:58 2.06178e-05
7 E2BEGb[4] *660:91 2.84109e-05
8 E2BEGb[4] *691:16 2.22043e-05
9 E2BEGb[4] *704:44 2.63501e-05
10 E2BEGb[3] E2BEGb[4] 0.000178367
*RES
1 *2299:X E2BEGb[4] 22.8807 
*END

*D_NET *46 0.00186703
*CONN
*P E2BEGb[5] O
*I *2300:X O *D sky130_fd_sc_hd__buf_2
*CAP
1 E2BEGb[5] 0.000544904
2 *2300:X 0.000544904
3 E2BEGb[5] E2BEGb[6] 0.000283558
4 E2BEGb[5] *2298:A 8.81622e-05
5 E2BEGb[5] *144:71 9.00983e-05
6 E2BEGb[5] *704:44 0.000148471
7 E2BEGb[4] E2BEGb[5] 0.000166933
*RES
1 *2300:X E2BEGb[5] 19.5631 
*END

*D_NET *47 0.00217191
*CONN
*P E2BEGb[6] O
*I *2301:X O *D sky130_fd_sc_hd__buf_2
*CAP
1 E2BEGb[6] 0.000660148
2 *2301:X 0.000660148
3 E2BEGb[6] E2BEGb[7] 0.000184322
4 E2BEGb[6] *2298:A 1.5929e-05
5 E2BEGb[6] *2302:A 2.59355e-05
6 E2BEGb[6] *144:71 4.36402e-05
7 E2BEGb[6] *653:170 0.000294094
8 E2BEGb[6] *704:44 4.13107e-06
9 E2BEGb[5] E2BEGb[6] 0.000283558
*RES
1 *2301:X E2BEGb[6] 20.3852 
*END

*D_NET *48 0.00205074
*CONN
*P E2BEGb[7] O
*I *2302:X O *D sky130_fd_sc_hd__buf_2
*CAP
1 E2BEGb[7] 0.000530856
2 *2302:X 0.000530856
3 E2BEGb[7] EE4BEG[0] 0.000140636
4 E2BEGb[7] *2298:A 6.24939e-05
5 E2BEGb[7] *144:71 2.36347e-05
6 E2BEGb[7] *653:170 0.000248569
7 E2BEGb[7] *697:46 0.000329376
8 E2BEGb[6] E2BEGb[7] 0.000184322
*RES
1 *2302:X E2BEGb[7] 19.2595 
*END

*D_NET *49 0.00268708
*CONN
*P E6BEG[0] O
*I *2303:X O *D sky130_fd_sc_hd__buf_2
*CAP
1 E6BEG[0] 0.000639952
2 *2303:X 0.000639952
3 E6BEG[0] E6BEG[1] 0.000346362
4 E6BEG[0] EE4BEG[15] 4.54513e-05
5 E6BEG[0] *236:40 0.000134885
6 E6BEG[0] *514:94 1.40863e-05
7 E6BEG[0] *528:30 0.000417973
8 E6BEG[0] *531:62 0.000140719
9 E6BEG[0] *646:24 0.000174868
10 E6BEG[0] *659:209 0.000132833
*RES
1 *2303:X E6BEG[0] 24.257 
*END

*D_NET *50 0.00346523
*CONN
*P E6BEG[10] O
*I *2304:X O *D sky130_fd_sc_hd__buf_2
*CAP
1 E6BEG[10] 0.000704692
2 *2304:X 0.000704692
3 E6BEG[10] E6BEG[11] 7.64892e-05
4 E6BEG[10] E6BEG[9] 6.17425e-05
5 E6BEG[10] FrameData_O[0] 4.42856e-05
6 E6BEG[10] FrameData_O[6] 0.000461937
7 E6BEG[10] *524:43 0
8 E6BEG[10] *583:86 0.000661236
9 E6BEG[10] *600:162 0.000661924
10 E6BEG[10] *653:249 5.88115e-05
11 E6BEG[10] *695:76 2.63501e-05
12 E6BEG[10] *695:90 3.06878e-06
*RES
1 *2304:X E6BEG[10] 32.984 
*END

*D_NET *51 0.00312602
*CONN
*P E6BEG[11] O
*I *2305:X O *D sky130_fd_sc_hd__buf_2
*CAP
1 E6BEG[11] 0.000812001
2 *2305:X 0.000812001
3 E6BEG[11] E6BEG[6] 0.000352252
4 E6BEG[11] E6BEG[9] 4.41999e-05
5 E6BEG[11] FrameData_O[0] 2.66789e-05
6 E6BEG[11] FrameData_O[1] 3.30588e-05
7 E6BEG[11] *2311:A 9.41642e-05
8 E6BEG[11] *235:93 0.000133763
9 E6BEG[11] *514:72 0.000418474
10 E6BEG[11] *531:34 9.94409e-05
11 E6BEG[11] *567:94 0.000193383
12 E6BEG[11] *695:76 3.01113e-05
13 E6BEG[10] E6BEG[11] 7.64892e-05
*RES
1 *2305:X E6BEG[11] 25.1887 
*END

*D_NET *52 0.00269471
*CONN
*P E6BEG[1] O
*I *2306:X O *D sky130_fd_sc_hd__buf_2
*CAP
1 E6BEG[1] 0.000541686
2 *2306:X 0.000541686
3 E6BEG[1] E6BEG[2] 8.92047e-05
4 E6BEG[1] E6BEG[3] 8.98798e-06
5 E6BEG[1] *2318:A 6.34436e-05
6 E6BEG[1] *146:77 0.000173803
7 E6BEG[1] *236:40 0.00018686
8 E6BEG[1] *531:62 0.000225767
9 E6BEG[1] *538:66 3.73396e-05
10 E6BEG[1] *539:40 0.000137983
11 E6BEG[1] *600:138 2.20156e-06
12 E6BEG[1] *600:162 2.96312e-05
13 E6BEG[1] *646:24 0.000170263
14 E6BEG[1] *659:209 7.07702e-05
15 E6BEG[1] *691:38 6.87181e-05
16 E6BEG[0] E6BEG[1] 0.000346362
*RES
1 *2306:X E6BEG[1] 26.3628 
*END

*D_NET *53 0.00330313
*CONN
*P E6BEG[2] O
*I *2307:X O *D sky130_fd_sc_hd__buf_2
*CAP
1 E6BEG[2] 0.000782599
2 *2307:X 0.000782599
3 E6BEG[2] E6BEG[3] 3.87906e-05
4 E6BEG[2] E6BEG[7] 0.000123412
5 E6BEG[2] E6BEG[8] 2.26973e-05
6 E6BEG[2] E6BEG[9] 9.41642e-05
7 E6BEG[2] *2305:A 6.05161e-06
8 E6BEG[2] *146:77 0.000245432
9 E6BEG[2] *147:99 1.36825e-05
10 E6BEG[2] *149:101 4.98603e-05
11 E6BEG[2] *151:57 0.00015024
12 E6BEG[2] *535:52 5.53205e-05
13 E6BEG[2] *583:86 0.000389827
14 E6BEG[2] *600:162 2.43119e-05
15 E6BEG[2] *653:249 0.000214924
16 E6BEG[2] *659:209 0.000189473
17 E6BEG[2] *691:38 3.05378e-05
18 E6BEG[1] E6BEG[2] 8.92047e-05
*RES
1 *2307:X E6BEG[2] 40.896 
*END

*D_NET *54 0.00404647
*CONN
*P E6BEG[3] O
*I *2308:X O *D sky130_fd_sc_hd__buf_2
*CAP
1 E6BEG[3] 0.00114399
2 *2308:X 0.00114399
3 E6BEG[3] E6BEG[4] 0.00024065
4 E6BEG[3] *1811:A1 8.83488e-05
5 E6BEG[3] *1881:A2 5.7836e-06
6 E6BEG[3] *146:77 0.000274812
7 E6BEG[3] *151:57 5.00194e-05
8 E6BEG[3] *160:113 0.000329111
9 E6BEG[3] *483:78 1.30275e-05
10 E6BEG[3] *514:94 4.13301e-05
11 E6BEG[3] *538:66 7.38118e-05
12 E6BEG[3] *545:72 8.89195e-06
13 E6BEG[3] *562:30 0.000116166
14 E6BEG[3] *600:138 9.92705e-06
15 E6BEG[3] *650:248 2.21972e-05
16 E6BEG[3] *686:52 0.00035773
17 E6BEG[3] *703:40 7.88932e-05
18 E6BEG[1] E6BEG[3] 8.98798e-06
19 E6BEG[2] E6BEG[3] 3.87906e-05
*RES
1 *2308:X E6BEG[3] 26.8229 
*END

*D_NET *55 0.00512387
*CONN
*P E6BEG[4] O
*I *2309:X O *D sky130_fd_sc_hd__buf_2
*CAP
1 E6BEG[4] 0.00138247
2 *2309:X 0.00138247
3 E6BEG[4] E6BEG[5] 0.000376767
4 E6BEG[4] E6BEG[8] 1.85689e-05
5 E6BEG[4] *1811:A1 8.92267e-05
6 E6BEG[4] *1811:S0 2.29774e-05
7 E6BEG[4] *1881:A0 1.47728e-05
8 E6BEG[4] *2303:A 0.000170436
9 E6BEG[4] *2309:A 0.000120524
10 E6BEG[4] *2310:A 0
11 E6BEG[4] *144:121 1.90936e-05
12 E6BEG[4] *144:145 0.000116395
13 E6BEG[4] *151:57 4.65519e-05
14 E6BEG[4] *234:44 0.000169981
15 E6BEG[4] *535:86 0.000343289
16 E6BEG[4] *567:94 2.06178e-05
17 E6BEG[4] *646:32 0.000574471
18 E6BEG[4] *686:52 1.45936e-05
19 E6BEG[3] E6BEG[4] 0.00024065
*RES
1 *2309:X E6BEG[4] 30.0347 
*END

*D_NET *56 0.00353697
*CONN
*P E6BEG[5] O
*I *2310:X O *D sky130_fd_sc_hd__buf_2
*CAP
1 E6BEG[5] 0.00104247
2 *2310:X 0.00104247
3 E6BEG[5] E6BEG[6] 3.81127e-05
4 E6BEG[5] E6BEG[7] 2.52932e-06
5 E6BEG[5] *1811:S0 6.71544e-05
6 E6BEG[5] *1881:A0 8.79678e-05
7 E6BEG[5] *1881:S1 8.00843e-06
8 E6BEG[5] *2310:A 0
9 E6BEG[5] *2312:A 0
10 E6BEG[5] *151:57 0.000402165
11 E6BEG[5] *600:162 3.47619e-05
12 E6BEG[5] *646:32 0.000434567
13 E6BEG[5] *665:38 0
14 E6BEG[4] E6BEG[5] 0.000376767
*RES
1 *2310:X E6BEG[5] 24.1281 
*END

*D_NET *57 0.00405478
*CONN
*P E6BEG[6] O
*I *2311:X O *D sky130_fd_sc_hd__buf_2
*CAP
1 E6BEG[6] 0.000969214
2 *2311:X 0.000969214
3 E6BEG[6] E6BEG[7] 4.14256e-05
4 E6BEG[6] FrameData_O[0] 0.000271036
5 E6BEG[6] FrameData_O[1] 1.95815e-05
6 E6BEG[6] *147:101 6.95749e-05
7 E6BEG[6] *535:52 0.00010917
8 E6BEG[6] *559:58 0.000531922
9 E6BEG[6] *600:162 0.000479822
10 E6BEG[6] *659:209 0.000130625
11 E6BEG[6] *659:227 4.69504e-05
12 E6BEG[6] *695:76 2.58826e-05
13 E6BEG[11] E6BEG[6] 0.000352252
14 E6BEG[5] E6BEG[6] 3.81127e-05
*RES
1 *2311:X E6BEG[6] 38.1506 
*END

*D_NET *58 0.00329774
*CONN
*P E6BEG[7] O
*I *2312:X O *D sky130_fd_sc_hd__buf_2
*CAP
1 E6BEG[7] 0.00086025
2 *2312:X 0.00086025
3 E6BEG[7] E6BEG[8] 0.000145663
4 E6BEG[7] E6BEG[9] 2.32381e-05
5 E6BEG[7] *2314:A 0.000341732
6 E6BEG[7] *147:99 9.51343e-06
7 E6BEG[7] *147:101 0.000184924
8 E6BEG[7] *149:101 0.000331372
9 E6BEG[7] *151:57 8.82288e-05
10 E6BEG[7] *594:88 0.000134766
11 E6BEG[7] *600:162 0.000150432
12 E6BEG[2] E6BEG[7] 0.000123412
13 E6BEG[5] E6BEG[7] 2.52932e-06
14 E6BEG[6] E6BEG[7] 4.14256e-05
*RES
1 *2312:X E6BEG[7] 27.3641 
*END

*D_NET *59 0.00303263
*CONN
*P E6BEG[8] O
*I *2313:X O *D sky130_fd_sc_hd__buf_2
*CAP
1 E6BEG[8] 0.000659837
2 *2313:X 0.000659837
3 E6BEG[8] E6BEG[9] 0.00013187
4 E6BEG[8] *2309:A 5.20669e-05
5 E6BEG[8] *144:145 0.000345175
6 E6BEG[8] *147:99 0.000107157
7 E6BEG[8] *147:101 0.000358317
8 E6BEG[8] *594:88 0.00012785
9 E6BEG[8] *659:209 0.00040359
10 E6BEG[2] E6BEG[8] 2.26973e-05
11 E6BEG[4] E6BEG[8] 1.85689e-05
12 E6BEG[7] E6BEG[8] 0.000145663
*RES
1 *2313:X E6BEG[8] 27.3093 
*END

*D_NET *60 0.00283583
*CONN
*P E6BEG[9] O
*I *2314:X O *D sky130_fd_sc_hd__buf_2
*CAP
1 E6BEG[9] 0.000783194
2 *2314:X 0.000783194
3 E6BEG[9] *2307:A 0.00042981
4 E6BEG[9] *2314:A 2.55806e-05
5 E6BEG[9] *147:99 0.000147561
6 E6BEG[9] *149:101 4.11218e-05
7 E6BEG[9] *531:34 2.63501e-05
8 E6BEG[9] *539:40 4.29471e-05
9 E6BEG[9] *567:72 5.33005e-05
10 E6BEG[9] *695:76 0.000147561
11 E6BEG[10] E6BEG[9] 6.17425e-05
12 E6BEG[11] E6BEG[9] 4.41999e-05
13 E6BEG[2] E6BEG[9] 9.41642e-05
14 E6BEG[7] E6BEG[9] 2.32381e-05
15 E6BEG[8] E6BEG[9] 0.00013187
*RES
1 *2314:X E6BEG[9] 24.6868 
*END

*D_NET *61 0.00241422
*CONN
*P EE4BEG[0] O
*I *2315:X O *D sky130_fd_sc_hd__buf_2
*CAP
1 EE4BEG[0] 0.000687544
2 *2315:X 0.000687544
3 EE4BEG[0] EE4BEG[1] 0.000195899
4 EE4BEG[0] EE4BEG[2] 3.2596e-05
5 EE4BEG[0] *2315:A 0
6 EE4BEG[0] *144:71 4.18606e-05
7 EE4BEG[0] *144:91 0.000140714
8 EE4BEG[0] *234:86 0.00010891
9 EE4BEG[0] *545:72 3.79901e-06
10 EE4BEG[0] *697:46 0.000374719
11 E2BEGb[7] EE4BEG[0] 0.000140636
*RES
1 *2315:X EE4BEG[0] 21.2959 
*END

*D_NET *62 0.00293162
*CONN
*P EE4BEG[10] O
*I *2316:X O *D sky130_fd_sc_hd__buf_2
*CAP
1 EE4BEG[10] 0.000645727
2 *2316:X 0.000645727
3 EE4BEG[10] EE4BEG[11] 0.000223361
4 EE4BEG[10] EE4BEG[9] 3.81388e-05
5 EE4BEG[10] *1881:A2 5.49062e-05
6 EE4BEG[10] *2326:A 4.58194e-05
7 EE4BEG[10] *2329:A 0.000135394
8 EE4BEG[10] *72:40 2.78271e-05
9 EE4BEG[10] *148:81 0.000268771
10 EE4BEG[10] *236:40 0.000165715
11 EE4BEG[10] *236:91 0.000122021
12 EE4BEG[10] *545:72 0.000147577
13 EE4BEG[10] *548:22 0.000386931
14 EE4BEG[10] *653:219 1.38167e-05
15 EE4BEG[10] *691:38 5.66471e-06
16 EE4BEG[10] *704:72 4.22135e-06
*RES
1 *2316:X EE4BEG[10] 25.8463 
*END

*D_NET *63 0.00268541
*CONN
*P EE4BEG[11] O
*I *2317:X O *D sky130_fd_sc_hd__buf_2
*CAP
1 EE4BEG[11] 0.000714723
2 *2317:X 0.000714723
3 EE4BEG[11] EE4BEG[12] 0.000182027
4 EE4BEG[11] EE4BEG[8] 2.06178e-05
5 EE4BEG[11] *1946:D 0.000126542
6 EE4BEG[11] *2326:A 3.74059e-06
7 EE4BEG[11] *72:40 2.01732e-05
8 EE4BEG[11] *148:81 4.13627e-05
9 EE4BEG[11] *160:113 1.91948e-05
10 EE4BEG[11] *234:58 2.63501e-05
11 EE4BEG[11] *528:30 1.89507e-06
12 EE4BEG[11] *545:72 4.61463e-05
13 EE4BEG[11] *569:62 0.000211169
14 EE4BEG[11] *704:72 0.000333381
15 EE4BEG[10] EE4BEG[11] 0.000223361
*RES
1 *2317:X EE4BEG[11] 22.5102 
*END

*D_NET *64 0.00327746
*CONN
*P EE4BEG[12] O
*I *2318:X O *D sky130_fd_sc_hd__buf_2
*CAP
1 EE4BEG[12] 0.000737328
2 *2318:X 0.000737328
3 EE4BEG[12] EE4BEG[13] 7.30471e-05
4 EE4BEG[12] EE4BEG[9] 0.000432226
5 EE4BEG[12] *2312:A 0.000110151
6 EE4BEG[12] *149:93 6.33578e-05
7 EE4BEG[12] *160:113 1.39148e-05
8 EE4BEG[12] *236:40 3.8343e-05
9 EE4BEG[12] *528:30 0
10 EE4BEG[12] *548:22 0.000387479
11 EE4BEG[12] *569:62 0.000172883
12 EE4BEG[12] *704:72 0.000329376
13 EE4BEG[11] EE4BEG[12] 0.000182027
*RES
1 *2318:X EE4BEG[12] 26.0452 
*END

*D_NET *65 0.00321211
*CONN
*P EE4BEG[13] O
*I *2319:X O *D sky130_fd_sc_hd__buf_2
*CAP
1 EE4BEG[13] 0.000845997
2 *2319:X 0.000845997
3 EE4BEG[13] EE4BEG[14] 0.000488302
4 EE4BEG[13] EE4BEG[9] 0.000441317
5 EE4BEG[13] *2319:A 1.92691e-07
6 EE4BEG[13] *2328:A 0.000189081
7 EE4BEG[13] *160:113 0.000175892
8 EE4BEG[13] *516:32 0
9 EE4BEG[13] *528:30 6.44241e-05
10 EE4BEG[13] *548:22 1.39436e-05
11 EE4BEG[13] *551:20 1.82011e-05
12 EE4BEG[13] *569:62 9.16052e-06
13 EE4BEG[13] *704:72 4.65519e-05
14 EE4BEG[12] EE4BEG[13] 7.30471e-05
*RES
1 *2319:X EE4BEG[13] 24.0691 
*END

*D_NET *66 0.00256881
*CONN
*P EE4BEG[14] O
*I *2320:X O *D sky130_fd_sc_hd__buf_2
*CAP
1 EE4BEG[14] 0.000612839
2 *2320:X 0.000612839
3 EE4BEG[14] EE4BEG[15] 0.000109596
4 EE4BEG[14] *2330:A 4.96113e-05
5 EE4BEG[14] *524:142 0.000171767
6 EE4BEG[14] *528:30 3.42505e-05
7 EE4BEG[14] *548:22 0.000104976
8 EE4BEG[14] *551:20 0.000338079
9 EE4BEG[14] *704:72 4.65519e-05
10 EE4BEG[13] EE4BEG[14] 0.000488302
*RES
1 *2320:X EE4BEG[14] 20.9572 
*END

*D_NET *67 0.00289858
*CONN
*P EE4BEG[15] O
*I *2321:X O *D sky130_fd_sc_hd__buf_2
*CAP
1 EE4BEG[15] 0.000613128
2 *2321:X 0.000613128
3 EE4BEG[15] *2330:A 2.79421e-05
4 EE4BEG[15] *160:113 2.04825e-05
5 EE4BEG[15] *524:142 0.000171767
6 EE4BEG[15] *528:30 0.000742257
7 EE4BEG[15] *545:72 1.90936e-05
8 EE4BEG[15] *551:20 0.000499194
9 EE4BEG[15] *600:138 3.65354e-05
10 E6BEG[0] EE4BEG[15] 4.54513e-05
11 EE4BEG[14] EE4BEG[15] 0.000109596
*RES
1 *2321:X EE4BEG[15] 20.0312 
*END

*D_NET *68 0.0018355
*CONN
*P EE4BEG[1] O
*I *2322:X O *D sky130_fd_sc_hd__buf_2
*CAP
1 EE4BEG[1] 0.000499648
2 *2322:X 0.000499648
3 EE4BEG[1] EE4BEG[2] 6.17425e-05
4 EE4BEG[1] *144:71 1.03939e-05
5 EE4BEG[1] *144:91 0.000216755
6 EE4BEG[1] *481:84 2.04825e-05
7 EE4BEG[1] *560:58 0.00031144
8 EE4BEG[1] *704:72 1.94879e-05
9 EE4BEG[0] EE4BEG[1] 0.000195899
*RES
1 *2322:X EE4BEG[1] 20.4706 
*END

*D_NET *69 0.00217057
*CONN
*P EE4BEG[2] O
*I *2323:X O *D sky130_fd_sc_hd__buf_2
*CAP
1 EE4BEG[2] 0.000563208
2 *2323:X 0.000563208
3 EE4BEG[2] EE4BEG[3] 0.000184465
4 EE4BEG[2] *2298:A 0.000109271
5 EE4BEG[2] *234:86 0.000111328
6 EE4BEG[2] *545:72 0.000233307
7 EE4BEG[2] *560:58 0.00031144
8 EE4BEG[0] EE4BEG[2] 3.2596e-05
9 EE4BEG[1] EE4BEG[2] 6.17425e-05
*RES
1 *2323:X EE4BEG[2] 19.8667 
*END

*D_NET *70 0.00246013
*CONN
*P EE4BEG[3] O
*I *2324:X O *D sky130_fd_sc_hd__buf_2
*CAP
1 EE4BEG[3] 0.000570919
2 *2324:X 0.000570919
3 EE4BEG[3] EE4BEG[4] 3.54448e-05
4 EE4BEG[3] *2324:A 9.58126e-05
5 EE4BEG[3] *234:86 1.90936e-05
6 EE4BEG[3] *545:72 0.000310701
7 EE4BEG[3] *651:209 0.000652604
8 EE4BEG[3] *653:219 2.01732e-05
9 EE4BEG[2] EE4BEG[3] 0.000184465
*RES
1 *2324:X EE4BEG[3] 19.7429 
*END

*D_NET *71 0.00338684
*CONN
*P EE4BEG[4] O
*I *2325:X O *D sky130_fd_sc_hd__buf_2
*CAP
1 EE4BEG[4] 0.000877625
2 *2325:X 0.000877625
3 EE4BEG[4] EE4BEG[5] 0.000185802
4 EE4BEG[4] *2075:A 9.58181e-05
5 EE4BEG[4] *72:40 0.00014148
6 EE4BEG[4] *160:79 3.17627e-05
7 EE4BEG[4] *234:86 9.39125e-05
8 EE4BEG[4] *236:91 5.00194e-05
9 EE4BEG[4] *481:84 0.000135028
10 EE4BEG[4] *483:78 0.000137327
11 EE4BEG[4] *516:58 1.98839e-05
12 EE4BEG[4] *529:40 4.12177e-05
13 EE4BEG[4] *538:66 6.34874e-05
14 EE4BEG[4] *558:52 2.06814e-07
15 EE4BEG[4] *651:209 0.000600198
16 EE4BEG[3] EE4BEG[4] 3.54448e-05
*RES
1 *2325:X EE4BEG[4] 31.5858 
*END

*D_NET *72 0.00430753
*CONN
*P EE4BEG[5] O
*I *2326:X O *D sky130_fd_sc_hd__buf_2
*CAP
1 EE4BEG[5] 0.000385087
2 *2326:X 0.000892995
3 *72:40 0.00127808
4 EE4BEG[5] EE4BEG[6] 0.000170121
5 EE4BEG[5] *236:91 4.65519e-05
6 *72:40 EE4BEG[6] 7.24912e-05
7 *72:40 EE4BEG[8] 1.46885e-05
8 *72:40 *1915:S1 3.20546e-05
9 *72:40 *2067:A 0.000136676
10 *72:40 *2326:A 3.75856e-05
11 *72:40 *234:58 2.06112e-05
12 *72:40 *234:86 4.11994e-05
13 *72:40 *236:40 8.09159e-05
14 *72:40 *483:78 0.000149826
15 *72:40 *521:12 1.70656e-05
16 *72:40 *545:72 0.000115469
17 *72:40 *560:66 0.000223611
18 *72:40 *653:219 1.59125e-05
19 *72:40 *660:91 5.40901e-05
20 *72:40 *660:99 0.000120913
21 *72:40 *703:40 2.62977e-05
22 EE4BEG[10] *72:40 2.78271e-05
23 EE4BEG[11] *72:40 2.01732e-05
24 EE4BEG[4] EE4BEG[5] 0.000185802
25 EE4BEG[4] *72:40 0.00014148
*RES
1 *2326:X *72:40 49.9834 
2 *72:40 EE4BEG[5] 0.886733 
*END

*D_NET *73 0.0030619
*CONN
*P EE4BEG[6] O
*I *2327:X O *D sky130_fd_sc_hd__buf_2
*CAP
1 EE4BEG[6] 0.000893479
2 *2327:X 0.000893479
3 EE4BEG[6] EE4BEG[7] 5.96266e-05
4 EE4BEG[6] EE4BEG[8] 0.00014861
5 EE4BEG[6] *1877:A2 0.000308602
6 EE4BEG[6] *160:79 0.000269385
7 EE4BEG[6] *483:78 8.69554e-05
8 EE4BEG[6] *521:12 6.83482e-05
9 EE4BEG[6] *545:72 6.64099e-05
10 EE4BEG[6] *560:66 2.43875e-05
11 EE4BEG[5] EE4BEG[6] 0.000170121
12 *72:40 EE4BEG[6] 7.24912e-05
*RES
1 *2327:X EE4BEG[6] 24.4384 
*END

*D_NET *74 0.00334304
*CONN
*P EE4BEG[7] O
*I *2328:X O *D sky130_fd_sc_hd__buf_2
*CAP
1 EE4BEG[7] 0.000673078
2 *2328:X 0.000673078
3 EE4BEG[7] EE4BEG[8] 5.56445e-05
4 EE4BEG[7] EE4BEG[9] 0.000337277
5 EE4BEG[7] *1946:D 0.000212308
6 EE4BEG[7] *2329:A 4.02948e-05
7 EE4BEG[7] *147:91 0.000152092
8 EE4BEG[7] *149:87 0.000317341
9 EE4BEG[7] *160:113 5.20751e-05
10 EE4BEG[7] *559:58 3.14107e-05
11 EE4BEG[7] *659:183 0.000157028
12 EE4BEG[7] *695:76 0.000581785
13 EE4BEG[6] EE4BEG[7] 5.96266e-05
*RES
1 *2328:X EE4BEG[7] 32.3584 
*END

*D_NET *75 0.00261319
*CONN
*P EE4BEG[8] O
*I *2329:X O *D sky130_fd_sc_hd__buf_2
*CAP
1 EE4BEG[8] 0.00064394
2 *2329:X 0.00064394
3 EE4BEG[8] EE4BEG[9] 2.66789e-05
4 EE4BEG[8] *1877:A3 0.000114731
5 EE4BEG[8] *147:91 0.000268771
6 EE4BEG[8] *148:81 3.83766e-05
7 EE4BEG[8] *160:79 0.000232229
8 EE4BEG[8] *160:113 5.58875e-06
9 EE4BEG[8] *234:58 0.000188466
10 EE4BEG[8] *236:91 0.000202832
11 EE4BEG[8] *703:40 8.07616e-06
12 EE4BEG[11] EE4BEG[8] 2.06178e-05
13 EE4BEG[6] EE4BEG[8] 0.00014861
14 EE4BEG[7] EE4BEG[8] 5.56445e-05
15 *72:40 EE4BEG[8] 1.46885e-05
*RES
1 *2329:X EE4BEG[8] 21.8886 
*END

*D_NET *76 0.00372082
*CONN
*P EE4BEG[9] O
*I *2330:X O *D sky130_fd_sc_hd__buf_2
*CAP
1 EE4BEG[9] 0.000664023
2 *2330:X 0.000664023
3 EE4BEG[9] *147:91 2.63501e-05
4 EE4BEG[9] *149:87 9.41642e-05
5 EE4BEG[9] *236:40 0.000263878
6 EE4BEG[9] *236:91 6.58294e-06
7 EE4BEG[9] *559:58 0.000337596
8 EE4BEG[9] *600:138 0.00017754
9 EE4BEG[9] *653:219 3.27567e-05
10 EE4BEG[9] *659:209 0.00017827
11 EE4BEG[10] EE4BEG[9] 3.81388e-05
12 EE4BEG[12] EE4BEG[9] 0.000432226
13 EE4BEG[13] EE4BEG[9] 0.000441317
14 EE4BEG[7] EE4BEG[9] 0.000337277
15 EE4BEG[8] EE4BEG[9] 2.66789e-05
*RES
1 *2330:X EE4BEG[9] 35.1418 
*END

*D_NET *77 0.00225746
*CONN
*P FrameData[0] I
*I *2230:A I *D sky130_fd_sc_hd__buf_1
*CAP
1 FrameData[0] 0.000754077
2 *2230:A 0.000754077
3 *2230:A *2279:A 6.92864e-05
4 *2230:A *154:75 7.90873e-05
5 *2230:A *511:26 9.22222e-06
6 *2230:A *582:54 1.1984e-05
7 *2230:A *600:86 0.000251655
8 *2230:A *631:106 0.000128752
9 *2230:A *637:44 3.47692e-05
10 *2230:A *680:46 0.000157497
11 D_config_C_bit3 *2230:A 7.05143e-06
*RES
1 FrameData[0] *2230:A 22.0731 
*END

*D_NET *78 0.00209915
*CONN
*P FrameData[10] I
*I *2241:A I *D sky130_fd_sc_hd__clkbuf_2
*CAP
1 FrameData[10] 0.000708301
2 *2241:A 0.000708301
3 *2241:A *2215:A 2.996e-05
4 *2241:A *153:119 6.33738e-05
5 *2241:A *154:99 2.02412e-05
6 *2241:A *582:94 0.000185653
7 *2241:A *591:94 8.66554e-05
8 *2241:A *616:38 2.17846e-05
9 *2241:A *668:34 0.000145402
10 *2241:A *674:80 0.000129481
*RES
1 FrameData[10] *2241:A 20.8482 
*END

*D_NET *79 0.00190783
*CONN
*P FrameData[11] I
*I *2252:A I *D sky130_fd_sc_hd__clkbuf_2
*CAP
1 FrameData[11] 0.000498842
2 *2252:A 0.000498842
3 *2252:A *158:71 0.000157786
4 *2252:A *510:22 4.43299e-05
5 *2252:A *512:20 4.43299e-05
6 *2252:A *582:94 0.000663698
*RES
1 FrameData[11] *2252:A 18.956 
*END

*D_NET *80 0.00264493
*CONN
*P FrameData[12] I
*I *2263:A I *D sky130_fd_sc_hd__clkbuf_2
*CAP
1 FrameData[12] 0.000714353
2 *2263:A 0.000714353
3 *2263:A *1960:GATE 0.000124529
4 *2263:A *142:99 6.8194e-05
5 *2263:A *154:99 8.9222e-05
6 *2263:A *158:71 3.70277e-05
7 *2263:A *512:14 0.000161033
8 *2263:A *512:20 0.000107249
9 *2263:A *584:48 2.52313e-05
10 *2263:A *603:72 0.000392247
11 *2263:A *687:70 0.000186174
12 *2263:A *694:76 2.53201e-05
*RES
1 FrameData[12] *2263:A 23.8131 
*END

*D_NET *81 0.00383735
*CONN
*P FrameData[13] I
*I *2271:A I *D sky130_fd_sc_hd__clkbuf_2
*CAP
1 FrameData[13] 0.001172
2 *2271:A 0.001172
3 *2271:A *1945:GATE 5.7836e-06
4 *2271:A *2187:A 0.000609916
5 *2271:A *482:76 7.36321e-05
6 *2271:A *509:30 0.000122021
7 *2271:A *582:94 5.07619e-05
8 *2271:A *584:48 0.000466133
9 *2271:A *668:14 0
10 *2271:A *669:155 0
11 *2271:A *675:64 4.44156e-05
12 *2271:A *694:76 2.93461e-05
13 *2271:A *698:8 4.82865e-05
14 *2271:A *698:44 4.30573e-05
*RES
1 FrameData[13] *2271:A 21.6884 
*END

*D_NET *82 0.00201722
*CONN
*P FrameData[14] I
*I *2187:A I *D sky130_fd_sc_hd__clkbuf_2
*CAP
1 FrameData[14] 0.000533846
2 *2187:A 0.000533846
3 *2187:A *2039:D 8.38879e-05
4 *2187:A *512:14 8.68976e-05
5 *2187:A *584:48 4.75671e-06
6 *2187:A *675:56 5.09065e-05
7 *2187:A *675:64 6.8147e-05
8 *2187:A *675:102 4.50149e-05
9 *2271:A *2187:A 0.000609916
*RES
1 FrameData[14] *2187:A 19.5631 
*END

*D_NET *83 0.00164827
*CONN
*P FrameData[15] I
*I *2188:A I *D sky130_fd_sc_hd__clkbuf_2
*CAP
1 FrameData[15] 0.000631296
2 *2188:A 0.000631296
3 *2188:A *2039:D 0.000256879
4 *2188:A *2189:A 0
5 *2188:A *491:14 3.77315e-05
6 *2188:A *512:14 4.5534e-05
7 *2188:A *675:102 4.5534e-05
*RES
1 FrameData[15] *2188:A 18.956 
*END

*D_NET *84 0.00184809
*CONN
*P FrameData[16] I
*I *2189:A I *D sky130_fd_sc_hd__buf_1
*CAP
1 FrameData[16] 0.000593888
2 *2189:A 0.000593888
3 *2189:A *2190:A 0
4 *2189:A *556:24 0.000289866
5 *2189:A *568:28 6.05161e-06
6 *2189:A *601:30 7.61169e-05
7 *2189:A *603:74 0.00028828
8 *2188:A *2189:A 0
*RES
1 FrameData[16] *2189:A 25.0924 
*END

*D_NET *85 0.00162641
*CONN
*P FrameData[17] I
*I *2190:A I *D sky130_fd_sc_hd__buf_1
*CAP
1 FrameData[17] 0.000600489
2 *2190:A 0.000600489
3 *2190:A *2020:D 2.76415e-05
4 *2190:A *491:57 1.09611e-05
5 *2190:A *512:14 8.18542e-05
6 *2190:A *601:30 8.6389e-05
7 *2190:A *625:10 0.000161723
8 *2190:A *627:40 5.68623e-05
9 *2189:A *2190:A 0
*RES
1 FrameData[17] *2190:A 20.4017 
*END

*D_NET *86 0.00172176
*CONN
*P FrameData[18] I
*I *2191:A I *D sky130_fd_sc_hd__clkbuf_2
*CAP
1 FrameData[18] 0.000474699
2 *2191:A 0.000474699
3 *2191:A *2020:D 0.000135789
4 *2191:A *142:117 8.88357e-06
5 *2191:A *156:69 0.000284407
6 *2191:A *512:14 9.13908e-05
7 *2191:A *627:40 0.000151688
8 *2191:A *674:20 9.35984e-05
9 *2191:A *698:175 6.60633e-06
*RES
1 FrameData[18] *2191:A 19.5631 
*END

*D_NET *87 0.00174465
*CONN
*P FrameData[19] I
*I *2192:A I *D sky130_fd_sc_hd__clkbuf_2
*CAP
1 FrameData[19] 0.000519392
2 *2192:A 0.000519392
3 *2192:A *2194:A 0
4 *2192:A *142:117 0.000602985
5 *2192:A *156:69 1.4219e-05
6 *2192:A *512:14 4.43299e-05
7 *2192:A *674:20 4.43299e-05
*RES
1 FrameData[19] *2192:A 18.956 
*END

*D_NET *88 0.00207519
*CONN
*P FrameData[1] I
*I *2193:A I *D sky130_fd_sc_hd__buf_1
*CAP
1 FrameData[1] 0.000464288
2 *2193:A 0.000464288
3 *2193:A *153:79 0.000155647
4 *2193:A *509:30 0.000127359
5 *2193:A *582:54 0.000188605
6 *2193:A *590:96 0.000457691
7 *2193:A *600:86 0.000155647
8 *2193:A *644:115 4.69869e-05
9 *2193:A *672:134 1.4677e-05
*RES
1 FrameData[1] *2193:A 20.4017 
*END

*D_NET *89 0.00139533
*CONN
*P FrameData[20] I
*I *2194:A I *D sky130_fd_sc_hd__buf_2
*CAP
1 FrameData[20] 0.000627756
2 *2194:A 0.000627756
3 *2194:A *2195:A 0
4 *2194:A *625:10 6.99087e-05
5 *2194:A *674:114 6.99087e-05
6 *2192:A *2194:A 0
*RES
1 FrameData[20] *2194:A 19.1875 
*END

*D_NET *90 0.0016376
*CONN
*P FrameData[21] I
*I *2195:A I *D sky130_fd_sc_hd__buf_2
*CAP
1 FrameData[21] 0.000616979
2 *2195:A 0.000616979
3 *2195:A *2196:A 0
4 *2195:A *625:10 0.000162204
5 *2195:A *674:114 0.000162204
6 *2195:A *694:92 7.9232e-05
7 *2194:A *2195:A 0
*RES
1 FrameData[21] *2195:A 20.4017 
*END

*D_NET *91 0.00144354
*CONN
*P FrameData[22] I
*I *2196:A I *D sky130_fd_sc_hd__buf_2
*CAP
1 FrameData[22] 0.000516589
2 *2196:A 0.000516589
3 *2196:A *2198:A 0
4 *2196:A *625:10 9.48025e-05
5 *2196:A *674:114 9.48025e-05
6 *2196:A *694:92 0.000220755
7 *2195:A *2196:A 0
*RES
1 FrameData[22] *2196:A 19.491 
*END

*D_NET *92 0.00125758
*CONN
*P FrameData[23] I
*I *2198:A I *D sky130_fd_sc_hd__buf_2
*CAP
1 FrameData[23] 0.000583254
2 *2198:A 0.000583254
3 *2198:A *2199:A 0
4 *2198:A *625:10 4.5534e-05
5 *2198:A *674:114 4.5534e-05
6 *2198:A *687:18 0
7 *2196:A *2198:A 0
*RES
1 FrameData[23] *2198:A 18.8839 
*END

*D_NET *93 0.00167968
*CONN
*P FrameData[24] I
*I *2199:A I *D sky130_fd_sc_hd__buf_2
*CAP
1 FrameData[24] 0.000503717
2 *2199:A 0.000503717
3 *2199:A *2200:A 0
4 *2199:A *556:24 0.000290965
5 *2199:A *602:18 9.19015e-05
6 *2199:A *603:74 0.000289379
7 *2198:A *2199:A 0
*RES
1 FrameData[24] *2199:A 25.0924 
*END

*D_NET *94 0.00253119
*CONN
*P FrameData[25] I
*I *2200:A I *D sky130_fd_sc_hd__clkbuf_2
*CAP
1 FrameData[25] 0.000922069
2 *2200:A 0.000922069
3 *2200:A *2201:A 0
4 *2200:A *154:107 0.000114845
5 *2200:A *157:115 0
6 *2200:A *624:32 4.79863e-05
7 *2200:A *625:10 0.000119934
8 *2200:A *627:22 0.000175892
9 *2200:A *627:40 0.000139703
10 *2200:A *670:6 8.86898e-05
11 *2199:A *2200:A 0
*RES
1 FrameData[25] *2200:A 27.8641 
*END

*D_NET *95 0.00202771
*CONN
*P FrameData[26] I
*I *2201:A I *D sky130_fd_sc_hd__buf_2
*CAP
1 FrameData[26] 0.000412972
2 *2201:A 0.000412972
3 *2201:A *2202:A 0
4 *2201:A *624:32 0.000191882
5 *2201:A *625:10 0.000256447
6 *2201:A *626:34 8.23497e-06
7 *2201:A *627:40 0.000488759
8 *2201:A *628:24 0.000256447
9 *2200:A *2201:A 0
*RES
1 FrameData[26] *2201:A 21.616 
*END

*D_NET *96 0.00153825
*CONN
*P FrameData[27] I
*I *2202:A I *D sky130_fd_sc_hd__buf_2
*CAP
1 FrameData[27] 0.000388926
2 *2202:A 0.000388926
3 *2202:A *726:DIODE 0.000108459
4 *2202:A *2203:A 0
5 *2202:A *625:10 0.000186644
6 *2202:A *626:34 0.000224955
7 *2202:A *627:40 5.369e-05
8 *2202:A *628:24 0.000186644
9 *2201:A *2202:A 0
*RES
1 FrameData[27] *2202:A 20.7053 
*END

*D_NET *97 0.00148527
*CONN
*P FrameData[28] I
*I *2203:A I *D sky130_fd_sc_hd__buf_2
*CAP
1 FrameData[28] 0.000654971
2 *2203:A 0.000654971
3 *2203:A *726:DIODE 0.000132931
4 *2203:A *1891:A0 0
5 *2203:A *2204:A 0
6 *2203:A *156:69 0
7 *2203:A *627:12 1.90936e-05
8 *2203:A *630:26 2.33003e-05
9 *2202:A *2203:A 0
*RES
1 FrameData[28] *2203:A 19.6199 
*END

*D_NET *98 0.00124849
*CONN
*P FrameData[29] I
*I *2204:A I *D sky130_fd_sc_hd__clkbuf_2
*CAP
1 FrameData[29] 0.000516138
2 *2204:A 0.000516138
3 *2204:A *2206:A 0
4 *2204:A *156:69 2.75989e-05
5 *2204:A *625:10 1.20379e-05
6 *2204:A *628:24 0.000111339
7 *2204:A *630:26 6.5238e-05
8 *2203:A *2204:A 0
*RES
1 FrameData[29] *2204:A 20.1702 
*END

*D_NET *99 0.00229587
*CONN
*P FrameData[2] I
*I *2205:A I *D sky130_fd_sc_hd__dlymetal6s2s_1
*CAP
1 FrameData[2] 0.000542966
2 *2205:A 0.000542966
3 *2205:A *153:79 0.000251184
4 *2205:A *511:26 1.84269e-05
5 *2205:A *544:32 8.92205e-05
6 *2205:A *591:94 0.000482173
7 *2205:A *600:86 0.0002546
8 *2205:A *672:134 0.000114338
*RES
1 FrameData[2] *2205:A 21.616 
*END

*D_NET *100 0.000971703
*CONN
*P FrameData[30] I
*I *2206:A I *D sky130_fd_sc_hd__buf_2
*CAP
1 FrameData[30] 0.00042993
2 *2206:A 0.00042993
3 *2206:A *2207:A 0
4 *2206:A *2375:A 0
5 *2206:A *156:69 1.36734e-05
6 *2206:A *625:10 9.23805e-05
7 *2206:A *630:26 5.7903e-06
8 *2204:A *2206:A 0
*RES
1 FrameData[30] *2206:A 19.491 
*END

*D_NET *101 0.00239672
*CONN
*P FrameData[31] I
*I *2207:A I *D sky130_fd_sc_hd__buf_2
*CAP
1 FrameData[31] 0.00110976
2 *2207:A 0.00110976
3 *2207:A FrameStrobe_O[0] 0
4 *2207:A *1901:A0 4.1331e-06
5 *2207:A *2376:A 0.000173076
6 *2207:A *2378:A 0
7 *2207:A *156:69 0
8 *2206:A *2207:A 0
*RES
1 FrameData[31] *2207:A 21.8737 
*END

*D_NET *102 0.00283423
*CONN
*P FrameData[3] I
*I *2209:A I *D sky130_fd_sc_hd__clkbuf_2
*CAP
1 FrameData[3] 0.000883595
2 *2209:A 0.000883595
3 *2209:A *2039:D 0.000115926
4 *2209:A *2040:GATE 0
5 *2209:A *154:95 0.000322785
6 *2209:A *480:70 4.35849e-05
7 *2209:A *495:20 0.000112765
8 *2209:A *511:26 7.01273e-05
9 *2209:A *616:26 0.000127359
10 *2209:A *624:58 0.000127359
11 *2209:A *629:35 0.00014713
*RES
1 FrameData[3] *2209:A 22.8871 
*END

*D_NET *103 0.00180926
*CONN
*P FrameData[4] I
*I *2210:A I *D sky130_fd_sc_hd__clkbuf_2
*CAP
1 FrameData[4] 0.000505561
2 *2210:A 0.000505561
3 *2210:A *2039:D 0.000268817
4 *2210:A *153:79 4.38058e-05
5 *2210:A *157:87 0.000274274
6 *2210:A *546:31 4.38058e-05
7 *2210:A *627:104 0.000167434
*RES
1 FrameData[4] *2210:A 18.956 
*END

*D_NET *104 0.00232093
*CONN
*P FrameData[5] I
*I *2211:A I *D sky130_fd_sc_hd__clkbuf_2
*CAP
1 FrameData[5] 0.000795565
2 *2211:A 0.000795565
3 *2211:A *2039:D 2.04745e-05
4 *2211:A *153:79 6.39808e-05
5 *2211:A *157:87 7.58688e-06
6 *2211:A *480:50 0.000127359
7 *2211:A *556:54 0.000190862
8 *2211:A *586:74 1.25071e-05
9 *2211:A *627:104 0.000183733
10 *2211:A *638:12 6.39808e-05
11 *2211:A *694:76 5.93199e-05
*RES
1 FrameData[5] *2211:A 22.8338 
*END

*D_NET *105 0.00225755
*CONN
*P FrameData[6] I
*I *2212:A I *D sky130_fd_sc_hd__clkbuf_2
*CAP
1 FrameData[6] 0.000613005
2 *2212:A 0.000613005
3 *2212:A *153:79 0.000226812
4 *2212:A *546:31 0.000226812
5 *2212:A *582:54 6.28372e-05
6 *2212:A *600:138 2.63501e-05
7 *2212:A *624:32 0.000349578
8 *2212:A *694:76 0.000139153
*RES
1 FrameData[6] *2212:A 21.3845 
*END

*D_NET *106 0.00357943
*CONN
*P FrameData[7] I
*I *2213:A I *D sky130_fd_sc_hd__clkbuf_2
*CAP
1 FrameData[7] 0.00103405
2 *2213:A 0.00103405
3 *2213:A *153:79 0.000196374
4 *2213:A *158:31 1.24368e-05
5 *2213:A *546:31 2.04825e-05
6 *2213:A *556:40 0.000107391
7 *2213:A *590:96 0.00041094
8 *2213:A *624:32 4.64974e-05
9 *2213:A *628:60 8.98798e-06
10 *2213:A *629:52 0.000126424
11 *2213:A *636:117 0.000543438
12 *2213:A *637:44 3.83695e-05
*RES
1 FrameData[7] *2213:A 26.8636 
*END

*D_NET *107 0.00352665
*CONN
*P FrameData[8] I
*I *2214:A I *D sky130_fd_sc_hd__clkbuf_2
*CAP
1 FrameData[8] 0.000897506
2 *2214:A 0.000897506
3 *2214:A *154:99 0.000225043
4 *2214:A *480:50 0.000251022
5 *2214:A *510:22 9.41642e-05
6 *2214:A *601:30 8.98798e-06
7 *2214:A *616:38 0.000230124
8 *2214:A *626:70 0.000111764
9 *2214:A *628:60 0.000374594
10 *2214:A *638:12 6.57032e-05
11 *2214:A *644:115 5.31813e-05
12 *2214:A *674:80 0.000317051
*RES
1 FrameData[8] *2214:A 23.3527 
*END

*D_NET *108 0.00242963
*CONN
*P FrameData[9] I
*I *2215:A I *D sky130_fd_sc_hd__clkbuf_2
*CAP
1 FrameData[9] 0.000848414
2 *2215:A 0.000848414
3 *2215:A *154:99 6.09762e-05
4 *2215:A *158:71 8.66844e-05
5 *2215:A *582:94 3.6868e-05
6 *2215:A *601:30 4.52285e-05
7 *2215:A *616:38 6.24939e-05
8 *2215:A *644:115 5.62831e-05
9 *2215:A *674:80 0.000206747
10 *2215:A *675:38 0.000147561
11 *2241:A *2215:A 2.996e-05
*RES
1 FrameData[9] *2215:A 21.2834 
*END

*D_NET *109 0.0036303
*CONN
*P FrameData_O[0] O
*I *2331:X O *D sky130_fd_sc_hd__buf_2
*CAP
1 FrameData_O[0] 0.000816221
2 *2331:X 0.000816221
3 FrameData_O[0] FrameData_O[1] 0.000143304
4 FrameData_O[0] FrameData_O[2] 0.000486002
5 FrameData_O[0] *659:209 0.000183049
6 FrameData_O[0] *695:76 0.000678384
7 FrameData_O[0] *695:90 0.000165123
8 E6BEG[10] FrameData_O[0] 4.42856e-05
9 E6BEG[11] FrameData_O[0] 2.66789e-05
10 E6BEG[6] FrameData_O[0] 0.000271036
*RES
1 *2331:X FrameData_O[0] 29.9866 
*END

*D_NET *110 0.00342632
*CONN
*P FrameData_O[10] O
*I *2332:X O *D sky130_fd_sc_hd__buf_2
*CAP
1 FrameData_O[10] 0.000903046
2 *2332:X 0.000903046
3 FrameData_O[10] FrameData_O[11] 0.000229329
4 FrameData_O[10] FrameData_O[12] 2.42516e-05
5 FrameData_O[10] FrameData_O[14] 0.000490466
6 FrameData_O[10] FrameData_O[17] 0.000108425
7 FrameData_O[10] FrameData_O[2] 0.000254733
8 FrameData_O[10] FrameData_O[4] 5.36823e-05
9 FrameData_O[10] FrameData_O[8] 8.84467e-06
10 FrameData_O[10] FrameData_O[9] 0.000132335
11 FrameData_O[10] *2332:A 6.05161e-06
12 FrameData_O[10] *536:16 8.16011e-05
13 FrameData_O[10] *564:36 0.00012027
14 FrameData_O[10] *646:127 6.90372e-06
15 FrameData_O[10] *653:275 0.000103333
*RES
1 *2332:X FrameData_O[10] 32.0085 
*END

*D_NET *111 0.0033657
*CONN
*P FrameData_O[11] O
*I *2333:X O *D sky130_fd_sc_hd__buf_2
*CAP
1 FrameData_O[11] 0.00108423
2 *2333:X 0.00108423
3 FrameData_O[11] FrameData_O[12] 0.000232523
4 FrameData_O[11] FrameData_O[8] 0.000111841
5 FrameData_O[11] FrameData_O[9] 2.996e-06
6 FrameData_O[11] *2337:A 5.74701e-05
7 FrameData_O[11] *2348:A 0
8 FrameData_O[11] *2357:A 0
9 FrameData_O[11] *2362:A 4.82947e-05
10 FrameData_O[11] *144:145 7.21089e-06
11 FrameData_O[11] *646:88 0.000164803
12 FrameData_O[11] *653:275 5.00194e-05
13 FrameData_O[11] *691:72 0.000292759
14 FrameData_O[10] FrameData_O[11] 0.000229329
*RES
1 *2333:X FrameData_O[11] 25.6744 
*END

*D_NET *112 0.00382319
*CONN
*P FrameData_O[12] O
*I *2334:X O *D sky130_fd_sc_hd__buf_2
*CAP
1 FrameData_O[12] 0.000848155
2 *2334:X 0.000848155
3 FrameData_O[12] FrameData_O[13] 5.89574e-05
4 FrameData_O[12] FrameData_O[14] 3.8588e-05
5 FrameData_O[12] FrameData_O[9] 2.09311e-05
6 FrameData_O[12] *2068:A 4.60153e-05
7 FrameData_O[12] *2332:A 9.41642e-05
8 FrameData_O[12] *149:101 0.000740879
9 FrameData_O[12] *646:127 9.28657e-05
10 FrameData_O[12] *653:275 4.65519e-05
11 FrameData_O[12] *691:72 0.000189398
12 FrameData_O[12] *704:110 0.000541758
13 FrameData_O[10] FrameData_O[12] 2.42516e-05
14 FrameData_O[11] FrameData_O[12] 0.000232523
*RES
1 *2334:X FrameData_O[12] 30.9368 
*END

*D_NET *113 0.00207517
*CONN
*P FrameData_O[13] O
*I *2335:X O *D sky130_fd_sc_hd__buf_2
*CAP
1 FrameData_O[13] 0.000588812
2 *2335:X 0.000588812
3 FrameData_O[13] FrameData_O[14] 5.56445e-05
4 FrameData_O[13] FrameData_O[2] 0.000385277
5 FrameData_O[13] FrameData_O[4] 2.44541e-05
6 FrameData_O[13] *2335:A 4.96113e-05
7 FrameData_O[13] *2346:A 4.58764e-05
8 FrameData_O[13] *2353:A 7.4561e-05
9 FrameData_O[13] *567:94 4.38243e-05
10 FrameData_O[13] *704:90 0.000159342
11 FrameData_O[12] FrameData_O[13] 5.89574e-05
*RES
1 *2335:X FrameData_O[13] 27.1798 
*END

*D_NET *114 0.00348402
*CONN
*P FrameData_O[14] O
*I *2336:X O *D sky130_fd_sc_hd__buf_2
*CAP
1 FrameData_O[14] 0.000862479
2 *2336:X 0.000862479
3 FrameData_O[14] FrameData_O[15] 0.000129042
4 FrameData_O[14] FrameData_O[16] 0.000139902
5 FrameData_O[14] FrameData_O[17] 3.00744e-05
6 FrameData_O[14] FrameData_O[20] 0.000106981
7 FrameData_O[14] FrameData_O[21] 0.000215232
8 FrameData_O[14] FrameData_O[22] 0.000117708
9 FrameData_O[14] FrameData_O[9] 0.000130033
10 FrameData_O[14] *147:101 0.000242067
11 FrameData_O[14] *564:36 6.33204e-05
12 FrameData_O[10] FrameData_O[14] 0.000490466
13 FrameData_O[12] FrameData_O[14] 3.8588e-05
14 FrameData_O[13] FrameData_O[14] 5.56445e-05
*RES
1 *2336:X FrameData_O[14] 32.4872 
*END

*D_NET *115 0.00159143
*CONN
*P FrameData_O[15] O
*I *2337:X O *D sky130_fd_sc_hd__buf_2
*CAP
1 FrameData_O[15] 0.000521756
2 *2337:X 0.000521756
3 FrameData_O[15] FrameData_O[16] 0.000205065
4 FrameData_O[15] FrameData_O[4] 1.63435e-05
5 FrameData_O[15] FrameData_O[9] 0.000170436
6 FrameData_O[15] *147:101 2.09826e-05
7 FrameData_O[15] *564:36 6.05161e-06
8 FrameData_O[14] FrameData_O[15] 0.000129042
*RES
1 *2337:X FrameData_O[15] 20.8093 
*END

*D_NET *116 0.00227661
*CONN
*P FrameData_O[16] O
*I *2338:X O *D sky130_fd_sc_hd__buf_2
*CAP
1 FrameData_O[16] 0.000480809
2 *2338:X 0.000480809
3 FrameData_O[16] FrameData_O[17] 0.000120228
4 FrameData_O[16] *731:DIODE 5.33005e-05
5 FrameData_O[16] *146:99 5.08749e-05
6 FrameData_O[16] *147:101 0.000141954
7 FrameData_O[16] *524:43 0.000346047
8 FrameData_O[16] *567:96 0.000257619
9 FrameData_O[14] FrameData_O[16] 0.000139902
10 FrameData_O[15] FrameData_O[16] 0.000205065
*RES
1 *2338:X FrameData_O[16] 23.97 
*END

*D_NET *117 0.0033355
*CONN
*P FrameData_O[17] O
*I *2339:X O *D sky130_fd_sc_hd__buf_2
*CAP
1 FrameData_O[17] 0.000658363
2 *2339:X 0.000658363
3 FrameData_O[17] FrameData_O[18] 3.54448e-05
4 FrameData_O[17] FrameData_O[20] 0.000344429
5 FrameData_O[17] FrameData_O[21] 0.000260152
6 FrameData_O[17] FrameData_O[22] 7.65497e-05
7 FrameData_O[17] *2346:A 8.40933e-05
8 FrameData_O[17] *146:99 0.00017293
9 FrameData_O[17] *536:16 0.00078645
10 FrameData_O[10] FrameData_O[17] 0.000108425
11 FrameData_O[14] FrameData_O[17] 3.00744e-05
12 FrameData_O[16] FrameData_O[17] 0.000120228
*RES
1 *2339:X FrameData_O[17] 31.8781 
*END

*D_NET *118 0.00237292
*CONN
*P FrameData_O[18] O
*I *2340:X O *D sky130_fd_sc_hd__buf_2
*CAP
1 FrameData_O[18] 0.000746974
2 *2340:X 0.000746974
3 FrameData_O[18] FrameData_O[19] 4.61183e-05
4 FrameData_O[18] FrameData_O[20] 4.89946e-05
5 FrameData_O[18] FrameData_O[21] 0
6 FrameData_O[18] *146:99 0.000423411
7 FrameData_O[18] *147:101 4.38243e-05
8 FrameData_O[18] *149:101 4.58764e-05
9 FrameData_O[18] *524:43 0.000137833
10 FrameData_O[18] *574:14 9.74665e-05
11 FrameData_O[17] FrameData_O[18] 3.54448e-05
*RES
1 *2340:X FrameData_O[18] 23.7213 
*END

*D_NET *119 0.00279044
*CONN
*P FrameData_O[19] O
*I *2341:X O *D sky130_fd_sc_hd__buf_2
*CAP
1 FrameData_O[19] 0.000704443
2 *2341:X 0.000704443
3 FrameData_O[19] FrameData_O[20] 4.61183e-05
4 FrameData_O[19] FrameData_O[26] 9.58126e-05
5 FrameData_O[19] FrameData_O[27] 1.65169e-05
6 FrameData_O[19] *2346:A 0.000342174
7 FrameData_O[19] *514:24 0.000788836
8 FrameData_O[19] *536:16 4.59804e-05
9 FrameData_O[18] FrameData_O[19] 4.61183e-05
*RES
1 *2341:X FrameData_O[19] 33.2327 
*END

*D_NET *120 0.00342603
*CONN
*P FrameData_O[1] O
*I *2342:X O *D sky130_fd_sc_hd__buf_2
*CAP
1 FrameData_O[1] 0.00110295
2 *2342:X 0.00110295
3 FrameData_O[1] FrameData_O[2] 0.000162212
4 FrameData_O[1] FrameData_O[3] 0.000185435
5 FrameData_O[1] *514:72 0.000212721
6 FrameData_O[1] *539:40 9.29862e-05
7 FrameData_O[1] *567:94 2.27941e-05
8 FrameData_O[1] *646:88 0.000339417
9 FrameData_O[1] *691:72 8.6229e-06
10 E6BEG[11] FrameData_O[1] 3.30588e-05
11 E6BEG[6] FrameData_O[1] 1.95815e-05
12 FrameData_O[0] FrameData_O[1] 0.000143304
*RES
1 *2342:X FrameData_O[1] 23.3219 
*END

*D_NET *121 0.00396249
*CONN
*P FrameData_O[20] O
*I *2343:X O *D sky130_fd_sc_hd__buf_2
*CAP
1 FrameData_O[20] 0.000773621
2 *2343:X 0.000773621
3 FrameData_O[20] FrameData_O[21] 0.00033561
4 FrameData_O[20] FrameData_O[22] 0.000884097
5 FrameData_O[20] FrameData_O[23] 0.000109657
6 FrameData_O[20] FrameData_O[24] 0.000109657
7 FrameData_O[20] FrameData_O[29] 0.000211825
8 FrameData_O[20] FrameData_O[31] 4.36996e-05
9 FrameData_O[20] *147:101 0.00017418
10 FrameData_O[14] FrameData_O[20] 0.000106981
11 FrameData_O[17] FrameData_O[20] 0.000344429
12 FrameData_O[18] FrameData_O[20] 4.89946e-05
13 FrameData_O[19] FrameData_O[20] 4.61183e-05
*RES
1 *2343:X FrameData_O[20] 41.4971 
*END

*D_NET *122 0.00295125
*CONN
*P FrameData_O[21] O
*I *2344:X O *D sky130_fd_sc_hd__buf_2
*CAP
1 FrameData_O[21] 0.000541609
2 *2344:X 0.000541609
3 FrameData_O[21] FrameData_O[22] 0.000184956
4 FrameData_O[21] FrameData_O[23] 1.24349e-05
5 FrameData_O[21] *2346:A 0.000430308
6 FrameData_O[21] *147:101 0.000429341
7 FrameData_O[14] FrameData_O[21] 0.000215232
8 FrameData_O[17] FrameData_O[21] 0.000260152
9 FrameData_O[18] FrameData_O[21] 0
10 FrameData_O[20] FrameData_O[21] 0.00033561
*RES
1 *2344:X FrameData_O[21] 27.6128 
*END

*D_NET *123 0.00362514
*CONN
*P FrameData_O[22] O
*I *2345:X O *D sky130_fd_sc_hd__buf_2
*CAP
1 FrameData_O[22] 0.000749001
2 *2345:X 0.000749001
3 FrameData_O[22] FrameData_O[23] 0.000171257
4 FrameData_O[22] FrameData_O[29] 0.000374926
5 FrameData_O[22] *514:12 4.35597e-05
6 FrameData_O[22] *536:16 0.000274086
7 FrameData_O[14] FrameData_O[22] 0.000117708
8 FrameData_O[17] FrameData_O[22] 7.65497e-05
9 FrameData_O[20] FrameData_O[22] 0.000884097
10 FrameData_O[21] FrameData_O[22] 0.000184956
*RES
1 *2345:X FrameData_O[22] 34.8437 
*END

*D_NET *124 0.00279173
*CONN
*P FrameData_O[23] O
*I *2346:X O *D sky130_fd_sc_hd__buf_2
*CAP
1 FrameData_O[23] 0.000887925
2 *2346:X 0.000887925
3 FrameData_O[23] FrameData_O[24] 0.000382154
4 FrameData_O[23] *1882:A2 9.95103e-05
5 FrameData_O[23] *1893:A1 0
6 FrameData_O[23] *1914:A2 0.000149503
7 FrameData_O[23] *2335:A 2.75217e-05
8 FrameData_O[23] *2340:A 3.42554e-05
9 FrameData_O[23] *149:101 3.57501e-06
10 FrameData_O[23] *571:18 2.82648e-06
11 FrameData_O[23] *594:88 2.31796e-05
12 FrameData_O[20] FrameData_O[23] 0.000109657
13 FrameData_O[21] FrameData_O[23] 1.24349e-05
14 FrameData_O[22] FrameData_O[23] 0.000171257
*RES
1 *2346:X FrameData_O[23] 21.6575 
*END

*D_NET *125 0.00394551
*CONN
*P FrameData_O[24] O
*I *2347:X O *D sky130_fd_sc_hd__buf_2
*CAP
1 FrameData_O[24] 0.00112948
2 *2347:X 0.00112948
3 FrameData_O[24] FrameData_O[25] 0.000320197
4 FrameData_O[24] *1882:A2 0.000500471
5 FrameData_O[24] *1882:S1 0.000128146
6 FrameData_O[24] *2339:A 5.33072e-05
7 FrameData_O[24] *2340:A 4.93512e-05
8 FrameData_O[24] *2341:A 5.1588e-05
9 FrameData_O[24] *149:101 3.26826e-05
10 FrameData_O[24] *571:18 4.04691e-06
11 FrameData_O[24] *580:16 5.49544e-05
12 FrameData_O[20] FrameData_O[24] 0.000109657
13 FrameData_O[23] FrameData_O[24] 0.000382154
*RES
1 *2347:X FrameData_O[24] 28.7812 
*END

*D_NET *126 0.00250695
*CONN
*P FrameData_O[25] O
*I *2348:X O *D sky130_fd_sc_hd__buf_2
*CAP
1 FrameData_O[25] 0.000653359
2 *2348:X 0.000653359
3 FrameData_O[25] FrameData_O[26] 0.000388075
4 FrameData_O[25] *2340:A 0.000189608
5 FrameData_O[25] *149:101 0.000150564
6 FrameData_O[25] *704:110 0.000151789
7 FrameData_O[24] FrameData_O[25] 0.000320197
*RES
1 *2348:X FrameData_O[25] 23.0988 
*END

*D_NET *127 0.00299119
*CONN
*P FrameData_O[26] O
*I *2349:X O *D sky130_fd_sc_hd__buf_2
*CAP
1 FrameData_O[26] 0.00065457
2 *2349:X 0.00065457
3 FrameData_O[26] FrameData_O[27] 0.000320085
4 FrameData_O[26] FrameData_O[28] 1.68369e-05
5 FrameData_O[26] *2341:A 0.000397706
6 FrameData_O[26] *2348:A 0.000135028
7 FrameData_O[26] *149:101 6.90187e-05
8 FrameData_O[26] *646:127 0.000121322
9 FrameData_O[26] *704:110 0.000138164
10 FrameData_O[19] FrameData_O[26] 9.58126e-05
11 FrameData_O[25] FrameData_O[26] 0.000388075
*RES
1 *2349:X FrameData_O[26] 26.3297 
*END

*D_NET *128 0.00246188
*CONN
*P FrameData_O[27] O
*I *2350:X O *D sky130_fd_sc_hd__buf_2
*CAP
1 FrameData_O[27] 0.000523754
2 *2350:X 0.000523754
3 FrameData_O[27] FrameData_O[28] 0.000255508
4 FrameData_O[27] *2341:A 7.32756e-05
5 FrameData_O[27] *2348:A 4.58194e-05
6 FrameData_O[27] *147:101 0.000112954
7 FrameData_O[27] *646:127 0.000590214
8 FrameData_O[19] FrameData_O[27] 1.65169e-05
9 FrameData_O[26] FrameData_O[27] 0.000320085
*RES
1 *2350:X FrameData_O[27] 24.632 
*END

*D_NET *129 0.00378781
*CONN
*P FrameData_O[28] O
*I *2351:X O *D sky130_fd_sc_hd__buf_2
*CAP
1 FrameData_O[28] 0.00107208
2 *2351:X 0.00107208
3 FrameData_O[28] FrameData_O[29] 0.000224506
4 FrameData_O[28] FrameData_O[30] 4.06954e-05
5 FrameData_O[28] FrameData_O[31] 6.3034e-05
6 FrameData_O[28] *2060:A 0.000476499
7 FrameData_O[28] *2340:A 0
8 FrameData_O[28] *147:101 0.000147878
9 FrameData_O[28] *483:78 0.00018971
10 FrameData_O[28] *514:12 4.20505e-05
11 FrameData_O[28] *646:127 4.15161e-05
12 FrameData_O[28] *704:110 0.000145417
13 FrameData_O[26] FrameData_O[28] 1.68369e-05
14 FrameData_O[27] FrameData_O[28] 0.000255508
*RES
1 *2351:X FrameData_O[28] 31.9725 
*END

*D_NET *130 0.00287486
*CONN
*P FrameData_O[29] O
*I *2352:X O *D sky130_fd_sc_hd__buf_2
*CAP
1 FrameData_O[29] 0.000413299
2 *2352:X 0.000413299
3 FrameData_O[29] FrameData_O[30] 0.000365221
4 FrameData_O[29] *147:101 0.000432627
5 FrameData_O[29] *514:12 0.000439162
6 FrameData_O[20] FrameData_O[29] 0.000211825
7 FrameData_O[22] FrameData_O[29] 0.000374926
8 FrameData_O[28] FrameData_O[29] 0.000224506
*RES
1 *2352:X FrameData_O[29] 27.6128 
*END

*D_NET *131 0.00487526
*CONN
*P FrameData_O[2] O
*I *2353:X O *D sky130_fd_sc_hd__buf_2
*CAP
1 FrameData_O[2] 0.00111567
2 *2353:X 0.00111567
3 FrameData_O[2] FrameData_O[3] 0.000391696
4 FrameData_O[2] FrameData_O[4] 0.000387938
5 FrameData_O[2] *147:101 3.35277e-05
6 FrameData_O[2] *514:24 0
7 FrameData_O[2] *564:36 5.33005e-05
8 FrameData_O[2] *653:275 0.000199517
9 FrameData_O[2] *659:209 7.24849e-05
10 FrameData_O[2] *695:76 1.95625e-05
11 FrameData_O[2] *695:90 9.71197e-05
12 FrameData_O[2] *697:62 0.000100551
13 FrameData_O[0] FrameData_O[2] 0.000486002
14 FrameData_O[10] FrameData_O[2] 0.000254733
15 FrameData_O[13] FrameData_O[2] 0.000385277
16 FrameData_O[1] FrameData_O[2] 0.000162212
*RES
1 *2353:X FrameData_O[2] 46.4693 
*END

*D_NET *132 0.00299959
*CONN
*P FrameData_O[30] O
*I *2354:X O *D sky130_fd_sc_hd__buf_2
*CAP
1 FrameData_O[30] 0.000739881
2 *2354:X 0.000739881
3 FrameData_O[30] FrameData_O[31] 0.000256283
4 FrameData_O[30] *2340:A 0.000149235
5 FrameData_O[30] *483:78 0.00043738
6 FrameData_O[30] *514:12 0.000154864
7 FrameData_O[30] *704:110 0.000116148
8 FrameData_O[28] FrameData_O[30] 4.06954e-05
9 FrameData_O[29] FrameData_O[30] 0.000365221
*RES
1 *2354:X FrameData_O[30] 25.3673 
*END

*D_NET *133 0.0020443
*CONN
*P FrameData_O[31] O
*I *2355:X O *D sky130_fd_sc_hd__buf_2
*CAP
1 FrameData_O[31] 0.000700906
2 *2355:X 0.000700906
3 FrameData_O[31] *147:101 0.000115803
4 FrameData_O[31] *483:78 6.58294e-06
5 FrameData_O[31] *580:16 6.12668e-05
6 FrameData_O[31] *584:84 9.58181e-05
7 FrameData_O[20] FrameData_O[31] 4.36996e-05
8 FrameData_O[28] FrameData_O[31] 6.3034e-05
9 FrameData_O[30] FrameData_O[31] 0.000256283
*RES
1 *2355:X FrameData_O[31] 24.632 
*END

*D_NET *134 0.00328878
*CONN
*P FrameData_O[3] O
*I *2356:X O *D sky130_fd_sc_hd__buf_2
*CAP
1 FrameData_O[3] 0.000656435
2 *2356:X 0.000656435
3 FrameData_O[3] FrameData_O[4] 2.66789e-05
4 FrameData_O[3] FrameData_O[5] 9.77264e-06
5 FrameData_O[3] *2342:A 9.41642e-05
6 FrameData_O[3] *147:101 0.000228632
7 FrameData_O[3] *559:34 0.000473201
8 FrameData_O[3] *567:94 0.000349578
9 FrameData_O[3] *691:72 0.000216755
10 FrameData_O[1] FrameData_O[3] 0.000185435
11 FrameData_O[2] FrameData_O[3] 0.000391696
*RES
1 *2356:X FrameData_O[3] 26.8271 
*END

*D_NET *135 0.00471982
*CONN
*P FrameData_O[4] O
*I *2357:X O *D sky130_fd_sc_hd__buf_2
*CAP
1 FrameData_O[4] 0.000987728
2 *2357:X 0.000987728
3 FrameData_O[4] FrameData_O[5] 0.000110104
4 FrameData_O[4] FrameData_O[6] 2.04825e-05
5 FrameData_O[4] *2346:A 8.62225e-05
6 FrameData_O[4] *2353:A 9.83388e-05
7 FrameData_O[4] *536:16 0.000646197
8 FrameData_O[4] *564:36 0.000178425
9 FrameData_O[4] *567:94 0.000187964
10 FrameData_O[4] *583:86 0.000141708
11 FrameData_O[4] *653:275 5.01876e-06
12 FrameData_O[4] *695:76 0.000350119
13 FrameData_O[4] *697:62 2.79437e-05
14 FrameData_O[4] *704:90 0.000382744
15 FrameData_O[10] FrameData_O[4] 5.36823e-05
16 FrameData_O[13] FrameData_O[4] 2.44541e-05
17 FrameData_O[15] FrameData_O[4] 1.63435e-05
18 FrameData_O[2] FrameData_O[4] 0.000387938
19 FrameData_O[3] FrameData_O[4] 2.66789e-05
*RES
1 *2357:X FrameData_O[4] 36.2531 
*END

*D_NET *136 0.00415426
*CONN
*P FrameData_O[5] O
*I *2358:X O *D sky130_fd_sc_hd__buf_2
*CAP
1 FrameData_O[5] 0.00136427
2 *2358:X 0.00136427
3 FrameData_O[5] FrameData_O[6] 0.000124138
4 FrameData_O[5] FrameData_O[7] 1.70641e-05
5 FrameData_O[5] *1889:S1 5.49489e-05
6 FrameData_O[5] *1999:D 1.24368e-05
7 FrameData_O[5] *2304:A 4.24642e-05
8 FrameData_O[5] *2342:A 0.000207268
9 FrameData_O[5] *514:72 2.00266e-05
10 FrameData_O[5] *559:34 8.93791e-05
11 FrameData_O[5] *566:24 0.000132836
12 FrameData_O[5] *567:94 9.8394e-05
13 FrameData_O[5] *569:82 7.57673e-05
14 FrameData_O[5] *594:88 7.88544e-05
15 FrameData_O[5] *598:28 0.000259273
16 FrameData_O[5] *673:90 7.57673e-05
17 FrameData_O[5] *691:72 1.72244e-05
18 FrameData_O[3] FrameData_O[5] 9.77264e-06
19 FrameData_O[4] FrameData_O[5] 0.000110104
*RES
1 *2358:X FrameData_O[5] 39.6988 
*END

*D_NET *137 0.00272869
*CONN
*P FrameData_O[6] O
*I *2359:X O *D sky130_fd_sc_hd__buf_2
*CAP
1 FrameData_O[6] 0.000669203
2 *2359:X 0.000669203
3 FrameData_O[6] FrameData_O[7] 9.07081e-05
4 FrameData_O[6] *2346:A 1.94879e-05
5 FrameData_O[6] *514:72 3.07075e-06
6 FrameData_O[6] *559:34 0.000122582
7 FrameData_O[6] *598:28 0.000254334
8 FrameData_O[6] *653:249 0.000175892
9 FrameData_O[6] *691:72 0.00011765
10 E6BEG[10] FrameData_O[6] 0.000461937
11 FrameData_O[4] FrameData_O[6] 2.04825e-05
12 FrameData_O[5] FrameData_O[6] 0.000124138
*RES
1 *2359:X FrameData_O[6] 36.2882 
*END

*D_NET *138 0.00634116
*CONN
*P FrameData_O[7] O
*I *2360:X O *D sky130_fd_sc_hd__buf_2
*CAP
1 FrameData_O[7] 0.00147624
2 *2360:X 0.00147624
3 FrameData_O[7] FrameData_O[8] 7.99347e-05
4 FrameData_O[7] *1998:D 0.000699156
5 FrameData_O[7] *2095:A 0.000122812
6 FrameData_O[7] *2304:A 3.03523e-05
7 FrameData_O[7] *2358:A 6.69937e-05
8 FrameData_O[7] *234:14 9.60875e-05
9 FrameData_O[7] *235:45 3.50637e-05
10 FrameData_O[7] *535:52 0.000175318
11 FrameData_O[7] *536:16 0.000743337
12 FrameData_O[7] *559:34 8.54725e-05
13 FrameData_O[7] *594:88 0.00067548
14 FrameData_O[7] *599:18 0.000383654
15 FrameData_O[7] *645:78 8.7246e-05
16 FrameData_O[5] FrameData_O[7] 1.70641e-05
17 FrameData_O[6] FrameData_O[7] 9.07081e-05
*RES
1 *2360:X FrameData_O[7] 26.4738 
*END

*D_NET *139 0.00295414
*CONN
*P FrameData_O[8] O
*I *2361:X O *D sky130_fd_sc_hd__buf_2
*CAP
1 FrameData_O[8] 0.00089666
2 *2361:X 0.00089666
3 FrameData_O[8] FrameData_O[9] 0.000117648
4 FrameData_O[8] *1899:A1 7.72916e-05
5 FrameData_O[8] *144:145 0.000216579
6 FrameData_O[8] *536:16 0.000320974
7 FrameData_O[8] *539:40 1.76352e-05
8 FrameData_O[8] *559:34 0
9 FrameData_O[8] *691:72 0.000114992
10 FrameData_O[8] *697:62 9.50843e-05
11 FrameData_O[10] FrameData_O[8] 8.84467e-06
12 FrameData_O[11] FrameData_O[8] 0.000111841
13 FrameData_O[7] FrameData_O[8] 7.99347e-05
*RES
1 *2361:X FrameData_O[8] 20.697 
*END

*D_NET *140 0.00436919
*CONN
*P FrameData_O[9] O
*I *2362:X O *D sky130_fd_sc_hd__buf_2
*CAP
1 FrameData_O[9] 0.00118781
2 *2362:X 0.00118781
3 FrameData_O[9] *1893:A1 0.000172883
4 FrameData_O[9] *2348:A 5.3531e-05
5 FrameData_O[9] *551:20 0.000186109
6 FrameData_O[9] *646:88 7.55363e-05
7 FrameData_O[9] *653:275 0.00031701
8 FrameData_O[9] *696:26 0.000519042
9 FrameData_O[9] *697:62 9.50843e-05
10 FrameData_O[10] FrameData_O[9] 0.000132335
11 FrameData_O[11] FrameData_O[9] 2.996e-06
12 FrameData_O[12] FrameData_O[9] 2.09311e-05
13 FrameData_O[14] FrameData_O[9] 0.000130033
14 FrameData_O[15] FrameData_O[9] 0.000170436
15 FrameData_O[8] FrameData_O[9] 0.000117648
*RES
1 *2362:X FrameData_O[9] 29.2302 
*END

*D_NET *141 0.0016378
*CONN
*P FrameStrobe[0] I
*I *2216:A I *D sky130_fd_sc_hd__clkbuf_2
*CAP
1 FrameStrobe[0] 0.000552557
2 *2216:A 0.000552557
3 *2216:A *2217:A 0
4 *2216:A *152:13 0.00015497
5 *2216:A *153:21 0.000270442
6 *2216:A *154:21 0.000107276
7 *2216:A *181:17 0
*RES
1 FrameStrobe[0] *2216:A 35.9607 
*END

*D_NET *142 0.0690281
*CONN
*P FrameStrobe[10] I
*I *2150:A I *D sky130_fd_sc_hd__clkbuf_1
*I *742:DIODE I *D sky130_fd_sc_hd__diode_2
*CAP
1 FrameStrobe[10] 0.00458973
2 *2150:A 0.000102935
3 *742:DIODE 0.000344996
4 *142:117 0.00515967
5 *142:99 0.00609822
6 *142:67 0.00217647
7 *142:53 0.00487299
8 *142:31 0.00480061
9 *142:23 0.0055132
10 *742:DIODE *743:DIODE 0.000315165
11 *742:DIODE *1883:S1 0.000170955
12 *742:DIODE *564:8 0.000357095
13 *2150:A *1883:S1 1.21258e-05
14 *2150:A *2153:A 9.41642e-05
15 *2150:A *2373:A 3.18676e-05
16 *2150:A *564:8 0.000265447
17 *142:23 *2226:A 0.000582615
18 *142:23 *2227:A 0.000674644
19 *142:23 *143:7 0
20 *142:23 *144:27 1.68242e-05
21 *142:23 *146:33 0.000459823
22 *142:23 *149:27 0.000624399
23 *142:23 *150:17 8.30191e-05
24 *142:23 *153:21 0.000539739
25 *142:23 *160:15 0
26 *142:23 *181:17 3.88415e-05
27 *142:23 *560:28 0.000776518
28 *142:23 *567:40 0.000115075
29 *142:23 *579:54 0.000123017
30 *142:23 *579:78 0.000479053
31 *142:23 *596:28 0.00164797
32 *142:23 *661:81 0.000304634
33 *142:31 *2248:A 4.75614e-05
34 *142:31 *481:50 0.000124835
35 *142:31 *494:16 0.0004036
36 *142:31 *596:40 8.22376e-05
37 *142:31 *651:193 0.000564647
38 *142:31 *660:59 0.00114401
39 *142:31 *699:22 0.00176419
40 *142:53 *1903:A1 0.000216108
41 *142:53 *2279:A 8.64454e-05
42 *142:53 *2288:A 0.000357544
43 *142:53 *2294:A 5.05762e-05
44 *142:53 *145:63 9.05749e-06
45 *142:53 *160:79 6.84754e-05
46 *142:53 *482:40 0.000514541
47 *142:53 *519:46 0.000856236
48 *142:53 *560:58 2.63523e-05
49 *142:53 *624:82 0.000109428
50 *142:53 *626:88 0.000113644
51 *142:53 *632:66 9.49752e-06
52 *142:53 *642:34 0.00156999
53 *142:53 *644:46 0.000270684
54 *142:53 *644:52 4.11066e-05
55 *142:53 *651:193 0.000133188
56 *142:53 *660:59 0.000904328
57 *142:53 *680:46 8.83765e-05
58 *142:53 *695:66 6.28948e-05
59 *142:53 *696:16 4.904e-05
60 *142:53 *699:40 0.000429522
61 *142:67 *153:79 9.05976e-06
62 *142:67 *482:40 0.000587955
63 *142:67 *482:58 0.000352118
64 *142:67 *511:26 0.000296329
65 *142:67 *568:54 0.000420334
66 *142:67 *586:44 0
67 *142:67 *601:10 0.000461392
68 *142:67 *602:109 0
69 *142:67 *626:70 0
70 *142:67 *626:88 0.00192849
71 *142:67 *627:68 0.000404903
72 *142:67 *628:68 0.000745395
73 *142:67 *633:30 8.32797e-05
74 *142:67 *644:115 0
75 *142:67 *675:38 0
76 *142:67 *694:76 0.000299741
77 *142:99 *153:119 0.000385491
78 *142:99 *154:99 0.000508449
79 *142:99 *157:107 4.25098e-05
80 *142:99 *482:76 0.000167144
81 *142:99 *512:20 1.3409e-05
82 *142:99 *556:40 0.000110889
83 *142:99 *557:44 0.000368463
84 *142:99 *568:28 0.000178248
85 *142:99 *582:94 8.25843e-06
86 *142:99 *602:34 0.000237169
87 *142:99 *603:66 8.72952e-05
88 *142:99 *616:38 4.00349e-05
89 *142:99 *627:68 0.000204951
90 *142:99 *629:54 5.3244e-05
91 *142:99 *644:115 3.99614e-06
92 *142:99 *675:38 6.05161e-06
93 *142:117 *1900:S1 8.92205e-05
94 *142:117 *2011:D 5.75557e-05
95 *142:117 *2011:GATE 0.000137834
96 *142:117 *156:69 0.000137323
97 *142:117 *158:75 0.00180588
98 *142:117 *511:10 0.00180211
99 *142:117 *524:14 9.72119e-05
100 *142:117 *535:16 0.000108874
101 *142:117 *535:112 1.01912e-05
102 *142:117 *582:128 8.69554e-05
103 *142:117 *590:170 0.00265129
104 *142:117 *591:34 0.000138067
105 *142:117 *686:52 0.000349043
106 *142:117 *686:58 0.000478691
107 *142:117 *696:30 7.21422e-05
108 *142:117 *698:175 9.43894e-06
109 E2BEG[0] *142:53 0.000511192
110 E2BEG[1] *142:53 0.000187964
111 E2BEG[2] *142:53 0.000142504
112 *2191:A *142:117 8.88357e-06
113 *2192:A *142:117 0.000602985
114 *2263:A *142:99 6.8194e-05
*RES
1 FrameStrobe[10] *142:23 31.9163 
2 *142:23 *142:31 42.4911 
3 *142:31 *142:53 38.7659 
4 *142:53 *142:67 48.8929 
5 *142:67 *142:99 48.4464 
6 *142:99 *142:117 48.6195 
7 *142:117 *742:DIODE 21.4607 
8 *742:DIODE *2150:A 21.6179 
*END

*D_NET *143 0.0483393
*CONN
*P FrameStrobe[11] I
*I *2151:A I *D sky130_fd_sc_hd__clkbuf_1
*I *743:DIODE I *D sky130_fd_sc_hd__diode_2
*CAP
1 FrameStrobe[11] 0.000660179
2 *2151:A 0.000112553
3 *743:DIODE 0.00167949
4 *143:111 0.00304502
5 *143:109 0.00160873
6 *143:103 0.00154533
7 *143:59 0.00255826
8 *143:29 0.00243966
9 *143:9 0.00373671
10 *143:7 0.0031008
11 *743:DIODE *724:DIODE 3.30337e-05
12 *743:DIODE *1809:A1 3.86935e-05
13 *743:DIODE *1809:A2 1.32276e-05
14 *743:DIODE *1809:A3 9.15291e-05
15 *743:DIODE *1891:A3 6.05161e-06
16 *743:DIODE *1894:A1 9.11365e-06
17 *743:DIODE *1894:A3 9.44703e-05
18 *743:DIODE *1974:D 0.000307993
19 *743:DIODE *2010:GATE 2.58909e-05
20 *743:DIODE *2011:D 0
21 *743:DIODE *2103:A 1.01921e-05
22 *743:DIODE *146:99 0
23 *743:DIODE *519:14 9.98998e-06
24 *743:DIODE *535:112 0
25 *743:DIODE *564:8 0.000315165
26 *743:DIODE *576:14 0.000376675
27 *743:DIODE *615:10 0.000346342
28 *743:DIODE *653:275 0.000189566
29 *743:DIODE *704:110 2.06178e-05
30 *2151:A FrameStrobe_O[15] 5.33005e-05
31 *2151:A *2154:A 0
32 *2151:A *2368:A 5.41794e-05
33 *2151:A *2369:A 5.33005e-05
34 *2151:A *151:85 4.56498e-05
35 *143:7 *1798:A 0.000105956
36 *143:7 *144:27 0
37 *143:7 *145:15 0
38 *143:7 *160:15 0
39 *143:9 *1798:A 7.29283e-05
40 *143:9 *1829:A0 8.00469e-05
41 *143:9 *1831:A1 0
42 *143:9 *1832:C_N 0
43 *143:9 *1833:B1 5.54204e-05
44 *143:9 *1835:B1 0.000147211
45 *143:9 *1844:B 1.00375e-05
46 *143:9 *1855:A1 4.69134e-05
47 *143:9 *1856:A1 0.00013176
48 *143:9 *1861:A0 2.11419e-05
49 *143:9 *1868:B 0
50 *143:9 *1869:A1 0.000101089
51 *143:9 *2034:D 0
52 *143:9 *2113:A 0.00017018
53 *143:9 *2224:A 1.28585e-05
54 *143:9 *2262:A 4.48011e-05
55 *143:9 *144:27 0.000366483
56 *143:9 *254:35 3.26169e-05
57 *143:9 *254:37 3.48139e-05
58 *143:9 *484:18 0.000240688
59 *143:9 *493:18 0
60 *143:9 *500:16 0
61 *143:9 *597:12 0.000490339
62 *143:9 *597:14 0.00043931
63 *143:9 *635:42 0.000178934
64 *143:9 *645:14 0.000165067
65 *143:9 *647:46 0.000171752
66 *143:9 *647:63 0
67 *143:9 *648:8 7.57673e-05
68 *143:9 *648:49 6.10246e-05
69 *143:9 *648:109 0.000176226
70 *143:9 *649:53 5.20232e-05
71 *143:9 *651:28 8.71047e-05
72 *143:9 *651:45 0
73 *143:9 *651:51 0
74 *143:9 *657:24 0.000247778
75 *143:9 *660:16 1.68276e-05
76 *143:9 *662:22 1.18358e-05
77 *143:9 *662:24 1.94319e-05
78 *143:9 *663:14 0.000867649
79 *143:9 *664:103 0.000102779
80 *143:9 *681:44 0.00014785
81 *143:9 *699:22 6.35819e-05
82 *143:9 *707:14 0.000608796
83 *143:29 *1805:A 9.14134e-05
84 *143:29 *1879:A2 0.000232495
85 *143:29 *1911:S1 0.000143834
86 *143:29 *1913:A2 2.21972e-05
87 *143:29 *2036:D 0.000263076
88 *143:29 *2069:A 0.000126582
89 *143:29 *149:63 0.000218409
90 *143:29 *243:42 0.000162933
91 *143:29 *514:94 2.26973e-05
92 *143:29 *524:142 0.000119924
93 *143:29 *525:20 0.000139736
94 *143:29 *533:18 0.000121929
95 *143:29 *644:34 0.00110244
96 *143:29 *664:143 0.000237775
97 *143:29 *689:24 9.96264e-05
98 *143:29 *693:22 0.00112297
99 *143:29 *708:28 0.000308761
100 *143:59 *1879:S1 4.24297e-05
101 *143:59 *2087:A 7.5779e-05
102 *143:59 *2102:A 6.05161e-06
103 *143:59 *150:41 0.000525254
104 *143:59 *181:44 0.000255617
105 *143:59 *181:56 0.00119433
106 *143:59 *409:18 8.76591e-06
107 *143:59 *479:62 5.43758e-05
108 *143:59 *479:106 8.75843e-05
109 *143:59 *483:46 0.000127359
110 *143:59 *484:50 1.53472e-05
111 *143:59 *533:52 0.000187853
112 *143:59 *563:30 2.54069e-05
113 *143:59 *569:28 3.29699e-05
114 *143:59 *593:74 0.000223528
115 *143:59 *596:82 9.58126e-05
116 *143:59 *597:46 5.58875e-06
117 *143:59 *659:116 1.90936e-05
118 *143:59 *671:70 0.000377237
119 *143:59 *671:111 0.000379332
120 *143:59 *693:46 0.000251176
121 *143:59 *694:44 2.18838e-05
122 *143:59 *701:54 0.000110498
123 *143:59 *708:28 8.07344e-05
124 *143:103 *1877:S0 1.32056e-05
125 *143:103 *1888:S0 0.000110614
126 *143:103 *2082:A 5.33431e-05
127 *143:103 *392:36 2.36643e-05
128 *143:103 *513:82 0.000923765
129 *143:103 *522:58 4.32534e-05
130 *143:103 *529:40 1.61322e-05
131 *143:103 *540:22 1.21258e-05
132 *143:103 *556:54 1.21258e-05
133 *143:103 *593:74 0.000135028
134 *143:103 *600:138 0.000295733
135 *143:103 *631:65 4.7632e-05
136 *143:103 *632:107 0.000235119
137 *143:103 *634:130 4.90303e-05
138 *143:103 *661:207 0.00150834
139 *143:103 *673:116 0.000410698
140 *143:103 *679:49 1.93735e-05
141 *143:103 *693:68 4.06612e-05
142 *143:103 *698:44 0.000121542
143 *143:103 *703:40 6.14836e-06
144 *143:103 *703:60 7.04401e-05
145 *143:109 *1808:A3 1.76304e-05
146 *143:109 *661:207 8.705e-06
147 *143:109 *672:52 0.000110532
148 *143:109 *679:49 8.1163e-05
149 *143:111 *1808:A3 6.47471e-05
150 *143:111 *1808:S0 0.000121698
151 *143:111 *1890:A1 0.000127439
152 *143:111 *1908:S1 4.98813e-05
153 *143:111 *1991:D 9.59532e-06
154 *143:111 *2074:A 0.000144613
155 *143:111 *2088:A 0.000314188
156 *143:111 *2179:A 7.80122e-05
157 *143:111 *513:37 9.42015e-05
158 *143:111 *513:82 0.000112079
159 *143:111 *519:14 0.00107383
160 *143:111 *519:24 0.00203223
161 *143:111 *529:40 0.000158454
162 *143:111 *615:10 5.18213e-05
163 *143:111 *631:22 0.000240359
164 *143:111 *661:207 9.10458e-06
165 *143:111 *679:61 1.77349e-05
166 *143:111 *679:72 7.82454e-05
167 *143:111 *679:91 0.000339917
168 *143:111 *693:142 0.00103933
169 *143:111 *693:163 0.00051916
170 *742:DIODE *743:DIODE 0.000315165
171 *142:23 *143:7 0
*RES
1 FrameStrobe[11] *143:7 12.7946 
2 *143:7 *143:9 61.7232 
3 *143:9 *143:29 49.7679 
4 *143:29 *143:59 48.576 
5 *143:59 *143:103 49.7729 
6 *143:103 *143:109 2.91071 
7 *143:109 *143:111 49.3036 
8 *143:111 *743:DIODE 49.7911 
9 *743:DIODE *2151:A 30.0821 
*END

*D_NET *144 0.0590192
*CONN
*P FrameStrobe[12] I
*I *2152:A I *D sky130_fd_sc_hd__clkbuf_1
*I *710:DIODE I *D sky130_fd_sc_hd__diode_2
*CAP
1 FrameStrobe[12] 0.00455613
2 *2152:A 6.33368e-05
3 *710:DIODE 0.00115801
4 *144:145 0.00360842
5 *144:121 0.00396352
6 *144:91 0.00274683
7 *144:71 0.00297693
8 *144:39 0.00322234
9 *144:27 0.00609859
10 *710:DIODE *1883:S1 0
11 *710:DIODE *2083:A 3.42168e-05
12 *710:DIODE *2155:A 0
13 *710:DIODE *2158:A 9.21607e-05
14 *710:DIODE *151:77 0.000121549
15 *710:DIODE *159:93 0.000465876
16 *710:DIODE *524:180 0.000772814
17 *710:DIODE *541:40 0.000496247
18 *710:DIODE *551:20 0.000130024
19 *710:DIODE *577:20 0
20 *710:DIODE *594:102 0.000122336
21 *710:DIODE *653:275 0.000188387
22 *2152:A *2366:A 2.89016e-05
23 *2152:A *2369:A 7.11447e-05
24 *144:27 *1861:A0 1.94879e-05
25 *144:27 *1904:A0 9.67666e-05
26 *144:27 *2262:A 4.26759e-05
27 *144:27 *145:15 0
28 *144:27 *145:37 0.00098953
29 *144:27 *146:33 6.55819e-05
30 *144:27 *147:39 0.000536981
31 *144:27 *181:17 0.00172645
32 *144:27 *241:8 6.98302e-05
33 *144:27 *241:12 0.000289279
34 *144:27 *484:18 0.000240763
35 *144:27 *524:142 0.000107157
36 *144:27 *567:40 2.6847e-05
37 *144:27 *600:36 0.000378605
38 *144:27 *600:72 0.000387546
39 *144:27 *634:78 0.000127111
40 *144:27 *648:109 5.0147e-05
41 *144:27 *660:16 0.000245675
42 *144:27 *660:43 7.84841e-05
43 *144:27 *664:103 0.000100471
44 *144:27 *664:125 0.000255491
45 *144:27 *665:83 0
46 *144:27 *707:14 9.34059e-06
47 *144:39 *1895:A2 8.08603e-05
48 *144:39 *2030:D 4.48128e-05
49 *144:39 *329:30 0.000272589
50 *144:39 *484:18 0.000309539
51 *144:39 *484:29 0.000209047
52 *144:39 *484:50 0.000860502
53 *144:39 *535:157 0.000121805
54 *144:39 *597:14 3.65015e-05
55 *144:39 *636:54 1.58163e-05
56 *144:39 *637:63 5.07017e-06
57 *144:39 *661:112 0.000136676
58 *144:39 *664:125 9.99444e-06
59 *144:39 *676:85 3.06878e-06
60 *144:39 *692:16 0.000272665
61 *144:39 *696:16 0.000117986
62 *144:39 *707:14 0.0010798
63 *144:71 *2298:A 5.1696e-05
64 *144:71 *2300:A 0.000195477
65 *144:71 *2302:A 1.94945e-05
66 *144:71 *2315:A 0
67 *144:71 *151:27 6.93958e-05
68 *144:71 *234:86 5.28014e-05
69 *144:71 *516:58 0.000336144
70 *144:71 *569:62 0.000204559
71 *144:71 *647:185 0.000420428
72 *144:71 *653:170 0.000937232
73 *144:71 *660:91 0
74 *144:71 *691:16 0.000957898
75 *144:71 *697:46 3.36184e-05
76 *144:71 *698:121 4.73269e-05
77 *144:71 *703:40 0.000612678
78 *144:91 *1826:A2 9.83442e-05
79 *144:91 *2315:A 5.7616e-05
80 *144:91 *2324:A 5.33005e-05
81 *144:91 *160:79 6.09762e-05
82 *144:91 *392:36 9.55684e-05
83 *144:91 *479:106 1.51029e-05
84 *144:91 *484:50 2.61494e-05
85 *144:91 *517:28 0.000644646
86 *144:91 *545:38 4.22986e-05
87 *144:91 *560:58 3.88748e-05
88 *144:91 *653:172 0.00021025
89 *144:91 *653:219 4.81069e-05
90 *144:91 *660:115 9.4481e-05
91 *144:91 *667:74 2.87627e-05
92 *144:91 *675:174 9.58126e-05
93 *144:91 *707:93 0.000831631
94 *144:121 *2307:A 9.72511e-05
95 *144:121 *2314:A 9.41642e-05
96 *144:121 *2330:A 1.51571e-05
97 *144:121 *151:57 0.000226418
98 *144:121 *159:93 0.000882086
99 *144:121 *234:44 2.06112e-05
100 *144:121 *234:58 0.000285832
101 *144:121 *235:93 0.000194005
102 *144:121 *235:113 0.000187751
103 *144:121 *409:34 0.000236034
104 *144:121 *479:130 0.000325668
105 *144:121 *516:32 4.28365e-05
106 *144:121 *517:28 2.34009e-05
107 *144:121 *520:58 4.11173e-05
108 *144:121 *535:86 9.60227e-05
109 *144:121 *535:157 9.23883e-05
110 *144:121 *567:72 2.96436e-05
111 *144:121 *585:60 0.00053724
112 *144:121 *596:118 0.000385375
113 *144:121 *660:115 9.41642e-05
114 *144:121 *667:74 6.21521e-06
115 *144:121 *676:40 0.000227696
116 *144:145 *1813:S1 9.25014e-06
117 *144:145 *2309:A 1.34631e-05
118 *144:145 *2310:A 9.14771e-06
119 *144:145 *2345:A 0
120 *144:145 *147:101 0.000838315
121 *144:145 *149:101 0.000844972
122 *144:145 *149:111 0.000461429
123 *144:145 *234:26 2.04745e-05
124 *144:145 *531:34 4.29271e-05
125 *144:145 *536:16 3.6369e-05
126 *144:145 *541:40 0.00207093
127 *144:145 *559:34 6.29982e-05
128 *144:145 *567:94 4.2931e-05
129 *144:145 *594:88 0.001226
130 *144:145 *594:102 0.000103406
131 *144:145 *659:227 5.99199e-06
132 *144:145 *704:110 0.000359617
133 E1BEG[3] *144:71 1.94879e-05
134 E2BEG[3] *144:71 4.65519e-05
135 E2BEG[4] *144:71 2.63501e-05
136 E2BEG[5] *144:71 4.75671e-06
137 E2BEG[7] *144:71 3.79901e-06
138 E2BEGb[1] *144:71 0.000167762
139 E2BEGb[2] *144:71 8.69554e-05
140 E2BEGb[5] *144:71 9.00983e-05
141 E2BEGb[6] *144:71 4.36402e-05
142 E2BEGb[7] *144:71 2.36347e-05
143 E6BEG[4] *144:121 1.90936e-05
144 E6BEG[4] *144:145 0.000116395
145 E6BEG[8] *144:145 0.000345175
146 EE4BEG[0] *144:71 4.18606e-05
147 EE4BEG[0] *144:91 0.000140714
148 EE4BEG[1] *144:71 1.03939e-05
149 EE4BEG[1] *144:91 0.000216755
150 FrameData_O[11] *144:145 7.21089e-06
151 FrameData_O[8] *144:145 0.000216579
152 *142:23 *144:27 1.68242e-05
153 *143:7 *144:27 0
154 *143:9 *144:27 0.000366483
*RES
1 FrameStrobe[12] *144:27 46.4986 
2 *144:27 *144:39 41.7232 
3 *144:39 *144:71 47.1002 
4 *144:71 *144:91 48.125 
5 *144:91 *144:121 49.3324 
6 *144:121 *144:145 46.8137 
7 *144:145 *710:DIODE 29.5844 
8 *710:DIODE *2152:A 19.9571 
*END

*D_NET *145 0.052776
*CONN
*P FrameStrobe[13] I
*I *2153:A I *D sky130_fd_sc_hd__clkbuf_1
*I *711:DIODE I *D sky130_fd_sc_hd__diode_2
*CAP
1 FrameStrobe[13] 0.00119752
2 *2153:A 0.00017004
3 *711:DIODE 0.000830977
4 *145:85 0.00224497
5 *145:75 0.00308426
6 *145:63 0.00285119
7 *145:37 0.00483473
8 *145:15 0.00468129
9 *711:DIODE *1809:S1 2.51343e-06
10 *711:DIODE *2369:A 3.06878e-06
11 *711:DIODE *151:77 1.27529e-05
12 *711:DIODE *235:64 0.000401985
13 *711:DIODE *519:14 0.000432467
14 *711:DIODE *528:30 0.000113123
15 *711:DIODE *577:20 0.000592361
16 *2153:A *1883:S1 6.05161e-06
17 *2153:A *2158:A 0
18 *2153:A *2366:A 0.000162265
19 *2153:A *2369:A 5.33005e-05
20 *145:15 *146:33 0.000524702
21 *145:15 *149:9 2.2628e-05
22 *145:37 *1852:A 5.97527e-05
23 *145:37 *1853:S1 3.78134e-05
24 *145:37 *1862:B1 4.64337e-05
25 *145:37 *1885:A2 0.000121977
26 *145:37 *147:13 0.00139094
27 *145:37 *147:39 0.00156304
28 *145:37 *149:9 0.00179274
29 *145:37 *250:10 9.57064e-05
30 *145:37 *563:30 0.000259869
31 *145:37 *567:40 0.00301355
32 *145:37 *583:72 0.00257342
33 *145:37 *600:72 0.00150561
34 *145:37 *637:44 0.000744911
35 *145:37 *642:34 1.76121e-05
36 *145:37 *647:28 1.53979e-05
37 *145:37 *665:83 0.000126965
38 *145:37 *701:28 1.30275e-05
39 *145:37 *706:24 0.000200279
40 *145:63 *1825:C_N 0.000474318
41 *145:63 *1875:S0 0.000144103
42 *145:63 *1895:A3 6.66621e-05
43 *145:63 *2027:D 4.32182e-06
44 *145:63 *249:34 6.66506e-05
45 *145:63 *519:46 0.000266313
46 *145:63 *593:74 0.00010873
47 *145:63 *597:30 0.000540969
48 *145:63 *597:46 0.000251538
49 *145:63 *636:54 0.000680828
50 *145:63 *642:106 0.000109742
51 *145:63 *644:46 4.22232e-05
52 *145:63 *661:177 0.000223263
53 *145:63 *662:177 0.000158269
54 *145:63 *664:166 3.96279e-05
55 *145:63 *688:30 0.000170436
56 *145:63 *693:68 0.000189929
57 *145:63 *698:68 1.74019e-05
58 *145:63 *701:54 0.000801863
59 *145:75 *1896:S1 0.00026068
60 *145:75 *2027:D 2.42758e-05
61 *145:75 *2161:A 0.00168347
62 *145:75 *2319:A 8.27238e-06
63 *145:75 *150:57 1.08359e-05
64 *145:75 *409:34 9.99931e-06
65 *145:75 *558:52 0.000870907
66 *145:75 *593:74 0.000456649
67 *145:75 *593:118 0.000354942
68 *145:75 *596:118 0.000107222
69 *145:75 *597:46 5.65065e-05
70 *145:75 *634:176 1.20719e-05
71 *145:75 *661:177 1.27529e-05
72 *145:75 *661:207 0.000476204
73 *145:75 *662:177 0.00100099
74 *145:75 *673:116 6.05161e-06
75 *145:75 *708:56 8.55871e-05
76 *145:85 *1933:D 4.7515e-05
77 *145:85 *1934:GATE 7.6644e-05
78 *145:85 *2081:A 0.000505156
79 *145:85 *150:69 0.00105105
80 *145:85 *150:87 0.000965377
81 *145:85 *398:22 0.000334541
82 *145:85 *409:34 0.000548374
83 *145:85 *535:112 0.000274624
84 *145:85 *593:118 0.000901346
85 *145:85 *599:18 7.42877e-05
86 *145:85 *634:186 0.000613417
87 *145:85 *667:176 0
88 *145:85 *667:187 0
89 *145:85 *669:45 5.08481e-05
90 *145:85 *669:75 0.000406792
91 *145:85 *678:10 8.68665e-05
92 *145:85 *678:49 0.000150601
93 *2150:A *2153:A 9.41642e-05
94 *142:53 *145:63 9.05749e-06
95 *143:7 *145:15 0
96 *144:27 *145:15 0
97 *144:27 *145:37 0.00098953
*RES
1 FrameStrobe[13] *145:15 29.4375 
2 *145:15 *145:37 49.7979 
3 *145:37 *145:63 38.5774 
4 *145:63 *145:75 49.625 
5 *145:75 *145:85 49.2589 
6 *145:85 *711:DIODE 37.55 
7 *711:DIODE *2153:A 31.0286 
*END

*D_NET *146 0.0616358
*CONN
*P FrameStrobe[14] I
*I *2154:A I *D sky130_fd_sc_hd__clkbuf_1
*I *712:DIODE I *D sky130_fd_sc_hd__diode_2
*CAP
1 FrameStrobe[14] 0.00418975
2 *2154:A 0.000157107
3 *712:DIODE 0
4 *146:99 0.00448684
5 *146:77 0.00593454
6 *146:67 0.00434743
7 *146:33 0.00693236
8 *2154:A *151:85 0
9 *146:33 *1803:A 0
10 *146:33 *1817:C1 0.00030941
11 *146:33 *1831:A1 0
12 *146:33 *1851:S0 0.000279191
13 *146:33 *1851:S1 5.47788e-05
14 *146:33 *1854:B1 0
15 *146:33 *1858:A2 0.000164227
16 *146:33 *1982:D 0.00012239
17 *146:33 *2034:D 0.000172715
18 *146:33 *2044:D 0.000101527
19 *146:33 *2045:D 0
20 *146:33 *2045:GATE 0
21 *146:33 *147:13 0
22 *146:33 *148:19 0
23 *146:33 *150:17 0.000243613
24 *146:33 *153:21 0.000111616
25 *146:33 *181:17 0.000236697
26 *146:33 *268:27 0.000183271
27 *146:33 *524:142 0.000427184
28 *146:33 *560:28 8.76591e-06
29 *146:33 *600:36 0.0011759
30 *146:33 *602:160 0.000121549
31 *146:33 *627:118 0.000648369
32 *146:33 *632:16 0.00185037
33 *146:33 *632:66 0.000400332
34 *146:33 *643:10 0.000121549
35 *146:33 *652:18 0
36 *146:33 *652:36 0.000135968
37 *146:33 *658:27 0
38 *146:33 *664:51 0
39 *146:67 *1864:A2 9.31015e-05
40 *146:67 *1866:A1 0.000255667
41 *146:67 *2030:D 0.000388372
42 *146:67 *2231:A 0.000220677
43 *146:67 *2243:A 0.00043439
44 *146:67 *2254:A 0.000264281
45 *146:67 *560:28 0.000602158
46 *146:67 *634:78 0.000137221
47 *146:67 *642:34 0.000406805
48 *146:67 *646:24 0.000552582
49 *146:67 *652:16 7.16087e-05
50 *146:67 *653:170 0.000113877
51 *146:67 *660:43 4.18309e-05
52 *146:67 *662:77 0.000278581
53 *146:67 *665:83 0.00190647
54 *146:67 *681:80 0.000280411
55 *146:67 *699:22 6.95391e-05
56 *146:67 *703:40 0.00130251
57 *146:77 *1946:D 6.09762e-05
58 *146:77 *2295:A 3.18155e-05
59 *146:77 *148:81 0.00223925
60 *146:77 *151:57 6.84819e-05
61 *146:77 *514:94 4.5047e-05
62 *146:77 *524:67 6.09762e-05
63 *146:77 *560:58 0.00188567
64 *146:77 *645:16 0.000293909
65 *146:77 *653:249 0.000133058
66 *146:77 *659:209 0.000333067
67 *146:77 *660:91 0.000614155
68 *146:77 *695:66 1.21637e-05
69 *146:77 *695:76 0.00146021
70 *146:99 *1883:S0 0.000147583
71 *146:99 *1885:S0 4.01879e-05
72 *146:99 *1886:A1 0.00019384
73 *146:99 *1886:A2 0.000182393
74 *146:99 *2004:D 2.12687e-05
75 *146:99 *2011:D 0
76 *146:99 *2126:A 0.000379694
77 *146:99 *2348:A 0.000250183
78 *146:99 *151:77 0.000636978
79 *146:99 *151:85 0
80 *146:99 *159:93 8.77926e-05
81 *146:99 *233:80 7.04012e-05
82 *146:99 *233:122 0.000165531
83 *146:99 *479:174 2.09826e-05
84 *146:99 *483:90 0.000737024
85 *146:99 *524:14 0.000170034
86 *146:99 *524:180 0.00103604
87 *146:99 *528:30 0.00267312
88 *146:99 *552:28 5.87615e-05
89 *146:99 *576:14 4.40601e-05
90 *146:99 *594:102 0.000159176
91 *146:99 *618:116 0.000407151
92 *146:99 *667:172 0.000208803
93 *146:99 *696:26 0.00266546
94 *146:99 *704:110 0.000574028
95 E1BEG[0] *146:67 0.000430385
96 E1BEG[1] *146:67 0.000132862
97 E1BEG[2] *146:67 0.000132862
98 E2BEG[1] *146:77 4.15161e-05
99 E6BEG[1] *146:77 0.000173803
100 E6BEG[2] *146:77 0.000245432
101 E6BEG[3] *146:77 0.000274812
102 FrameData_O[16] *146:99 5.08749e-05
103 FrameData_O[17] *146:99 0.00017293
104 FrameData_O[18] *146:99 0.000423411
105 *743:DIODE *146:99 0
106 *2151:A *2154:A 0
107 *142:23 *146:33 0.000459823
108 *144:27 *146:33 6.55819e-05
109 *145:15 *146:33 0.000524702
*RES
1 FrameStrobe[14] *146:33 48.4633 
2 *146:33 *146:67 37.4421 
3 *146:67 *146:77 48.288 
4 *146:77 *146:99 49.5844 
5 *146:99 *712:DIODE 13.8 
6 *146:99 *2154:A 16.3536 
*END

*D_NET *147 0.0479203
*CONN
*P FrameStrobe[15] I
*I *2155:A I *D sky130_fd_sc_hd__clkbuf_1
*I *713:DIODE I *D sky130_fd_sc_hd__diode_2
*CAP
1 FrameStrobe[15] 0.00156422
2 *2155:A 0.000327965
3 *713:DIODE 5.45255e-05
4 *147:105 0.000542785
5 *147:101 0.00228306
6 *147:99 0.00294132
7 *147:91 0.00155065
8 *147:75 0.00168534
9 *147:51 0.00238539
10 *147:39 0.0031825
11 *147:13 0.00331457
12 *713:DIODE *2083:A 5.20669e-05
13 *2155:A FrameStrobe_O[16] 0.000151972
14 *2155:A *2083:A 0
15 *2155:A *2158:A 0
16 *2155:A *2370:A 0
17 *2155:A *541:40 8.86421e-05
18 *147:13 *1803:A 9.86823e-05
19 *147:13 *1852:A 3.34366e-05
20 *147:13 *1852:B 5.65955e-05
21 *147:13 *1858:B1 5.33786e-05
22 *147:13 *1858:B2 5.56943e-05
23 *147:13 *1870:A1 0.000354325
24 *147:13 *148:19 0.000559526
25 *147:13 *149:9 2.2355e-05
26 *147:13 *250:10 0
27 *147:13 *416:14 0.000176178
28 *147:13 *458:16 0
29 *147:13 *487:20 0
30 *147:13 *500:16 4.15914e-05
31 *147:39 *1843:A0 7.33808e-05
32 *147:39 *1853:S1 1.63116e-05
33 *147:39 *1859:A0 2.8266e-06
34 *147:39 *1864:S0 4.73959e-05
35 *147:39 *1871:S0 5.84915e-05
36 *147:39 *1871:S1 6.52971e-06
37 *147:39 *1874:A1 0.00017044
38 *147:39 *2030:D 0
39 *147:39 *2227:A 9.41642e-05
40 *147:39 *2236:A 4.32004e-05
41 *147:39 *2239:A 2.74858e-05
42 *147:39 *149:27 3.43472e-05
43 *147:39 *248:16 7.63858e-05
44 *147:39 *248:35 7.23698e-05
45 *147:39 *635:42 0
46 *147:39 *646:24 5.48645e-05
47 *147:39 *649:134 2.36373e-05
48 *147:39 *650:139 6.89801e-05
49 *147:39 *652:16 0.000152112
50 *147:39 *655:8 9.58126e-05
51 *147:39 *659:12 9.05838e-05
52 *147:39 *659:25 0.000377728
53 *147:39 *662:77 7.99093e-06
54 *147:39 *681:67 0
55 *147:39 *706:24 0.00084447
56 *147:51 *709:DIODE 6.39829e-05
57 *147:51 *1810:S1 0.000127439
58 *147:51 *1859:S0 5.33005e-05
59 *147:51 *1865:A0 2.79421e-05
60 *147:51 *2071:A 0.000140841
61 *147:51 *2260:A 7.79395e-05
62 *147:51 *2269:A 9.06658e-05
63 *147:51 *151:23 0.000600478
64 *147:51 *240:20 2.23592e-05
65 *147:51 *486:18 3.29037e-05
66 *147:51 *523:24 0.000568601
67 *147:51 *525:20 0.000151333
68 *147:51 *636:54 0.000511437
69 *147:51 *660:43 6.13163e-05
70 *147:51 *661:132 3.93325e-05
71 *147:51 *676:99 0.000125012
72 *147:51 *685:22 0.000453352
73 *147:51 *686:14 8.54322e-05
74 *147:51 *698:129 0.00108011
75 *147:51 *700:12 0.000189813
76 *147:51 *706:24 0.000628502
77 *147:75 *2291:A 9.58181e-05
78 *147:75 *2293:A 9.83442e-05
79 *147:75 *2294:A 0.000188478
80 *147:75 *149:63 0.000413691
81 *147:75 *645:62 0.000185277
82 *147:75 *659:161 0.000287917
83 *147:91 *149:87 4.38379e-05
84 *147:91 *236:91 0.00132726
85 *147:91 *559:58 0.000235088
86 *147:91 *594:52 3.17264e-05
87 *147:91 *647:222 0.000366396
88 *147:91 *659:183 0.000473435
89 *147:91 *695:66 0.00134402
90 *147:91 *695:76 6.62001e-05
91 *147:99 *151:57 0.00101581
92 *147:99 *653:249 0.000538997
93 *147:99 *659:209 0.000154752
94 *147:99 *691:38 0.00127156
95 *147:101 *2080:A 0
96 *147:101 *149:101 0.000211134
97 *147:101 *483:78 0
98 *147:101 *524:43 0.000722112
99 *147:101 *536:16 0
100 *147:101 *551:20 0.000171296
101 *147:101 *564:36 0.000500734
102 *147:101 *646:127 0.000608146
103 *147:101 *653:275 0.000278518
104 *147:101 *659:209 0.0001431
105 *147:105 *2083:A 2.89114e-05
106 E2BEG[2] *147:75 0.000178425
107 E6BEG[2] *147:99 1.36825e-05
108 E6BEG[6] *147:101 6.95749e-05
109 E6BEG[7] *147:99 9.51343e-06
110 E6BEG[7] *147:101 0.000184924
111 E6BEG[8] *147:99 0.000107157
112 E6BEG[8] *147:101 0.000358317
113 E6BEG[9] *147:99 0.000147561
114 EE4BEG[7] *147:91 0.000152092
115 EE4BEG[8] *147:91 0.000268771
116 EE4BEG[9] *147:91 2.63501e-05
117 FrameData_O[14] *147:101 0.000242067
118 FrameData_O[15] *147:101 2.09826e-05
119 FrameData_O[16] *147:101 0.000141954
120 FrameData_O[18] *147:101 4.38243e-05
121 FrameData_O[20] *147:101 0.00017418
122 FrameData_O[21] *147:101 0.000429341
123 FrameData_O[27] *147:101 0.000112954
124 FrameData_O[28] *147:101 0.000147878
125 FrameData_O[29] *147:101 0.000432627
126 FrameData_O[2] *147:101 3.35277e-05
127 FrameData_O[31] *147:101 0.000115803
128 FrameData_O[3] *147:101 0.000228632
129 *710:DIODE *2155:A 0
130 *144:27 *147:39 0.000536981
131 *144:145 *147:101 0.000838315
132 *145:37 *147:13 0.00139094
133 *145:37 *147:39 0.00156304
134 *146:33 *147:13 0
*RES
1 FrameStrobe[15] *147:13 47.9911 
2 *147:13 *147:39 49.5232 
3 *147:39 *147:51 45.8393 
4 *147:51 *147:75 34.6607 
5 *147:75 *147:91 41.719 
6 *147:91 *147:99 26.6368 
7 *147:99 *147:101 59.4732 
8 *147:101 *147:105 7.08929 
9 *147:105 *713:DIODE 10.2464 
10 *147:105 *2155:A 24.425 
*END

*D_NET *148 0.0541855
*CONN
*P FrameStrobe[16] I
*I *2156:A I *D sky130_fd_sc_hd__clkbuf_1
*I *714:DIODE I *D sky130_fd_sc_hd__diode_2
*CAP
1 FrameStrobe[16] 0.00102228
2 *2156:A 0
3 *714:DIODE 4.64647e-05
4 *148:111 0.00144314
5 *148:97 0.004563
6 *148:81 0.00504235
7 *148:57 0.00234855
8 *148:37 0.00177844
9 *148:21 0.00274613
10 *148:19 0.00246251
11 *714:DIODE FrameStrobe_O[15] 0.000103267
12 *714:DIODE *2364:A 0.000125731
13 *714:DIODE *2372:A 4.46186e-06
14 *148:19 *1803:A 6.05161e-06
15 *148:19 *149:9 0
16 *148:19 *250:10 5.70853e-05
17 *148:21 *2261:A 0.000876864
18 *148:21 *149:27 0.000378594
19 *148:21 *150:17 0.000666612
20 *148:21 *151:9 0.00163525
21 *148:21 *560:44 0.000757131
22 *148:21 *567:14 1.75291e-05
23 *148:21 *567:40 1.30694e-05
24 *148:21 *634:84 0.000716291
25 *148:21 *637:67 0.00029509
26 *148:21 *645:16 0.00227216
27 *148:37 *1903:A2 5.57613e-05
28 *148:37 *1903:S0 2.82955e-05
29 *148:37 *1903:S1 7.29646e-05
30 *148:37 *1913:A1 4.22579e-05
31 *148:37 *151:23 0.000638581
32 *148:37 *329:30 0.000480338
33 *148:37 *517:60 1.10443e-05
34 *148:37 *523:24 1.496e-05
35 *148:37 *525:40 0.000695904
36 *148:37 *527:10 0.000343494
37 *148:37 *650:168 9.77118e-05
38 *148:37 *660:43 0
39 *148:37 *685:22 0.000522237
40 *148:37 *686:14 0.000119217
41 *148:37 *700:12 0.000626447
42 *148:37 *707:67 0.000109298
43 *148:57 *2285:A 7.19706e-05
44 *148:57 *2290:A 0.000136682
45 *148:57 *2293:A 0.000116395
46 *148:57 *2294:A 4.38058e-05
47 *148:57 *149:63 1.10868e-05
48 *148:57 *481:50 0.000165434
49 *148:57 *594:38 0.00015327
50 *148:57 *650:168 7.59196e-05
51 *148:57 *698:121 0.000153745
52 *148:81 *1877:A3 1.42033e-05
53 *148:81 *1881:A2 9.75554e-05
54 *148:81 *2295:A 0.000385484
55 *148:81 *2326:A 0.000109422
56 *148:81 *151:27 3.2751e-05
57 *148:81 *151:57 0.00152723
58 *148:81 *234:58 0.000464935
59 *148:81 *236:91 0.000351192
60 *148:81 *515:40 4.17367e-05
61 *148:81 *516:32 0.000150084
62 *148:81 *520:58 0
63 *148:81 *569:62 2.63501e-05
64 *148:81 *583:72 9.09469e-06
65 *148:81 *600:138 7.00877e-06
66 *148:81 *642:106 5.30819e-05
67 *148:81 *659:161 0.000240011
68 *148:97 *1812:A0 9.32971e-05
69 *148:97 *1890:A3 2.26973e-05
70 *148:97 *1893:S0 9.70328e-05
71 *148:97 *1900:S1 0.000397543
72 *148:97 *1933:D 6.19514e-05
73 *148:97 *1958:GATE 6.74861e-05
74 *148:97 *159:93 0.00212264
75 *148:97 *233:80 9.98785e-05
76 *148:97 *233:99 0.000499657
77 *148:97 *233:122 0.000982689
78 *148:97 *323:12 0
79 *148:97 *514:72 0.000462153
80 *148:97 *522:58 0.000140879
81 *148:97 *531:34 0.00244418
82 *148:97 *535:16 0.00025461
83 *148:97 *552:28 0.000195298
84 *148:97 *565:22 2.06037e-05
85 *148:97 *568:188 0.000224917
86 *148:97 *573:28 4.76341e-05
87 *148:97 *575:18 5.90505e-05
88 *148:97 *583:72 5.16792e-05
89 *148:97 *594:88 3.50637e-05
90 *148:97 *634:186 0
91 *148:97 *635:102 1.65337e-05
92 *148:97 *642:106 0.00060593
93 *148:97 *645:62 0.00149086
94 *148:97 *667:172 1.81922e-05
95 *148:97 *667:176 0.000102477
96 *148:97 *667:187 0.000194658
97 *148:97 *669:45 0.000176764
98 *148:97 *669:75 4.65519e-05
99 *148:97 *678:49 0
100 *148:97 *688:30 4.32463e-05
101 *148:111 FrameStrobe_O[15] 0.000139404
102 *148:111 *1909:S1 0.00049619
103 *148:111 *2011:GATE 0.000234587
104 *148:111 *2100:A 0
105 *148:111 *2157:A 2.89016e-05
106 *148:111 *2368:A 0.00014183
107 *148:111 *2369:A 0.000165356
108 *148:111 *2371:A 8.97673e-05
109 *148:111 *2373:A 0.000104523
110 *148:111 *2382:A 3.48235e-05
111 *148:111 *323:12 0
112 *148:111 *483:102 2.04825e-05
113 *148:111 *551:20 0
114 *148:111 *556:22 0.000108118
115 *148:111 *678:49 0.000235562
116 *148:111 *694:134 0
117 E1BEG[2] *148:57 6.13706e-05
118 E2BEG[1] *148:57 0.000426133
119 EE4BEG[10] *148:81 0.000268771
120 EE4BEG[11] *148:81 4.13627e-05
121 EE4BEG[8] *148:81 3.83766e-05
122 *146:33 *148:19 0
123 *146:77 *148:81 0.00223925
124 *147:13 *148:19 0.000559526
*RES
1 FrameStrobe[16] *148:19 29.9107 
2 *148:19 *148:21 66 
3 *148:21 *148:37 47.5179 
4 *148:37 *148:57 33.9286 
5 *148:57 *148:81 46.3032 
6 *148:81 *148:97 43.4725 
7 *148:97 *148:111 30.9554 
8 *148:111 *714:DIODE 19.9429 
9 *148:111 *2156:A 9.3 
*END

*D_NET *149 0.0563194
*CONN
*P FrameStrobe[17] I
*I *715:DIODE I *D sky130_fd_sc_hd__diode_2
*I *2157:A I *D sky130_fd_sc_hd__clkbuf_1
*CAP
1 FrameStrobe[17] 0.00172367
2 *715:DIODE 9.15857e-05
3 *2157:A 1.67213e-05
4 *149:111 0.00296501
5 *149:101 0.00446009
6 *149:93 0.00182562
7 *149:87 0.00192741
8 *149:63 0.00344804
9 *149:37 0.00314668
10 *149:27 0.00367298
11 *149:9 0.00399284
12 *715:DIODE *717:DIODE 6.07328e-05
13 *715:DIODE *2366:A 0.00012401
14 *715:DIODE *2368:A 5.33005e-05
15 *2157:A FrameStrobe_O[15] 5.33005e-05
16 *149:9 *1806:A 0.000743479
17 *149:9 *1870:A1 8.42484e-06
18 *149:9 *1874:B1 4.12932e-05
19 *149:9 *1874:B2 6.97972e-05
20 *149:9 *2220:A 2.91659e-05
21 *149:9 *150:17 0
22 *149:9 *567:14 0
23 *149:9 *657:18 0.000135028
24 *149:27 *1848:A2 0.00039435
25 *149:27 *1871:S0 1.02872e-05
26 *149:27 *2222:A 3.07449e-05
27 *149:27 *2233:A 0.000334137
28 *149:27 *2234:A 0.000245378
29 *149:27 *2235:A 6.76034e-05
30 *149:27 *153:21 0.00173867
31 *149:27 *181:17 1.30275e-05
32 *149:27 *524:142 0.000114652
33 *149:27 *535:157 0.000132862
34 *149:27 *579:54 2.61531e-05
35 *149:27 *596:28 0.000169708
36 *149:27 *600:36 0.000370367
37 *149:27 *634:78 2.05803e-05
38 *149:27 *634:84 0.000378594
39 *149:27 *645:14 0
40 *149:27 *646:24 8.60827e-05
41 *149:27 *652:16 1.03072e-05
42 *149:27 *652:18 5.25517e-05
43 *149:37 *1839:C_N 0.000563903
44 *149:37 *1895:A3 0.000443418
45 *149:37 *1911:A0 0.000114453
46 *149:37 *1911:A3 3.69047e-06
47 *149:37 *1950:D 2.11419e-05
48 *149:37 *154:75 0.000630622
49 *149:37 *240:10 3.55503e-05
50 *149:37 *240:14 2.88391e-05
51 *149:37 *597:30 0.000109626
52 *149:37 *653:32 6.61411e-05
53 *149:37 *657:44 0.000125369
54 *149:37 *658:93 1.17968e-05
55 *149:37 *659:83 4.98055e-06
56 *149:37 *659:116 0.000371563
57 *149:37 *662:99 0.00013208
58 *149:37 *662:132 0.000209953
59 *149:37 *662:142 0.000364431
60 *149:37 *708:12 0.00162039
61 *149:63 *1879:S0 1.32056e-05
62 *149:63 *2288:A 0.000178425
63 *149:63 *2290:A 0.000179855
64 *149:63 *481:50 0.000346986
65 *149:63 *534:40 0.000511236
66 *149:63 *545:38 0.000212441
67 *149:63 *647:222 0.000377713
68 *149:63 *659:161 6.81786e-05
69 *149:63 *660:91 0.000430398
70 *149:63 *664:166 0.000322279
71 *149:63 *692:16 8.93791e-05
72 *149:63 *693:46 0.000322279
73 *149:63 *701:28 9.70065e-05
74 *149:63 *707:67 3.97677e-05
75 *149:87 *2329:A 0.000185369
76 *149:87 *516:58 0.000474779
77 *149:87 *594:52 0.000611828
78 *149:87 *600:138 3.37161e-05
79 *149:87 *653:219 3.66884e-05
80 *149:87 *659:183 0.000321354
81 *149:87 *660:91 0.000987728
82 *149:87 *691:16 0.000473646
83 *149:87 *695:66 0.000264187
84 *149:93 *2312:A 0.000248588
85 *149:93 *236:40 0.000255192
86 *149:93 *514:72 3.64479e-05
87 *149:93 *659:209 4.06087e-07
88 *149:101 *1893:A1 4.78315e-05
89 *149:101 *1899:A1 2.16719e-05
90 *149:101 *2312:A 6.79672e-06
91 *149:101 *514:72 0.000206001
92 *149:101 *524:43 0.00072376
93 *149:101 *531:62 0.000483592
94 *149:101 *538:66 1.10866e-05
95 *149:101 *539:40 0.00127347
96 *149:101 *646:127 0.000485192
97 *149:101 *659:209 1.09267e-05
98 *149:101 *691:72 4.06087e-07
99 *149:101 *704:110 0.000264766
100 *149:111 *717:DIODE 5.80706e-06
101 *149:111 *2366:A 4.33002e-05
102 *149:111 *2369:A 2.04825e-05
103 *149:111 *151:85 1.31516e-05
104 *149:111 *541:40 0.000862519
105 *149:111 *686:52 0
106 *149:111 *704:110 0
107 E2BEG[1] *149:63 2.8078e-05
108 E6BEG[2] *149:101 4.98603e-05
109 E6BEG[7] *149:101 0.000331372
110 E6BEG[9] *149:101 4.11218e-05
111 EE4BEG[12] *149:93 6.33578e-05
112 EE4BEG[7] *149:87 0.000317341
113 EE4BEG[9] *149:87 9.41642e-05
114 FrameData_O[12] *149:101 0.000740879
115 FrameData_O[18] *149:101 4.58764e-05
116 FrameData_O[23] *149:101 3.57501e-06
117 FrameData_O[24] *149:101 3.26826e-05
118 FrameData_O[25] *149:101 0.000150564
119 FrameData_O[26] *149:101 6.90187e-05
120 *142:23 *149:27 0.000624399
121 *143:29 *149:63 0.000218409
122 *144:145 *149:101 0.000844972
123 *144:145 *149:111 0.000461429
124 *145:15 *149:9 2.2628e-05
125 *145:37 *149:9 0.00179274
126 *147:13 *149:9 2.2355e-05
127 *147:39 *149:27 3.43472e-05
128 *147:75 *149:63 0.000413691
129 *147:91 *149:87 4.38379e-05
130 *147:101 *149:101 0.000211134
131 *148:19 *149:9 0
132 *148:21 *149:27 0.000378594
133 *148:57 *149:63 1.10868e-05
134 *148:111 *2157:A 2.89016e-05
*RES
1 FrameStrobe[17] *149:9 46.9464 
2 *149:9 *149:27 29.2684 
3 *149:27 *149:37 45.7589 
4 *149:37 *149:63 46.25 
5 *149:63 *149:87 49.8571 
6 *149:87 *149:93 9.86607 
7 *149:93 *149:101 49.5695 
8 *149:101 *149:111 13.9287 
9 *149:111 *2157:A 14.3357 
10 *149:111 *715:DIODE 15.9786 
*END

*D_NET *150 0.0514626
*CONN
*P FrameStrobe[18] I
*I *716:DIODE I *D sky130_fd_sc_hd__diode_2
*I *2158:A I *D sky130_fd_sc_hd__clkbuf_1
*CAP
1 FrameStrobe[18] 0.00444621
2 *716:DIODE 5.27159e-05
3 *2158:A 0.000254883
4 *150:87 0.00173479
5 *150:69 0.00251915
6 *150:57 0.00195426
7 *150:41 0.00316479
8 *150:17 0.0067487
9 *716:DIODE *2370:A 5.65955e-05
10 *2158:A *1883:S1 0
11 *2158:A *2366:A 0
12 *2158:A *2370:A 0.000380732
13 *2158:A *2373:A 9.58181e-05
14 *2158:A *564:8 4.82947e-05
15 *150:17 *1836:A1 0.000354926
16 *150:17 *1853:S1 0
17 *150:17 *1863:A2 4.71818e-05
18 *150:17 *2034:D 0.000466954
19 *150:17 *151:7 0
20 *150:17 *151:9 0
21 *150:17 *153:21 0.000552957
22 *150:17 *479:46 0.00189375
23 *150:17 *501:14 0.000135968
24 *150:17 *567:14 9.36141e-05
25 *150:17 *579:78 0.00016796
26 *150:17 *596:28 0.000910689
27 *150:17 *632:16 0.000116226
28 *150:17 *647:28 0
29 *150:17 *648:22 0.000121549
30 *150:17 *652:16 1.4473e-05
31 *150:17 *652:18 6.53099e-05
32 *150:17 *658:31 0.000928875
33 *150:17 *658:58 4.78952e-05
34 *150:17 *665:83 9.22109e-05
35 *150:41 *1879:S1 2.11419e-05
36 *150:41 *2082:A 7.29646e-05
37 *150:41 *2102:A 1.90936e-05
38 *150:41 *2326:A 0.000144532
39 *150:41 *159:77 0.000810444
40 *150:41 *160:79 2.96195e-05
41 *150:41 *181:56 8.11036e-05
42 *150:41 *249:34 0.000141101
43 *150:41 *409:34 0.000123605
44 *150:41 *479:106 1.24368e-05
45 *150:41 *483:46 2.63501e-05
46 *150:41 *524:142 0.00289446
47 *150:41 *533:52 0.000561636
48 *150:41 *535:157 0.00370274
49 *150:41 *579:52 1.43819e-05
50 *150:41 *593:74 0.00011548
51 *150:41 *634:54 0.00045815
52 *150:41 *642:34 1.42701e-05
53 *150:41 *659:116 1.14338e-05
54 *150:41 *667:74 0.000995297
55 *150:41 *671:111 5.55628e-05
56 *150:41 *675:174 2.69953e-05
57 *150:57 *1934:GATE 8.14617e-05
58 *150:57 *2161:A 0.00206604
59 *150:57 *181:56 6.06029e-05
60 *150:57 *409:34 0.00200803
61 *150:57 *479:106 5.02739e-05
62 *150:57 *535:157 6.82091e-06
63 *150:57 *675:174 5.49544e-05
64 *150:57 *701:54 0.000111243
65 *150:69 *1934:GATE 7.83587e-05
66 *150:69 *398:22 0.000336255
67 *150:69 *572:12 0.000470108
68 *150:69 *586:110 0.00012315
69 *150:69 *587:176 9.30053e-05
70 *150:69 *593:118 0.000681052
71 *150:69 *634:176 0.000133935
72 *150:69 *634:186 0.000652532
73 *150:69 *635:102 6.98306e-05
74 *150:69 *669:45 0.000260384
75 *150:69 *669:53 6.35864e-05
76 *150:69 *669:75 0.000405806
77 *150:69 *673:48 6.95916e-05
78 *150:69 *701:58 8.92267e-05
79 *150:87 *1883:A0 1.81774e-05
80 *150:87 *1883:S0 4.35421e-05
81 *150:87 *1894:A3 0.000243221
82 *150:87 *1909:A0 9.41642e-05
83 *150:87 *2073:A 1.78762e-05
84 *150:87 *233:122 4.3363e-05
85 *150:87 *535:112 0.000648713
86 *150:87 *570:14 0.000644778
87 *150:87 *572:12 0.000110728
88 *150:87 *576:14 0
89 *150:87 *618:132 2.86749e-05
90 *150:87 *653:275 5.33005e-05
91 *150:87 *696:26 4.29471e-05
92 *150:87 *704:119 6.86792e-05
93 *710:DIODE *2158:A 9.21607e-05
94 *2153:A *2158:A 0
95 *2155:A *2158:A 0
96 *142:23 *150:17 8.30191e-05
97 *143:59 *150:41 0.000525254
98 *145:75 *150:57 1.08359e-05
99 *145:85 *150:69 0.00105105
100 *145:85 *150:87 0.000965377
101 *146:33 *150:17 0.000243613
102 *148:21 *150:17 0.000666612
103 *149:9 *150:17 0
*RES
1 FrameStrobe[18] *150:17 47.787 
2 *150:17 *150:41 49.5609 
3 *150:41 *150:57 43.5893 
4 *150:57 *150:69 39.0571 
5 *150:69 *150:87 36.6518 
6 *150:87 *2158:A 24.5321 
7 *150:87 *716:DIODE 10.2464 
*END

*D_NET *151 0.0525289
*CONN
*P FrameStrobe[19] I
*I *717:DIODE I *D sky130_fd_sc_hd__diode_2
*I *2159:A I *D sky130_fd_sc_hd__clkbuf_1
*CAP
1 FrameStrobe[19] 0.00062297
2 *717:DIODE 4.48308e-05
3 *2159:A 0
4 *151:85 0.000280049
5 *151:77 0.00278078
6 *151:57 0.00573679
7 *151:27 0.00402869
8 *151:23 0.00252129
9 *151:9 0.00294748
10 *151:7 0.00188662
11 *717:DIODE *2368:A 0.000116481
12 *151:9 *2232:A 0.000142045
13 *151:9 *494:16 0.00116795
14 *151:9 *596:40 0.00114859
15 *151:9 *645:16 0.00124134
16 *151:23 *1859:A2 0.000365133
17 *151:23 *1913:A0 2.51343e-06
18 *151:23 *1913:A1 8.43823e-05
19 *151:23 *2064:A 0.000145341
20 *151:23 *2246:A 0.000134436
21 *151:23 *2262:A 0.00103386
22 *151:23 *2264:A 0.000363872
23 *151:23 *481:18 0.000136682
24 *151:23 *486:18 3.29037e-05
25 *151:23 *653:170 0.000137454
26 *151:23 *660:43 0.000799803
27 *151:23 *691:8 0.000596294
28 *151:23 *695:8 0.000261794
29 *151:23 *700:12 4.43142e-05
30 *151:23 *702:14 0.000280772
31 *151:27 *2253:A 2.07506e-05
32 *151:27 *2295:A 0.001659
33 *151:27 *516:58 0.0008812
34 *151:27 *637:67 0.000389544
35 *151:27 *647:185 0.000491703
36 *151:27 *659:161 0.000241597
37 *151:57 *740:DIODE 2.14879e-05
38 *151:57 *1881:A0 4.38296e-05
39 *151:57 *1881:A1 0.000135405
40 *151:57 *1881:S1 0.000822422
41 *151:57 *1946:D 6.50032e-05
42 *151:57 *234:86 0.000506418
43 *151:57 *235:93 5.46441e-05
44 *151:57 *515:40 7.28476e-05
45 *151:57 *516:58 0.000443739
46 *151:57 *524:67 5.50944e-05
47 *151:57 *531:34 9.90269e-05
48 *151:57 *583:86 5.41797e-06
49 *151:57 *600:162 2.66789e-06
50 *151:57 *618:96 4.17634e-05
51 *151:57 *653:219 0.000395478
52 *151:57 *653:249 0.000145783
53 *151:57 *659:209 0.000332338
54 *151:57 *660:91 0.000246434
55 *151:57 *665:38 0
56 *151:57 *673:90 0.000287777
57 *151:57 *691:38 8.76711e-05
58 *151:57 *695:76 4.05174e-06
59 *151:57 *696:26 0.000207175
60 *151:57 *697:46 0.000211525
61 *151:77 *1883:S1 0
62 *151:77 *1885:A2 0.00145857
63 *151:77 *1886:A0 8.99641e-05
64 *151:77 *1886:A2 0.000442654
65 *151:77 *2012:D 0.000508088
66 *151:77 *2073:A 7.62717e-05
67 *151:77 *2126:A 1.40849e-05
68 *151:77 *233:122 0.000710193
69 *151:77 *235:64 0.000917671
70 *151:77 *479:161 1.14483e-05
71 *151:77 *528:30 0.000115206
72 *151:77 *542:20 0.000499981
73 *151:77 *577:20 6.8646e-06
74 *151:77 *586:110 7.84591e-05
75 *151:77 *618:116 0.00011535
76 *151:77 *635:92 0.000953345
77 *151:77 *645:82 1.8791e-05
78 *151:77 *645:91 0.000286169
79 *151:77 *667:172 0.000178115
80 *151:77 *669:75 0.000967555
81 *151:77 *701:58 0.000177142
82 *151:77 *708:84 1.4389e-05
83 *151:85 *1883:S1 2.06655e-06
84 *151:85 *2368:A 5.41794e-05
85 *151:85 *2369:A 0.000307355
86 E1BEG[3] *151:27 1.94879e-05
87 E6BEG[2] *151:57 0.00015024
88 E6BEG[3] *151:57 5.00194e-05
89 E6BEG[4] *151:57 4.65519e-05
90 E6BEG[5] *151:57 0.000402165
91 E6BEG[7] *151:57 8.82288e-05
92 *710:DIODE *151:77 0.000121549
93 *711:DIODE *151:77 1.27529e-05
94 *715:DIODE *717:DIODE 6.07328e-05
95 *2151:A *151:85 4.56498e-05
96 *2154:A *151:85 0
97 *144:71 *151:27 6.93958e-05
98 *144:121 *151:57 0.000226418
99 *146:77 *151:57 6.84819e-05
100 *146:99 *151:77 0.000636978
101 *146:99 *151:85 0
102 *147:51 *151:23 0.000600478
103 *147:99 *151:57 0.00101581
104 *148:21 *151:9 0.00163525
105 *148:37 *151:23 0.000638581
106 *148:81 *151:27 3.2751e-05
107 *148:81 *151:57 0.00152723
108 *149:111 *717:DIODE 5.80706e-06
109 *149:111 *151:85 1.31516e-05
110 *150:17 *151:7 0
111 *150:17 *151:9 0
*RES
1 FrameStrobe[19] *151:7 12.7946 
2 *151:7 *151:9 53.0714 
3 *151:9 *151:23 47.8734 
4 *151:23 *151:27 26.4643 
5 *151:27 *151:57 47.2153 
6 *151:57 *151:77 49.7374 
7 *151:77 *151:85 5.63393 
8 *151:85 *2159:A 13.8 
9 *151:85 *717:DIODE 15.4429 
*END

*D_NET *152 0.0190505
*CONN
*P FrameStrobe[1] I
*I *2181:A I *D sky130_fd_sc_hd__dlymetal6s2s_1
*I *718:DIODE I *D sky130_fd_sc_hd__diode_2
*CAP
1 FrameStrobe[1] 9.59646e-05
2 *2181:A 0.000481631
3 *718:DIODE 0.000481631
4 *152:33 0.00138633
5 *152:13 0.00292822
6 *152:11 0.00163785
7 *2181:A *590:18 0.000154345
8 *2181:A *613:107 6.05161e-06
9 *2181:A *680:8 0.000139637
10 *152:11 *153:21 0
11 *152:13 *153:21 0
12 *152:13 *154:21 0.00153863
13 *152:13 *181:17 0
14 *152:13 *479:20 0
15 *152:13 *587:12 0.00157114
16 *152:13 *590:14 0.00144192
17 *152:13 *638:24 0.000201103
18 *152:33 *1926:D 0.000247974
19 *152:33 *2279:A 2.06178e-05
20 *152:33 *156:47 0
21 *152:33 *544:32 5.93736e-05
22 *152:33 *568:88 0.000139207
23 *152:33 *586:22 0.000630023
24 *152:33 *587:12 4.02346e-05
25 *152:33 *590:14 0.00246466
26 *152:33 *591:94 1.06027e-05
27 *152:33 *613:107 2.06178e-05
28 *152:33 *616:26 0.000320589
29 *152:33 *631:106 1.4389e-05
30 *152:33 *631:112 0.00158614
31 *152:33 *638:24 0.000126521
32 *152:33 *639:30 0.000930902
33 C_T_top *152:13 0.000113647
34 C_config_C_bit1 *152:33 3.74569e-05
35 C_config_C_bit2 *152:33 4.79585e-05
36 C_config_C_bit3 *152:33 0
37 D_config_C_bit1 *152:33 2.01997e-05
38 *2216:A *152:13 0.00015497
*RES
1 FrameStrobe[1] *152:11 2.4375 
2 *152:11 *152:13 55.4464 
3 *152:13 *152:33 47.9276 
4 *152:33 *718:DIODE 13.8 
5 *718:DIODE *2181:A 26.5464 
*END

*D_NET *153 0.0511635
*CONN
*P FrameStrobe[2] I
*I *2174:A I *D sky130_fd_sc_hd__buf_2
*I *2176:A I *D sky130_fd_sc_hd__dlymetal6s2s_1
*I *2175:A I *D sky130_fd_sc_hd__buf_2
*CAP
1 FrameStrobe[2] 0.00440637
2 *2174:A 0.000133012
3 *2176:A 0
4 *2175:A 9.92873e-05
5 *153:142 0.00025674
6 *153:129 0.00124681
7 *153:119 0.00244312
8 *153:79 0.00287774
9 *153:55 0.00226157
10 *153:43 0.00305842
11 *153:21 0.00666163
12 *2174:A *557:8 9.83388e-05
13 *2174:A *557:32 0.000150096
14 *2174:A *557:143 2.21254e-05
15 *2174:A *568:163 3.38774e-05
16 *2174:A *568:188 5.49489e-05
17 *2175:A *2124:A 7.63594e-05
18 *153:21 *1817:C1 0.000111987
19 *153:21 *2217:A 0
20 *153:21 *154:21 0
21 *153:21 *181:17 0.00269687
22 *153:21 *267:14 5.51755e-05
23 *153:21 *489:10 0.000863259
24 *153:21 *524:142 7.6371e-05
25 *153:21 *591:136 2.03551e-05
26 *153:21 *591:142 1.60916e-05
27 *153:21 *596:28 2.98193e-05
28 *153:21 *600:36 0.000207559
29 *153:21 *632:16 0.000106365
30 *153:21 *634:78 2.71935e-05
31 *153:21 *639:60 0
32 *153:21 *640:18 0.00037266
33 *153:21 *652:16 8.07616e-06
34 *153:21 *652:18 1.55854e-05
35 *153:21 *666:145 0
36 *153:43 *1952:GATE 6.43196e-05
37 *153:43 *1953:D 4.74821e-05
38 *153:43 *154:47 0.000121891
39 *153:43 *159:45 6.80823e-05
40 *153:43 *181:17 0.000754969
41 *153:43 *479:46 0.00113083
42 *153:43 *568:88 4.75671e-06
43 *153:43 *593:44 0
44 *153:43 *602:131 9.1588e-05
45 *153:43 *602:160 0.000100281
46 *153:43 *613:138 8.76591e-06
47 *153:43 *628:112 1.84478e-05
48 *153:43 *630:84 0
49 *153:43 *632:66 6.72711e-05
50 *153:43 *639:52 0.000276978
51 *153:43 *643:28 1.16796e-05
52 *153:43 *652:127 0.000891453
53 *153:43 *668:140 6.61149e-05
54 *153:43 *672:184 1.03972e-05
55 *153:43 *706:24 8.69554e-05
56 *153:55 *157:57 0.000857985
57 *153:55 *510:34 3.22304e-05
58 *153:55 *557:46 9.41223e-05
59 *153:55 *586:44 0.000386132
60 *153:55 *590:18 0.000135028
61 *153:55 *601:10 0.00167433
62 *153:55 *624:120 0.00111173
63 *153:55 *628:68 6.05161e-06
64 *153:55 *638:18 3.17645e-05
65 *153:55 *658:113 0.000953447
66 *153:79 *2025:D 0.000327342
67 *153:79 *154:99 0.000528182
68 *153:79 *157:57 1.431e-05
69 *153:79 *158:31 0.00011108
70 *153:79 *158:71 9.41642e-05
71 *153:79 *509:30 0.000198836
72 *153:79 *510:22 5.33005e-05
73 *153:79 *510:34 0.000218294
74 *153:79 *512:20 9.22222e-06
75 *153:79 *546:31 0.000757925
76 *153:79 *584:48 0.000114847
77 *153:79 *600:86 0.000230906
78 *153:79 *600:138 0.00044128
79 *153:79 *629:18 0.000193928
80 *153:79 *633:26 0.000172264
81 *153:79 *633:30 0.000136107
82 *153:79 *638:12 6.95541e-05
83 *153:79 *674:80 3.06878e-06
84 *153:79 *675:38 0.00021574
85 *153:79 *684:8 8.25843e-06
86 *153:79 *684:12 3.55471e-05
87 *153:119 *1929:D 4.71644e-05
88 *153:119 *1929:GATE 2.84109e-05
89 *153:119 *157:107 5.4218e-05
90 *153:119 *482:76 4.42491e-05
91 *153:119 *544:48 0.000264603
92 *153:119 *556:40 4.74475e-05
93 *153:119 *582:94 0.00011731
94 *153:119 *602:34 3.85993e-05
95 *153:119 *627:68 0
96 *153:119 *644:115 2.58211e-05
97 *153:119 *668:34 6.68696e-05
98 *153:119 *672:100 6.39571e-05
99 *153:119 *675:38 0.000224648
100 *153:129 *1878:A0 2.05938e-05
101 *153:129 *1878:S0 0.000143712
102 *153:129 *1908:A0 3.41494e-05
103 *153:129 *1908:S0 5.98954e-05
104 *153:129 *1976:D 9.41642e-05
105 *153:129 *1977:D 0.000136618
106 *153:129 *2066:A 0.000516319
107 *153:129 *2124:A 3.97677e-05
108 *153:129 *502:14 5.13908e-05
109 *153:129 *502:51 0
110 *153:129 *502:105 2.90018e-05
111 *153:129 *513:10 0.000146777
112 *153:129 *513:82 0
113 *153:129 *557:32 0.000512735
114 *153:129 *566:24 0
115 *153:129 *582:128 0.000324394
116 *153:129 *587:176 0.000162899
117 *153:129 *668:14 0
118 *153:129 *670:65 0.000515127
119 *153:129 *671:10 7.90803e-05
120 *153:129 *671:30 0.000164633
121 *153:129 *679:61 0
122 *153:129 *693:84 0.00025865
123 *153:129 *693:117 0.000122796
124 *153:129 *703:72 0.000332346
125 *153:142 *557:32 0.000214408
126 *153:142 *672:18 2.18766e-05
127 *2186:A *153:21 2.26887e-05
128 *2193:A *153:79 0.000155647
129 *2205:A *153:79 0.000251184
130 *2210:A *153:79 4.38058e-05
131 *2211:A *153:79 6.39808e-05
132 *2212:A *153:79 0.000226812
133 *2213:A *153:79 0.000196374
134 *2216:A *153:21 0.000270442
135 *2241:A *153:119 6.33738e-05
136 *142:23 *153:21 0.000539739
137 *142:67 *153:79 9.05976e-06
138 *142:99 *153:119 0.000385491
139 *146:33 *153:21 0.000111616
140 *149:27 *153:21 0.00173867
141 *150:17 *153:21 0.000552957
142 *152:11 *153:21 0
143 *152:13 *153:21 0
*RES
1 FrameStrobe[2] *153:21 49.0112 
2 *153:21 *153:43 34.984 
3 *153:43 *153:55 49.5357 
4 *153:55 *153:79 49.6071 
5 *153:79 *153:119 38.6964 
6 *153:119 *153:129 33.7679 
7 *153:129 *2175:A 11.0857 
8 *153:129 *153:142 7.35714 
9 *153:142 *2176:A 13.8 
10 *153:142 *2174:A 17.425 
*END

*D_NET *154 0.051978
*CONN
*P FrameStrobe[3] I
*I *2172:A I *D sky130_fd_sc_hd__clkbuf_2
*I *719:DIODE I *D sky130_fd_sc_hd__diode_2
*CAP
1 FrameStrobe[3] 0.00141253
2 *2172:A 0.000140103
3 *719:DIODE 0.00035088
4 *154:107 0.00117392
5 *154:99 0.0019937
6 *154:95 0.00187658
7 *154:75 0.00431171
8 *154:47 0.00623899
9 *154:21 0.00418583
10 *2172:A *1995:GATE 3.69047e-06
11 *2172:A *627:22 9.25014e-06
12 *2172:A *630:26 2.34969e-05
13 *2172:A *670:45 7.83659e-05
14 *2172:A *674:114 2.90068e-05
15 *154:21 *2032:D 0.00013352
16 *154:21 *2217:A 0
17 *154:21 *2391:A 0.000199133
18 *154:21 *496:16 0.000192816
19 *154:21 *583:16 0.000265275
20 *154:21 *638:24 0.000305709
21 *154:21 *640:18 0
22 *154:47 *1799:A 1.44868e-05
23 *154:47 *1836:A0 5.49544e-05
24 *154:47 *1838:A1 0.00031288
25 *154:47 *1840:A1 0.000135028
26 *154:47 *1921:D 1.5373e-05
27 *154:47 *479:20 9.07132e-05
28 *154:47 *479:46 0.000686911
29 *154:47 *495:20 0.000618848
30 *154:47 *586:22 8.60387e-05
31 *154:47 *600:36 0.000745091
32 *154:47 *613:146 2.8491e-05
33 *154:47 *626:134 0.000440337
34 *154:47 *632:16 0.000634415
35 *154:47 *632:66 0.000771044
36 *154:47 *652:18 4.75671e-06
37 *154:47 *652:34 0.000109718
38 *154:47 *664:14 0.000123605
39 *154:75 *1839:C_N 0.00021767
40 *154:75 *1904:A0 0.000207931
41 *154:75 *1910:S0 0.000102056
42 *154:75 *1911:A0 0.000913521
43 *154:75 *156:47 0.000449442
44 *154:75 *158:19 0.00114547
45 *154:75 *160:39 3.98499e-05
46 *154:75 *160:79 0.000847896
47 *154:75 *243:42 0.000213052
48 *154:75 *495:20 0.0012795
49 *154:75 *544:32 6.5804e-05
50 *154:75 *582:54 0.00185766
51 *154:75 *631:106 0.000132695
52 *154:75 *637:44 0.000434351
53 *154:95 *1962:GATE 2.40747e-05
54 *154:95 *1993:GATE 0.000264897
55 *154:95 *2133:A 9.66977e-05
56 *154:95 *2180:A 0
57 *154:95 *480:70 7.16794e-05
58 *154:95 *512:20 0.00116661
59 *154:95 *556:54 0.00031721
60 *154:95 *624:58 3.63736e-05
61 *154:95 *629:35 0.000199075
62 *154:95 *629:52 6.75733e-05
63 *154:95 *635:10 1.17966e-05
64 *154:95 *636:26 5.83099e-05
65 *154:95 *654:20 0.000157333
66 *154:99 *482:76 1.77757e-05
67 *154:99 *510:22 0.000847028
68 *154:99 *584:48 0.000163444
69 *154:99 *603:66 1.81709e-05
70 *154:99 *616:38 7.04244e-05
71 *154:99 *629:54 7.48679e-06
72 *154:99 *638:12 0.000664739
73 *154:99 *639:30 9.90819e-06
74 *154:99 *644:115 0.000162181
75 *154:99 *674:80 0.000118344
76 *154:99 *675:56 0.00051808
77 *154:99 *687:70 0.000237147
78 *154:107 *157:115 0
79 *154:107 *602:18 0.000568468
80 *154:107 *625:10 0.000285911
81 *154:107 *629:54 0.00212767
82 *154:107 *687:18 0.00290886
83 *154:107 *687:70 2.30116e-06
84 A_I_top *154:21 3.06589e-05
85 C_I_top *154:21 5.90143e-05
86 C_config_C_bit0 *154:75 0.000390723
87 D_I_top *154:47 8.99486e-05
88 D_config_C_bit0 *154:75 9.14914e-05
89 D_config_C_bit1 *154:75 2.3968e-05
90 *2186:A *154:21 3.42554e-05
91 *2200:A *154:107 0.000114845
92 *2208:A *154:21 6.98512e-06
93 *2209:A *154:95 0.000322785
94 *2214:A *154:99 0.000225043
95 *2215:A *154:99 6.09762e-05
96 *2216:A *154:21 0.000107276
97 *2230:A *154:75 7.90873e-05
98 *2241:A *154:99 2.02412e-05
99 *2263:A *154:99 8.9222e-05
100 *142:99 *154:99 0.000508449
101 *149:37 *154:75 0.000630622
102 *152:13 *154:21 0.00153863
103 *153:21 *154:21 0
104 *153:43 *154:47 0.000121891
105 *153:79 *154:99 0.000528182
*RES
1 FrameStrobe[3] *154:21 49.8259 
2 *154:21 *154:47 40.8985 
3 *154:47 *154:75 45.6231 
4 *154:75 *154:95 41.1161 
5 *154:95 *154:99 30.3661 
6 *154:99 *154:107 47.9375 
7 *154:107 *719:DIODE 11.4786 
8 *719:DIODE *2172:A 30.0821 
*END

*D_NET *155 0.00112936
*CONN
*P FrameStrobe[4] I
*I *2217:A I *D sky130_fd_sc_hd__buf_1
*CAP
1 FrameStrobe[4] 0.000341131
2 *2217:A 0.000341131
3 *2217:A *156:27 0.000447102
4 *2216:A *2217:A 0
5 *153:21 *2217:A 0
6 *154:21 *2217:A 0
*RES
1 FrameStrobe[4] *2217:A 22.6214 
*END

*D_NET *156 0.0484937
*CONN
*P FrameStrobe[5] I
*I *721:DIODE I *D sky130_fd_sc_hd__diode_2
*I *2145:A I *D sky130_fd_sc_hd__clkbuf_1
*CAP
1 FrameStrobe[5] 0.00148049
2 *721:DIODE 3.9875e-05
3 *2145:A 0
4 *156:69 0.00282627
5 *156:53 0.00467662
6 *156:51 0.00252378
7 *156:47 0.00447715
8 *156:27 0.00532409
9 *721:DIODE *2375:A 0.000153563
10 *721:DIODE *630:26 0.000141639
11 *156:27 *1919:GATE 0.000146474
12 *156:27 *1924:D 0.000343056
13 *156:27 *2044:D 4.38243e-05
14 *156:27 *157:21 0
15 *156:27 *492:18 0
16 *156:27 *568:122 0.000546697
17 *156:27 *591:136 0
18 *156:27 *618:12 1.43864e-05
19 *156:27 *627:118 3.73407e-05
20 *156:27 *641:8 0.00121409
21 *156:27 *641:21 0.000185619
22 *156:27 *666:126 0.00089416
23 *156:27 *666:132 0.000126439
24 *156:27 *666:145 0
25 *156:27 *666:151 0
26 *156:47 *2387:A 0.000706015
27 *156:47 *497:14 0.000280861
28 *156:47 *498:12 0.000205572
29 *156:47 *506:14 0.000154703
30 *156:47 *568:88 0
31 *156:47 *568:122 2.8046e-05
32 *156:47 *586:22 0.0014894
33 *156:47 *618:12 0.000775838
34 *156:47 *639:52 0.000378544
35 *156:47 *666:76 2.04745e-05
36 *156:51 *482:40 0.000234295
37 *156:51 *601:10 0.00304018
38 *156:51 *601:30 7.12029e-06
39 *156:51 *602:123 0.000778536
40 *156:51 *602:131 0.000991841
41 *156:51 *672:134 0.000999585
42 *156:53 *2039:D 0.000990691
43 *156:53 *158:75 0.00209246
44 *156:53 *482:58 0.00176414
45 *156:53 *568:54 0.000331448
46 *156:53 *601:10 2.23987e-05
47 *156:53 *601:30 0.00197652
48 *156:53 *627:104 0.000217127
49 *156:53 *694:76 0.000347111
50 *156:69 *2375:A 2.11419e-05
51 *156:69 *616:38 7.39354e-05
52 *156:69 *626:34 0.00143969
53 *156:69 *630:26 1.94879e-05
54 *156:69 *674:114 0.000274498
55 *156:69 *698:175 0.0020607
56 C_config_C_bit0 *156:47 0.000138158
57 C_config_C_bit1 *156:47 6.38277e-05
58 *2191:A *156:69 0.000284407
59 *2192:A *156:69 1.4219e-05
60 *2203:A *156:69 0
61 *2204:A *156:69 2.75989e-05
62 *2206:A *156:69 1.36734e-05
63 *2207:A *156:69 0
64 *2217:A *156:27 0.000447102
65 *142:117 *156:69 0.000137323
66 *152:33 *156:47 0
67 *154:75 *156:47 0.000449442
*RES
1 FrameStrobe[5] *156:27 42.9464 
2 *156:27 *156:47 31.8153 
3 *156:47 *156:51 38.3036 
4 *156:51 *156:53 57.1964 
5 *156:53 *156:69 22.5648 
6 *156:69 *2145:A 13.8 
7 *156:69 *721:DIODE 15.7464 
*END

*D_NET *157 0.0536128
*CONN
*P FrameStrobe[6] I
*I *2146:A I *D sky130_fd_sc_hd__clkbuf_1
*I *730:DIODE I *D sky130_fd_sc_hd__diode_2
*CAP
1 FrameStrobe[6] 0.00329179
2 *2146:A 0.000122281
3 *730:DIODE 0.000663266
4 *157:115 0.00143587
5 *157:111 0.00137546
6 *157:107 0.00143409
7 *157:87 0.00294615
8 *157:57 0.00321084
9 *157:41 0.00236796
10 *157:21 0.00444154
11 *730:DIODE *723:DIODE 1.76013e-05
12 *730:DIODE *724:DIODE 0.000401261
13 *730:DIODE *726:DIODE 1.21258e-05
14 *730:DIODE *1891:A0 0.000108447
15 *730:DIODE *694:94 0.00013128
16 *730:DIODE *694:130 1.32056e-05
17 *2146:A *1891:A2 0
18 *2146:A *1901:A1 1.31484e-05
19 *2146:A *2379:A 5.7119e-05
20 *2146:A *615:10 0.000147583
21 *2146:A *694:92 9.11048e-06
22 *2146:A *694:130 5.49544e-05
23 *157:21 *1816:A_N 0.000100831
24 *157:21 *1821:A1 8.54156e-05
25 *157:21 *1845:A0 2.83129e-05
26 *157:21 *1846:B1 0.000132788
27 *157:21 *1924:D 8.2899e-05
28 *157:21 *2047:GATE 0
29 *157:21 *2048:D 0.000508494
30 *157:21 *2391:A 0
31 *157:21 *158:19 0.0022832
32 *157:21 *159:21 0.000389387
33 *157:21 *160:39 0.000301479
34 *157:21 *267:14 4.38243e-05
35 *157:21 *492:12 0.000833911
36 *157:21 *492:18 0.000272072
37 *157:21 *495:20 0.00227285
38 *157:21 *579:84 0
39 *157:21 *582:12 0.000159486
40 *157:21 *626:148 0.000137356
41 *157:21 *627:118 5.7811e-07
42 *157:21 *632:16 0
43 *157:21 *641:8 0
44 *157:21 *682:14 0
45 *157:41 *1927:D 0.000219891
46 *157:41 *2273:A 0.0010929
47 *157:41 *2395:A 4.65519e-05
48 *157:41 *497:14 0.000486321
49 *157:41 *505:24 0
50 *157:41 *631:116 0.000120724
51 *157:41 *672:148 7.43121e-06
52 *157:41 *672:184 0.000387937
53 *157:41 *684:130 0.000872916
54 *157:41 *706:66 0.00059959
55 *157:57 *2025:GATE 0
56 *157:57 *158:31 0.000513257
57 *157:57 *510:34 0.00110633
58 *157:57 *586:44 0.000212099
59 *157:57 *590:14 0
60 *157:57 *602:109 0.000213907
61 *157:57 *631:112 2.01359e-05
62 *157:57 *638:18 0.00143915
63 *157:57 *654:20 2.51343e-06
64 *157:57 *658:113 0.000593595
65 *157:87 *1812:A2 0
66 *157:87 *1884:A1 0.000192512
67 *157:87 *1888:A1 9.06949e-05
68 *157:87 *1888:S0 0
69 *157:87 *2001:D 0
70 *157:87 *2039:D 0.000162804
71 *157:87 *480:50 4.88511e-06
72 *157:87 *502:75 0.000434905
73 *157:87 *513:82 0.000366165
74 *157:87 *582:54 0.000589329
75 *157:87 *587:90 0.000664676
76 *157:87 *627:104 2.83129e-05
77 *157:87 *634:158 0.000316148
78 *157:87 *635:42 2.19621e-05
79 *157:87 *635:92 0.000137561
80 *157:87 *636:54 0.000195941
81 *157:87 *636:159 1.00332e-05
82 *157:87 *643:110 0.000227335
83 *157:87 *643:116 8.1516e-05
84 *157:87 *651:247 2.63501e-05
85 *157:87 *668:69 6.76254e-05
86 *157:87 *694:76 5.33327e-05
87 *157:87 *698:44 0.000100216
88 *157:107 *1812:A2 0.000144501
89 *157:107 *1929:D 0.000141734
90 *157:107 *2059:D 5.33005e-05
91 *157:107 *585:60 0.000216755
92 *157:107 *591:48 1.98839e-05
93 *157:107 *634:158 0.00011333
94 *157:107 *636:159 6.52971e-06
95 *157:107 *643:116 2.28193e-05
96 *157:107 *643:129 0.000174614
97 *157:107 *672:100 0.00034188
98 *157:107 *674:48 0.000117463
99 *157:107 *675:38 0.000135028
100 *157:107 *698:44 0.000930296
101 *157:111 *582:94 0.000217335
102 *157:111 *602:18 4.48128e-05
103 *157:111 *602:34 0.00182714
104 *157:111 *603:74 1.44954e-05
105 *157:111 *629:54 5.33259e-05
106 *157:111 *674:20 0.00149436
107 *157:115 *602:18 0.00113969
108 *157:115 *603:74 0.00297515
109 *157:115 *625:10 0
110 A_config_C_bit2 *157:41 2.95992e-05
111 A_config_C_bit3 *157:41 0.000410671
112 C_I_top *157:21 0.000107452
113 C_T_top *157:21 1.95113e-06
114 C_config_C_bit1 *157:41 3.22964e-05
115 *2200:A *157:115 0
116 *2210:A *157:87 0.000274274
117 *2211:A *157:87 7.58688e-06
118 *2219:A *157:21 0
119 *142:99 *157:107 4.25098e-05
120 *153:55 *157:57 0.000857985
121 *153:79 *157:57 1.431e-05
122 *153:119 *157:107 5.4218e-05
123 *154:107 *157:115 0
124 *156:27 *157:21 0
*RES
1 FrameStrobe[6] *157:21 48.9018 
2 *157:21 *157:41 47.2908 
3 *157:41 *157:57 48.7225 
4 *157:57 *157:87 49.3677 
5 *157:87 *157:107 30.6696 
6 *157:107 *157:111 23.8839 
7 *157:111 *157:115 41.5089 
8 *157:115 *730:DIODE 20.925 
9 *730:DIODE *2146:A 30.0821 
*END

*D_NET *158 0.0476505
*CONN
*P FrameStrobe[7] I
*I *2147:A I *D sky130_fd_sc_hd__clkbuf_1
*I *722:DIODE I *D sky130_fd_sc_hd__diode_2
*I *723:DIODE I *D sky130_fd_sc_hd__diode_2
*CAP
1 FrameStrobe[7] 0.00598947
2 *2147:A 0
3 *722:DIODE 6.21137e-05
4 *723:DIODE 0.00155033
5 *158:97 0.000134282
6 *158:75 0.0026411
7 *158:71 0.00243953
8 *158:31 0.00244754
9 *158:19 0.00716042
10 *722:DIODE *1974:GATE 5.49544e-05
11 *722:DIODE *2378:A 1.96616e-05
12 *722:DIODE *556:22 0.000139215
13 *723:DIODE *2374:A 4.95586e-05
14 *723:DIODE *2381:A 0.000138576
15 *723:DIODE *511:10 8.85664e-07
16 *723:DIODE *556:22 0
17 *723:DIODE *556:24 0
18 *723:DIODE *627:40 0.000296946
19 *723:DIODE *674:129 1.98839e-05
20 *158:19 *159:21 0.000184839
21 *158:19 *160:39 0.00444107
22 *158:19 *495:20 0.00108827
23 *158:19 *586:22 4.23326e-05
24 *158:31 *480:70 0.000504167
25 *158:31 *510:22 0.000610781
26 *158:31 *510:34 2.86231e-05
27 *158:31 *544:48 7.69349e-05
28 *158:31 *568:58 0.000138885
29 *158:31 *586:44 0.000215014
30 *158:31 *590:14 0.000306955
31 *158:31 *591:94 0.00133607
32 *158:31 *624:58 6.51414e-05
33 *158:31 *626:70 4.81734e-05
34 *158:31 *627:104 0.00029325
35 *158:31 *633:26 0.000740042
36 *158:31 *658:113 0.00162332
37 *158:71 *510:22 0.000426665
38 *158:71 *512:20 0.000313069
39 *158:71 *544:48 0.00024764
40 *158:71 *582:94 0.000296735
41 *158:71 *591:94 0.000134769
42 *158:71 *602:70 4.46689e-05
43 *158:71 *616:38 0.000308525
44 *158:71 *626:70 0.000132233
45 *158:71 *627:68 0.000167762
46 *158:71 *628:60 0.000207175
47 *158:71 *633:26 6.05161e-06
48 *158:71 *638:74 3.10074e-05
49 *158:71 *639:30 1.21258e-05
50 *158:71 *644:115 1.7722e-05
51 *158:71 *674:80 9.44566e-05
52 *158:71 *675:38 5.0507e-05
53 *158:75 *511:10 0.00090064
54 *158:75 *568:28 0.000348176
55 *158:75 *694:76 0.000303517
56 *158:97 *1974:GATE 5.85008e-05
57 *158:97 *2375:A 6.15273e-05
58 A_I_top *158:19 0
59 D_config_C_bit0 *158:19 8.69554e-05
60 *730:DIODE *723:DIODE 1.76013e-05
61 *2186:A *158:19 0.000154648
62 *2213:A *158:31 1.24368e-05
63 *2215:A *158:71 8.66844e-05
64 *2252:A *158:71 0.000157786
65 *2263:A *158:71 3.70277e-05
66 *142:117 *158:75 0.00180588
67 *153:79 *158:31 0.00011108
68 *153:79 *158:71 9.41642e-05
69 *154:75 *158:19 0.00114547
70 *156:53 *158:75 0.00209246
71 *157:21 *158:19 0.0022832
72 *157:57 *158:31 0.000513257
*RES
1 FrameStrobe[7] *158:19 37.7788 
2 *158:19 *158:31 49.8125 
3 *158:31 *158:71 45.1363 
4 *158:71 *158:75 46.9286 
5 *158:75 *723:DIODE 40.1125 
6 *723:DIODE *158:97 19.9429 
7 *158:97 *722:DIODE 11.0857 
8 *158:97 *2147:A 9.3 
*END

*D_NET *159 0.0551456
*CONN
*P FrameStrobe[8] I
*I *2148:A I *D sky130_fd_sc_hd__clkbuf_1
*I *724:DIODE I *D sky130_fd_sc_hd__diode_2
*CAP
1 FrameStrobe[8] 0.00417668
2 *2148:A 5.17329e-05
3 *724:DIODE 0.00106258
4 *159:93 0.00444381
5 *159:77 0.00535132
6 *159:45 0.00327408
7 *159:21 0.0055324
8 *724:DIODE *726:DIODE 5.33005e-05
9 *724:DIODE *1891:A3 4.82865e-05
10 *724:DIODE *1894:S0 2.70899e-05
11 *724:DIODE *1943:GATE 0.000110363
12 *724:DIODE *1974:D 4.19577e-05
13 *724:DIODE *2103:A 0.000216755
14 *724:DIODE *160:133 0.000115803
15 *724:DIODE *519:14 0.000816512
16 *724:DIODE *615:10 0.000126446
17 *724:DIODE *618:132 0.00012321
18 *724:DIODE *627:12 0.000139208
19 *724:DIODE *669:45 0.000499731
20 *724:DIODE *694:92 0.000125593
21 *724:DIODE *694:130 2.55806e-05
22 *2148:A *628:24 7.85681e-05
23 *2148:A *630:26 1.41029e-05
24 *2148:A *674:129 0.000127439
25 *159:21 *1815:A0 2.96625e-05
26 *159:21 *1816:C 1.69233e-05
27 *159:21 *1817:A2 0.000185038
28 *159:21 *1817:C1 2.95076e-06
29 *159:21 *1819:B1 0.000142768
30 *159:21 *1845:A0 0.000131686
31 *159:21 *1850:A2 1.90936e-05
32 *159:21 *1924:D 7.13706e-06
33 *159:21 *2047:GATE 7.50601e-05
34 *159:21 *2183:A 0.000522586
35 *159:21 *160:15 0
36 *159:21 *257:14 1.53129e-05
37 *159:21 *579:84 1.18554e-05
38 *159:21 *591:136 0.000410705
39 *159:21 *613:146 0.00210359
40 *159:21 *632:16 0
41 *159:21 *648:22 0
42 *159:21 *650:49 0.00032189
43 *159:21 *650:59 0.000311283
44 *159:21 *650:76 5.81489e-05
45 *159:21 *682:10 5.10822e-05
46 *159:21 *682:12 0.00010922
47 *159:21 *682:14 2.61337e-05
48 *159:45 *1880:A2 0.000366214
49 *159:45 *1910:A1 0.000263807
50 *159:45 *1956:D 3.78956e-05
51 *159:45 *1986:D 0.000124525
52 *159:45 *1986:GATE 3.1664e-05
53 *159:45 *2070:A 0.000291653
54 *159:45 *181:17 0.000371384
55 *159:45 *181:21 2.69575e-05
56 *159:45 *259:12 0
57 *159:45 *261:12 1.99737e-05
58 *159:45 *479:46 1.75792e-05
59 *159:45 *505:24 1.40893e-05
60 *159:45 *568:88 0.000263875
61 *159:45 *591:94 2.66789e-06
62 *159:45 *591:126 2.14879e-05
63 *159:45 *594:38 0.000171767
64 *159:45 *600:72 8.69554e-05
65 *159:45 *602:160 1.67585e-05
66 *159:45 *613:138 2.63501e-05
67 *159:45 *618:30 0.0013536
68 *159:45 *628:112 0.000186981
69 *159:45 *630:84 1.47728e-05
70 *159:45 *640:34 0.000483253
71 *159:45 *643:28 6.69511e-05
72 *159:45 *643:50 1.50009e-05
73 *159:45 *705:49 0.000378373
74 *159:77 *1907:A1 0.00010887
75 *159:77 *1907:S0 0.000386924
76 *159:77 *1915:A1 1.02295e-05
77 *159:77 *2102:A 0.000584135
78 *159:77 *2326:A 1.47779e-05
79 *159:77 *181:56 0.000812166
80 *159:77 *249:34 1.42701e-05
81 *159:77 *409:34 0.000110498
82 *159:77 *517:28 1.0946e-05
83 *159:77 *520:58 1.3409e-05
84 *159:77 *569:28 0.000440724
85 *159:77 *593:74 0.000171143
86 *159:77 *630:84 0.000693956
87 *159:77 *631:106 0.000422235
88 *159:77 *632:66 0.0013869
89 *159:77 *634:54 3.23958e-05
90 *159:77 *642:106 8.96716e-05
91 *159:77 *662:177 0.000118748
92 *159:77 *701:54 0.000453261
93 *159:93 *1907:A1 4.22135e-06
94 *159:93 *1915:A1 0.000221732
95 *159:93 *2345:A 0.00142604
96 *159:93 *2348:A 0.000973083
97 *159:93 *160:127 4.34543e-05
98 *159:93 *234:58 5.58972e-05
99 *159:93 *479:106 1.36991e-05
100 *159:93 *479:130 3.47064e-05
101 *159:93 *514:72 2.63501e-05
102 *159:93 *515:40 2.63501e-05
103 *159:93 *520:58 0.000562148
104 *159:93 *528:44 5.96233e-05
105 *159:93 *531:34 0.000215275
106 *159:93 *541:40 0.000484663
107 *159:93 *550:30 0.000153136
108 *159:93 *552:28 0.00161014
109 *159:93 *567:72 0.000173798
110 *159:93 *585:60 0.000186053
111 *159:93 *586:110 0.000413991
112 *159:93 *594:102 0.000223437
113 *159:93 *618:116 8.33331e-06
114 *159:93 *637:114 2.0319e-05
115 *159:93 *645:62 0.000101611
116 *159:93 *667:87 7.14469e-05
117 *159:93 *667:138 0.000915052
118 *159:93 *673:90 1.10879e-05
119 *159:93 *698:175 0
120 *710:DIODE *159:93 0.000465876
121 *730:DIODE *724:DIODE 0.000401261
122 *743:DIODE *724:DIODE 3.30337e-05
123 *144:121 *159:93 0.000882086
124 *146:99 *159:93 8.77926e-05
125 *148:97 *159:93 0.00212264
126 *150:41 *159:77 0.000810444
127 *153:43 *159:45 6.80823e-05
128 *157:21 *159:21 0.000389387
129 *158:19 *159:21 0.000184839
*RES
1 FrameStrobe[8] *159:21 49.3094 
2 *159:21 *159:45 48.8606 
3 *159:45 *159:77 41.0513 
4 *159:77 *159:93 48.9947 
5 *159:93 *724:DIODE 49.6125 
6 *724:DIODE *2148:A 29.5464 
*END

*D_NET *160 0.066179
*CONN
*P FrameStrobe[9] I
*I *2149:A I *D sky130_fd_sc_hd__clkbuf_1
*I *725:DIODE I *D sky130_fd_sc_hd__diode_2
*CAP
1 FrameStrobe[9] 0.00174257
2 *2149:A 0.00013292
3 *725:DIODE 1.93595e-05
4 *160:133 0.000458322
5 *160:127 0.0031705
6 *160:113 0.00436097
7 *160:79 0.00622585
8 *160:39 0.00918701
9 *160:15 0.00620024
10 *725:DIODE *1901:S1 1.21258e-05
11 *725:DIODE *2100:A 6.05161e-06
12 *725:DIODE *2381:A 5.52238e-05
13 *2149:A *1901:A2 5.41794e-05
14 *2149:A *1901:S1 0.00012401
15 *2149:A *2381:A 2.87257e-05
16 *2149:A *2382:A 3.69047e-06
17 *2149:A *556:22 9.41642e-05
18 *2149:A *686:58 0.00013573
19 *160:15 *1798:A 0
20 *160:15 *1817:A1 1.09315e-05
21 *160:15 *1817:C1 1.88175e-05
22 *160:15 *1820:A 0.000153314
23 *160:15 *1821:A4 7.40571e-05
24 *160:15 *1821:B1 0.000290999
25 *160:15 *1867:A3 9.76946e-05
26 *160:15 *253:10 0.000127446
27 *160:15 *253:36 0.000211049
28 *160:15 *253:47 0.000162663
29 *160:15 *268:27 6.53397e-05
30 *160:15 *268:31 0.000140383
31 *160:15 *487:40 3.77511e-05
32 *160:15 *493:18 0
33 *160:15 *501:14 2.55319e-05
34 *160:15 *648:22 0.000408562
35 *160:15 *650:76 7.76277e-05
36 *160:39 *1845:A0 3.49099e-05
37 *160:39 *1845:A1 2.85586e-05
38 *160:39 *1846:B1 2.73991e-05
39 *160:39 *2135:A 0.000224341
40 *160:39 *257:14 4.23644e-06
41 *160:39 *479:20 0.000486199
42 *160:39 *489:10 7.53964e-05
43 *160:39 *497:14 0.000110359
44 *160:39 *503:14 0.000507591
45 *160:39 *561:30 0.000737011
46 *160:39 *582:12 7.57965e-05
47 *160:39 *582:54 0.00140366
48 *160:39 *587:12 0.000262228
49 *160:39 *626:148 0.00020813
50 *160:39 *626:150 5.33005e-05
51 *160:39 *640:18 0.000171368
52 *160:39 *652:36 9.15238e-05
53 *160:39 *652:44 0.000188379
54 *160:39 *666:32 6.40917e-05
55 *160:79 *1877:A3 6.28248e-05
56 *160:79 *2321:A 3.62927e-05
57 *160:79 *181:44 0.00125293
58 *160:79 *234:58 5.41797e-06
59 *160:79 *234:86 0
60 *160:79 *236:40 0.000158814
61 *160:79 *481:84 9.69318e-05
62 *160:79 *483:46 0.000460253
63 *160:79 *495:20 1.47871e-05
64 *160:79 *516:32 0.000261712
65 *160:79 *529:40 0.000421423
66 *160:79 *538:32 7.55747e-05
67 *160:79 *538:66 1.74618e-05
68 *160:79 *544:32 0.000723974
69 *160:79 *582:54 1.65282e-05
70 *160:79 *583:72 1.47779e-05
71 *160:79 *596:82 2.35126e-05
72 *160:79 *624:82 5.31321e-05
73 *160:79 *632:66 0.000107157
74 *160:79 *637:44 0.000338017
75 *160:79 *642:34 1.59393e-05
76 *160:79 *645:62 0.000377846
77 *160:79 *651:209 8.76591e-06
78 *160:79 *653:219 1.76785e-05
79 *160:79 *659:116 8.07616e-06
80 *160:79 *665:38 0.000420743
81 *160:79 *671:111 3.90458e-05
82 *160:79 *672:134 6.80417e-05
83 *160:79 *694:44 0.000699788
84 *160:79 *697:46 0.000854933
85 *160:79 *704:44 0.000521531
86 *160:79 *707:93 0.000104976
87 *160:113 *740:DIODE 6.41086e-06
88 *160:113 *1811:A0 8.66083e-05
89 *160:113 *1811:S1 0.000315696
90 *160:113 *1935:GATE 1.24368e-05
91 *160:113 *1946:D 4.5115e-05
92 *160:113 *2115:A 6.57032e-05
93 *160:113 *2317:A 2.04825e-05
94 *160:113 *2320:A 0.000188856
95 *160:113 *2328:A 2.23592e-05
96 *160:113 *236:40 0.000245235
97 *160:113 *479:130 5.19588e-05
98 *160:113 *539:40 1.90936e-05
99 *160:113 *544:68 0.000118057
100 *160:113 *545:72 3.86574e-05
101 *160:113 *548:22 0.000215575
102 *160:113 *552:28 0.000178649
103 *160:113 *562:30 3.77445e-05
104 *160:113 *567:72 0.00061065
105 *160:113 *569:82 0.000317558
106 *160:113 *599:18 8.27238e-06
107 *160:113 *650:248 0.000249685
108 *160:113 *686:52 5.11566e-05
109 *160:127 *1885:A2 2.03917e-05
110 *160:127 *1885:S0 1.90936e-05
111 *160:127 *1998:D 0.000273324
112 *160:127 *233:62 0.000780956
113 *160:127 *479:130 5.4695e-05
114 *160:127 *479:159 0.00126656
115 *160:127 *479:161 0.000476506
116 *160:127 *515:40 0.000223468
117 *160:127 *522:58 0.00033205
118 *160:127 *539:18 7.48679e-06
119 *160:127 *542:20 0.000727596
120 *160:127 *568:188 0.000360229
121 *160:127 *573:28 0.000672655
122 *160:127 *586:110 0.00058385
123 *160:127 *590:170 0.000806394
124 *160:127 *613:40 0.000846519
125 *160:127 *631:65 0.000829186
126 *160:127 *632:152 0.000669055
127 *160:127 *645:62 2.00756e-05
128 *160:127 *673:48 3.57523e-05
129 *160:127 *673:90 2.5737e-05
130 *160:127 *708:84 3.79552e-05
131 *160:133 *1894:S0 0.000394344
132 *160:133 *1974:D 1.19011e-05
133 *160:133 *2381:A 1.19191e-05
134 *160:133 *573:28 1.04894e-05
135 *160:133 *618:132 9.39336e-05
136 *160:133 *686:58 1.90936e-05
137 *160:133 *696:30 0
138 D_I_top *160:39 0.00013915
139 D_config_C_bit2 *160:79 1.1397e-05
140 D_config_C_bit3 *160:79 0.000457555
141 E6BEG[3] *160:113 0.000329111
142 EE4BEG[11] *160:113 1.91948e-05
143 EE4BEG[12] *160:113 1.39148e-05
144 EE4BEG[13] *160:113 0.000175892
145 EE4BEG[15] *160:113 2.04825e-05
146 EE4BEG[4] *160:79 3.17627e-05
147 EE4BEG[6] *160:79 0.000269385
148 EE4BEG[7] *160:113 5.20751e-05
149 EE4BEG[8] *160:79 0.000232229
150 EE4BEG[8] *160:113 5.58875e-06
151 *724:DIODE *160:133 0.000115803
152 *2219:A *160:39 8.33667e-06
153 *142:23 *160:15 0
154 *142:53 *160:79 6.84754e-05
155 *143:7 *160:15 0
156 *144:91 *160:79 6.09762e-05
157 *150:41 *160:79 2.96195e-05
158 *154:75 *160:39 3.98499e-05
159 *154:75 *160:79 0.000847896
160 *157:21 *160:39 0.000301479
161 *158:19 *160:39 0.00444107
162 *159:21 *160:15 0
163 *159:93 *160:127 4.34543e-05
*RES
1 FrameStrobe[9] *160:15 45.1607 
2 *160:15 *160:39 49.0856 
3 *160:39 *160:79 47.9309 
4 *160:79 *160:113 47.9638 
5 *160:113 *160:127 49.9646 
6 *160:127 *160:133 9.30617 
7 *160:133 *725:DIODE 14.3357 
8 *160:133 *2149:A 17.3 
*END

*D_NET *161 0.00250802
*CONN
*P FrameStrobe_O[0] O
*I *2363:X O *D sky130_fd_sc_hd__buf_2
*CAP
1 FrameStrobe_O[0] 0.000768169
2 *2363:X 0.000768169
3 FrameStrobe_O[0] FrameStrobe_O[1] 0.000144773
4 FrameStrobe_O[0] FrameStrobe_O[2] 0.000100684
5 FrameStrobe_O[0] UserCLKo 0.00022916
6 FrameStrobe_O[0] *2363:A 2.07878e-05
7 FrameStrobe_O[0] *2374:A 0.000230482
8 FrameStrobe_O[0] *2375:A 0.000134192
9 FrameStrobe_O[0] *2376:A 1.42165e-05
10 FrameStrobe_O[0] *2380:A 3.6337e-05
11 FrameStrobe_O[0] *2383:A 6.10465e-05
12 *2207:A FrameStrobe_O[0] 0
*RES
1 *2363:X FrameStrobe_O[0] 41.0679 
*END

*D_NET *162 0.00106998
*CONN
*P FrameStrobe_O[10] O
*I *2364:X O *D sky130_fd_sc_hd__buf_2
*CAP
1 FrameStrobe_O[10] 0.000534991
2 *2364:X 0.000534991
3 FrameStrobe_O[10] FrameStrobe_O[11] 0
4 FrameStrobe_O[10] FrameStrobe_O[9] 0
*RES
1 *2364:X FrameStrobe_O[10] 23.6393 
*END

*D_NET *163 0.00109283
*CONN
*P FrameStrobe_O[11] O
*I *2365:X O *D sky130_fd_sc_hd__buf_2
*CAP
1 FrameStrobe_O[11] 0.000518265
2 *2365:X 0.000518265
3 FrameStrobe_O[11] FrameStrobe_O[12] 0
4 FrameStrobe_O[11] *2364:A 5.62995e-05
5 FrameStrobe_O[10] FrameStrobe_O[11] 0
*RES
1 *2365:X FrameStrobe_O[11] 23.6393 
*END

*D_NET *164 0.00109283
*CONN
*P FrameStrobe_O[12] O
*I *2366:X O *D sky130_fd_sc_hd__buf_2
*CAP
1 FrameStrobe_O[12] 0.000518265
2 *2366:X 0.000518265
3 FrameStrobe_O[12] FrameStrobe_O[13] 0
4 FrameStrobe_O[12] *2364:A 5.62995e-05
5 FrameStrobe_O[11] FrameStrobe_O[12] 0
*RES
1 *2366:X FrameStrobe_O[12] 23.6393 
*END

*D_NET *165 0.00213619
*CONN
*P FrameStrobe_O[13] O
*I *2367:X O *D sky130_fd_sc_hd__buf_2
*CAP
1 FrameStrobe_O[13] 0.000827665
2 *2367:X 0.000827665
3 FrameStrobe_O[13] FrameStrobe_O[14] 0.000358702
4 FrameStrobe_O[13] *2364:A 0.000122159
5 FrameStrobe_O[12] FrameStrobe_O[13] 0
*RES
1 *2367:X FrameStrobe_O[13] 28.1571 
*END

*D_NET *166 0.00190227
*CONN
*P FrameStrobe_O[14] O
*I *2368:X O *D sky130_fd_sc_hd__buf_2
*CAP
1 FrameStrobe_O[14] 0.000633883
2 *2368:X 0.000633883
3 FrameStrobe_O[14] FrameStrobe_O[15] 0
4 FrameStrobe_O[14] *2364:A 0.00014285
5 FrameStrobe_O[14] *2367:A 6.71854e-05
6 FrameStrobe_O[14] *2368:A 6.57682e-05
7 FrameStrobe_O[13] FrameStrobe_O[14] 0.000358702
*RES
1 *2368:X FrameStrobe_O[14] 28.05 
*END

*D_NET *167 0.00278721
*CONN
*P FrameStrobe_O[15] O
*I *2369:X O *D sky130_fd_sc_hd__buf_2
*CAP
1 FrameStrobe_O[15] 0.000949579
2 *2369:X 0.000949579
3 FrameStrobe_O[15] FrameStrobe_O[16] 0
4 FrameStrobe_O[15] *2364:A 3.34687e-05
5 FrameStrobe_O[15] *2365:A 0.000276211
6 FrameStrobe_O[15] *2369:A 0.000204671
7 FrameStrobe_O[15] *2371:A 2.44318e-05
8 FrameStrobe_O[14] FrameStrobe_O[15] 0
9 *714:DIODE FrameStrobe_O[15] 0.000103267
10 *2151:A FrameStrobe_O[15] 5.33005e-05
11 *2157:A FrameStrobe_O[15] 5.33005e-05
12 *148:111 FrameStrobe_O[15] 0.000139404
*RES
1 *2369:X FrameStrobe_O[15] 33.3714 
*END

*D_NET *168 0.00248703
*CONN
*P FrameStrobe_O[16] O
*I *2370:X O *D sky130_fd_sc_hd__buf_2
*CAP
1 FrameStrobe_O[16] 0.000912231
2 *2370:X 0.000912231
3 FrameStrobe_O[16] FrameStrobe_O[17] 0.000510599
4 FrameStrobe_O[16] FrameStrobe_O[18] 0
5 FrameStrobe_O[16] *2370:A 0
6 FrameStrobe_O[16] *2372:A 0
7 FrameStrobe_O[15] FrameStrobe_O[16] 0
8 *2155:A FrameStrobe_O[16] 0.000151972
*RES
1 *2370:X FrameStrobe_O[16] 34.4964 
*END

*D_NET *169 0.00149698
*CONN
*P FrameStrobe_O[17] O
*I *2371:X O *D sky130_fd_sc_hd__buf_2
*CAP
1 FrameStrobe_O[17] 0.00047954
2 *2371:X 0.00047954
3 FrameStrobe_O[17] FrameStrobe_O[18] 2.72967e-05
4 FrameStrobe_O[16] FrameStrobe_O[17] 0.000510599
*RES
1 *2371:X FrameStrobe_O[17] 26.0679 
*END

*D_NET *170 0.00193686
*CONN
*P FrameStrobe_O[18] O
*I *2372:X O *D sky130_fd_sc_hd__buf_2
*CAP
1 FrameStrobe_O[18] 0.000887213
2 *2372:X 0.000887213
3 FrameStrobe_O[18] FrameStrobe_O[19] 3.51552e-05
4 FrameStrobe_O[18] *2371:A 9.99853e-05
5 FrameStrobe_O[16] FrameStrobe_O[18] 0
6 FrameStrobe_O[17] FrameStrobe_O[18] 2.72967e-05
*RES
1 *2372:X FrameStrobe_O[18] 30.9786 
*END

*D_NET *171 0.00203848
*CONN
*P FrameStrobe_O[19] O
*I *2373:X O *D sky130_fd_sc_hd__buf_2
*CAP
1 FrameStrobe_O[19] 0.000970375
2 *2373:X 0.000970375
3 FrameStrobe_O[19] *564:8 6.25789e-05
4 FrameStrobe_O[18] FrameStrobe_O[19] 3.51552e-05
*RES
1 *2373:X FrameStrobe_O[19] 32.6036 
*END

*D_NET *172 0.0012605
*CONN
*P FrameStrobe_O[1] O
*I *2374:X O *D sky130_fd_sc_hd__buf_2
*CAP
1 FrameStrobe_O[1] 0.000486436
2 *2374:X 0.000486436
3 FrameStrobe_O[1] FrameStrobe_O[2] 0
4 FrameStrobe_O[1] UserCLKo 0.000142856
5 FrameStrobe_O[0] FrameStrobe_O[1] 0.000144773
*RES
1 *2374:X FrameStrobe_O[1] 24.3536 
*END

*D_NET *173 0.00118094
*CONN
*P FrameStrobe_O[2] O
*I *2375:X O *D sky130_fd_sc_hd__buf_2
*CAP
1 FrameStrobe_O[2] 0.000490745
2 *2375:X 0.000490745
3 FrameStrobe_O[2] FrameStrobe_O[3] 0
4 FrameStrobe_O[2] UserCLKo 9.87672e-05
5 FrameStrobe_O[0] FrameStrobe_O[2] 0.000100684
6 FrameStrobe_O[1] FrameStrobe_O[2] 0
*RES
1 *2375:X FrameStrobe_O[2] 23.9429 
*END

*D_NET *174 0.00122507
*CONN
*P FrameStrobe_O[3] O
*I *2376:X O *D sky130_fd_sc_hd__buf_2
*CAP
1 FrameStrobe_O[3] 0.000404842
2 *2376:X 0.000404842
3 FrameStrobe_O[3] FrameStrobe_O[4] 0.000415386
4 FrameStrobe_O[2] FrameStrobe_O[3] 0
*RES
1 *2376:X FrameStrobe_O[3] 25.0857 
*END

*D_NET *175 0.00116962
*CONN
*P FrameStrobe_O[4] O
*I *2377:X O *D sky130_fd_sc_hd__buf_2
*CAP
1 FrameStrobe_O[4] 0.00033813
2 *2377:X 0.00033813
3 FrameStrobe_O[4] FrameStrobe_O[5] 0
4 FrameStrobe_O[4] UserCLKo 5.52302e-05
5 FrameStrobe_O[4] *2383:A 2.27416e-05
6 FrameStrobe_O[3] FrameStrobe_O[4] 0.000415386
*RES
1 *2377:X FrameStrobe_O[4] 23.5321 
*END

*D_NET *176 0.0010906
*CONN
*P FrameStrobe_O[5] O
*I *2378:X O *D sky130_fd_sc_hd__buf_2
*CAP
1 FrameStrobe_O[5] 0.000489527
2 *2378:X 0.000489527
3 FrameStrobe_O[5] UserCLKo 5.49544e-05
4 FrameStrobe_O[5] *618:132 5.65955e-05
5 FrameStrobe_O[4] FrameStrobe_O[5] 0
*RES
1 *2378:X FrameStrobe_O[5] 23.5321 
*END

*D_NET *177 0.00095493
*CONN
*P FrameStrobe_O[6] O
*I *2379:X O *D sky130_fd_sc_hd__buf_2
*CAP
1 FrameStrobe_O[6] 0.000477465
2 *2379:X 0.000477465
3 FrameStrobe_O[6] FrameStrobe_O[7] 0
*RES
1 *2379:X FrameStrobe_O[6] 22.9964 
*END

*D_NET *178 0.00117731
*CONN
*P FrameStrobe_O[7] O
*I *2380:X O *D sky130_fd_sc_hd__buf_2
*CAP
1 FrameStrobe_O[7] 0.000549774
2 *2380:X 0.000549774
3 FrameStrobe_O[7] FrameStrobe_O[8] 0
4 FrameStrobe_O[7] *618:132 7.77652e-05
5 FrameStrobe_O[6] FrameStrobe_O[7] 0
*RES
1 *2380:X FrameStrobe_O[7] 24.05 
*END

*D_NET *179 0.00114586
*CONN
*P FrameStrobe_O[8] O
*I *2381:X O *D sky130_fd_sc_hd__buf_2
*CAP
1 FrameStrobe_O[8] 0.00056156
2 *2381:X 0.00056156
3 FrameStrobe_O[8] FrameStrobe_O[9] 0
4 FrameStrobe_O[8] *2381:A 2.27416e-05
5 FrameStrobe_O[7] FrameStrobe_O[8] 0
*RES
1 *2381:X FrameStrobe_O[8] 24.05 
*END

*D_NET *180 0.00114981
*CONN
*P FrameStrobe_O[9] O
*I *2382:X O *D sky130_fd_sc_hd__buf_2
*CAP
1 FrameStrobe_O[9] 0.000574904
2 *2382:X 0.000574904
3 FrameStrobe_O[10] FrameStrobe_O[9] 0
4 FrameStrobe_O[8] FrameStrobe_O[9] 0
*RES
1 *2382:X FrameStrobe_O[9] 24.05 
*END

*D_NET *181 0.0451292
*CONN
*P UserCLK I
*I *2161:A I *D sky130_fd_sc_hd__clkbuf_16
*I *2166:A I *D sky130_fd_sc_hd__clkbuf_16
*CAP
1 UserCLK 0.00562228
2 *2161:A 0.00115572
3 *2166:A 0
4 *181:56 0.00170156
5 *181:44 0.00230771
6 *181:21 0.00214928
7 *181:17 0.00600968
8 *2161:A *1877:S0 0.000143955
9 *2161:A *1896:S1 3.25078e-05
10 *2161:A *597:46 4.51213e-05
11 *181:17 *1815:A0 6.19515e-05
12 *181:17 *1819:A2 0
13 *181:17 *1821:A2 0.000134843
14 *181:17 *1821:B1 1.0446e-05
15 *181:17 *1862:B1 0.000186035
16 *181:17 *1904:A0 0
17 *181:17 *1917:D 0
18 *181:17 *2045:D 0
19 *181:17 *267:14 2.02162e-05
20 *181:17 *268:27 0.00046882
21 *181:17 *479:20 0.000703152
22 *181:17 *600:36 0.000195802
23 *181:17 *600:72 0.00199442
24 *181:17 *602:160 1.55812e-05
25 *181:17 *634:78 0.00111352
26 *181:17 *664:51 4.43583e-05
27 *181:17 *706:24 0.000327604
28 *181:21 *1904:S1 0.000245377
29 *181:21 *1912:A3 0.000266473
30 *181:21 *1912:S1 0
31 *181:21 *486:18 1.10856e-05
32 *181:21 *486:35 0
33 *181:21 *568:88 1.16258e-05
34 *181:21 *613:138 0.000132156
35 *181:21 *618:30 0
36 *181:21 *626:122 1.03483e-05
37 *181:21 *628:90 0.000284293
38 *181:21 *689:74 0.000150257
39 *181:44 *1875:A2 0.000270173
40 *181:44 *1875:A3 0.00022906
41 *181:44 *1880:S1 7.40526e-05
42 *181:44 *1904:S1 0.000106283
43 *181:44 *236:124 1.90936e-05
44 *181:44 *486:74 0.000373378
45 *181:44 *533:52 1.27529e-05
46 *181:44 *569:62 6.28203e-05
47 *181:44 *593:44 9.90819e-06
48 *181:44 *613:138 0.000248215
49 *181:44 *618:50 0.0011759
50 *181:44 *626:100 3.59246e-05
51 *181:44 *626:102 5.25286e-05
52 *181:44 *626:122 0.000232134
53 *181:44 *637:44 0.00125408
54 *181:44 *643:50 0.000151978
55 *181:44 *643:79 0.000103885
56 *181:44 *667:54 7.55804e-05
57 *181:44 *684:114 0.000527335
58 *181:44 *708:28 6.44917e-05
59 *181:56 *1877:S1 0.000120267
60 *181:56 *2082:A 7.57673e-05
61 *181:56 *2102:A 2.21972e-05
62 *181:56 *2326:A 0.000143017
63 *181:56 *593:74 0.000181673
64 *181:56 *596:82 4.50321e-06
65 *181:56 *597:46 0
66 *181:56 *675:174 7.04618e-05
67 *181:56 *701:54 0.000123605
68 *181:56 *708:28 2.23764e-05
69 B_I_top *181:17 0.000314949
70 B_T_top *181:17 0.00014321
71 *2197:A *181:17 0
72 *2216:A *181:17 0
73 *142:23 *181:17 3.88415e-05
74 *143:59 *181:44 0.000255617
75 *143:59 *181:56 0.00119433
76 *144:27 *181:17 0.00172645
77 *145:75 *2161:A 0.00168347
78 *146:33 *181:17 0.000236697
79 *149:27 *181:17 1.30275e-05
80 *150:41 *181:56 8.11036e-05
81 *150:57 *2161:A 0.00206604
82 *150:57 *181:56 6.06029e-05
83 *152:13 *181:17 0
84 *153:21 *181:17 0.00269687
85 *153:43 *181:17 0.000754969
86 *159:45 *181:17 0.000371384
87 *159:45 *181:21 2.69575e-05
88 *159:77 *181:56 0.000812166
89 *160:79 *181:44 0.00125293
*RES
1 UserCLK *181:17 49.6604 
2 *181:17 *181:21 14.0082 
3 *181:21 *2166:A 13.8 
4 *181:21 *181:44 40.9397 
5 *181:44 *181:56 27.8214 
6 *181:56 *2161:A 44.9786 
*END

*D_NET *182 0.00386743
*CONN
*P UserCLKo O
*I *2383:X O *D sky130_fd_sc_hd__buf_1
*CAP
1 UserCLKo 0.0014963
2 *2383:X 0.0014963
3 UserCLKo *2376:A 3.42426e-05
4 UserCLKo *2383:A 4.3335e-05
5 UserCLKo *618:132 0.000216284
6 FrameStrobe_O[0] UserCLKo 0.00022916
7 FrameStrobe_O[1] UserCLKo 0.000142856
8 FrameStrobe_O[2] UserCLKo 9.87672e-05
9 FrameStrobe_O[4] UserCLKo 5.52302e-05
10 FrameStrobe_O[5] UserCLKo 5.49544e-05
*RES
1 *2383:X UserCLKo 38.425 
*END

*D_NET *185 0.00173686
*CONN
*P W1END[0] I
*I *2218:A I *D sky130_fd_sc_hd__clkbuf_2
*CAP
1 W1END[0] 0.000618703
2 *2218:A 0.000618703
3 *2218:A *2220:A 5.52734e-05
4 *2218:A *494:16 0.000444184
*RES
1 W1END[0] *2218:A 28.6792 
*END

*D_NET *186 0.00378413
*CONN
*P W1END[1] I
*I *2220:A I *D sky130_fd_sc_hd__clkbuf_2
*CAP
1 W1END[1] 0.0012835
2 *2220:A 0.0012835
3 *2220:A *1806:A 4.98496e-06
4 *2220:A *1843:A1 3.72563e-05
5 *2220:A *1855:A1 3.42509e-05
6 *2220:A *1855:A2 1.14548e-05
7 *2220:A *1855:A3 8.2769e-05
8 *2220:A *1855:S1 5.60201e-05
9 *2220:A *1857:A0 1.13963e-05
10 *2220:A *1874:B1 0.000139244
11 *2220:A *2221:A 5.50374e-05
12 *2220:A *2233:A 5.83233e-05
13 *2220:A *635:42 0.000631179
14 *2220:A *657:18 1.07719e-05
15 *2218:A *2220:A 5.52734e-05
16 *149:9 *2220:A 2.91659e-05
*RES
1 W1END[1] *2220:A 30.9917 
*END

*D_NET *187 0.00410872
*CONN
*P W1END[2] I
*I *2221:A I *D sky130_fd_sc_hd__clkbuf_2
*CAP
1 W1END[2] 0.00126511
2 *2221:A 0.00126511
3 *2221:A *1806:A 0.000160156
4 *2221:A *1848:A0 0.000119299
5 *2221:A *1871:S1 3.6692e-06
6 *2221:A *1872:A2 1.84689e-05
7 *2221:A *1872:A3 5.21937e-05
8 *2221:A *1872:S1 3.17684e-05
9 *2221:A *2222:A 0.000332602
10 *2221:A *2233:A 0.000162208
11 *2221:A *635:42 0.000534901
12 *2221:A *660:163 2.55806e-05
13 *2221:A *661:12 6.86041e-05
14 *2221:A *664:41 1.40034e-05
15 *2220:A *2221:A 5.50374e-05
*RES
1 W1END[2] *2221:A 33.7761 
*END

*D_NET *188 0.00329542
*CONN
*P W1END[3] I
*I *2222:A I *D sky130_fd_sc_hd__clkbuf_2
*CAP
1 W1END[3] 0.000888185
2 *2222:A 0.000888185
3 *2222:A *1855:S1 0.000185149
4 *2222:A *1868:A 0.00020099
5 *2222:A *1871:S1 3.37068e-05
6 *2222:A *2232:A 9.8285e-05
7 *2222:A *2233:A 0.000111994
8 *2222:A *247:32 0.000271789
9 *2222:A *248:35 5.58197e-05
10 *2222:A *635:42 8.92006e-05
11 *2222:A *661:37 0.000108771
12 *2221:A *2222:A 0.000332602
13 *149:27 *2222:A 3.07449e-05
*RES
1 W1END[3] *2222:A 23.0006 
*END

*D_NET *189 0.00169472
*CONN
*P W2END[0] I
*I *2223:A I *D sky130_fd_sc_hd__buf_2
*CAP
1 W2END[0] 0.000369956
2 *2223:A 0.000369956
3 *2223:A *2224:A 0.000341309
4 *2223:A *2225:A 0.000181327
5 *2223:A *2239:A 0.000341886
6 *2223:A *265:14 9.02903e-05
*RES
1 W2END[0] *2223:A 20.7053 
*END

*D_NET *190 0.00407437
*CONN
*P W2END[1] I
*I *2224:A I *D sky130_fd_sc_hd__clkbuf_2
*CAP
1 W2END[1] 0.00122156
2 *2224:A 0.00122156
3 *2224:A *2225:A 0.000361267
4 *2224:A *2239:A 1.49027e-05
5 *2224:A *560:28 0.000476553
6 *2224:A *647:16 5.68365e-05
7 *2224:A *658:27 0.000344832
8 *2224:A *660:16 2.26973e-05
9 *2223:A *2224:A 0.000341309
10 *143:9 *2224:A 1.28585e-05
*RES
1 W2END[1] *2224:A 20.8081 
*END

*D_NET *191 0.00197252
*CONN
*P W2END[2] I
*I *2225:A I *D sky130_fd_sc_hd__clkbuf_2
*CAP
1 W2END[2] 0.000416152
2 *2225:A 0.000416152
3 *2225:A *2226:A 0.00026094
4 *2225:A *265:14 1.59765e-05
5 *2225:A *560:28 0.000183754
6 *2225:A *647:16 0.000136949
7 *2225:A *661:81 0
8 *2223:A *2225:A 0.000181327
9 *2224:A *2225:A 0.000361267
*RES
1 W2END[2] *2225:A 21.3845 
*END

*D_NET *192 0.00264648
*CONN
*P W2END[3] I
*I *2226:A I *D sky130_fd_sc_hd__buf_2
*CAP
1 W2END[3] 0.000667923
2 *2226:A 0.000667923
3 *2226:A *2227:A 4.04602e-05
4 *2226:A *265:14 0.000103785
5 *2226:A *560:28 0.000139223
6 *2226:A *634:78 4.1879e-05
7 *2226:A *647:123 4.60232e-06
8 *2226:A *650:12 5.04841e-06
9 *2226:A *681:67 9.83388e-05
10 *2226:A *681:80 3.37376e-05
11 *2225:A *2226:A 0.00026094
12 *142:23 *2226:A 0.000582615
*RES
1 W2END[3] *2226:A 25.1875 
*END

*D_NET *193 0.003596
*CONN
*P W2END[4] I
*I *2227:A I *D sky130_fd_sc_hd__buf_2
*CAP
1 W2END[4] 0.000760732
2 *2227:A 0.000760732
3 *2227:A *2030:D 0
4 *2227:A *2228:A 0.000474537
5 *2227:A *2229:A 0.000354941
6 *2227:A *2231:A 4.22135e-06
7 *2227:A *567:40 3.20942e-05
8 *2227:A *634:78 0.000191822
9 *2227:A *651:137 5.04841e-06
10 *2227:A *652:16 9.58126e-05
11 *2227:A *653:12 5.65955e-05
12 *2227:A *655:8 5.0198e-05
13 *2226:A *2227:A 4.04602e-05
14 *142:23 *2227:A 0.000674644
15 *147:39 *2227:A 9.41642e-05
*RES
1 W2END[4] *2227:A 28.278 
*END

*D_NET *194 0.00294022
*CONN
*P W2END[5] I
*I *2228:A I *D sky130_fd_sc_hd__buf_2
*CAP
1 W2END[5] 0.000758863
2 *2228:A 0.000758863
3 *2228:A *2030:D 7.47077e-05
4 *2228:A *2229:A 0.000238029
5 *2228:A *567:40 0.000247807
6 *2228:A *634:78 2.04825e-05
7 *2228:A *647:123 4.19624e-06
8 *2228:A *650:139 3.55018e-05
9 *2228:A *655:6 6.84479e-05
10 *2228:A *655:8 0.000258787
11 *2227:A *2228:A 0.000474537
*RES
1 W2END[5] *2228:A 34.616 
*END

*D_NET *195 0.00235452
*CONN
*P W2END[6] I
*I *2229:A I *D sky130_fd_sc_hd__buf_2
*CAP
1 W2END[6] 0.000488304
2 *2229:A 0.000488304
3 *2229:A *2231:A 0.000289109
4 *2229:A *567:40 0.000158823
5 *2229:A *647:123 1.13794e-05
6 *2229:A *655:6 0.000141734
7 *2229:A *655:8 0.0001839
8 *2227:A *2229:A 0.000354941
9 *2228:A *2229:A 0.000238029
*RES
1 W2END[6] *2229:A 23.4898 
*END

*D_NET *196 0.00172407
*CONN
*P W2END[7] I
*I *2231:A I *D sky130_fd_sc_hd__dlymetal6s2s_1
*CAP
1 W2END[7] 0.00044372
2 *2231:A 0.00044372
3 *2231:A *2254:A 0.000211957
4 *2231:A *567:40 1.44378e-05
5 *2231:A *634:78 4.19535e-05
6 *2231:A *647:123 6.88458e-06
7 *2231:A *665:83 4.73953e-05
8 *2227:A *2231:A 4.22135e-06
9 *2229:A *2231:A 0.000289109
10 *146:67 *2231:A 0.000220677
*RES
1 W2END[7] *2231:A 20.0982 
*END

*D_NET *197 0.00347814
*CONN
*P W2MID[0] I
*I *2232:A I *D sky130_fd_sc_hd__buf_1
*CAP
1 W2MID[0] 0.00106449
2 *2232:A 0.00106449
3 *2232:A *1868:A 0.000270056
4 *2232:A *1874:B1 5.33005e-05
5 *2232:A *2233:A 9.43784e-05
6 *2232:A *2234:A 1.39726e-05
7 *2232:A *2235:A 0.000138587
8 *2232:A *265:18 0.000385713
9 *2232:A *494:16 0.000139993
10 *2232:A *656:10 3.466e-06
11 *2232:A *659:12 9.35794e-06
12 *2222:A *2232:A 9.8285e-05
13 *151:9 *2232:A 0.000142045
*RES
1 W2MID[0] *2232:A 34.9483 
*END

*D_NET *198 0.00200816
*CONN
*P W2MID[1] I
*I *2233:A I *D sky130_fd_sc_hd__buf_1
*CAP
1 W2MID[1] 0.00039827
2 *2233:A 0.00039827
3 *2233:A *1806:A 7.41213e-05
4 *2233:A *1874:B1 3.77845e-05
5 *2233:A *2234:A 0.000174394
6 *2233:A *2237:A 0.00016428
7 *2220:A *2233:A 5.83233e-05
8 *2221:A *2233:A 0.000162208
9 *2222:A *2233:A 0.000111994
10 *2232:A *2233:A 9.43784e-05
11 *149:27 *2233:A 0.000334137
*RES
1 W2MID[1] *2233:A 22.2232 
*END

*D_NET *199 0.00233922
*CONN
*P W2MID[2] I
*I *2234:A I *D sky130_fd_sc_hd__clkbuf_2
*CAP
1 W2MID[2] 0.000470353
2 *2234:A 0.000470353
3 *2234:A *2235:A 0.000707735
4 *2234:A *265:14 2.09826e-05
5 *2234:A *265:18 6.57914e-05
6 *2234:A *266:10 1.94879e-05
7 *2234:A *658:10 5.49544e-05
8 *2234:A *661:81 9.58181e-05
9 *2232:A *2234:A 1.39726e-05
10 *2233:A *2234:A 0.000174394
11 *149:27 *2234:A 0.000245378
*RES
1 W2MID[2] *2234:A 23.9005 
*END

*D_NET *200 0.00337642
*CONN
*P W2MID[3] I
*I *2235:A I *D sky130_fd_sc_hd__clkbuf_2
*CAP
1 W2MID[3] 0.00055627
2 *2235:A 0.00055627
3 *2235:A *1868:A 9.41642e-05
4 *2235:A *1873:A0 1.87336e-05
5 *2235:A *2236:A 0.000143857
6 *2235:A *2237:A 0.000111348
7 *2235:A *265:18 0.000267128
8 *2235:A *646:24 0.000590989
9 *2235:A *658:10 2.6269e-05
10 *2235:A *659:12 9.74665e-05
11 *2232:A *2235:A 0.000138587
12 *2234:A *2235:A 0.000707735
13 *149:27 *2235:A 6.76034e-05
*RES
1 W2MID[3] *2235:A 27.5995 
*END

*D_NET *201 0.00324978
*CONN
*P W2MID[4] I
*I *2236:A I *D sky130_fd_sc_hd__clkbuf_2
*CAP
1 W2MID[4] 0.000752372
2 *2236:A 0.000752372
3 *2236:A *1871:S0 4.98104e-05
4 *2236:A *2237:A 0.000377283
5 *2236:A *248:35 8.90826e-05
6 *2236:A *645:14 0.000283235
7 *2236:A *646:24 0.000758574
8 *2235:A *2236:A 0.000143857
9 *147:39 *2236:A 4.32004e-05
*RES
1 W2MID[4] *2236:A 20.735 
*END

*D_NET *202 0.00271101
*CONN
*P W2MID[5] I
*I *2237:A I *D sky130_fd_sc_hd__clkbuf_2
*CAP
1 W2MID[5] 0.000511412
2 *2237:A 0.000511412
3 *2237:A *1806:A 1.14166e-05
4 *2237:A *1873:A1 0
5 *2237:A *1874:B1 0.000175512
6 *2237:A *2238:A 0.000264555
7 *2237:A *265:14 0.00011146
8 *2237:A *645:14 0.000472334
9 *2237:A *661:81 0
10 *2233:A *2237:A 0.00016428
11 *2235:A *2237:A 0.000111348
12 *2236:A *2237:A 0.000377283
*RES
1 W2MID[5] *2237:A 25.331 
*END

*D_NET *203 0.00223518
*CONN
*P W2MID[6] I
*I *2238:A I *D sky130_fd_sc_hd__buf_2
*CAP
1 W2MID[6] 0.000381493
2 *2238:A 0.000381493
3 *2238:A *2239:A 8.0531e-05
4 *2238:A *265:14 0
5 *2238:A *596:28 0.000607027
6 *2238:A *645:14 0.000520085
7 *2238:A *661:81 0
8 *2237:A *2238:A 0.000264555
*RES
1 W2MID[6] *2238:A 21.4566 
*END

*D_NET *204 0.00335325
*CONN
*P W2MID[7] I
*I *2239:A I *D sky130_fd_sc_hd__clkbuf_1
*CAP
1 W2MID[7] 0.000761582
2 *2239:A 0.000761582
3 *2239:A *248:35 6.09762e-05
4 *2239:A *596:28 0.00106949
5 *2239:A *647:16 0.000157627
6 *2239:A *658:27 3.3297e-05
7 *2239:A *681:59 4.38942e-05
8 *2223:A *2239:A 0.000341886
9 *2224:A *2239:A 1.49027e-05
10 *2238:A *2239:A 8.0531e-05
11 *147:39 *2239:A 2.74858e-05
*RES
1 W2MID[7] *2239:A 22.2136 
*END

*D_NET *205 0.00341403
*CONN
*P W6END[0] I
*I *2240:A I *D sky130_fd_sc_hd__buf_1
*CAP
1 W6END[0] 0.00105858
2 *2240:A 0.00105858
3 *2240:A *2244:A 0.000411836
4 *2240:A *2260:A 0.000280286
5 *2240:A *525:40 0.000224321
6 *2240:A *596:40 5.13815e-05
7 *2240:A *647:185 0.000226373
8 *2240:A *689:24 0.000102676
*RES
1 W6END[0] *2240:A 27.9196 
*END

*D_NET *206 0.00202951
*CONN
*P W6END[10] I
*I *2242:A I *D sky130_fd_sc_hd__dlymetal6s2s_1
*CAP
1 W6END[10] 0.000495727
2 *2242:A 0.000495727
3 *2242:A *2243:A 0.000106754
4 *2242:A *2251:A 3.48129e-05
5 *2242:A *2253:A 0.000185059
6 *2242:A *635:42 0.000531394
7 *2242:A *698:121 2.38941e-05
8 E2BEG[0] *2242:A 0.00015614
*RES
1 W6END[10] *2242:A 20.4017 
*END

*D_NET *207 0.00461244
*CONN
*P W6END[11] I
*I *2243:A I *D sky130_fd_sc_hd__buf_1
*CAP
1 W6END[11] 0.000919342
2 *2243:A 0.000919342
3 *2243:A *709:DIODE 3.21403e-05
4 *2243:A *2071:A 2.59355e-05
5 *2243:A *2079:A 0.000175892
6 *2243:A *2285:A 0.000114568
7 *2243:A *2286:A 9.58181e-05
8 *2243:A *2293:A 0.000296145
9 *2243:A *2294:A 3.88748e-05
10 *2243:A *514:94 6.60633e-06
11 *2243:A *594:38 9.41642e-05
12 *2243:A *635:42 0.000577165
13 *2243:A *698:121 0.000295729
14 E1BEG[0] *2243:A 0.000192607
15 E1BEG[2] *2243:A 0.000175892
16 E1BEG[3] *2243:A 9.41642e-05
17 E2BEG[0] *2243:A 1.69153e-05
18 *2242:A *2243:A 0.000106754
19 *146:67 *2243:A 0.00043439
*RES
1 W6END[11] *2243:A 31.3488 
*END

*D_NET *208 0.00226908
*CONN
*P W6END[1] I
*I *2244:A I *D sky130_fd_sc_hd__clkbuf_2
*CAP
1 W6END[1] 0.000519054
2 *2244:A 0.000519054
3 *2244:A *2245:A 6.84346e-05
4 *2244:A *2248:A 0.000257619
5 *2244:A *481:18 0.00011205
6 *2244:A *596:40 0.000271036
7 *2244:A *637:67 0.000109993
8 *2240:A *2244:A 0.000411836
*RES
1 W6END[1] *2244:A 23.6664 
*END

*D_NET *209 0.004427
*CONN
*P W6END[2] I
*I *2245:A I *D sky130_fd_sc_hd__buf_1
*CAP
1 W6END[2] 0.0009104
2 *2245:A 0.0009104
3 *2245:A *1905:A0 1.28585e-05
4 *2245:A *2246:A 0.000311095
5 *2245:A *596:40 0.00135824
6 *2245:A *676:99 1.94945e-05
7 *2245:A *689:24 5.49489e-05
8 *2245:A *693:22 0.000781129
9 *2244:A *2245:A 6.84346e-05
*RES
1 W6END[2] *2245:A 20.6294 
*END

*D_NET *210 0.00234844
*CONN
*P W6END[3] I
*I *2246:A I *D sky130_fd_sc_hd__clkbuf_2
*CAP
1 W6END[3] 0.000694086
2 *2246:A 0.000694086
3 *2246:A *2247:A 0.000313517
4 *2246:A *2249:A 9.58181e-05
5 *2246:A *2250:A 9.25014e-06
6 *2246:A *647:185 4.12038e-05
7 *2246:A *694:44 0
8 *2246:A *695:8 5.49489e-05
9 *2246:A *704:44 0
10 *2245:A *2246:A 0.000311095
11 *151:23 *2246:A 0.000134436
*RES
1 W6END[3] *2246:A 22.3316 
*END

*D_NET *211 0.00419607
*CONN
*P W6END[4] I
*I *2247:A I *D sky130_fd_sc_hd__buf_1
*CAP
1 W6END[4] 0.00158303
2 *2247:A 0.00158303
3 *2247:A *1905:A0 2.12005e-05
4 *2247:A *1905:A2 9.75337e-06
5 *2247:A *1905:A3 6.42074e-05
6 *2247:A *2077:A 2.7518e-05
7 *2247:A *2248:A 8.24013e-05
8 *2247:A *2249:A 8.05319e-05
9 *2247:A *2250:A 0.000227156
10 *2247:A *329:30 1.58163e-05
11 *2247:A *704:44 0
12 *2247:A *707:14 1.46148e-05
13 *2247:A *707:28 0.000173298
14 *2246:A *2247:A 0.000313517
*RES
1 W6END[4] *2247:A 31.7602 
*END

*D_NET *212 0.00216423
*CONN
*P W6END[5] I
*I *2248:A I *D sky130_fd_sc_hd__clkbuf_2
*CAP
1 W6END[5] 0.000589444
2 *2248:A 0.000589444
3 *2248:A *2249:A 7.98684e-05
4 *2248:A *481:50 1.94945e-05
5 *2248:A *650:168 0.000307749
6 *2248:A *699:22 0.000190645
7 *2244:A *2248:A 0.000257619
8 *2247:A *2248:A 8.24013e-05
9 *142:31 *2248:A 4.75614e-05
*RES
1 W6END[5] *2248:A 26.484 
*END

*D_NET *213 0.00287576
*CONN
*P W6END[6] I
*I *2249:A I *D sky130_fd_sc_hd__clkbuf_2
*CAP
1 W6END[6] 0.00102403
2 *2249:A 0.00102403
3 *2249:A *2250:A 0.00029025
4 *2249:A *694:44 2.59491e-05
5 *2249:A *697:46 1.00298e-06
6 *2249:A *698:121 0
7 *2249:A *704:44 0.000254283
8 *2246:A *2249:A 9.58181e-05
9 *2247:A *2249:A 8.05319e-05
10 *2248:A *2249:A 7.98684e-05
*RES
1 W6END[6] *2249:A 23.0669 
*END

*D_NET *214 0.00248852
*CONN
*P W6END[7] I
*I *2250:A I *D sky130_fd_sc_hd__clkbuf_2
*CAP
1 W6END[7] 0.000684096
2 *2250:A 0.000684096
3 *2250:A *2251:A 0.000272718
4 *2250:A *647:185 0.000320949
5 *2246:A *2250:A 9.25014e-06
6 *2247:A *2250:A 0.000227156
7 *2249:A *2250:A 0.00029025
*RES
1 W6END[7] *2250:A 22.5988 
*END

*D_NET *215 0.00190503
*CONN
*P W6END[8] I
*I *2251:A I *D sky130_fd_sc_hd__dlymetal6s2s_1
*CAP
1 W6END[8] 0.000577735
2 *2251:A 0.000577735
3 *2251:A *2253:A 0.000185059
4 *2251:A *525:40 0.000112063
5 *2251:A *532:20 1.33846e-05
6 *2251:A *698:121 5.7903e-06
7 E2BEG[0] *2251:A 0.000125731
8 *2242:A *2251:A 3.48129e-05
9 *2250:A *2251:A 0.000272718
*RES
1 W6END[8] *2251:A 20.4017 
*END

*D_NET *216 0.00220563
*CONN
*P W6END[9] I
*I *2253:A I *D sky130_fd_sc_hd__buf_1
*CAP
1 W6END[9] 0.000480052
2 *2253:A 0.000480052
3 *2253:A *2287:A 4.10796e-05
4 *2253:A *637:63 0.00040288
5 *2253:A *637:67 2.95642e-05
6 *2253:A *647:185 0.000265592
7 *2253:A *691:16 0.000115542
8 *2242:A *2253:A 0.000185059
9 *2251:A *2253:A 0.000185059
10 *151:27 *2253:A 2.07506e-05
*RES
1 W6END[9] *2253:A 23.6843 
*END

*D_NET *217 0.00431178
*CONN
*P WW4END[0] I
*I *2254:A I *D sky130_fd_sc_hd__buf_1
*CAP
1 WW4END[0] 0.00138911
2 *2254:A 0.00138911
3 *2254:A *1864:A1 1.04232e-05
4 *2254:A *1864:A2 1.59935e-05
5 *2254:A *1864:A3 6.2293e-05
6 *2254:A *1864:S0 5.49489e-05
7 *2254:A *1864:S1 9.18347e-05
8 *2254:A *1865:A1 0.000264295
9 *2254:A *1866:B1 4.29471e-05
10 *2254:A *1866:B2 4.11218e-05
11 *2254:A *2261:A 0.000172787
12 *2254:A *651:181 3.52739e-05
13 *2254:A *662:99 8.25843e-06
14 *2254:A *664:103 0.000159892
15 *2254:A *699:22 9.72477e-05
16 *2231:A *2254:A 0.000211957
17 *146:67 *2254:A 0.000264281
*RES
1 WW4END[0] *2254:A 31.206 
*END

*D_NET *218 0.00283704
*CONN
*P WW4END[10] I
*I *2255:A I *D sky130_fd_sc_hd__buf_1
*CAP
1 WW4END[10] 0.000566897
2 *2255:A 0.000566897
3 *2255:A *2256:A 0.000281922
4 *2255:A *2257:A 0.00028796
5 *2255:A *2270:A 0.000179407
6 *2255:A *481:18 6.29867e-05
7 *2255:A *642:34 0.000219224
8 *2255:A *647:185 1.43349e-05
9 *2255:A *660:43 0.000657414
*RES
1 WW4END[10] *2255:A 26.6683 
*END

*D_NET *219 0.00161536
*CONN
*P WW4END[11] I
*I *2256:A I *D sky130_fd_sc_hd__dlymetal6s2s_1
*CAP
1 WW4END[11] 0.000487073
2 *2256:A 0.000487073
3 *2256:A *2257:A 0.000257314
4 *2256:A *2258:A 1.43009e-05
5 *2256:A *481:18 0
6 *2256:A *642:34 2.05415e-05
7 *2256:A *647:185 6.71336e-05
8 *2255:A *2256:A 0.000281922
*RES
1 WW4END[11] *2256:A 19.1875 
*END

*D_NET *220 0.0020534
*CONN
*P WW4END[12] I
*I *2257:A I *D sky130_fd_sc_hd__buf_1
*CAP
1 WW4END[12] 0.000618772
2 *2257:A 0.000618772
3 *2257:A *2258:A 0.000255427
4 *2257:A *481:18 8.23597e-06
5 *2257:A *647:185 6.92148e-06
6 *2255:A *2257:A 0.00028796
7 *2256:A *2257:A 0.000257314
*RES
1 WW4END[12] *2257:A 23.9183 
*END

*D_NET *221 0.00163549
*CONN
*P WW4END[13] I
*I *2258:A I *D sky130_fd_sc_hd__dlymetal6s2s_1
*CAP
1 WW4END[13] 0.000475473
2 *2258:A 0.000475473
3 *2258:A *2259:A 0.000292846
4 *2258:A *525:40 5.48376e-05
5 *2258:A *647:185 6.71336e-05
6 *2256:A *2258:A 1.43009e-05
7 *2257:A *2258:A 0.000255427
*RES
1 WW4END[13] *2258:A 19.1875 
*END

*D_NET *222 0.00194381
*CONN
*P WW4END[14] I
*I *2259:A I *D sky130_fd_sc_hd__dlymetal6s2s_1
*CAP
1 WW4END[14] 0.000463419
2 *2259:A 0.000463419
3 *2259:A *2260:A 0.000192904
4 *2259:A *525:40 0.000154007
5 *2259:A *647:185 0.000156018
6 *2259:A *703:40 0.000221198
7 *2258:A *2259:A 0.000292846
*RES
1 WW4END[14] *2259:A 20.4017 
*END

*D_NET *223 0.00380031
*CONN
*P WW4END[15] I
*I *2260:A I *D sky130_fd_sc_hd__buf_1
*CAP
1 WW4END[15] 0.00120065
2 *2260:A 0.00120065
3 *2260:A *2287:A 5.68722e-05
4 *2260:A *596:40 3.22449e-05
5 *2260:A *647:185 0
6 *2260:A *689:24 0.000142094
7 *2260:A *700:12 7.6232e-05
8 *2260:A *701:28 0
9 *2260:A *702:14 7.38767e-05
10 *2260:A *703:40 0.000338423
11 *2260:A *704:44 0.000128146
12 *2240:A *2260:A 0.000280286
13 *2259:A *2260:A 0.000192904
14 *147:51 *2260:A 7.79395e-05
*RES
1 WW4END[15] *2260:A 35.1039 
*END

*D_NET *224 0.00370561
*CONN
*P WW4END[1] I
*I *2261:A I *D sky130_fd_sc_hd__buf_1
*CAP
1 WW4END[1] 0.000727011
2 *2261:A 0.000727011
3 *2261:A *2262:A 5.63047e-05
4 *2261:A *637:67 0.000875505
5 *2261:A *649:10 3.08664e-05
6 *2261:A *699:22 0.000239261
7 *2254:A *2261:A 0.000172787
8 *148:21 *2261:A 0.000876864
*RES
1 WW4END[1] *2261:A 34.0759 
*END

*D_NET *225 0.00646408
*CONN
*P WW4END[2] I
*I *2262:A I *D sky130_fd_sc_hd__buf_1
*CAP
1 WW4END[2] 0.00150814
2 *2262:A 0.00150814
3 *2262:A *1836:A1 0.000315215
4 *2262:A *1840:A1 6.53397e-05
5 *2262:A *1859:A2 0.000105874
6 *2262:A *1861:A1 0.000123479
7 *2262:A *1861:S0 4.02038e-05
8 *2262:A *1863:A2 3.50635e-05
9 *2262:A *1863:S1 7.06432e-05
10 *2262:A *2264:A 9.65285e-05
11 *2262:A *240:14 1.76304e-05
12 *2262:A *240:20 4.46062e-06
13 *2262:A *659:83 0.00011573
14 *2262:A *662:99 8.6229e-06
15 *2262:A *699:22 0.00123117
16 *2262:A *707:14 4.02e-05
17 *2261:A *2262:A 5.63047e-05
18 *143:9 *2262:A 4.48011e-05
19 *144:27 *2262:A 4.26759e-05
20 *151:23 *2262:A 0.00103386
*RES
1 WW4END[2] *2262:A 37.7672 
*END

*D_NET *226 0.0032483
*CONN
*P WW4END[3] I
*I *2264:A I *D sky130_fd_sc_hd__dlymetal6s2s_1
*CAP
1 WW4END[3] 0.000488657
2 *2264:A 0.000488657
3 *2264:A *1860:B 0.000276972
4 *2264:A *1862:A1 0.000274816
5 *2264:A *2265:A 8.52878e-05
6 *2264:A *647:123 8.2607e-05
7 *2264:A *647:133 0.000435366
8 *2264:A *650:156 0.000267352
9 *2264:A *653:170 0.00038819
10 *2262:A *2264:A 9.65285e-05
11 *151:23 *2264:A 0.000363872
*RES
1 WW4END[3] *2264:A 26.829 
*END

*D_NET *227 0.00442258
*CONN
*P WW4END[4] I
*I *2265:A I *D sky130_fd_sc_hd__buf_1
*CAP
1 WW4END[4] 0.00110471
2 *2265:A 0.00110471
3 *2265:A *1862:A1 0.000225382
4 *2265:A *1862:A2 3.28967e-05
5 *2265:A *2037:GATE 0.00010975
6 *2265:A *2266:A 0.0002293
7 *2265:A *2268:A 0.000211628
8 *2265:A *484:18 3.08664e-05
9 *2265:A *637:67 1.01487e-05
10 *2265:A *647:123 0.000384879
11 *2265:A *647:133 0.000517793
12 *2265:A *653:170 0.000301175
13 *2265:A *660:43 7.40526e-05
14 *2264:A *2265:A 8.52878e-05
*RES
1 WW4END[4] *2265:A 41.6135 
*END

*D_NET *228 0.00164829
*CONN
*P WW4END[5] I
*I *2266:A I *D sky130_fd_sc_hd__dlymetal6s2s_1
*CAP
1 WW4END[5] 0.000440059
2 *2266:A 0.000440059
3 *2266:A *1860:B 6.74867e-05
4 *2266:A *1866:B2 2.04825e-05
5 *2266:A *2267:A 0.000192801
6 *2266:A *242:14 0
7 *2266:A *482:26 3.4846e-06
8 *2266:A *560:28 0.000216564
9 *2266:A *653:170 3.80537e-05
10 *2265:A *2266:A 0.0002293
*RES
1 WW4END[5] *2266:A 19.1875 
*END

*D_NET *229 0.00195357
*CONN
*P WW4END[6] I
*I *2267:A I *D sky130_fd_sc_hd__clkbuf_2
*CAP
1 WW4END[6] 0.000506916
2 *2267:A 0.000506916
3 *2267:A *1860:B 4.22135e-06
4 *2267:A *2268:A 0.000362135
5 *2267:A *482:26 4.01319e-05
6 *2267:A *560:28 0.000213676
7 *2267:A *647:185 0.000121375
8 *2267:A *653:170 5.403e-06
9 *2266:A *2267:A 0.000192801
*RES
1 WW4END[6] *2267:A 20.1702 
*END

*D_NET *230 0.00298789
*CONN
*P WW4END[7] I
*I *2268:A I *D sky130_fd_sc_hd__buf_1
*CAP
1 WW4END[7] 0.00083537
2 *2268:A 0.00083537
3 *2268:A *2037:GATE 2.59355e-05
4 *2268:A *2269:A 0.000343438
5 *2268:A *242:8 0.000140088
6 *2268:A *481:18 0.000109137
7 *2268:A *482:26 5.41108e-05
8 *2268:A *483:46 5.75218e-05
9 *2268:A *647:185 1.31516e-05
10 *2265:A *2268:A 0.000211628
11 *2267:A *2268:A 0.000362135
*RES
1 WW4END[7] *2268:A 26.0637 
*END

*D_NET *231 0.00414409
*CONN
*P WW4END[8] I
*I *2269:A I *D sky130_fd_sc_hd__buf_1
*CAP
1 WW4END[8] 0.00113408
2 *2269:A 0.00113408
3 *2269:A *1862:B1 3.7362e-05
4 *2269:A *2037:D 9.63908e-05
5 *2269:A *2270:A 0.000310188
6 *2269:A *482:26 0.000385131
7 *2269:A *483:46 0.000139982
8 *2269:A *485:18 4.87953e-05
9 *2269:A *486:18 3.08664e-05
10 *2269:A *642:34 4.38038e-05
11 *2269:A *676:99 0.000180419
12 *2269:A *706:24 0.000168881
13 *2268:A *2269:A 0.000343438
14 *147:51 *2269:A 9.06658e-05
*RES
1 WW4END[8] *2269:A 23.8424 
*END

*D_NET *232 0.00300665
*CONN
*P WW4END[9] I
*I *2270:A I *D sky130_fd_sc_hd__buf_1
*CAP
1 WW4END[9] 0.000831093
2 *2270:A 0.000831093
3 *2270:A *1860:A 4.73286e-05
4 *2270:A *1860:B 0.000113303
5 *2270:A *1862:A1 6.8175e-05
6 *2270:A *1866:A1 0.000183021
7 *2270:A *2037:D 2.51343e-06
8 *2270:A *642:34 0.000303706
9 *2270:A *647:185 0.000136822
10 *2255:A *2270:A 0.000179407
11 *2269:A *2270:A 0.000310188
*RES
1 WW4END[9] *2270:A 25.8839 
*END

*D_NET *233 0.0222171
*CONN
*I *1885:A1 I *D sky130_fd_sc_hd__mux4_1
*I *1883:A2 I *D sky130_fd_sc_hd__mux4_1
*I *1890:A3 I *D sky130_fd_sc_hd__mux4_1
*I *1900:A3 I *D sky130_fd_sc_hd__mux4_1
*I *1813:A2 I *D sky130_fd_sc_hd__mux4_1
*I *1881:A1 I *D sky130_fd_sc_hd__mux4_1
*I *2056:Q O *D sky130_fd_sc_hd__dfxtp_1
*CAP
1 *1885:A1 0
2 *1883:A2 0
3 *1890:A3 1.66263e-06
4 *1900:A3 0
5 *1813:A2 0.000652681
6 *1881:A1 0.000262918
7 *2056:Q 0.000138196
8 *233:122 0.00144471
9 *233:99 0.00194002
10 *233:80 0.00186919
11 *233:62 0.0023633
12 *233:25 0.00176895
13 *233:8 0.000529634
14 *1813:A2 *740:DIODE 6.77187e-05
15 *1813:A2 *2061:A 1.14548e-05
16 *1813:A2 *234:44 6.60111e-05
17 *1813:A2 *235:21 2.3541e-05
18 *1813:A2 *235:45 8.23118e-05
19 *1813:A2 *531:34 4.37252e-05
20 *1813:A2 *673:90 4.42581e-05
21 *1881:A1 *1881:S0 6.75159e-05
22 *1881:A1 *2063:A 3.99614e-06
23 *1881:A1 *235:113 3.60785e-06
24 *1881:A1 *479:130 0.000489727
25 *1881:A1 *544:68 6.87839e-06
26 *1881:A1 *597:60 0
27 *1881:A1 *669:114 0.000261071
28 *1881:A1 *676:40 0.00014627
29 *233:8 *1935:GATE 4.08637e-05
30 *233:8 *669:108 0.00013723
31 *233:25 *479:130 5.31158e-05
32 *233:25 *479:159 0.000261981
33 *233:25 *618:96 1.81805e-05
34 *233:25 *618:116 0.000247508
35 *233:25 *669:114 2.20282e-05
36 *233:62 *1885:A0 6.57372e-05
37 *233:62 *1885:A2 2.06178e-05
38 *233:62 *1885:A3 8.4089e-05
39 *233:62 *1998:D 0.000273324
40 *233:62 *2333:A 3.69047e-06
41 *233:62 *479:159 6.57026e-05
42 *233:62 *535:26 6.57603e-05
43 *233:62 *535:52 0.000542958
44 *233:62 *539:18 1.53262e-05
45 *233:62 *618:116 0.000445174
46 *233:62 *646:88 5.33005e-05
47 *233:80 *1809:A0 2.61375e-05
48 *233:80 *1885:A0 5.41794e-05
49 *233:80 *1899:S0 0.000122221
50 *233:80 *1900:S1 0.000593768
51 *233:80 *1906:S0 6.39829e-05
52 *233:80 *2335:A 5.10173e-05
53 *233:80 *524:14 0.000285895
54 *233:80 *558:14 0.000156648
55 *233:80 *594:88 1.74466e-05
56 *233:80 *595:18 0.000225892
57 *233:80 *646:127 0.000244418
58 *233:80 *667:172 5.06496e-05
59 *233:80 *669:75 2.16715e-05
60 *233:80 *689:114 0.000154285
61 *233:99 *1809:A0 0.000239529
62 *233:99 *1890:A2 0.000119224
63 *233:99 *1890:S0 2.11543e-05
64 *233:99 *1893:A3 0.000203361
65 *233:99 *1965:GATE 0.000177545
66 *233:99 *568:188 1.43455e-05
67 *233:99 *575:18 7.6644e-05
68 *233:99 *595:18 2.35549e-05
69 *233:99 *635:112 0.000105696
70 *233:122 *1890:S0 0.000131932
71 *233:122 *1959:D 3.04394e-05
72 *233:122 *1959:GATE 2.95726e-05
73 *233:122 *2005:GATE 7.17228e-05
74 *233:122 *2126:A 8.94191e-05
75 *233:122 *323:12 0.000237673
76 *233:122 *524:180 4.26759e-05
77 *233:122 *572:12 2.54304e-06
78 *233:122 *678:16 0.000306921
79 *233:122 *678:20 8.25843e-06
80 *146:99 *233:80 7.04012e-05
81 *146:99 *233:122 0.000165531
82 *148:97 *1890:A3 2.26973e-05
83 *148:97 *233:80 9.98785e-05
84 *148:97 *233:99 0.000499657
85 *148:97 *233:122 0.000982689
86 *150:87 *233:122 4.3363e-05
87 *151:57 *1881:A1 0.000135405
88 *151:77 *233:122 0.000710193
89 *160:127 *233:62 0.000780956
*RES
1 *2056:Q *233:8 15.5679 
2 *233:8 *1881:A1 21.1214 
3 *233:8 *233:25 4.22321 
4 *233:25 *1813:A2 22.8685 
5 *233:25 *233:62 27.8125 
6 *233:62 *233:80 21.338 
7 *233:80 *1900:A3 13.8 
8 *233:80 *233:99 21.4196 
9 *233:99 *1890:A3 14.0768 
10 *233:99 *233:122 45.2634 
11 *233:122 *1883:A2 9.3 
12 *233:62 *1885:A1 9.3 
*END

*D_NET *234 0.0286881
*CONN
*I *1899:A3 I *D sky130_fd_sc_hd__mux4_1
*I *1889:A3 I *D sky130_fd_sc_hd__mux4_1
*I *1811:A2 I *D sky130_fd_sc_hd__mux4_1
*I *1877:A2 I *D sky130_fd_sc_hd__mux4_1
*I *1879:A1 I *D sky130_fd_sc_hd__mux4_1
*I *1875:A1 I *D sky130_fd_sc_hd__mux4_1
*I *2057:Q O *D sky130_fd_sc_hd__dfxtp_1
*CAP
1 *1899:A3 7.23863e-05
2 *1889:A3 6.35394e-05
3 *1811:A2 7.85385e-05
4 *1877:A2 0.000567889
5 *1879:A1 0.000851841
6 *1875:A1 0.000795493
7 *2057:Q 0.000658598
8 *234:94 0.00260197
9 *234:86 0.00203485
10 *234:58 0.00311417
11 *234:44 0.0026884
12 *234:26 0.00152488
13 *234:14 0.00104853
14 *1811:A2 *2320:A 6.98553e-06
15 *1811:A2 *236:22 1.14548e-05
16 *1811:A2 *541:40 0.000108883
17 *1811:A2 *650:248 0.000103542
18 *1875:A1 *1875:A2 4.3363e-05
19 *1875:A1 *1875:S0 5.21937e-05
20 *1875:A1 *1887:A1 2.49172e-05
21 *1875:A1 *642:55 2.79421e-05
22 *1875:A1 *642:106 2.13481e-06
23 *1877:A2 *720:DIODE 2.84026e-05
24 *1877:A2 *1877:A1 2.08721e-05
25 *1877:A2 *1877:S0 9.09903e-05
26 *1877:A2 *481:88 0.0001561
27 *1877:A2 *481:94 9.70065e-05
28 *1877:A2 *560:66 2.59355e-05
29 *1877:A2 *562:30 8.52734e-05
30 *1879:A1 *1879:A0 2.42516e-05
31 *1879:A1 *1895:A3 0.000218409
32 *1879:A1 *236:116 0.000104532
33 *1879:A1 *517:60 3.16115e-05
34 *1879:A1 *597:30 1.58163e-05
35 *1879:A1 *664:166 7.29712e-05
36 *1879:A1 *675:192 0.000338053
37 *1879:A1 *676:85 2.71621e-05
38 *1879:A1 *685:49 7.40571e-05
39 *1879:A1 *693:46 7.14469e-05
40 *1889:A3 *695:103 2.79421e-05
41 *1899:A3 *2333:A 8.81866e-05
42 *1899:A3 *539:18 4.58194e-05
43 *1899:A3 *650:254 8.6281e-05
44 *234:14 *1899:A2 9.75337e-06
45 *234:14 *1899:S1 0.000125378
46 *234:14 *539:18 5.80401e-06
47 *234:14 *593:118 0.000177821
48 *234:14 *599:18 5.49544e-05
49 *234:26 *1889:A2 5.37715e-05
50 *234:26 *2348:A 0.000126148
51 *234:26 *559:34 5.11534e-06
52 *234:26 *659:227 0.000487352
53 *234:44 *740:DIODE 0.000565821
54 *234:44 *1811:A3 6.83359e-05
55 *234:44 *1811:S0 4.10597e-05
56 *234:44 *1813:S1 6.05163e-05
57 *234:44 *1881:A2 0.000245633
58 *234:44 *2312:A 4.35068e-05
59 *234:44 *2318:A 7.4048e-05
60 *234:44 *2348:A 0.000142875
61 *234:44 *235:45 6.5176e-05
62 *234:44 *235:93 5.97321e-05
63 *234:44 *236:40 7.14469e-05
64 *234:44 *535:86 0.000182757
65 *234:44 *539:40 2.52467e-05
66 *234:44 *567:94 0.000198298
67 *234:44 *569:82 2.62227e-05
68 *234:44 *598:28 0.000186352
69 *234:44 *650:248 0
70 *234:44 *659:227 0.000491897
71 *234:44 *665:38 0.000107222
72 *234:58 *1877:A3 7.58484e-06
73 *234:58 *2326:A 0.000182607
74 *234:58 *515:40 5.29281e-05
75 *234:58 *516:32 0
76 *234:58 *517:28 0.000734845
77 *234:58 *520:58 0.000309123
78 *234:58 *550:30 0.000346551
79 *234:58 *558:52 1.75318e-05
80 *234:58 *562:30 2.32999e-05
81 *234:58 *569:62 7.87582e-05
82 *234:58 *569:82 7.41091e-05
83 *234:58 *667:138 5.47223e-05
84 *234:86 *1822:A1 2.59355e-05
85 *234:86 *2092:A 9.58126e-05
86 *234:86 *2298:A 0.000313086
87 *234:86 *2315:A 0
88 *234:86 *516:58 0.000503001
89 *234:86 *521:12 0.000119706
90 *234:86 *538:66 0.0002122
91 *234:86 *558:52 4.19535e-05
92 *234:86 *560:66 7.49166e-06
93 *234:86 *653:170 3.04394e-05
94 *234:86 *653:219 7.27121e-05
95 *234:86 *660:91 5.78061e-05
96 *234:86 *691:16 0.000163871
97 *234:94 *1822:A1 0.000139215
98 *234:94 *1887:A0 5.00426e-05
99 *234:94 *1887:A1 0.000109367
100 *234:94 *1887:A2 0.000179122
101 *234:94 *1887:S1 5.02105e-05
102 *234:94 *236:91 5.29973e-05
103 *234:94 *707:67 2.29346e-06
104 E6BEG[4] *234:44 0.000169981
105 EE4BEG[0] *234:86 0.00010891
106 EE4BEG[11] *234:58 2.63501e-05
107 EE4BEG[2] *234:86 0.000111328
108 EE4BEG[3] *234:86 1.90936e-05
109 EE4BEG[4] *234:86 9.39125e-05
110 EE4BEG[6] *1877:A2 0.000308602
111 EE4BEG[8] *234:58 0.000188466
112 FrameData_O[7] *234:14 9.60875e-05
113 *1813:A2 *234:44 6.60111e-05
114 *72:40 *234:58 2.06112e-05
115 *72:40 *234:86 4.11994e-05
116 *144:71 *234:86 5.28014e-05
117 *144:121 *234:44 2.06112e-05
118 *144:121 *234:58 0.000285832
119 *144:145 *234:26 2.04745e-05
120 *148:81 *234:58 0.000464935
121 *151:57 *234:86 0.000506418
122 *159:93 *234:58 5.58972e-05
123 *160:79 *234:58 5.41797e-06
124 *160:79 *234:86 0
*RES
1 *2057:Q *234:14 23.1214 
2 *234:14 *234:26 9.23818 
3 *234:26 *234:44 31.75 
4 *234:44 *234:58 30.1125 
5 *234:58 *234:86 47.7857 
6 *234:86 *234:94 12.6964 
7 *234:94 *1875:A1 17.9607 
8 *234:94 *1879:A1 40.9964 
9 *234:58 *1877:A2 24.7866 
10 *234:44 *1811:A2 20.1795 
11 *234:26 *1889:A3 14.7464 
12 *234:14 *1899:A3 15.9339 
*END

*D_NET *235 0.0229304
*CONN
*I *1881:A3 I *D sky130_fd_sc_hd__mux4_1
*I *1888:A3 I *D sky130_fd_sc_hd__mux4_1
*I *1896:A3 I *D sky130_fd_sc_hd__mux4_1
*I *1883:A3 I *D sky130_fd_sc_hd__mux4_1
*I *1885:A3 I *D sky130_fd_sc_hd__mux4_1
*I *1813:A3 I *D sky130_fd_sc_hd__mux4_1
*I *2058:Q O *D sky130_fd_sc_hd__dfxtp_1
*CAP
1 *1881:A3 0
2 *1888:A3 0.000137924
3 *1896:A3 0.000115561
4 *1883:A3 0
5 *1885:A3 0.000130625
6 *1813:A3 0
7 *2058:Q 0.000358589
8 *235:113 0.00154751
9 *235:93 0.00239349
10 *235:64 0.00126487
11 *235:45 0.0025889
12 *235:21 0.00239331
13 *235:14 0.000459033
14 *1885:A3 *1885:S0 7.44354e-05
15 *1888:A3 *1888:A0 0
16 *1888:A3 *1888:S0 1.24368e-05
17 *1888:A3 *1888:S1 3.36871e-05
18 *1896:A3 *2319:A 0.000119217
19 *1896:A3 *593:102 7.20217e-06
20 *1896:A3 *660:115 2.79421e-05
21 *1896:A3 *673:116 0.000119217
22 *235:14 *1813:A0 0.000315905
23 *235:14 *2061:A 0.0001665
24 *235:14 *645:78 0.000216755
25 *235:21 *2061:A 6.11603e-05
26 *235:21 *567:94 7.06329e-05
27 *235:45 *1813:S1 1.76135e-05
28 *235:45 *1889:A2 2.17319e-05
29 *235:45 *1899:A2 0.000167279
30 *235:45 *1998:D 2.82126e-05
31 *235:45 *2304:A 0.000123552
32 *235:45 *2333:A 0.000344403
33 *235:45 *2353:A 9.64724e-05
34 *235:45 *479:159 3.72789e-05
35 *235:45 *514:72 1.4532e-05
36 *235:45 *559:34 2.63501e-05
37 *235:45 *567:94 0.000179793
38 *235:45 *569:82 0.000541339
39 *235:45 *650:248 0.000375047
40 *235:45 *650:254 8.85664e-07
41 *235:45 *659:227 0.000435216
42 *235:45 *673:90 5.52718e-05
43 *235:64 *1882:S0 0.000165019
44 *235:64 *1886:A0 0.000193125
45 *235:64 *1893:A1 1.90936e-05
46 *235:64 *1906:A0 0.000369034
47 *235:64 *2084:A 7.74578e-05
48 *235:64 *2351:A 0.000403782
49 *235:64 *2353:A 0.00015098
50 *235:64 *2354:A 9.9636e-05
51 *235:64 *524:180 3.14008e-05
52 *235:64 *542:20 0.000342996
53 *235:64 *577:20 5.18742e-05
54 *235:64 *584:84 4.50149e-05
55 *235:64 *586:110 2.06178e-05
56 *235:64 *592:26 0.000146369
57 *235:64 *645:82 0.000121953
58 *235:64 *645:91 0.000561394
59 *235:64 *659:227 0.000494094
60 *235:93 *740:DIODE 4.79414e-05
61 *235:93 *2061:A 6.7061e-05
62 *235:93 *2305:A 0.000202296
63 *235:93 *2310:A 0.000107157
64 *235:93 *2312:A 2.21972e-05
65 *235:93 *514:72 0.000281076
66 *235:93 *531:34 3.48509e-05
67 *235:93 *539:40 0.000296232
68 *235:93 *541:40 3.87608e-05
69 *235:93 *650:248 2.63674e-05
70 *235:93 *665:38 0.000107222
71 *235:113 *1881:S0 0.0001311
72 *235:113 *2106:A 2.59355e-05
73 *235:113 *2305:A 5.30637e-06
74 *235:113 *2319:A 0.000188951
75 *235:113 *236:22 9.17256e-05
76 *235:113 *514:72 6.05161e-06
77 *235:113 *517:28 1.92571e-05
78 *235:113 *535:86 0.000200794
79 *235:113 *579:52 0.000220878
80 *235:113 *593:102 0.000141019
81 *235:113 *673:116 4.34627e-05
82 *235:113 *676:40 7.69776e-06
83 E6BEG[11] *235:93 0.000133763
84 FrameData_O[7] *235:45 3.50637e-05
85 *711:DIODE *235:64 0.000401985
86 *1813:A2 *235:21 2.3541e-05
87 *1813:A2 *235:45 8.23118e-05
88 *1881:A1 *235:113 3.60785e-06
89 *144:121 *235:93 0.000194005
90 *144:121 *235:113 0.000187751
91 *151:57 *235:93 5.46441e-05
92 *151:77 *235:64 0.000917671
93 *233:62 *1885:A3 8.4089e-05
94 *234:44 *235:45 6.5176e-05
95 *234:44 *235:93 5.97321e-05
*RES
1 *2058:Q *235:14 16.9964 
2 *235:14 *1813:A3 9.3 
3 *235:14 *235:21 2.17857 
4 *235:21 *235:45 37.8858 
5 *235:45 *1885:A3 16.4071 
6 *235:45 *235:64 43.5357 
7 *235:64 *1883:A3 9.3 
8 *235:21 *235:93 27.2454 
9 *235:93 *235:113 32.0536 
10 *235:113 *1896:A3 16.3893 
11 *235:113 *1888:A3 16.1393 
12 *235:93 *1881:A3 9.3 
*END

*D_NET *236 0.0280513
*CONN
*I *1811:A3 I *D sky130_fd_sc_hd__mux4_1
*I *1875:A3 I *D sky130_fd_sc_hd__mux4_1
*I *1879:A3 I *D sky130_fd_sc_hd__mux4_1
*I *1895:A3 I *D sky130_fd_sc_hd__mux4_1
*I *1887:A3 I *D sky130_fd_sc_hd__mux4_1
*I *1877:A3 I *D sky130_fd_sc_hd__mux4_1
*I *2059:Q O *D sky130_fd_sc_hd__dfxtp_1
*CAP
1 *1811:A3 0.000114214
2 *1875:A3 8.68997e-05
3 *1879:A3 5.87326e-05
4 *1895:A3 0.000607429
5 *1887:A3 0.000113095
6 *1877:A3 0.00082855
7 *2059:Q 0.00115915
8 *236:124 0.000889285
9 *236:116 0.00144756
10 *236:93 0.00125064
11 *236:91 0.00159569
12 *236:40 0.00318926
13 *236:22 0.00203838
14 *1811:A3 *1811:A0 8.6229e-06
15 *1811:A3 *1811:S0 5.33005e-05
16 *1811:A3 *1811:S1 6.82845e-06
17 *1811:A3 *2320:A 5.96516e-05
18 *1811:A3 *539:40 3.074e-05
19 *1875:A3 *533:52 0.000238827
20 *1877:A3 *1915:A1 4.32258e-05
21 *1877:A3 *1915:A3 0.000149832
22 *1877:A3 *2326:A 1.52312e-05
23 *1877:A3 *517:28 4.51691e-05
24 *1877:A3 *521:12 9.48994e-05
25 *1877:A3 *522:58 0.000299638
26 *1877:A3 *538:66 0.000170436
27 *1877:A3 *703:40 4.75671e-06
28 *1877:A3 *707:93 0.000639189
29 *1879:A3 *1875:A2 2.79421e-05
30 *1887:A3 *1887:A2 2.15035e-05
31 *1887:A3 *1887:S1 6.42187e-06
32 *1887:A3 *555:38 1.01458e-05
33 *1887:A3 *650:216 6.1452e-06
34 *1887:A3 *707:67 7.25493e-05
35 *1895:A3 *1875:A2 4.70371e-05
36 *1895:A3 *1879:A0 6.05161e-06
37 *1895:A3 *597:30 0.000568786
38 *1895:A3 *659:83 2.79421e-05
39 *1895:A3 *659:116 2.82498e-05
40 *1895:A3 *667:54 0.000443159
41 *1895:A3 *701:54 0.00026107
42 *236:22 *1811:S1 0
43 *236:22 *1881:S1 2.84026e-05
44 *236:22 *2015:D 2.06112e-05
45 *236:22 *2063:A 2.12087e-05
46 *236:22 *2106:A 5.33005e-05
47 *236:22 *2320:A 0.000254875
48 *236:22 *520:32 0.000247462
49 *236:22 *535:86 4.58194e-05
50 *236:22 *540:22 2.74899e-05
51 *236:22 *558:52 0.000435816
52 *236:22 *579:32 0.000107024
53 *236:40 *1811:A0 1.90936e-05
54 *236:40 *2318:A 0.000253216
55 *236:40 *521:12 1.90936e-05
56 *236:40 *538:66 0.000102707
57 *236:40 *539:40 2.11068e-05
58 *236:40 *653:219 9.34059e-06
59 *236:40 *659:209 4.38137e-05
60 *236:91 *1822:A1 0.000178425
61 *236:91 *1887:S1 3.12784e-05
62 *236:91 *2107:A 1.21258e-05
63 *236:91 *524:142 0.00051046
64 *236:91 *594:52 0.000987629
65 *236:91 *647:222 0.000587062
66 *236:91 *659:183 0.000491595
67 *236:91 *660:91 0.000125606
68 *236:91 *695:66 9.86391e-06
69 *236:91 *695:76 0.000228393
70 *236:91 *696:26 0.000514446
71 *236:116 *1887:S1 2.7211e-05
72 *236:116 *2292:A 8.55871e-05
73 *236:116 *2294:A 7.64269e-05
74 *236:116 *650:216 5.93353e-05
75 *236:116 *676:48 6.06291e-05
76 *236:116 *676:85 1.65169e-05
77 *236:116 *698:121 2.80897e-05
78 *236:116 *707:67 1.14166e-05
79 *236:124 *1875:A2 2.11068e-05
80 *236:124 *1879:A2 6.98553e-06
81 *236:124 *533:52 7.40571e-05
82 E2BEG[5] *236:116 0.000135028
83 E2BEG[6] *236:116 6.52971e-06
84 E2BEGb[0] *236:116 7.60546e-05
85 E6BEG[0] *236:40 0.000134885
86 E6BEG[1] *236:40 0.00018686
87 EE4BEG[10] *236:40 0.000165715
88 EE4BEG[10] *236:91 0.000122021
89 EE4BEG[12] *236:40 3.8343e-05
90 EE4BEG[4] *236:91 5.00194e-05
91 EE4BEG[5] *236:91 4.65519e-05
92 EE4BEG[8] *1877:A3 0.000114731
93 EE4BEG[8] *236:91 0.000202832
94 EE4BEG[9] *236:40 0.000263878
95 EE4BEG[9] *236:91 6.58294e-06
96 *1811:A2 *236:22 1.14548e-05
97 *1879:A1 *1895:A3 0.000218409
98 *1879:A1 *236:116 0.000104532
99 *72:40 *236:40 8.09159e-05
100 *145:63 *1895:A3 6.66621e-05
101 *147:91 *236:91 0.00132726
102 *148:81 *1877:A3 1.42033e-05
103 *148:81 *236:91 0.000351192
104 *149:37 *1895:A3 0.000443418
105 *149:93 *236:40 0.000255192
106 *160:79 *1877:A3 6.28248e-05
107 *160:79 *236:40 0.000158814
108 *160:113 *236:40 0.000245235
109 *181:44 *1875:A3 0.00022906
110 *181:44 *236:124 1.90936e-05
111 *234:44 *1811:A3 6.83359e-05
112 *234:44 *236:40 7.14469e-05
113 *234:58 *1877:A3 7.58484e-06
114 *234:94 *236:91 5.29973e-05
115 *235:113 *236:22 9.17256e-05
*RES
1 *2059:Q *236:22 42.3357 
2 *236:22 *236:40 26.6875 
3 *236:40 *1877:A3 24.3162 
4 *236:40 *236:91 47.3849 
5 *236:91 *236:93 4.5 
6 *236:93 *1887:A3 16.0143 
7 *236:93 *236:116 23.3036 
8 *236:116 *236:124 7.73214 
9 *236:124 *1895:A3 35.7821 
10 *236:124 *1879:A3 10.675 
11 *236:116 *1875:A3 16.9607 
12 *236:22 *1811:A3 17.0321 
*END

*D_NET *237 0.00140488
*CONN
*I *1876:S1 I *D sky130_fd_sc_hd__mux4_1
*I *2024:Q O *D sky130_fd_sc_hd__dlxtp_1
*CAP
1 *1876:S1 0.000423115
2 *2024:Q 0.000423115
3 *1876:S1 *243:20 0.000178425
4 *1876:S1 *587:90 0
5 *1876:S1 *603:32 7.57673e-05
6 *1876:S1 *613:83 4.08889e-05
7 *1876:S1 *624:58 0.000106147
8 *1876:S1 *624:82 2.49942e-05
9 *1876:S1 *643:79 4.58611e-05
10 *1876:S1 *643:110 8.65638e-05
*RES
1 *2024:Q *1876:S1 34.9214 
*END

*D_NET *238 0.000529704
*CONN
*I *1876:S0 I *D sky130_fd_sc_hd__mux4_1
*I *2025:Q O *D sky130_fd_sc_hd__dlxtp_1
*CAP
1 *1876:S0 8.63607e-05
2 *2025:Q 8.63607e-05
3 *1876:S0 *243:20 0.000151841
4 *1876:S0 *613:107 5.33005e-05
5 *1876:S0 *618:50 0.000151841
*RES
1 *2025:Q *1876:S0 30.0821 
*END

*D_NET *239 0.00338251
*CONN
*I *1816:C I *D sky130_fd_sc_hd__and3b_1
*I *1796:A I *D sky130_fd_sc_hd__inv_1
*I *1819:B1 I *D sky130_fd_sc_hd__o21ai_1
*I *1818:B I *D sky130_fd_sc_hd__or3b_1
*I *2034:Q O *D sky130_fd_sc_hd__dlxtp_1
*CAP
1 *1816:C 0.000114401
2 *1796:A 3.08089e-05
3 *1819:B1 0.000158377
4 *1818:B 0.000272765
5 *2034:Q 0.000117185
6 *239:43 0.000200465
7 *239:24 0.000369211
8 *1796:A *1817:A2 0.000105268
9 *1796:A *2390:A 0.000107198
10 *1816:C *2183:A 0.00015936
11 *1816:C *602:166 0.000230631
12 *1816:C *650:59 3.27359e-05
13 *1818:B *1815:A1 3.69047e-06
14 *1818:B *1818:C_N 3.14163e-05
15 *1818:B *648:49 6.8377e-06
16 *1819:B1 *1815:A0 0.000142768
17 *1819:B1 *1819:A1 3.10313e-06
18 *1819:B1 *1819:A2 4.10373e-05
19 *1819:B1 *1820:A 0
20 *1819:B1 *1821:A3 1.24368e-05
21 *1819:B1 *1821:B1 1.85392e-05
22 *239:24 *1815:A1 0.000264129
23 *239:24 *1817:A1 8.25843e-06
24 *239:24 *2390:A 0.000341276
25 *239:24 *501:14 9.9974e-05
26 *239:24 *579:78 9.9974e-05
27 *239:43 *1815:A1 7.00169e-06
28 *239:43 *1817:A2 0.000136958
29 *239:43 *2390:A 0.000107009
30 *159:21 *1816:C 1.69233e-05
31 *159:21 *1819:B1 0.000142768
*RES
1 *2034:Q *1818:B 19.9571 
2 *1818:B *239:24 23.05 
3 *239:24 *1819:B1 21.6214 
4 *239:24 *239:43 1.78571 
5 *239:43 *1796:A 10.358 
6 *239:43 *1816:C 21.4607 
*END

*D_NET *240 0.00644951
*CONN
*I *1861:S0 I *D sky130_fd_sc_hd__mux4_1
*I *1863:S0 I *D sky130_fd_sc_hd__mux4_1
*I *1859:S1 I *D sky130_fd_sc_hd__mux4_1
*I *1864:S1 I *D sky130_fd_sc_hd__mux4_1
*I *2035:Q O *D sky130_fd_sc_hd__dlxtp_1
*CAP
1 *1861:S0 0.000584185
2 *1863:S0 0
3 *1859:S1 2.55375e-05
4 *1864:S1 0.000129954
5 *2035:Q 0.000174585
6 *240:20 0.00116618
7 *240:14 0.0011387
8 *240:10 0.000886787
9 *1859:S1 *1866:A1 7.85273e-05
10 *1859:S1 *653:12 6.99044e-05
11 *1861:S0 *1840:A1 1.58163e-05
12 *1861:S0 *1861:A0 1.84997e-05
13 *1861:S0 *1861:A1 8.55871e-05
14 *1861:S0 *1861:S1 6.57032e-05
15 *1864:S1 *1866:A1 6.28203e-05
16 *1864:S1 *1866:A2 3.03664e-05
17 *1864:S1 *651:181 5.46828e-05
18 *1864:S1 *653:12 0.000121418
19 *240:10 *2036:D 7.20217e-06
20 *240:10 *569:28 6.54834e-06
21 *240:10 *659:83 0.000265923
22 *240:10 *662:132 0.000117903
23 *240:10 *708:12 7.55769e-05
24 *240:14 *1840:A1 6.53397e-05
25 *240:14 *1863:A2 9.54798e-06
26 *240:14 *657:44 9.25014e-06
27 *240:14 *659:83 3.27138e-05
28 *240:14 *662:99 0.000149345
29 *240:14 *662:132 0.000103095
30 *240:20 *1859:A2 3.58774e-05
31 *240:20 *1859:S0 0.000125125
32 *240:20 *1863:A2 7.46091e-05
33 *240:20 *1863:S1 0.000144304
34 *240:20 *1865:A0 1.13894e-05
35 *240:20 *241:23 0.000261801
36 *240:20 *662:99 3.83239e-06
37 *2254:A *1864:S1 9.18347e-05
38 *2262:A *1861:S0 4.02038e-05
39 *2262:A *240:14 1.76304e-05
40 *2262:A *240:20 4.46062e-06
41 *147:51 *240:20 2.23592e-05
42 *149:37 *240:10 3.55503e-05
43 *149:37 *240:14 2.88391e-05
*RES
1 *2035:Q *240:10 18.2107 
2 *240:10 *240:14 7.96429 
3 *240:14 *240:20 16.8571 
4 *240:20 *1864:S1 17.2107 
5 *240:20 *1859:S1 14.8357 
6 *240:14 *1863:S0 9.3 
7 *240:10 *1861:S0 21.3536 
*END

*D_NET *241 0.0040837
*CONN
*I *1861:S1 I *D sky130_fd_sc_hd__mux4_1
*I *1859:S0 I *D sky130_fd_sc_hd__mux4_1
*I *1864:S0 I *D sky130_fd_sc_hd__mux4_1
*I *1863:S1 I *D sky130_fd_sc_hd__mux4_1
*I *2036:Q O *D sky130_fd_sc_hd__dlxtp_1
*CAP
1 *1861:S1 0.000575098
2 *1859:S0 4.18893e-05
3 *1864:S0 0.000102534
4 *1863:S1 0.000156983
5 *2036:Q 2.60795e-05
6 *241:23 0.000239682
7 *241:12 0.000375303
8 *241:8 0.000724238
9 *1859:S0 *1865:A0 1.96616e-05
10 *1861:S1 *1861:A2 7.04987e-06
11 *1861:S1 *1861:A3 6.98933e-05
12 *1863:S1 *1865:A0 3.69047e-06
13 *1864:S0 *1864:A3 5.65955e-05
14 *1864:S0 *664:125 4.92935e-05
15 *241:8 *1904:A0 7.83659e-05
16 *241:12 *1904:A0 0.000128018
17 *241:12 *648:109 0.000152173
18 *241:23 *1859:A0 5.49544e-05
19 *241:23 *1865:A0 3.98714e-05
20 *1861:S0 *1861:S1 6.57032e-05
21 *2254:A *1864:S0 5.49489e-05
22 *2262:A *1863:S1 7.06432e-05
23 *144:27 *241:8 6.98302e-05
24 *144:27 *241:12 0.000289279
25 *147:39 *1864:S0 4.73959e-05
26 *147:51 *1859:S0 5.33005e-05
27 *240:20 *1859:S0 0.000125125
28 *240:20 *1863:S1 0.000144304
29 *240:20 *241:23 0.000261801
*RES
1 *2036:Q *241:8 14.8357 
2 *241:8 *241:12 8.26786 
3 *241:12 *1863:S1 12.7286 
4 *241:12 *241:23 2.58929 
5 *241:23 *1864:S0 20.4786 
6 *241:23 *1859:S0 10.6571 
7 *241:8 *1861:S1 21.7643 
*END

*D_NET *242 0.00287413
*CONN
*I *1860:A I *D sky130_fd_sc_hd__or2_1
*I *1804:A I *D sky130_fd_sc_hd__inv_1
*I *1865:S I *D sky130_fd_sc_hd__mux2_1
*I *2037:Q O *D sky130_fd_sc_hd__dlxtp_1
*CAP
1 *1860:A 0.000196104
2 *1804:A 0.000227474
3 *1865:S 0
4 *2037:Q 9.67803e-05
5 *242:14 0.000453451
6 *242:8 0.000518861
7 *1804:A *1859:A2 1.30694e-05
8 *1804:A *1860:B 5.47252e-05
9 *1804:A *1862:A1 2.48994e-05
10 *1804:A *1865:A0 7.49952e-05
11 *1804:A *1865:A1 5.20669e-05
12 *1804:A *1866:A2 0
13 *1804:A *1866:B1 0.000118995
14 *1804:A *1866:B2 1.80626e-05
15 *1860:A *1862:A1 0.000185124
16 *1860:A *1862:B1 1.02504e-05
17 *1860:A *1866:A1 0.000131588
18 *1860:A *1866:A2 0.000180452
19 *1860:A *483:46 1.26938e-05
20 *1860:A *647:185 0
21 *242:14 *1861:A3 3.69047e-06
22 *242:14 *1866:A2 0.000309233
23 *242:14 *1866:B2 0
24 *242:14 *482:26 0
25 *242:14 *483:46 4.19624e-06
26 *2266:A *242:14 0
27 *2268:A *242:8 0.000140088
28 *2270:A *1860:A 4.73286e-05
*RES
1 *2037:Q *242:8 15.1571 
2 *242:8 *242:14 9.10714 
3 *242:14 *1865:S 9.3 
4 *242:14 *1804:A 23.2687 
5 *242:8 *1860:A 19.0321 
*END

*D_NET *243 0.0179599
*CONN
*I *1862:B1 I *D sky130_fd_sc_hd__o21a_1
*I *1805:A I *D sky130_fd_sc_hd__inv_2
*I *2038:Q O *D sky130_fd_sc_hd__dlxtp_1
*CAP
1 *1862:B1 0.00113842
2 *1805:A 0.000389958
3 *2038:Q 0.00151526
4 *243:42 0.00350273
5 *243:20 0.00348962
6 *1805:A *2036:D 0.000478742
7 *1805:A *2036:GATE 0.00014061
8 *1805:A *644:34 5.71387e-05
9 *1805:A *659:83 6.67893e-05
10 *1805:A *708:12 0.000551265
11 *1862:B1 *1866:A1 3.34295e-05
12 *1862:B1 *1904:A0 0
13 *1862:B1 *642:34 3.28681e-06
14 *1862:B1 *647:185 0
15 *1862:B1 *660:43 0
16 *1862:B1 *701:28 0.00013615
17 *1862:B1 *706:24 3.59761e-05
18 *243:20 *2038:D 1.58163e-05
19 *243:20 *2038:GATE 6.57032e-05
20 *243:20 *537:32 9.45746e-05
21 *243:20 *590:49 0.000509968
22 *243:20 *590:96 0.000152746
23 *243:20 *618:50 0.000262096
24 *243:20 *624:58 9.41642e-05
25 *243:20 *624:108 0.000143676
26 *243:20 *652:139 2.22618e-05
27 *243:20 *667:54 8.55871e-05
28 *243:20 *680:46 0.000109576
29 *243:20 *684:114 0.000316292
30 *243:20 *689:74 0.000522469
31 *243:20 *701:54 1.65169e-05
32 *243:42 *1910:S1 0.000169804
33 *243:42 *2036:D 0.000412662
34 *243:42 *568:88 0.000142654
35 *243:42 *591:102 1.498e-05
36 *243:42 *593:44 0.000272773
37 *243:42 *596:40 0.000586945
38 *243:42 *618:50 5.11396e-07
39 *243:42 *624:108 0.000234329
40 *243:42 *627:104 4.63517e-05
41 *243:42 *628:90 0.000536363
42 *243:42 *659:83 0.000293476
43 *243:42 *684:130 1.98207e-05
44 *243:42 *687:114 0.000126591
45 *243:42 *689:74 7.40739e-05
46 *1860:A *1862:B1 1.02504e-05
47 *1876:S0 *243:20 0.000151841
48 *1876:S1 *243:20 0.000178425
49 *2269:A *1862:B1 3.7362e-05
50 *143:29 *1805:A 9.14134e-05
51 *143:29 *243:42 0.000162933
52 *145:37 *1862:B1 4.64337e-05
53 *154:75 *243:42 0.000213052
54 *181:17 *1862:B1 0.000186035
*RES
1 *2038:Q *243:20 42.9786 
2 *243:20 *243:42 31.2391 
3 *243:42 *1805:A 25.1304 
4 *243:42 *1862:B1 23.4967 
*END

*D_NET *244 0.00127
*CONN
*I *1828:A1 I *D sky130_fd_sc_hd__a41o_1
*I *1824:C1 I *D sky130_fd_sc_hd__a211oi_1
*I *2039:Q O *D sky130_fd_sc_hd__dlxtp_1
*CAP
1 *1828:A1 6.51121e-05
2 *1824:C1 9.56492e-05
3 *2039:Q 0.000127459
4 *244:8 0.00028822
5 *1824:C1 *1823:C 4.22135e-06
6 *1824:C1 *643:110 0.000207778
7 *1824:C1 *673:116 0.000202173
8 *1828:A1 *1828:A2 5.49349e-06
9 *1828:A1 *1828:A4 2.67922e-05
10 *1828:A1 *1828:B1 5.49544e-05
11 *244:8 *1828:A4 1.62532e-05
12 *244:8 *1828:B1 0.000175892
*RES
1 *2039:Q *244:8 11.4964 
2 *244:8 *1824:C1 21.1571 
3 *244:8 *1828:A1 10.675 
*END

*D_NET *245 0.00633937
*CONN
*I *1826:A1 I *D sky130_fd_sc_hd__o21ai_1
*I *1825:A I *D sky130_fd_sc_hd__or3b_1
*I *1823:A_N I *D sky130_fd_sc_hd__and3b_1
*I *1822:S I *D sky130_fd_sc_hd__mux2_1
*I *1827:B I *D sky130_fd_sc_hd__nand2_1
*I *2040:Q O *D sky130_fd_sc_hd__dlxtp_1
*CAP
1 *1826:A1 0
2 *1825:A 0.000150172
3 *1823:A_N 0
4 *1822:S 0.000341123
5 *1827:B 0
6 *2040:Q 0.000203652
7 *245:59 0.000461667
8 *245:22 0.000428428
9 *245:16 0.00024827
10 *245:10 0.000676112
11 *1822:S *1822:A0 3.77065e-05
12 *1822:S *1892:S1 0.000670927
13 *1822:S *2038:D 0.000381858
14 *1822:S *480:70 3.30842e-05
15 *1822:S *582:54 9.40986e-06
16 *1822:S *587:90 0.000149498
17 *1822:S *593:74 5.28707e-05
18 *1822:S *597:46 5.33005e-05
19 *1822:S *668:93 3.97677e-05
20 *1825:A *1972:D 9.41642e-05
21 *1825:A *2027:D 0.000184253
22 *1825:A *661:177 0.000150236
23 *1825:A *662:177 1.437e-05
24 *245:10 *1884:A1 0.000145358
25 *245:10 *633:78 0.000180009
26 *245:10 *643:110 0.000155468
27 *245:16 *1884:A1 0.000339769
28 *245:16 *1892:S0 2.21765e-05
29 *245:16 *643:110 0.00034086
30 *245:22 *1892:S0 0.000135028
31 *245:22 *651:247 5.33005e-05
32 *245:59 *1797:A 0.000135028
33 *245:59 *1824:A1 0.000153816
34 *245:59 *1824:A2 4.15161e-05
35 *245:59 *2041:D 9.25014e-06
36 *245:59 *246:36 9.41642e-05
37 *245:59 *630:84 9.28294e-05
38 *245:59 *651:247 4.75671e-06
39 *245:59 *662:177 2.01997e-05
40 *245:59 *673:116 3.49743e-05
*RES
1 *2040:Q *245:10 17.6661 
2 *245:10 *245:16 9.5625 
3 *245:16 *245:22 2.21429 
4 *245:22 *1827:B 9.3 
5 *245:22 *1822:S 27.3982 
6 *245:16 *1823:A_N 9.3 
7 *245:10 *245:59 14.4863 
8 *245:59 *1825:A 21.8 
9 *245:59 *1826:A1 9.3 
*END

*D_NET *246 0.00310619
*CONN
*I *1797:A I *D sky130_fd_sc_hd__inv_1
*I *1826:B1 I *D sky130_fd_sc_hd__o21ai_1
*I *1825:B I *D sky130_fd_sc_hd__or3b_1
*I *1823:C I *D sky130_fd_sc_hd__and3b_1
*I *2041:Q O *D sky130_fd_sc_hd__dlxtp_1
*CAP
1 *1797:A 0.000119741
2 *1826:B1 0
3 *1825:B 0.000244178
4 *1823:C 0.000138587
5 *2041:Q 0.0001202
6 *246:36 0.000210473
7 *246:10 0.000433546
8 *246:6 0.000261712
9 *1797:A *1824:A1 4.83493e-05
10 *1797:A *1826:A2 0.000122909
11 *1797:A *1828:A3 1.98839e-05
12 *1823:C *1824:B1 0.000191856
13 *1823:C *1892:S0 1.03037e-05
14 *1823:C *479:46 3.69047e-06
15 *1823:C *643:110 3.2215e-05
16 *1823:C *673:116 8.77729e-05
17 *1825:B *1972:D 0.000298483
18 *246:6 *1824:B1 5.33005e-05
19 *246:6 *1828:B1 0.000135028
20 *246:6 *2041:D 0.000125355
21 *246:10 *1824:A2 9.15621e-06
22 *246:10 *1824:B1 7.40571e-05
23 *246:10 *673:116 8.95049e-05
24 *246:36 *1824:B1 3.03738e-05
25 *246:36 *1828:A3 6.05161e-06
26 *246:36 *2041:D 6.05161e-06
27 *1824:C1 *1823:C 4.22135e-06
28 *245:59 *1797:A 0.000135028
29 *245:59 *246:36 9.41642e-05
*RES
1 *2041:Q *246:6 11.8893 
2 *246:6 *246:10 5.83929 
3 *246:10 *1823:C 16.8893 
4 *246:10 *1825:B 16.8 
5 *246:6 *246:36 1.91071 
6 *246:36 *1826:B1 9.3 
7 *246:36 *1797:A 12.2152 
*END

*D_NET *247 0.0099615
*CONN
*I *1856:S0 I *D sky130_fd_sc_hd__mux4_1
*I *1855:S1 I *D sky130_fd_sc_hd__mux4_1
*I *1853:S0 I *D sky130_fd_sc_hd__mux4_1
*I *1851:S1 I *D sky130_fd_sc_hd__mux4_1
*I *2042:Q O *D sky130_fd_sc_hd__dlxtp_1
*CAP
1 *1856:S0 0
2 *1855:S1 0.000377254
3 *1853:S0 0.000175887
4 *1851:S1 0.000794682
5 *2042:Q 0.000350989
6 *247:34 0.00126482
7 *247:32 0.00135221
8 *247:10 0.00103169
9 *1851:S1 *1851:S0 8.5691e-05
10 *1851:S1 *1853:A2 3.55139e-05
11 *1851:S1 *1853:S1 1.01912e-05
12 *1851:S1 *1854:A2 0.000309291
13 *1851:S1 *1854:B1 9.46745e-05
14 *1851:S1 *1858:B1 4.57538e-05
15 *1851:S1 *1867:A2 0.0003857
16 *1851:S1 *1867:S0 0
17 *1851:S1 *263:10 0.000125724
18 *1851:S1 *263:19 0.000269258
19 *1851:S1 *416:14 0
20 *1851:S1 *487:20 3.6337e-05
21 *1851:S1 *500:16 8.25512e-05
22 *1853:S0 *1853:A3 7.02611e-05
23 *1855:S1 *1857:A0 4.78169e-05
24 *1855:S1 *458:16 1.94135e-05
25 *1855:S1 *635:42 0.000403312
26 *247:10 *736:DIODE 0.000112297
27 *247:10 *524:142 3.69047e-06
28 *247:10 *649:134 5.88893e-05
29 *247:10 *662:77 5.44371e-05
30 *247:32 *1868:A 7.22667e-05
31 *247:32 *1871:S0 1.01912e-05
32 *247:32 *1871:S1 4.36551e-06
33 *247:32 *264:12 0.000177342
34 *247:32 *596:28 7.20786e-05
35 *247:32 *649:29 0.000166245
36 *247:32 *649:134 6.72688e-05
37 *247:32 *651:45 4.58764e-05
38 *247:32 *658:27 6.80114e-05
39 *247:32 *659:12 0.000160732
40 *247:32 *659:25 0.000330961
41 *247:34 *1853:A2 2.34204e-05
42 *247:34 *1868:A 0.000252438
43 *247:34 *1869:A2 1.21365e-05
44 *247:34 *1874:A1 3.4323e-06
45 *247:34 *248:37 4.01576e-05
46 *247:34 *263:19 9.03762e-05
47 *247:34 *263:36 9.94178e-05
48 *247:34 *264:12 7.73417e-05
49 *247:34 *264:40 0
50 *247:34 *583:72 2.13687e-05
51 *2220:A *1855:S1 5.60201e-05
52 *2222:A *1855:S1 0.000185149
53 *2222:A *247:32 0.000271789
54 *146:33 *1851:S1 5.47788e-05
*RES
1 *2042:Q *247:10 18.8536 
2 *247:10 *247:32 21.7171 
3 *247:32 *247:34 6.95536 
4 *247:34 *1851:S1 32.6036 
5 *247:34 *1853:S0 15.9964 
6 *247:32 *1855:S1 23.6638 
7 *247:10 *1856:S0 13.8 
*END

*D_NET *248 0.00916629
*CONN
*I *1855:S0 I *D sky130_fd_sc_hd__mux4_1
*I *1853:S1 I *D sky130_fd_sc_hd__mux4_1
*I *1851:S0 I *D sky130_fd_sc_hd__mux4_1
*I *1856:S1 I *D sky130_fd_sc_hd__mux4_1
*I *2043:Q O *D sky130_fd_sc_hd__dlxtp_1
*CAP
1 *1855:S0 5.45333e-05
2 *1853:S1 0.000174634
3 *1851:S0 0.000436045
4 *1856:S1 5.06822e-05
5 *2043:Q 0.000402492
6 *248:37 0.000850214
7 *248:35 0.000899585
8 *248:16 0.00105869
9 *1851:S0 *263:10 6.42242e-05
10 *1851:S0 *263:19 9.24527e-05
11 *1851:S0 *649:43 4.21624e-05
12 *1851:S0 *664:51 0.000952548
13 *1853:S1 *1867:S0 1.01912e-05
14 *1855:S0 *1855:A3 9.58181e-05
15 *248:16 *736:DIODE 0.00015907
16 *248:16 *649:134 7.29712e-05
17 *248:16 *662:77 7.72916e-05
18 *248:16 *681:67 0.000260297
19 *248:35 *1848:A2 0.000271445
20 *248:35 *1868:A 1.5929e-05
21 *248:35 *1871:S0 0.000367276
22 *248:35 *1871:S1 0.000303961
23 *248:35 *264:12 0.000250429
24 *248:35 *635:42 1.33331e-05
25 *248:35 *649:29 6.36482e-06
26 *248:35 *658:12 6.37895e-05
27 *248:35 *661:37 2.63501e-05
28 *248:35 *664:45 0.000220092
29 *248:35 *664:51 2.15339e-05
30 *248:35 *681:67 0.000193003
31 *248:37 *263:19 9.17441e-05
32 *248:37 *263:36 4.7312e-05
33 *248:37 *264:12 0.00010047
34 *248:37 *583:72 4.6392e-05
35 *248:37 *664:51 0.000548971
36 *1851:S1 *1851:S0 8.5691e-05
37 *1851:S1 *1853:S1 1.01912e-05
38 *2222:A *248:35 5.58197e-05
39 *2236:A *248:35 8.90826e-05
40 *2239:A *248:35 6.09762e-05
41 *145:37 *1853:S1 3.78134e-05
42 *146:33 *1851:S0 0.000279191
43 *147:39 *1853:S1 1.63116e-05
44 *147:39 *248:16 7.63858e-05
45 *147:39 *248:35 7.23698e-05
46 *150:17 *1853:S1 0
47 *247:34 *248:37 4.01576e-05
*RES
1 *2043:Q *248:16 30.3 
2 *248:16 *1856:S1 14.7464 
3 *248:16 *248:35 19.9958 
4 *248:35 *248:37 7.25893 
5 *248:37 *1851:S0 28.0411 
6 *248:37 *1853:S1 21.3041 
7 *248:35 *1855:S0 14.7464 
*END

*D_NET *249 0.00630452
*CONN
*I *1875:S1 I *D sky130_fd_sc_hd__mux4_1
*I *2026:Q O *D sky130_fd_sc_hd__dlxtp_1
*CAP
1 *1875:S1 0
2 *2026:Q 0.00170734
3 *249:34 0.00170734
4 *249:34 *1825:C_N 6.50032e-05
5 *249:34 *2180:A 0.000281752
6 *249:34 *409:18 1.1397e-05
7 *249:34 *569:62 0.000169958
8 *249:34 *582:54 5.40725e-06
9 *249:34 *587:90 7.60581e-05
10 *249:34 *593:44 0.000131787
11 *249:34 *593:74 6.4418e-06
12 *249:34 *596:82 0.000219218
13 *249:34 *654:41 2.16199e-05
14 *249:34 *658:113 0.000215961
15 *249:34 *661:177 0.000232467
16 *249:34 *662:177 5.96143e-05
17 *249:34 *667:54 0.000216755
18 *249:34 *671:111 0.000141101
19 *249:34 *672:134 2.52313e-05
20 *249:34 *673:116 3.92266e-05
21 *249:34 *680:46 0.000197606
22 *249:34 *684:35 0.000309457
23 *249:34 *684:46 0.000138676
24 *249:34 *701:54 0.000103075
25 *145:63 *249:34 6.66506e-05
26 *150:41 *249:34 0.000141101
27 *159:77 *249:34 1.42701e-05
*RES
1 *2026:Q *249:34 46.3413 
2 *249:34 *1875:S1 13.8 
*END

*D_NET *250 0.00116822
*CONN
*I *1852:A I *D sky130_fd_sc_hd__or2_1
*I *1802:A I *D sky130_fd_sc_hd__inv_2
*I *2044:Q O *D sky130_fd_sc_hd__dlxtp_1
*CAP
1 *1852:A 6.02851e-05
2 *1802:A 0
3 *2044:Q 0.000272921
4 *250:10 0.000333207
5 *1852:A *416:14 0.000122765
6 *250:10 *1803:A 7.61932e-05
7 *250:10 *1858:B2 5.68713e-05
8 *145:37 *1852:A 5.97527e-05
9 *145:37 *250:10 9.57064e-05
10 *147:13 *1852:A 3.34366e-05
11 *147:13 *250:10 0
12 *148:19 *250:10 5.70853e-05
*RES
1 *2044:Q *250:10 19.4607 
2 *250:10 *1802:A 13.8 
3 *250:10 *1852:A 15.7464 
*END

*D_NET *251 0.00142299
*CONN
*I *1854:B1 I *D sky130_fd_sc_hd__o21a_1
*I *1803:A I *D sky130_fd_sc_hd__inv_2
*I *2045:Q O *D sky130_fd_sc_hd__dlxtp_1
*CAP
1 *1854:B1 0.000133076
2 *1803:A 0.000248292
3 *2045:Q 0
4 *251:6 0.000381367
5 *1803:A *1858:A2 3.17163e-05
6 *1803:A *500:16 1.02504e-05
7 *1854:B1 *1851:A2 1.94945e-05
8 *1854:B1 *1858:A2 0.000122783
9 *1854:B1 *500:16 0.000200413
10 *1851:S1 *1854:B1 9.46745e-05
11 *146:33 *1803:A 0
12 *146:33 *1854:B1 0
13 *147:13 *1803:A 9.86823e-05
14 *148:19 *1803:A 6.05161e-06
15 *250:10 *1803:A 7.61932e-05
*RES
1 *2045:Q *251:6 13.8 
2 *251:6 *1803:A 19.4429 
3 *251:6 *1854:B1 18.175 
*END

*D_NET *252 0.00149804
*CONN
*I *1831:C1 I *D sky130_fd_sc_hd__a211oi_1
*I *1835:A1 I *D sky130_fd_sc_hd__a41o_1
*I *2046:Q O *D sky130_fd_sc_hd__dlxtp_1
*CAP
1 *1831:C1 0.000159507
2 *1835:A1 0.00014053
3 *2046:Q 0
4 *252:4 0.000300037
5 *1831:C1 *1831:B1 0.000226513
6 *1831:C1 *1832:A 0.000139491
7 *1831:C1 *1832:C_N 9.90431e-05
8 *1831:C1 *253:14 1.24368e-05
9 *1831:C1 *682:29 8.41716e-05
10 *1835:A1 *1833:A2 7.83659e-05
11 *1835:A1 *1835:A2 1.85502e-05
12 *1835:A1 *1835:A4 9.71197e-05
13 *1835:A1 *1835:B1 5.52238e-05
14 *1835:A1 *253:14 1.55885e-05
15 *1835:A1 *254:35 2.78608e-05
16 *1835:A1 *487:40 2.15363e-05
17 *1835:A1 *501:14 2.20608e-05
*RES
1 *2046:Q *252:4 9.3 
2 *252:4 *1835:A1 21.425 
3 *252:4 *1831:C1 13.8536 
*END

*D_NET *253 0.00438301
*CONN
*I *1829:S I *D sky130_fd_sc_hd__mux2_1
*I *1830:A_N I *D sky130_fd_sc_hd__and3b_1
*I *1834:B I *D sky130_fd_sc_hd__nand2_1
*I *1832:A I *D sky130_fd_sc_hd__or3b_1
*I *1833:A2 I *D sky130_fd_sc_hd__o21ai_1
*I *2047:Q O *D sky130_fd_sc_hd__dlxtp_1
*CAP
1 *1829:S 0.000108517
2 *1830:A_N 1.69531e-05
3 *1834:B 0
4 *1832:A 2.6876e-05
5 *1833:A2 0.000369704
6 *2047:Q 0.000165346
7 *253:47 0.000180871
8 *253:36 0.000134982
9 *253:14 0.000461256
10 *253:10 0.000309602
11 *1829:S *1820:A 2.14658e-05
12 *1829:S *1851:A3 0.000181381
13 *1829:S *579:78 0.000177821
14 *1829:S *649:53 4.35597e-05
15 *1829:S *650:76 0.000122591
16 *1830:A_N *579:78 5.33005e-05
17 *1830:A_N *650:76 5.33005e-05
18 *1832:A *682:29 0.000128074
19 *1833:A2 *1835:A2 7.6644e-05
20 *1833:A2 *1835:A4 0.000219711
21 *1833:A2 *1835:B1 3.63775e-05
22 *1833:A2 *493:18 3.57844e-05
23 *253:10 *493:12 0.00014183
24 *253:10 *493:18 0
25 *253:14 *487:40 1.92905e-05
26 *253:14 *682:29 0.000230482
27 *253:36 *487:40 0.000147332
28 *253:47 *487:40 0.000172913
29 *1831:C1 *1832:A 0.000139491
30 *1831:C1 *253:14 1.24368e-05
31 *1835:A1 *1833:A2 7.83659e-05
32 *1835:A1 *253:14 1.55885e-05
33 *160:15 *253:10 0.000127446
34 *160:15 *253:36 0.000211049
35 *160:15 *253:47 0.000162663
*RES
1 *2047:Q *253:10 16.8 
2 *253:10 *253:14 6.67857 
3 *253:14 *1833:A2 23.6571 
4 *253:14 *1832:A 10.6571 
5 *253:10 *253:36 2.85714 
6 *253:36 *1834:B 13.8 
7 *253:36 *253:47 6.75 
8 *253:47 *1830:A_N 9.83571 
9 *253:47 *1829:S 12.7286 
*END

*D_NET *254 0.00294405
*CONN
*I *1833:B1 I *D sky130_fd_sc_hd__o21ai_1
*I *1832:B I *D sky130_fd_sc_hd__or3b_1
*I *1798:A I *D sky130_fd_sc_hd__inv_1
*I *1830:B I *D sky130_fd_sc_hd__and3b_1
*I *2048:Q O *D sky130_fd_sc_hd__dlxtp_1
*CAP
1 *1833:B1 5.83191e-05
2 *1832:B 0
3 *1798:A 0.000122312
4 *1830:B 0.00011779
5 *2048:Q 0.00019326
6 *254:37 0.000158012
7 *254:35 0.000349188
8 *254:10 0.00056622
9 *1798:A *1831:B1 3.34366e-05
10 *1798:A *493:18 6.22238e-05
11 *1830:B *1834:A 6.35224e-05
12 *1830:B *1835:A2 1.69115e-05
13 *1830:B *501:14 0.000237959
14 *1830:B *579:78 5.46971e-05
15 *254:10 *1834:A 2.44073e-05
16 *254:10 *1835:A4 9.60939e-05
17 *254:35 *1831:B1 5.21214e-05
18 *254:35 *1833:A1 0
19 *254:35 *1834:A 9.26262e-05
20 *254:35 *1835:A2 5.33005e-05
21 *254:35 *1835:A3 5.52238e-05
22 *254:35 *1835:A4 1.54142e-05
23 *254:35 *1835:B1 0.000152375
24 *254:37 *1831:B1 3.90366e-05
25 *1835:A1 *254:35 2.78608e-05
26 *143:7 *1798:A 0.000105956
27 *143:9 *1798:A 7.29283e-05
28 *143:9 *1833:B1 5.54204e-05
29 *143:9 *254:35 3.26169e-05
30 *143:9 *254:37 3.48139e-05
31 *160:15 *1798:A 0
*RES
1 *2048:Q *254:10 12.7464 
2 *254:10 *1830:B 21.4607 
3 *254:10 *254:35 10.25 
4 *254:35 *254:37 1.03571 
5 *254:37 *1798:A 17.1973 
6 *254:37 *1832:B 13.8 
7 *254:35 *1833:B1 15.0679 
*END

*D_NET *255 0.0059995
*CONN
*I *1847:S0 I *D sky130_fd_sc_hd__mux4_1
*I *1848:S1 I *D sky130_fd_sc_hd__mux4_1
*I *1843:S1 I *D sky130_fd_sc_hd__mux4_1
*I *1845:S0 I *D sky130_fd_sc_hd__mux4_1
*I *2049:Q O *D sky130_fd_sc_hd__dlxtp_1
*CAP
1 *1847:S0 0.00010941
2 *1848:S1 4.59241e-05
3 *1843:S1 0.000229834
4 *1845:S0 0.000397732
5 *2049:Q 0.000358229
6 *255:41 0.000331638
7 *255:39 0.000520044
8 *255:12 0.00111072
9 *1843:S1 *1849:A0 0.000147583
10 *1843:S1 *1849:S 0.000170205
11 *1843:S1 *493:18 0.0001454
12 *1843:S1 *579:78 0.000139378
13 *1843:S1 *583:42 1.76025e-05
14 *1845:S0 *1850:A2 5.80276e-05
15 *1845:S0 *2272:A 9.09165e-05
16 *1845:S0 *257:14 2.84109e-05
17 *1845:S0 *602:160 5.35838e-05
18 *1845:S0 *602:166 0.000233397
19 *1845:S0 *643:10 2.21807e-05
20 *1845:S0 *650:47 0.00013042
21 *1845:S0 *650:49 0.000223258
22 *1845:S0 *664:14 3.17148e-05
23 *1847:S0 *1849:A0 0.00016357
24 *1847:S0 *493:18 0.000247508
25 *1847:S0 *579:78 6.19871e-05
26 *1848:S1 *1848:A0 2.79421e-05
27 *1848:S1 *664:41 4.58194e-05
28 *255:12 *1848:A0 6.41309e-06
29 *255:12 *1848:A1 4.58194e-05
30 *255:12 *1848:A3 0
31 *255:12 *643:10 9.88191e-05
32 *255:12 *664:14 5.33005e-05
33 *255:12 *664:41 0
34 *255:39 *256:8 0.000181796
35 *255:39 *650:47 9.80405e-05
36 *255:39 *664:14 9.03762e-05
37 *255:41 *1849:A0 0.000136625
38 *255:41 *493:18 0.000145876
*RES
1 *2049:Q *255:12 19.4071 
2 *255:12 *1845:S0 23.9786 
3 *255:12 *255:39 14.9821 
4 *255:39 *255:41 1.94643 
5 *255:41 *1843:S1 20.3893 
6 *255:41 *1848:S1 14.7464 
7 *255:39 *1847:S0 17.4964 
*END

*D_NET *256 0.0037574
*CONN
*I *1847:S1 I *D sky130_fd_sc_hd__mux4_1
*I *1845:S1 I *D sky130_fd_sc_hd__mux4_1
*I *1843:S0 I *D sky130_fd_sc_hd__mux4_1
*I *1848:S0 I *D sky130_fd_sc_hd__mux4_1
*I *2050:Q O *D sky130_fd_sc_hd__dlxtp_1
*CAP
1 *1847:S1 0.000169952
2 *1845:S1 0.00012904
3 *1843:S0 4.941e-05
4 *1848:S0 4.00035e-05
5 *2050:Q 0.000413385
6 *256:21 0.000323295
7 *256:10 0.000259928
8 *256:8 0.000658417
9 *1843:S0 *1843:A3 5.52302e-05
10 *1843:S0 *650:47 0
11 *1845:S1 *1850:A1 8.10148e-05
12 *1845:S1 *1850:A2 2.00751e-05
13 *1845:S1 *653:38 0.000218756
14 *1847:S1 *1849:A0 2.79421e-05
15 *1847:S1 *650:47 8.50667e-05
16 *1847:S1 *653:38 0.000267544
17 *1848:S0 *650:47 0
18 *256:10 *650:47 4.46819e-05
19 *256:10 *653:38 0.000121573
20 *256:21 *1850:A1 1.20729e-05
21 *256:21 *650:47 0.000244635
22 *256:21 *653:38 0.000353587
23 *255:39 *256:8 0.000181796
*RES
1 *2050:Q *256:8 18.4429 
2 *256:8 *256:10 1.64286 
3 *256:10 *1848:S0 14.3357 
4 *256:10 *256:21 4.67857 
5 *256:21 *1843:S0 14.8714 
6 *256:21 *1845:S1 17.1929 
7 *256:8 *1847:S1 18.2107 
*END

*D_NET *257 0.00392057
*CONN
*I *1849:S I *D sky130_fd_sc_hd__mux2_1
*I *1844:A I *D sky130_fd_sc_hd__or2_1
*I *1800:A I *D sky130_fd_sc_hd__inv_1
*I *2051:Q O *D sky130_fd_sc_hd__dlxtp_1
*CAP
1 *1849:S 0.000118008
2 *1844:A 3.39029e-05
3 *1800:A 2.8883e-05
4 *2051:Q 0.000608846
5 *257:29 0.000291231
6 *257:14 0.00077705
7 *1800:A *652:44 2.8066e-05
8 *1844:A *655:24 2.59355e-05
9 *1849:S *493:18 0.00036399
10 *1849:S *579:78 1.874e-05
11 *1849:S *583:42 6.07232e-05
12 *257:14 *1845:A1 0.000221359
13 *257:14 *1845:A2 4.04353e-05
14 *257:14 *1846:A1 7.60465e-05
15 *257:14 *1846:A2 7.83587e-05
16 *257:14 *1850:A2 3.69697e-05
17 *257:14 *2396:A 0.000225193
18 *257:14 *648:22 1.46717e-05
19 *257:14 *652:44 6.81552e-05
20 *257:29 *2396:A 0.000178425
21 *257:29 *493:18 0.000190554
22 *257:29 *583:42 5.44275e-05
23 *257:29 *652:44 8.57913e-05
24 *257:29 *653:54 7.6644e-05
25 *1843:S1 *1849:S 0.000170205
26 *1845:S0 *257:14 2.84109e-05
27 *159:21 *257:14 1.53129e-05
28 *160:39 *257:14 4.23644e-06
*RES
1 *2051:Q *257:14 27.9964 
2 *257:14 *1800:A 10.0098 
3 *257:14 *257:29 8.82143 
4 *257:29 *1844:A 14.3357 
5 *257:29 *1849:S 18.4786 
*END

*D_NET *258 0.00273619
*CONN
*I *1801:A I *D sky130_fd_sc_hd__inv_1
*I *1846:B1 I *D sky130_fd_sc_hd__o21a_1
*I *2052:Q O *D sky130_fd_sc_hd__dlxtp_1
*CAP
1 *1801:A 0.000173569
2 *1846:B1 0.000312607
3 *2052:Q 0
4 *258:6 0.000486176
5 *1801:A *1843:A1 5.3517e-05
6 *1801:A *2277:A 9.70767e-05
7 *1801:A *492:18 0.000256514
8 *1801:A *626:148 0.000269258
9 *1846:B1 *1845:A0 2.04825e-05
10 *1846:B1 *2396:A 0.000161934
11 *1846:B1 *492:18 0.000326031
12 *1846:B1 *626:148 0.00011294
13 *1846:B1 *652:44 0.000305895
14 *157:21 *1846:B1 0.000132788
15 *160:39 *1846:B1 2.73991e-05
*RES
1 *2052:Q *258:6 13.8 
2 *258:6 *1846:B1 22.4071 
3 *258:6 *1801:A 19.1884 
*END

*D_NET *259 0.00162858
*CONN
*I *1842:A1 I *D sky130_fd_sc_hd__a41o_1
*I *1838:C1 I *D sky130_fd_sc_hd__a211oi_1
*I *2053:Q O *D sky130_fd_sc_hd__dlxtp_1
*CAP
1 *1842:A1 0
2 *1838:C1 0.000158502
3 *2053:Q 0.000148287
4 *259:12 0.000306789
5 *1838:C1 *1842:A4 3.22325e-05
6 *1838:C1 *1842:B1 0.000241998
7 *1838:C1 *505:24 2.29133e-05
8 *1838:C1 *643:28 0.000113277
9 *1838:C1 *672:184 2.50489e-05
10 *259:12 *1839:A 0.000264616
11 *259:12 *261:12 7.85137e-05
12 *259:12 *591:126 0.000236407
13 *159:45 *259:12 0
*RES
1 *2053:Q *259:12 22.5321 
2 *259:12 *1838:C1 22.2107 
3 *259:12 *1842:A1 9.3 
*END

*D_NET *260 0.000717459
*CONN
*I *1875:S0 I *D sky130_fd_sc_hd__mux4_1
*I *2027:Q O *D sky130_fd_sc_hd__dlxtp_1
*CAP
1 *1875:S0 0.000152652
2 *2027:Q 0.000152652
3 *1875:S0 *1887:A1 6.57032e-05
4 *1875:S0 *642:106 6.05161e-06
5 *1875:S0 *664:166 0.000144103
6 *1875:A1 *1875:S0 5.21937e-05
7 *145:63 *1875:S0 0.000144103
*RES
1 *2027:Q *1875:S0 31.3143 
*END

*D_NET *261 0.00432274
*CONN
*I *1839:A I *D sky130_fd_sc_hd__or3b_1
*I *1836:S I *D sky130_fd_sc_hd__mux2_1
*I *1840:A2 I *D sky130_fd_sc_hd__o21ai_1
*I *1837:A_N I *D sky130_fd_sc_hd__and3b_1
*I *1841:B I *D sky130_fd_sc_hd__nand2_1
*I *2054:Q O *D sky130_fd_sc_hd__dlxtp_1
*CAP
1 *1839:A 0.000395122
2 *1836:S 0.000323507
3 *1840:A2 0.00013766
4 *1837:A_N 0.00016083
5 *1841:B 0
6 *2054:Q 0
7 *261:21 0.000320876
8 *261:19 0.000366259
9 *261:12 0.000185051
10 *261:4 0.000559806
11 *1836:S *1838:A2 9.58181e-05
12 *1836:S *1840:A1 0.000263428
13 *1836:S *1840:B1 0.00017591
14 *1836:S *1841:A 2.59355e-05
15 *1836:S *1842:A3 5.33005e-05
16 *1836:S *1842:A4 0.000139907
17 *1837:A_N *1912:A0 2.59355e-05
18 *1837:A_N *262:6 1.83053e-05
19 *1837:A_N *508:14 0.000121842
20 *1837:A_N *618:12 0
21 *1839:A *1839:B 9.41642e-05
22 *1839:A *1842:A2 6.8445e-06
23 *1839:A *1842:A4 6.57032e-05
24 *1839:A *508:14 5.33005e-05
25 *1839:A *591:126 1.02821e-05
26 *1839:A *662:132 7.39365e-05
27 *1840:A2 *1840:A1 3.08382e-06
28 *1840:A2 *1840:B1 4.77232e-05
29 *1840:A2 *1841:A 5.33005e-05
30 *261:12 *591:126 3.28801e-05
31 *261:12 *618:12 9.71118e-06
32 *261:12 *618:30 0.000139215
33 *261:12 *628:112 0
34 *159:45 *261:12 1.99737e-05
35 *259:12 *1839:A 0.000264616
36 *259:12 *261:12 7.85137e-05
*RES
1 *2054:Q *261:4 9.3 
2 *261:4 *261:12 12.6696 
3 *261:12 *1841:B 9.3 
4 *261:12 *261:19 0.580357 
5 *261:19 *261:21 0.428571 
6 *261:21 *1837:A_N 21.4429 
7 *261:21 *1840:A2 11.9071 
8 *261:19 *1836:S 16.3357 
9 *261:4 *1839:A 16.4429 
*END

*D_NET *262 0.00296989
*CONN
*I *1839:B I *D sky130_fd_sc_hd__or3b_1
*I *1840:B1 I *D sky130_fd_sc_hd__o21ai_1
*I *1799:A I *D sky130_fd_sc_hd__inv_1
*I *1837:B I *D sky130_fd_sc_hd__and3b_1
*I *2055:Q O *D sky130_fd_sc_hd__dlxtp_1
*CAP
1 *1839:B 0.000122651
2 *1840:B1 6.20204e-05
3 *1799:A 8.84817e-05
4 *1837:B 0
5 *2055:Q 0.000188361
6 *262:28 0.000288477
7 *262:15 0.000303393
8 *262:6 0.000299466
9 *1799:A *1837:C 6.39808e-05
10 *1799:A *1838:A1 7.55747e-05
11 *1799:A *2167:A 6.44047e-05
12 *1799:A *561:30 4.32258e-05
13 *1799:A *643:28 2.00842e-05
14 *1799:A *652:34 4.34543e-05
15 *1799:A *664:6 6.05161e-06
16 *1799:A *664:103 3.13387e-05
17 *1839:B *1838:A1 0.000121573
18 *1839:B *1838:B1 0.000116481
19 *1840:B1 *1840:A1 5.33005e-05
20 *262:6 *1912:A0 5.55808e-05
21 *262:15 *1912:A0 6.57032e-05
22 *262:28 *1837:C 7.15521e-05
23 *262:28 *1838:A1 0.000267672
24 *262:28 *1838:B1 0.000147332
25 *262:28 *643:28 1.91414e-05
26 *1836:S *1840:B1 0.00017591
27 *1837:A_N *262:6 1.83053e-05
28 *1839:A *1839:B 9.41642e-05
29 *1840:A2 *1840:B1 4.77232e-05
30 *154:47 *1799:A 1.44868e-05
*RES
1 *2055:Q *262:6 11.4786 
2 *262:6 *1837:B 9.3 
3 *262:6 *262:15 5.85714 
4 *262:15 *1799:A 16.3937 
5 *262:15 *262:28 3.46429 
6 *262:28 *1840:B1 15.55 
7 *262:28 *1839:B 16.3893 
*END

*D_NET *263 0.00607288
*CONN
*I *1871:S0 I *D sky130_fd_sc_hd__mux4_1
*I *1872:S1 I *D sky130_fd_sc_hd__mux4_1
*I *1869:S0 I *D sky130_fd_sc_hd__mux4_1
*I *1867:S1 I *D sky130_fd_sc_hd__mux4_1
*I *2028:Q O *D sky130_fd_sc_hd__dlxtp_1
*CAP
1 *1871:S0 0.000491808
2 *1872:S1 4.91509e-05
3 *1869:S0 0
4 *1867:S1 0
5 *2028:Q 0.000345697
6 *263:36 0.0010996
7 *263:19 0.000713012
8 *263:10 0.00050007
9 *1871:S0 *1868:A 5.31122e-05
10 *1871:S0 *458:16 2.05565e-05
11 *1871:S0 *645:14 7.31653e-05
12 *1871:S0 *646:24 0.000147561
13 *1871:S0 *649:29 2.26973e-05
14 *1871:S0 *658:10 0.000144348
15 *1871:S0 *658:12 1.08716e-05
16 *1871:S0 *661:16 2.06112e-05
17 *1871:S0 *661:81 5.75015e-05
18 *1872:S1 *661:12 6.05161e-06
19 *263:10 *2034:GATE 0.000223456
20 *263:10 *634:84 5.72869e-05
21 *263:36 *1855:A2 6.91416e-05
22 *263:36 *1857:A0 7.07169e-05
23 *263:36 *1868:A 0
24 *263:36 *1869:A2 6.98553e-06
25 *263:36 *1869:A3 4.88515e-05
26 *263:36 *1870:A2 0.000121953
27 *263:36 *1872:A2 1.01912e-05
28 *263:36 *264:40 0.000187256
29 *263:36 *458:16 0.00011002
30 *263:36 *653:54 2.87555e-06
31 *1851:S0 *263:10 6.42242e-05
32 *1851:S0 *263:19 9.24527e-05
33 *1851:S1 *263:10 0.000125724
34 *1851:S1 *263:19 0.000269258
35 *2221:A *1872:S1 3.17684e-05
36 *2236:A *1871:S0 4.98104e-05
37 *147:39 *1871:S0 5.84915e-05
38 *149:27 *1871:S0 1.02872e-05
39 *247:32 *1871:S0 1.01912e-05
40 *247:34 *263:19 9.03762e-05
41 *247:34 *263:36 9.94178e-05
42 *248:35 *1871:S0 0.000367276
43 *248:37 *263:19 9.17441e-05
44 *248:37 *263:36 4.7312e-05
*RES
1 *2028:Q *263:10 19.2643 
2 *263:10 *1867:S1 13.8 
3 *263:10 *263:19 4.67857 
4 *263:19 *1869:S0 13.8 
5 *263:19 *263:36 19.7321 
6 *263:36 *1872:S1 14.7464 
7 *263:36 *1871:S0 27.315 
*END

*D_NET *264 0.00457964
*CONN
*I *1869:S1 I *D sky130_fd_sc_hd__mux4_1
*I *1867:S0 I *D sky130_fd_sc_hd__mux4_1
*I *1871:S1 I *D sky130_fd_sc_hd__mux4_1
*I *1872:S0 I *D sky130_fd_sc_hd__mux4_1
*I *2029:Q O *D sky130_fd_sc_hd__dlxtp_1
*CAP
1 *1869:S1 3.78763e-05
2 *1867:S0 0.000188238
3 *1871:S1 0.000329192
4 *1872:S0 2.6491e-05
5 *2029:Q 8.8041e-05
6 *264:40 0.000591
7 *264:12 0.000508443
8 *264:6 0.000605687
9 *1867:S0 *1853:A2 0.000119132
10 *1867:S0 *1854:A2 0.000150625
11 *1867:S0 *1857:A0 8.41555e-06
12 *1867:S0 *1867:A1 1.58163e-05
13 *1867:S0 *1867:A3 5.80706e-06
14 *1867:S0 *1869:A2 4.32957e-05
15 *1867:S0 *487:20 0.000106299
16 *1867:S0 *647:46 2.59355e-05
17 *1869:S1 *1857:A0 1.01912e-05
18 *1871:S1 *1868:A 7.40571e-05
19 *1871:S1 *1872:A2 1.22507e-05
20 *1871:S1 *1872:A3 3.97677e-05
21 *1871:S1 *646:24 0.00011122
22 *1871:S1 *664:41 5.38444e-06
23 *1872:S0 *1872:A3 5.33005e-05
24 *264:6 *1868:B 1.07719e-05
25 *264:6 *583:42 3.83493e-06
26 *264:12 *649:29 2.89791e-06
27 *264:40 *1857:A0 1.78113e-05
28 *264:40 *1868:A 3.98833e-05
29 *264:40 *1869:A2 1.04707e-05
30 *264:40 *1870:B1 0.000140088
31 *264:40 *1874:A1 4.21517e-05
32 *1851:S1 *1867:S0 0
33 *1853:S1 *1867:S0 1.01912e-05
34 *2221:A *1871:S1 3.6692e-06
35 *2222:A *1871:S1 3.37068e-05
36 *147:39 *1871:S1 6.52971e-06
37 *247:32 *1871:S1 4.36551e-06
38 *247:32 *264:12 0.000177342
39 *247:34 *264:12 7.73417e-05
40 *247:34 *264:40 0
41 *248:35 *1871:S1 0.000303961
42 *248:35 *264:12 0.000250429
43 *248:37 *264:12 0.00010047
44 *263:36 *264:40 0.000187256
*RES
1 *2029:Q *264:6 10.2464 
2 *264:6 *264:12 13.6786 
3 *264:12 *1872:S0 9.83571 
4 *264:12 *1871:S1 24.5679 
5 *264:6 *264:40 10.7054 
6 *264:40 *1867:S0 19.1661 
7 *264:40 *1869:S1 14.6125 
*END

*D_NET *265 0.00872295
*CONN
*I *1806:A I *D sky130_fd_sc_hd__inv_1
*I *1873:S I *D sky130_fd_sc_hd__mux2_1
*I *1868:A I *D sky130_fd_sc_hd__or2_1
*I *2030:Q O *D sky130_fd_sc_hd__dlxtp_1
*CAP
1 *1806:A 0.000485171
2 *1873:S 0
3 *1868:A 0.000694829
4 *2030:Q 0.000660587
5 *265:18 0.000774974
6 *265:14 0.0012259
7 *1806:A *1807:A 0.000226021
8 *1806:A *266:10 0.000505808
9 *1806:A *567:14 0.0001416
10 *1868:A *1855:A2 7.4666e-05
11 *1868:A *1872:A2 7.05143e-06
12 *1868:A *1874:A1 8.58705e-05
13 *1868:A *583:42 1.85392e-05
14 *1868:A *661:81 5.1588e-05
15 *265:14 *266:10 0.000296235
16 *265:14 *634:78 0.000181257
17 *265:14 *647:123 0.000164672
18 *265:14 *661:81 0
19 *1871:S0 *1868:A 5.31122e-05
20 *1871:S1 *1868:A 7.40571e-05
21 *2220:A *1806:A 4.98496e-06
22 *2221:A *1806:A 0.000160156
23 *2222:A *1868:A 0.00020099
24 *2223:A *265:14 9.02903e-05
25 *2225:A *265:14 1.59765e-05
26 *2226:A *265:14 0.000103785
27 *2232:A *1868:A 0.000270056
28 *2232:A *265:18 0.000385713
29 *2233:A *1806:A 7.41213e-05
30 *2234:A *265:14 2.09826e-05
31 *2234:A *265:18 6.57914e-05
32 *2235:A *1868:A 9.41642e-05
33 *2235:A *265:18 0.000267128
34 *2237:A *1806:A 1.14166e-05
35 *2237:A *265:14 0.00011146
36 *2238:A *265:14 0
37 *149:9 *1806:A 0.000743479
38 *247:32 *1868:A 7.22667e-05
39 *247:34 *1868:A 0.000252438
40 *248:35 *1868:A 1.5929e-05
41 *263:36 *1868:A 0
42 *264:40 *1868:A 3.98833e-05
*RES
1 *2030:Q *265:14 27.8893 
2 *265:14 *265:18 8.32143 
3 *265:18 *1868:A 40.7286 
4 *265:18 *1873:S 9.3 
5 *265:14 *1806:A 29.8312 
*END

*D_NET *266 0.00489942
*CONN
*I *1870:B1 I *D sky130_fd_sc_hd__o21a_1
*I *1807:A I *D sky130_fd_sc_hd__inv_2
*I *2031:Q O *D sky130_fd_sc_hd__dlxtp_1
*CAP
1 *1870:B1 0.000472328
2 *1807:A 0.000167653
3 *2031:Q 0.000412765
4 *266:10 0.00105275
5 *1807:A *567:14 0.000121606
6 *1870:B1 *1870:A1 2.32275e-05
7 *1870:B1 *1874:A1 9.60875e-05
8 *1870:B1 *1874:A2 0.000439122
9 *1870:B1 *1874:B1 2.84026e-05
10 *1870:B1 *487:20 5.33005e-05
11 *1870:B1 *583:42 3.08382e-06
12 *266:10 *2031:D 7.32173e-05
13 *266:10 *567:14 6.54885e-05
14 *266:10 *634:78 4.21517e-05
15 *266:10 *634:84 5.68312e-06
16 *266:10 *657:18 0.000654917
17 *1806:A *1807:A 0.000226021
18 *1806:A *266:10 0.000505808
19 *2234:A *266:10 1.94879e-05
20 *264:40 *1870:B1 0.000140088
21 *265:14 *266:10 0.000296235
*RES
1 *2031:Q *266:10 26.5143 
2 *266:10 *1807:A 18.0143 
3 *266:10 *1870:B1 22.9964 
*END

*D_NET *267 0.00282585
*CONN
*I *1817:C1 I *D sky130_fd_sc_hd__a211oi_1
*I *1821:A1 I *D sky130_fd_sc_hd__a41o_1
*I *2032:Q O *D sky130_fd_sc_hd__dlxtp_1
*CAP
1 *1817:C1 0.0002829
2 *1821:A1 0.000214482
3 *2032:Q 0.000155826
4 *267:14 0.000653208
5 *1817:C1 *1817:A1 3.27359e-05
6 *1817:C1 *1817:B1 2.89114e-05
7 *1817:C1 *268:27 1.18443e-05
8 *1817:C1 *650:76 6.05161e-06
9 *1821:A1 *1816:A_N 9.82436e-05
10 *1821:A1 *1819:A2 6.05161e-06
11 *1821:A1 *1821:B1 5.33005e-05
12 *1821:A1 *2048:D 0.000148903
13 *1821:A1 *582:12 0.000413582
14 *267:14 *2183:A 4.00276e-06
15 *267:14 *268:27 2.30813e-05
16 *267:14 *492:18 4.49292e-05
17 *146:33 *1817:C1 0.00030941
18 *153:21 *1817:C1 0.000111987
19 *153:21 *267:14 5.51755e-05
20 *157:21 *1821:A1 8.54156e-05
21 *157:21 *267:14 4.38243e-05
22 *159:21 *1817:C1 2.95076e-06
23 *160:15 *1817:C1 1.88175e-05
24 *181:17 *267:14 2.02162e-05
*RES
1 *2032:Q *267:14 18.5893 
2 *267:14 *1821:A1 23.1832 
3 *267:14 *1817:C1 19.3603 
*END

*D_NET *268 0.00311514
*CONN
*I *1818:A I *D sky130_fd_sc_hd__or3b_1
*I *1815:S I *D sky130_fd_sc_hd__mux2_1
*I *1820:B I *D sky130_fd_sc_hd__nand2_1
*I *1819:A1 I *D sky130_fd_sc_hd__o21ai_1
*I *1816:A_N I *D sky130_fd_sc_hd__and3b_1
*I *2033:Q O *D sky130_fd_sc_hd__dlxtp_1
*CAP
1 *1818:A 0.000147274
2 *1815:S 0
3 *1820:B 5.96836e-05
4 *1819:A1 0.000112389
5 *1816:A_N 4.19708e-05
6 *2033:Q 0.00011795
7 *268:55 0.000147274
8 *268:31 0.000244411
9 *268:27 0.00026361
10 *268:8 0.000351192
11 *1818:A *1815:A1 0.000255147
12 *1819:A1 *1820:A 2.14315e-05
13 *1820:B *1820:A 1.76227e-05
14 *1820:B *1821:A4 8.25843e-06
15 *268:8 *2390:A 3.26036e-05
16 *268:27 *650:76 5.74391e-05
17 *268:31 *650:76 0.000141969
18 *1817:C1 *268:27 1.18443e-05
19 *1819:B1 *1819:A1 3.10313e-06
20 *1821:A1 *1816:A_N 9.82436e-05
21 *146:33 *268:27 0.000183271
22 *157:21 *1816:A_N 0.000100831
23 *160:15 *268:27 6.53397e-05
24 *160:15 *268:31 0.000140383
25 *181:17 *268:27 0.00046882
26 *267:14 *268:27 2.30813e-05
*RES
1 *2033:Q *268:8 15.1571 
2 *268:8 *1816:A_N 15.1393 
3 *268:8 *268:27 8.47159 
4 *268:27 *268:31 6.44643 
5 *268:31 *1819:A1 11.1125 
6 *268:31 *1820:B 10.6929 
7 *268:27 *268:55 4.5 
8 *268:55 *1815:S 9.3 
9 *268:55 *1818:A 11.8893 
*END

*D_NET *269 0.00311722
*CONN
*I *1892:S0 I *D sky130_fd_sc_hd__mux4_1
*I *1992:Q O *D sky130_fd_sc_hd__dlxtp_1
*CAP
1 *1892:S0 0.000834408
2 *1992:Q 0.000834408
3 *1892:S0 *1823:B 0.000135028
4 *1892:S0 *1892:A2 9.44848e-05
5 *1892:S0 *1892:A3 0.000231854
6 *1892:S0 *2102:A 5.33005e-05
7 *1892:S0 *479:46 0.000104292
8 *1892:S0 *480:70 1.65169e-05
9 *1892:S0 *603:32 0.000137561
10 *1892:S0 *652:175 0.000507861
11 *1823:C *1892:S0 1.03037e-05
12 *245:16 *1892:S0 2.21765e-05
13 *245:22 *1892:S0 0.000135028
*RES
1 *1992:Q *1892:S0 33.9571 
*END

*D_NET *270 0.0027046
*CONN
*I *1892:S1 I *D sky130_fd_sc_hd__mux4_1
*I *1993:Q O *D sky130_fd_sc_hd__dlxtp_1
*CAP
1 *1892:S1 0.000657546
2 *1993:Q 0.000657546
3 *1892:S1 *1824:A2 5.63485e-05
4 *1892:S1 *1825:C_N 0.000162114
5 *1892:S1 *2038:D 6.47684e-05
6 *1892:S1 *593:74 0.000299989
7 *1892:S1 *597:46 4.16899e-05
8 *1892:S1 *618:50 2.9334e-05
9 *1892:S1 *693:46 3.22325e-05
10 *1892:S1 *708:28 3.21013e-05
11 *1822:S *1892:S1 0.000670927
*RES
1 *1993:Q *1892:S1 40.2429 
*END

*D_NET *271 0.000745396
*CONN
*I *1887:S1 I *D sky130_fd_sc_hd__mux4_1
*I *2002:Q O *D sky130_fd_sc_hd__dlxtp_1
*CAP
1 *1887:S1 0.000187632
2 *2002:Q 0.000187632
3 *1887:S1 *569:62 2.59355e-05
4 *1887:S1 *650:216 0.000130841
5 *1887:S1 *707:67 9.8232e-05
6 *1887:A3 *1887:S1 6.42187e-06
7 *234:94 *1887:S1 5.02105e-05
8 *236:91 *1887:S1 3.12784e-05
9 *236:116 *1887:S1 2.7211e-05
*RES
1 *2002:Q *1887:S1 31.9214 
*END

*D_NET *272 0.000562497
*CONN
*I *1887:S0 I *D sky130_fd_sc_hd__mux4_1
*I *2003:Q O *D sky130_fd_sc_hd__dlxtp_1
*CAP
1 *1887:S0 0.000160975
2 *2003:Q 0.000160975
3 *1887:S0 *2292:A 1.58163e-05
4 *1887:S0 *517:60 9.25014e-06
5 *1887:S0 *555:38 6.2589e-06
6 *1887:S0 *676:48 0.000141986
7 *1887:S0 *702:14 2.87398e-06
8 *1887:S0 *702:30 2.22043e-05
9 *1887:S0 *707:67 4.21589e-05
*RES
1 *2003:Q *1887:S0 31.0464 
*END

*D_NET *273 0.00116339
*CONN
*I *1886:S1 I *D sky130_fd_sc_hd__mux4_1
*I *2004:Q O *D sky130_fd_sc_hd__dlxtp_1
*CAP
1 *1886:S1 0.000390633
2 *2004:Q 0.000390633
3 *1886:S1 *1886:S0 0.000262686
4 *1886:S1 *2005:GATE 5.52238e-05
5 *1886:S1 *483:78 0
6 *1886:S1 *571:18 6.42145e-05
*RES
1 *2004:Q *1886:S1 33.0643 
*END

*D_NET *274 0.00137916
*CONN
*I *1886:S0 I *D sky130_fd_sc_hd__mux4_1
*I *2005:Q O *D sky130_fd_sc_hd__dlxtp_1
*CAP
1 *1886:S0 0.000222605
2 *2005:Q 0.000222605
3 *1886:S0 *1894:A3 6.07037e-07
4 *1886:S0 *2121:A 0.000353638
5 *1886:S0 *577:20 0.000171391
6 *1886:S0 *632:174 1.19416e-05
7 *1886:S0 *698:175 0.000133683
8 *1886:S1 *1886:S0 0.000262686
*RES
1 *2005:Q *1886:S0 34.1 
*END

*D_NET *275 0.000677979
*CONN
*I *1885:S1 I *D sky130_fd_sc_hd__mux4_1
*I *2006:Q O *D sky130_fd_sc_hd__dlxtp_1
*CAP
1 *1885:S1 0.000249969
2 *2006:Q 0.000249969
3 *1885:S1 *2081:A 5.49544e-05
4 *1885:S1 *673:48 0.000123087
*RES
1 *2006:Q *1885:S1 22.85 
*END

*D_NET *276 0.00224248
*CONN
*I *1885:S0 I *D sky130_fd_sc_hd__mux4_1
*I *2007:Q O *D sky130_fd_sc_hd__dlxtp_1
*CAP
1 *1885:S0 0.000781713
2 *2007:Q 0.000781713
3 *1885:S0 *1964:GATE 6.8147e-05
4 *1885:S0 *491:96 2.66789e-06
5 *1885:S0 *524:14 0.000258094
6 *1885:S0 *535:26 1.71321e-05
7 *1885:S0 *552:28 2.64085e-05
8 *1885:S0 *553:20 2.22043e-05
9 *1885:S0 *635:102 9.60337e-06
10 *1885:S0 *708:84 0.000141077
11 *1885:A3 *1885:S0 7.44354e-05
12 *146:99 *1885:S0 4.01879e-05
13 *160:127 *1885:S0 1.90936e-05
*RES
1 *2007:Q *1885:S0 38.1599 
*END

*D_NET *277 0.00128919
*CONN
*I *1884:S0 I *D sky130_fd_sc_hd__mux4_1
*I *2008:Q O *D sky130_fd_sc_hd__dlxtp_1
*CAP
1 *1884:S0 0.000365929
2 *2008:Q 0.000365929
3 *1884:S0 *556:54 7.68393e-05
4 *1884:S0 *661:177 0.000231921
5 *1884:S0 *661:207 5.41797e-06
6 *1884:S0 *693:68 0.000243153
*RES
1 *2008:Q *1884:S0 34.5821 
*END

*D_NET *278 0.00192171
*CONN
*I *1884:S1 I *D sky130_fd_sc_hd__mux4_1
*I *2009:Q O *D sky130_fd_sc_hd__dlxtp_1
*CAP
1 *1884:S1 0.000578173
2 *2009:Q 0.000578173
3 *1884:S1 *1884:A0 2.59355e-05
4 *1884:S1 *1884:A2 2.18792e-05
5 *1884:S1 *1884:A3 8.12539e-05
6 *1884:S1 *1907:S0 3.6692e-06
7 *1884:S1 *556:54 5.54183e-05
8 *1884:S1 *658:133 0.000260069
9 *1884:S1 *673:116 0.00026172
10 *1884:S1 *708:56 5.54183e-05
*RES
1 *2009:Q *1884:S1 45.85 
*END

*D_NET *279 0.00065093
*CONN
*I *1883:S0 I *D sky130_fd_sc_hd__mux4_1
*I *2010:Q O *D sky130_fd_sc_hd__dlxtp_1
*CAP
1 *1883:S0 0.00011962
2 *2010:Q 0.00011962
3 *1883:S0 *1883:A0 0.000132792
4 *1883:S0 *2073:A 6.86792e-05
5 *1883:S0 *483:90 1.90936e-05
6 *146:99 *1883:S0 0.000147583
7 *150:87 *1883:S0 4.35421e-05
*RES
1 *2010:Q *1883:S0 30.9036 
*END

*D_NET *280 0.00159081
*CONN
*I *1883:S1 I *D sky130_fd_sc_hd__mux4_1
*I *2011:Q O *D sky130_fd_sc_hd__dlxtp_1
*CAP
1 *1883:S1 0.000405199
2 *2011:Q 0.000405199
3 *1883:S1 *2366:A 0.000264393
4 *1883:S1 *2369:A 0.000171368
5 *1883:S1 *564:8 5.74499e-06
6 *1883:S1 *577:20 0.000147706
7 *710:DIODE *1883:S1 0
8 *742:DIODE *1883:S1 0.000170955
9 *2150:A *1883:S1 1.21258e-05
10 *2153:A *1883:S1 6.05161e-06
11 *2158:A *1883:S1 0
12 *151:77 *1883:S1 0
13 *151:85 *1883:S1 2.06655e-06
*RES
1 *2011:Q *1883:S1 36.7071 
*END

*D_NET *281 0.00194295
*CONN
*I *1891:S0 I *D sky130_fd_sc_hd__mux4_1
*I *1994:Q O *D sky130_fd_sc_hd__dlxtp_1
*CAP
1 *1891:S0 0.000595897
2 *1994:Q 0.000595897
3 *1891:S0 *1891:A0 1.32056e-05
4 *1891:S0 *1891:A1 9.35114e-06
5 *1891:S0 *1995:D 0.000127246
6 *1891:S0 *2376:A 7.70035e-05
7 *1891:S0 *588:16 4.3888e-05
8 *1891:S0 *613:40 0.000135773
9 *1891:S0 *630:26 4.30904e-05
10 *1891:S0 *630:50 6.74911e-05
11 *1891:S0 *631:18 0.000168045
12 *1891:S0 *670:45 1.33343e-05
13 *1891:S0 *679:97 7.33786e-06
14 *1891:S0 *687:28 4.53889e-05
*RES
1 *1994:Q *1891:S0 39.725 
*END

*D_NET *282 0.00105771
*CONN
*I *1882:S1 I *D sky130_fd_sc_hd__mux4_1
*I *2012:Q O *D sky130_fd_sc_hd__dlxtp_1
*CAP
1 *1882:S1 0.000283023
2 *2012:Q 0.000283023
3 *1882:S1 *571:18 6.24997e-05
4 *1882:S1 *580:16 0.000301016
5 FrameData_O[24] *1882:S1 0.000128146
*RES
1 *2012:Q *1882:S1 32.2429 
*END

*D_NET *283 0.00337857
*CONN
*I *1882:S0 I *D sky130_fd_sc_hd__mux4_1
*I *2013:Q O *D sky130_fd_sc_hd__dlxtp_1
*CAP
1 *1882:S0 0.000812699
2 *2013:Q 0.000812699
3 *1882:S0 *1906:A2 6.60111e-05
4 *1882:S0 *1914:S0 0.000334135
5 *1882:S0 *1949:D 3.63775e-05
6 *1882:S0 *1949:GATE 0.000298483
7 *1882:S0 *2068:A 1.03105e-05
8 *1882:S0 *2084:A 0.000125253
9 *1882:S0 *2334:A 0.000147973
10 *1882:S0 *2353:A 0.000296021
11 *1882:S0 *2354:A 0.000189553
12 *1882:S0 *570:14 1.90303e-05
13 *1882:S0 *586:110 2.06178e-05
14 *1882:S0 *592:26 3.51353e-05
15 *1882:S0 *646:127 9.25014e-06
16 *235:64 *1882:S0 0.000165019
*RES
1 *2013:Q *1882:S0 44.2429 
*END

*D_NET *284 0.00485451
*CONN
*I *1881:S1 I *D sky130_fd_sc_hd__mux4_1
*I *2014:Q O *D sky130_fd_sc_hd__dlxtp_1
*CAP
1 *1881:S1 0.00111527
2 *2014:Q 0.00111527
3 *1881:S1 *1811:S0 0.00014199
4 *1881:S1 *1812:A0 5.99199e-06
5 *1881:S1 *1881:A0 0.000668152
6 *1881:S1 *2063:A 7.83659e-05
7 *1881:S1 *2305:A 8.35932e-05
8 *1881:S1 *2312:A 0.000173802
9 *1881:S1 *479:130 2.6153e-05
10 *1881:S1 *514:72 0.000139505
11 *1881:S1 *586:110 2.70172e-06
12 *1881:S1 *597:60 6.03793e-05
13 *1881:S1 *618:96 0.000187
14 *1881:S1 *676:40 8.1801e-05
15 *1881:S1 *708:84 0.000115707
16 E6BEG[5] *1881:S1 8.00843e-06
17 *151:57 *1881:S1 0.000822422
18 *236:22 *1881:S1 2.84026e-05
*RES
1 *2014:Q *1881:S1 43.7346 
*END

*D_NET *285 0.00131184
*CONN
*I *1881:S0 I *D sky130_fd_sc_hd__mux4_1
*I *2015:Q O *D sky130_fd_sc_hd__dlxtp_1
*CAP
1 *1881:S0 0.000336756
2 *2015:Q 0.000336756
3 *1881:S0 *1881:A0 9.41642e-05
4 *1881:S0 *2063:A 3.44257e-05
5 *1881:S0 *517:28 1.07719e-05
6 *1881:S0 *637:114 0.000287145
7 *1881:S0 *677:26 1.32056e-05
8 *1881:A1 *1881:S0 6.75159e-05
9 *235:113 *1881:S0 0.0001311
*RES
1 *2015:Q *1881:S0 26.2071 
*END

*D_NET *286 0.00156438
*CONN
*I *1880:S1 I *D sky130_fd_sc_hd__mux4_1
*I *2016:Q O *D sky130_fd_sc_hd__dlxtp_1
*CAP
1 *1880:S1 0.000451997
2 *2016:Q 0.000451997
3 *1880:S1 *2086:A 6.28677e-05
4 *1880:S1 *2142:A 2.84109e-05
5 *1880:S1 *544:32 9.41642e-05
6 *1880:S1 *624:108 3.2687e-05
7 *1880:S1 *626:100 0.000196174
8 *1880:S1 *626:102 0.000148765
9 *1880:S1 *628:90 1.32056e-05
10 *1880:S1 *643:50 1.00596e-05
11 *1880:S1 *668:95 0
12 *181:44 *1880:S1 7.40526e-05
*RES
1 *2016:Q *1880:S1 44.35 
*END

*D_NET *287 0.00217735
*CONN
*I *1880:S0 I *D sky130_fd_sc_hd__mux4_1
*I *2017:Q O *D sky130_fd_sc_hd__dlxtp_1
*CAP
1 *1880:S0 0.000720966
2 *2017:Q 0.000720966
3 *1880:S0 *2279:A 2.42516e-05
4 *1880:S0 *590:18 0.000178425
5 *1880:S0 *590:49 0.000129297
6 *1880:S0 *613:107 0.000113675
7 *1880:S0 *613:138 1.83053e-05
8 *1880:S0 *680:10 0.00010219
9 *1880:S0 *684:114 0.000135028
10 *1880:S0 *689:74 2.51513e-05
11 D_config_C_bit0 *1880:S0 9.09392e-06
*RES
1 *2017:Q *1880:S0 38.3679 
*END

*D_NET *288 0.00161403
*CONN
*I *1879:S1 I *D sky130_fd_sc_hd__mux4_1
*I *2018:Q O *D sky130_fd_sc_hd__dlxtp_1
*CAP
1 *1879:S1 0.000487701
2 *2018:Q 0.000487701
3 *1879:S1 *1879:A2 4.96113e-05
4 *1879:S1 *533:52 0.00030523
5 *1879:S1 *659:116 0.000220215
6 *143:59 *1879:S1 4.24297e-05
7 *150:41 *1879:S1 2.11419e-05
*RES
1 *2018:Q *1879:S1 35.4929 
*END

*D_NET *289 0.00102686
*CONN
*I *1879:S0 I *D sky130_fd_sc_hd__mux4_1
*I *2019:Q O *D sky130_fd_sc_hd__dlxtp_1
*CAP
1 *1879:S0 0.000340896
2 *2019:Q 0.000340896
3 *1879:S0 *664:166 0.000149414
4 *1879:S0 *693:46 0.000149414
5 *1879:S0 *701:28 3.30337e-05
6 *149:63 *1879:S0 1.32056e-05
*RES
1 *2019:Q *1879:S0 32.5464 
*END

*D_NET *290 0.000500838
*CONN
*I *1878:S0 I *D sky130_fd_sc_hd__mux4_1
*I *2020:Q O *D sky130_fd_sc_hd__dlxtp_1
*CAP
1 *1878:S0 9.87993e-05
2 *2020:Q 9.87993e-05
3 *1878:S0 *582:128 1.58163e-05
4 *1878:S0 *587:176 0.000143712
5 *153:129 *1878:S0 0.000143712
*RES
1 *2020:Q *1878:S0 30.0821 
*END

*D_NET *291 0.0010295
*CONN
*I *1878:S1 I *D sky130_fd_sc_hd__mux4_1
*I *2021:Q O *D sky130_fd_sc_hd__dlxtp_1
*CAP
1 *1878:S1 0.000359083
2 *2021:Q 0.000359083
3 *1878:S1 *2057:D 2.21751e-05
4 *1878:S1 *480:108 7.54868e-05
5 *1878:S1 *480:153 4.3588e-05
6 *1878:S1 *566:24 1.30597e-05
7 *1878:S1 *587:148 2.79421e-05
8 *1878:S1 *590:145 5.58875e-06
9 *1878:S1 *643:164 0.000123495
*RES
1 *2021:Q *1878:S1 32.6536 
*END

*D_NET *292 0.00123965
*CONN
*I *1891:S1 I *D sky130_fd_sc_hd__mux4_1
*I *1995:Q O *D sky130_fd_sc_hd__dlxtp_1
*CAP
1 *1891:S1 0.000469101
2 *1995:Q 0.000469101
3 *1891:S1 *1891:A2 9.25014e-06
4 *1891:S1 *2143:A 5.10822e-05
5 *1891:S1 *630:50 0.000102053
6 *1891:S1 *631:18 0.000139065
7 *1891:S1 *694:92 0
*RES
1 *1995:Q *1891:S1 36.3143 
*END

*D_NET *293 0.00237191
*CONN
*I *1877:S0 I *D sky130_fd_sc_hd__mux4_1
*I *2022:Q O *D sky130_fd_sc_hd__dlxtp_1
*CAP
1 *1877:S0 0.000756561
2 *2022:Q 0.000756561
3 *1877:S0 *1877:S1 0.000309858
4 *1877:S0 *2082:A 9.76435e-06
5 *1877:S0 *392:36 0.000244401
6 *1877:S0 *597:46 4.66174e-05
7 *1877:A2 *1877:S0 9.09903e-05
8 *2161:A *1877:S0 0.000143955
9 *143:103 *1877:S0 1.32056e-05
*RES
1 *2022:Q *1877:S0 38.7607 
*END

*D_NET *294 0.000981349
*CONN
*I *1877:S1 I *D sky130_fd_sc_hd__mux4_1
*I *2023:Q O *D sky130_fd_sc_hd__dlxtp_1
*CAP
1 *1877:S1 0.000252678
2 *2023:Q 0.000252678
3 *1877:S1 *2082:A 3.80613e-05
4 *1877:S1 *597:46 7.80714e-06
5 *1877:S0 *1877:S1 0.000309858
6 *181:56 *1877:S1 0.000120267
*RES
1 *2023:Q *1877:S1 32.6714 
*END

*D_NET *295 0.00118845
*CONN
*I *1890:S0 I *D sky130_fd_sc_hd__mux4_1
*I *1996:Q O *D sky130_fd_sc_hd__dlxtp_1
*CAP
1 *1890:S0 0.000344011
2 *1996:Q 0.000344011
3 *1890:S0 *1809:A0 0.000198717
4 *1890:S0 *1890:A2 1.02504e-05
5 *1890:S0 *1996:D 6.0012e-05
6 *1890:S0 *323:12 7.83659e-05
7 *233:99 *1890:S0 2.11543e-05
8 *233:122 *1890:S0 0.000131932
*RES
1 *1996:Q *1890:S0 34.4036 
*END

*D_NET *296 0.000277472
*CONN
*I *1890:S1 I *D sky130_fd_sc_hd__mux4_1
*I *1997:Q O *D sky130_fd_sc_hd__dlxtp_1
*CAP
1 *1890:S1 3.97643e-05
2 *1997:Q 3.97643e-05
3 *1890:S1 *634:186 6.97972e-05
4 *1890:S1 *669:45 0.000128146
*RES
1 *1997:Q *1890:S1 29.2429 
*END

*D_NET *297 0.00143172
*CONN
*I *1889:S0 I *D sky130_fd_sc_hd__mux4_1
*I *1998:Q O *D sky130_fd_sc_hd__dlxtp_1
*CAP
1 *1889:S0 0.000487747
2 *1998:Q 0.000487747
3 *1889:S0 *2331:A 3.50409e-05
4 *1889:S0 *514:24 9.83442e-05
5 *1889:S0 *585:60 0.000175892
6 *1889:S0 *659:227 0
7 *1889:S0 *691:72 2.33184e-05
8 *1889:S0 *695:90 7.6644e-05
9 *1889:S0 *695:103 4.69888e-05
*RES
1 *1998:Q *1889:S0 34.6536 
*END

*D_NET *298 0.000975481
*CONN
*I *1889:S1 I *D sky130_fd_sc_hd__mux4_1
*I *1999:Q O *D sky130_fd_sc_hd__dlxtp_1
*CAP
1 *1889:S1 0.000151038
2 *1999:Q 0.000151038
3 *1889:S1 *2309:A 0.000310086
4 *1889:S1 *667:172 0.000308371
5 FrameData_O[5] *1889:S1 5.49489e-05
*RES
1 *1999:Q *1889:S1 32.2071 
*END

*D_NET *299 0.00140965
*CONN
*I *1888:S0 I *D sky130_fd_sc_hd__mux4_1
*I *2000:Q O *D sky130_fd_sc_hd__dlxtp_1
*CAP
1 *1888:S0 0.000453878
2 *2000:Q 0.000453878
3 *1888:S0 *1888:A0 1.61724e-05
4 *1888:S0 *1888:S1 7.63156e-05
5 *1888:S0 *631:65 0.000124649
6 *1888:S0 *677:42 0.000161705
7 *1888:A3 *1888:S0 1.24368e-05
8 *143:103 *1888:S0 0.000110614
9 *157:87 *1888:S0 0
*RES
1 *2000:Q *1888:S0 35.5464 
*END

*D_NET *300 0.00199711
*CONN
*I *1888:S1 I *D sky130_fd_sc_hd__mux4_1
*I *2001:Q O *D sky130_fd_sc_hd__dlxtp_1
*CAP
1 *1888:S1 0.000915232
2 *2001:Q 0.000915232
3 *1888:S1 *1888:A0 5.61436e-06
4 *1888:S1 *1888:A1 1.58163e-05
5 *1888:S1 *1888:A2 9.18129e-06
6 *1888:S1 *708:56 2.60336e-05
7 *1888:A3 *1888:S1 3.36871e-05
8 *1888:S0 *1888:S1 7.63156e-05
*RES
1 *2001:Q *1888:S1 30.5643 
*END

*D_NET *301 0.00189909
*CONN
*I *1908:S1 I *D sky130_fd_sc_hd__mux4_1
*I *1960:Q O *D sky130_fd_sc_hd__dlxtp_1
*CAP
1 *1908:S1 0.000568946
2 *1960:Q 0.000568946
3 *1908:S1 *2074:A 0.000146137
4 *1908:S1 *513:82 7.5779e-05
5 *1908:S1 *674:48 3.33036e-06
6 *1908:S1 *679:61 0.000326219
7 *1908:S1 *703:60 6.98553e-06
8 *1908:S1 *703:72 0.000152867
9 *143:111 *1908:S1 4.98813e-05
*RES
1 *1960:Q *1908:S1 37.0286 
*END

*D_NET *302 0.0017039
*CONN
*I *1908:S0 I *D sky130_fd_sc_hd__mux4_1
*I *1961:Q O *D sky130_fd_sc_hd__dlxtp_1
*CAP
1 *1908:S0 0.000368289
2 *1961:Q 0.000368289
3 *1908:S0 *1878:A0 3.41264e-05
4 *1908:S0 *1908:A0 0.000492386
5 *1908:S0 *703:72 0.000380913
6 *153:129 *1908:S0 5.98954e-05
*RES
1 *1961:Q *1908:S0 36.3857 
*END

*D_NET *303 0.000983646
*CONN
*I *1903:S0 I *D sky130_fd_sc_hd__mux4_1
*I *1970:Q O *D sky130_fd_sc_hd__dlxtp_1
*CAP
1 *1903:S0 0.000157638
2 *1970:Q 0.000157638
3 *1903:S0 *2284:A 0.000329624
4 *1903:S0 *517:60 2.28677e-05
5 *1903:S0 *650:168 9.56446e-06
6 *1903:S0 *650:216 0.000101346
7 *1903:S0 *696:16 0.000176673
8 *148:37 *1903:S0 2.82955e-05
*RES
1 *1970:Q *1903:S0 32.5107 
*END

*D_NET *304 0.000619635
*CONN
*I *1903:S1 I *D sky130_fd_sc_hd__mux4_1
*I *1971:Q O *D sky130_fd_sc_hd__dlxtp_1
*CAP
1 *1903:S1 0.000151458
2 *1971:Q 0.000151458
3 *1903:S1 *2292:A 4.19535e-05
4 *1903:S1 *686:14 6.04502e-05
5 *1903:S1 *707:67 0.000141351
6 *148:37 *1903:S1 7.29646e-05
*RES
1 *1971:Q *1903:S1 30.4929 
*END

*D_NET *305 0.000865177
*CONN
*I *1902:S0 I *D sky130_fd_sc_hd__mux4_1
*I *1972:Q O *D sky130_fd_sc_hd__dlxtp_1
*CAP
1 *1902:S0 9.58679e-05
2 *1972:Q 9.58679e-05
3 *1902:S0 *1902:A0 1.5872e-05
4 *1902:S0 *1902:A1 5.47001e-05
5 *1902:S0 *1902:A2 0.000341599
6 *1902:S0 *1902:A3 0.000261271
*RES
1 *1972:Q *1902:S0 22.0107 
*END

*D_NET *306 0.000469308
*CONN
*I *1902:S1 I *D sky130_fd_sc_hd__mux4_1
*I *1973:Q O *D sky130_fd_sc_hd__dlxtp_1
*CAP
1 *1902:S1 0.000102508
2 *1973:Q 0.000102508
3 *1902:S1 *650:216 0.000119347
4 *1902:S1 *698:121 5.33005e-05
5 *1902:S1 *702:30 3.02668e-05
6 *1902:S1 *707:93 6.13772e-05
*RES
1 *1973:Q *1902:S1 29.7786 
*END

*D_NET *307 0.000268527
*CONN
*I *1901:S0 I *D sky130_fd_sc_hd__mux4_1
*I *1974:Q O *D sky130_fd_sc_hd__dlxtp_1
*CAP
1 *1901:S0 3.03364e-05
2 *1974:Q 3.03364e-05
3 *1901:S0 *1901:A3 0.000104974
4 *1901:S0 *2379:A 0.00010288
*RES
1 *1974:Q *1901:S0 28.9393 
*END

*D_NET *308 0.00164051
*CONN
*I *1901:S1 I *D sky130_fd_sc_hd__mux4_1
*I *1975:Q O *D sky130_fd_sc_hd__dlxtp_1
*CAP
1 *1901:S1 0.000412209
2 *1975:Q 0.000412209
3 *1901:S1 *1901:A2 0.000103041
4 *1901:S1 *2100:A 5.52302e-05
5 *1901:S1 *2374:A 0.000180073
6 *1901:S1 *2381:A 0.000341612
7 *725:DIODE *1901:S1 1.21258e-05
8 *2149:A *1901:S1 0.00012401
*RES
1 *1975:Q *1901:S1 35.4929 
*END

*D_NET *309 0.000825659
*CONN
*I *1900:S0 I *D sky130_fd_sc_hd__mux4_1
*I *1976:Q O *D sky130_fd_sc_hd__dlxtp_1
*CAP
1 *1900:S0 0.000307462
2 *1976:Q 0.000307462
3 *1900:S0 *2013:GATE 1.32056e-05
4 *1900:S0 *595:18 9.87648e-05
5 *1900:S0 *679:72 9.87648e-05
*RES
1 *1976:Q *1900:S0 31.5286 
*END

*D_NET *310 0.00455053
*CONN
*I *1900:S1 I *D sky130_fd_sc_hd__mux4_1
*I *1977:Q O *D sky130_fd_sc_hd__dlxtp_1
*CAP
1 *1900:S1 0.00102471
2 *1977:Q 0.00102471
3 *1900:S1 *1893:A3 0.000111643
4 *1900:S1 *1900:A1 8.26896e-05
5 *1900:S1 *2081:A 9.41642e-05
6 *1900:S1 *2094:A 2.59355e-05
7 *1900:S1 *524:14 1.02125e-05
8 *1900:S1 *535:16 0.000308079
9 *1900:S1 *558:14 0.000339622
10 *1900:S1 *587:176 0.000113059
11 *1900:S1 *593:118 0.000132821
12 *1900:S1 *667:172 6.58294e-06
13 *1900:S1 *669:53 0.000123664
14 *1900:S1 *669:75 5.58875e-06
15 *1900:S1 *689:114 6.65166e-05
16 *142:117 *1900:S1 8.92205e-05
17 *148:97 *1900:S1 0.000397543
18 *233:80 *1900:S1 0.000593768
*RES
1 *1977:Q *1900:S1 44.9921 
*END

*D_NET *311 0.00151931
*CONN
*I *1899:S0 I *D sky130_fd_sc_hd__mux4_1
*I *1978:Q O *D sky130_fd_sc_hd__dlxtp_1
*CAP
1 *1899:S0 0.000248272
2 *1978:Q 0.000248272
3 *1899:S0 *1893:A1 0.000134678
4 *1899:S0 *2309:A 1.08524e-05
5 *1899:S0 *2333:A 0.000134771
6 *1899:S0 *2335:A 0.000314105
7 *1899:S0 *539:18 0.000135028
8 *1899:S0 *601:30 1.53472e-05
9 *1899:S0 *650:254 8.64053e-06
10 *1899:S0 *667:172 0.000147125
11 *233:80 *1899:S0 0.000122221
*RES
1 *1978:Q *1899:S0 35.1536 
*END

*D_NET *312 0.002517
*CONN
*I *1899:S1 I *D sky130_fd_sc_hd__mux4_1
*I *1979:Q O *D sky130_fd_sc_hd__dlxtp_1
*CAP
1 *1899:S1 0.000897238
2 *1979:Q 0.000897238
3 *1899:S1 *1979:D 4.02038e-05
4 *1899:S1 *1979:GATE 0.000109263
5 *1899:S1 *2353:A 8.25843e-06
6 *1899:S1 *539:18 8.80543e-05
7 *1899:S1 *593:118 0.000103775
8 *1899:S1 *599:18 5.49544e-05
9 *1899:S1 *634:176 9.33978e-07
10 *1899:S1 *645:78 7.8178e-06
11 *1899:S1 *667:172 9.63204e-05
12 *1899:S1 *673:90 8.75623e-05
13 *234:14 *1899:S1 0.000125378
*RES
1 *1979:Q *1899:S1 40.7071 
*END

*D_NET *313 0.0047259
*CONN
*I *1907:S0 I *D sky130_fd_sc_hd__mux4_1
*I *1962:Q O *D sky130_fd_sc_hd__dlxtp_1
*CAP
1 *1907:S0 0.00151219
2 *1962:Q 0.00151219
3 *1907:S0 *1884:A0 1.21258e-05
4 *1907:S0 *1884:A2 0.000117888
5 *1907:S0 *1884:A3 0.0005885
6 *1907:S0 *1907:A0 5.27174e-05
7 *1907:S0 *1907:A3 1.66247e-05
8 *1907:S0 *1962:GATE 4.38942e-05
9 *1907:S0 *587:90 2.13481e-06
10 *1907:S0 *636:54 8.25843e-06
11 *1907:S0 *671:53 3.63775e-05
12 *1907:S0 *675:174 0.000216755
13 *1907:S0 *692:64 0.000215659
14 *1884:S1 *1907:S0 3.6692e-06
15 *159:77 *1907:S0 0.000386924
*RES
1 *1962:Q *1907:S0 39.9571 
*END

*D_NET *314 0.00182221
*CONN
*I *1898:S0 I *D sky130_fd_sc_hd__mux4_1
*I *1980:Q O *D sky130_fd_sc_hd__dlxtp_1
*CAP
1 *1898:S0 0.000652693
2 *1980:Q 0.000652693
3 *1898:S0 *1847:A2 2.11419e-05
4 *1898:S0 *1982:D 0.000126176
5 *1898:S0 *508:14 2.09826e-05
6 *1898:S0 *626:134 1.94879e-05
7 *1898:S0 *632:22 0.000301287
8 *1898:S0 *655:16 2.11419e-05
9 *1898:S0 *658:27 6.60633e-06
*RES
1 *1980:Q *1898:S0 37.4587 
*END

*D_NET *315 0.00154331
*CONN
*I *1898:S1 I *D sky130_fd_sc_hd__mux4_1
*I *1981:Q O *D sky130_fd_sc_hd__dlxtp_1
*CAP
1 *1898:S1 0.00064884
2 *1981:Q 0.00064884
3 *1898:S1 *650:47 0.000122814
4 *1898:S1 *653:38 0.000122814
*RES
1 *1981:Q *1898:S1 35.5286 
*END

*D_NET *316 0.000777556
*CONN
*I *1897:S0 I *D sky130_fd_sc_hd__mux4_1
*I *1982:Q O *D sky130_fd_sc_hd__dlxtp_1
*CAP
1 *1897:S0 0.000119926
2 *1982:Q 0.000119926
3 *1897:S0 *1897:A0 9.35794e-06
4 *1897:S0 *1897:A3 0.000182003
5 *1897:S0 *1897:S1 0.000346343
*RES
1 *1982:Q *1897:S0 22.0107 
*END

*D_NET *317 0.00280513
*CONN
*I *1897:S1 I *D sky130_fd_sc_hd__mux4_1
*I *1983:Q O *D sky130_fd_sc_hd__dlxtp_1
*CAP
1 *1897:S1 0.00109622
2 *1983:Q 0.00109622
3 *1897:S1 *1897:A2 1.59935e-05
4 *1897:S1 *1897:A3 6.37089e-05
5 *1897:S1 *2097:A 5.84943e-05
6 *1897:S1 *672:192 0.000100301
7 *1897:S1 *672:194 2.78512e-05
8 *1897:S0 *1897:S1 0.000346343
*RES
1 *1983:Q *1897:S1 33.5464 
*END

*D_NET *318 0.00142073
*CONN
*I *1896:S0 I *D sky130_fd_sc_hd__mux4_1
*I *1984:Q O *D sky130_fd_sc_hd__dlxtp_1
*CAP
1 *1896:S0 0.000363566
2 *1984:Q 0.000363566
3 *1896:S0 *586:110 0.000144348
4 *1896:S0 *631:65 0.000143626
5 *1896:S0 *634:130 9.41642e-05
6 *1896:S0 *660:115 5.21937e-05
7 *1896:S0 *693:68 0.000259267
*RES
1 *1984:Q *1896:S0 33.9036 
*END

*D_NET *319 0.00326522
*CONN
*I *1896:S1 I *D sky130_fd_sc_hd__mux4_1
*I *1985:Q O *D sky130_fd_sc_hd__dlxtp_1
*CAP
1 *1896:S1 0.00100451
2 *1985:Q 0.00100451
3 *1896:S1 *2022:D 2.47753e-05
4 *1896:S1 *2022:GATE 0.00025133
5 *1896:S1 *586:74 6.7224e-05
6 *1896:S1 *596:118 6.05161e-06
7 *1896:S1 *597:46 0.000328074
8 *1896:S1 *660:115 2.79421e-05
9 *1896:S1 *675:130 0.000257619
10 *2161:A *1896:S1 3.25078e-05
11 *145:75 *1896:S1 0.00026068
*RES
1 *1985:Q *1896:S1 43.4571 
*END

*D_NET *320 0.00129453
*CONN
*I *1895:S1 I *D sky130_fd_sc_hd__mux4_1
*I *1986:Q O *D sky130_fd_sc_hd__dlxtp_1
*CAP
1 *1895:S1 0.000303251
2 *1986:Q 0.000303251
3 *1895:S1 *659:83 6.07232e-05
4 *1895:S1 *664:143 6.43196e-05
5 *1895:S1 *693:22 0.000341298
6 *1895:S1 *708:28 0.000221688
*RES
1 *1986:Q *1895:S1 34.1536 
*END

*D_NET *321 0.000759391
*CONN
*I *1895:S0 I *D sky130_fd_sc_hd__mux4_1
*I *1987:Q O *D sky130_fd_sc_hd__dlxtp_1
*CAP
1 *1895:S0 0.000141495
2 *1987:Q 0.000141495
3 *1895:S0 *1895:A0 1.85689e-05
4 *1895:S0 *1895:A1 0.000178425
5 *1895:S0 *659:83 9.35114e-06
6 *1895:S0 *662:142 0.000175892
7 *1895:S0 *705:49 9.41642e-05
*RES
1 *1987:Q *1895:S0 22.0107 
*END

*D_NET *322 0.00321405
*CONN
*I *1894:S0 I *D sky130_fd_sc_hd__mux4_1
*I *1988:Q O *D sky130_fd_sc_hd__dlxtp_1
*CAP
1 *1894:S0 0.000962278
2 *1988:Q 0.000962278
3 *1894:S0 *1894:A2 1.40749e-05
4 *1894:S0 *1894:A3 8.28137e-05
5 *1894:S0 *1974:D 0.000448623
6 *1894:S0 *1975:D 5.65955e-05
7 *1894:S0 *2100:A 1.82189e-05
8 *1894:S0 *2381:A 0.000139907
9 *1894:S0 *491:102 5.45293e-05
10 *1894:S0 *573:28 5.33005e-05
11 *724:DIODE *1894:S0 2.70899e-05
12 *160:133 *1894:S0 0.000394344
*RES
1 *1988:Q *1894:S0 43.2071 
*END

*D_NET *323 0.00472308
*CONN
*I *1894:S1 I *D sky130_fd_sc_hd__mux4_1
*I *1989:Q O *D sky130_fd_sc_hd__dlxtp_1
*CAP
1 *1894:S1 0
2 *1989:Q 0.00126011
3 *323:12 0.00126011
4 *323:12 *1809:A0 0.00124816
5 *323:12 *1809:A3 9.97297e-05
6 *323:12 *1809:S0 0
7 *323:12 *1894:A2 1.01912e-05
8 *323:12 *1909:S0 1.27529e-05
9 *323:12 *1909:S1 0
10 *323:12 *1933:D 3.14163e-05
11 *323:12 *1997:GATE 1.83136e-05
12 *323:12 *551:20 0.000338863
13 *323:12 *580:16 7.80952e-05
14 *323:12 *635:112 1.58163e-05
15 *323:12 *694:134 3.34687e-05
16 *1890:S0 *323:12 7.83659e-05
17 *148:97 *323:12 0
18 *148:111 *323:12 0
19 *233:122 *323:12 0.000237673
*RES
1 *1989:Q *323:12 44.8357 
2 *323:12 *1894:S1 9.3 
*END

*D_NET *324 0.00249998
*CONN
*I *1907:S1 I *D sky130_fd_sc_hd__mux4_1
*I *1963:Q O *D sky130_fd_sc_hd__dlxtp_1
*CAP
1 *1907:S1 0.000782561
2 *1963:Q 0.000782561
3 *1907:S1 *2321:A 0.000119347
4 *1907:S1 *538:32 6.34436e-05
5 *1907:S1 *650:216 0.000121953
6 *1907:S1 *651:247 0.000630111
*RES
1 *1963:Q *1907:S1 37.9929 
*END

*D_NET *325 0.000765207
*CONN
*I *1893:S1 I *D sky130_fd_sc_hd__mux4_1
*I *1990:Q O *D sky130_fd_sc_hd__dlxtp_1
*CAP
1 *1893:S1 0.000277389
2 *1990:Q 0.000277389
3 *1893:S1 *1890:A1 0.000114205
4 *1893:S1 *2101:A 9.62238e-05
*RES
1 *1990:Q *1893:S1 23.6714 
*END

*D_NET *326 0.00167555
*CONN
*I *1893:S0 I *D sky130_fd_sc_hd__mux4_1
*I *1991:Q O *D sky130_fd_sc_hd__dlxtp_1
*CAP
1 *1893:S0 0.000678104
2 *1991:Q 0.000678104
3 *1893:S0 *1890:A0 6.43196e-05
4 *1893:S0 *1890:A2 6.57032e-05
5 *1893:S0 *1991:D 1.65169e-05
6 *1893:S0 *634:186 0
7 *1893:S0 *669:45 7.57673e-05
8 *148:97 *1893:S0 9.70328e-05
*RES
1 *1991:Q *1893:S0 35.6357 
*END

*D_NET *327 0.00302203
*CONN
*I *1906:S0 I *D sky130_fd_sc_hd__mux4_1
*I *1964:Q O *D sky130_fd_sc_hd__dlxtp_1
*CAP
1 *1906:S0 0.000692522
2 *1964:Q 0.000692522
3 *1906:S0 *2334:A 0.00040166
4 *1906:S0 *2335:A 0.000517883
5 *1906:S0 *574:14 0.00062958
6 *1906:S0 *646:127 2.38783e-05
7 *233:80 *1906:S0 6.39829e-05
*RES
1 *1964:Q *1906:S0 40.6893 
*END

*D_NET *328 0.000663033
*CONN
*I *1906:S1 I *D sky130_fd_sc_hd__mux4_1
*I *1965:Q O *D sky130_fd_sc_hd__dlxtp_1
*CAP
1 *1906:S1 0.000218598
2 *1965:Q 0.000218598
3 *1906:S1 *2076:A 2.79421e-05
4 *1906:S1 *2336:A 0.000197894
*RES
1 *1965:Q *1906:S1 22.85 
*END

*D_NET *329 0.00253602
*CONN
*I *1905:S0 I *D sky130_fd_sc_hd__mux4_1
*I *1966:Q O *D sky130_fd_sc_hd__dlxtp_1
*CAP
1 *1905:S0 0
2 *1966:Q 0.000466511
3 *329:30 0.000466511
4 *329:30 *1905:A3 0.000147465
5 *329:30 *1913:A1 0.000193833
6 *329:30 *2030:D 0.000136682
7 *329:30 *2284:A 5.1588e-05
8 *329:30 *685:22 5.7616e-05
9 *329:30 *707:67 0.000225013
10 E1BEG[1] *329:30 2.20608e-05
11 *2247:A *329:30 1.58163e-05
12 *144:39 *329:30 0.000272589
13 *148:37 *329:30 0.000480338
*RES
1 *1966:Q *329:30 47.55 
2 *329:30 *1905:S0 9.3 
*END

*D_NET *330 0.000528039
*CONN
*I *1905:S1 I *D sky130_fd_sc_hd__mux4_1
*I *1967:Q O *D sky130_fd_sc_hd__dlxtp_1
*CAP
1 *1905:S1 0.000120705
2 *1967:Q 0.000120705
3 *1905:S1 *2287:A 0.000160912
4 *1905:S1 *704:44 0.000125717
*RES
1 *1967:Q *1905:S1 30.1893 
*END

*D_NET *331 0.00047277
*CONN
*I *1904:S0 I *D sky130_fd_sc_hd__mux4_1
*I *1968:Q O *D sky130_fd_sc_hd__dlxtp_1
*CAP
1 *1904:S0 0.000119348
2 *1968:Q 0.000119348
3 *1904:S0 *593:44 0.00010288
4 *1904:S0 *628:90 0.000103253
5 *1904:S0 *689:74 2.79421e-05
*RES
1 *1968:Q *1904:S0 29.8857 
*END

*D_NET *332 0.00119567
*CONN
*I *1904:S1 I *D sky130_fd_sc_hd__mux4_1
*I *1969:Q O *D sky130_fd_sc_hd__dlxtp_1
*CAP
1 *1904:S1 0.000381095
2 *1969:Q 0.000381095
3 *1904:S1 *486:35 0
4 *1904:S1 *486:74 0
5 *1904:S1 *626:122 7.57673e-05
6 *1904:S1 *689:74 6.05161e-06
7 *181:21 *1904:S1 0.000245377
8 *181:44 *1904:S1 0.000106283
*RES
1 *1969:Q *1904:S1 42.9929 
*END

*D_NET *333 0.00128767
*CONN
*I *1811:S0 I *D sky130_fd_sc_hd__mux4_1
*I *1938:Q O *D sky130_fd_sc_hd__dlxtp_1
*CAP
1 *1811:S0 0.000363712
2 *1938:Q 0.000363712
3 *1811:S0 *1811:A0 2.51343e-06
4 *1811:S0 *2312:A 2.19481e-05
5 *1811:S0 *2320:A 0.000106515
6 *1811:S0 *535:52 9.41642e-05
7 *1811:S0 *539:40 8.6229e-06
8 E6BEG[4] *1811:S0 2.29774e-05
9 E6BEG[5] *1811:S0 6.71544e-05
10 *1811:A3 *1811:S0 5.33005e-05
11 *1881:S1 *1811:S0 0.00014199
12 *234:44 *1811:S0 4.10597e-05
*RES
1 *1938:Q *1811:S0 34.3321 
*END

*D_NET *334 0.000972575
*CONN
*I *1811:S1 I *D sky130_fd_sc_hd__mux4_1
*I *1939:Q O *D sky130_fd_sc_hd__dlxtp_1
*CAP
1 *1811:S1 0.000175824
2 *1939:Q 0.000175824
3 *1811:S1 *650:248 0.000298402
4 *1811:A3 *1811:S1 6.82845e-06
5 *160:113 *1811:S1 0.000315696
6 *236:22 *1811:S1 0
*RES
1 *1939:Q *1811:S1 32.1 
*END

*D_NET *335 0.000699336
*CONN
*I *1810:S0 I *D sky130_fd_sc_hd__mux4_1
*I *1940:Q O *D sky130_fd_sc_hd__dlxtp_1
*CAP
1 *1810:S0 0.000217387
2 *1940:Q 0.000217387
3 *1810:S0 *1810:A1 0.000135028
4 *1810:S0 *664:125 0.00010965
5 *1810:S0 *664:143 1.98839e-05
*RES
1 *1940:Q *1810:S0 22.0107 
*END

*D_NET *336 0.000892325
*CONN
*I *1810:S1 I *D sky130_fd_sc_hd__mux4_1
*I *1941:Q O *D sky130_fd_sc_hd__dlxtp_1
*CAP
1 *1810:S1 0.000209112
2 *1941:Q 0.000209112
3 *1810:S1 *527:10 0.000220937
4 *1810:S1 *700:12 0.000125724
5 *147:51 *1810:S1 0.000127439
*RES
1 *1941:Q *1810:S1 31.4214 
*END

*D_NET *337 0.0014804
*CONN
*I *1809:S0 I *D sky130_fd_sc_hd__mux4_1
*I *1942:Q O *D sky130_fd_sc_hd__dlxtp_1
*CAP
1 *1809:S0 0.000421433
2 *1942:Q 0.000421433
3 *1809:S0 *1909:S1 0.000287684
4 *1809:S0 *588:16 0.000349848
5 *323:12 *1809:S0 0
*RES
1 *1942:Q *1809:S0 34.7786 
*END

*D_NET *338 0.00079724
*CONN
*I *1809:S1 I *D sky130_fd_sc_hd__mux4_1
*I *1943:Q O *D sky130_fd_sc_hd__dlxtp_1
*CAP
1 *1809:S1 0.000291048
2 *1943:Q 0.000291048
3 *1809:S1 *519:14 2.26812e-05
4 *1809:S1 *535:112 0.000125724
5 *1809:S1 *678:49 6.42242e-05
6 *711:DIODE *1809:S1 2.51343e-06
*RES
1 *1943:Q *1809:S1 31.8321 
*END

*D_NET *339 0.0018071
*CONN
*I *1808:S0 I *D sky130_fd_sc_hd__mux4_1
*I *1944:Q O *D sky130_fd_sc_hd__dlxtp_1
*CAP
1 *1808:S0 0.000425752
2 *1944:Q 0.000425752
3 *1808:S0 *1808:A1 0.000159063
4 *1808:S0 *1908:A2 0.000121544
5 *1808:S0 *2066:A 0.00011173
6 *1808:S0 *2164:A 7.97087e-05
7 *1808:S0 *529:40 0.000147469
8 *1808:S0 *566:24 1.21258e-05
9 *1808:S0 *661:207 1.02504e-05
10 *1808:S0 *677:22 7.83587e-05
11 *1808:S0 *693:142 0.000113647
12 *143:111 *1808:S0 0.000121698
*RES
1 *1944:Q *1808:S0 36.9929 
*END

*D_NET *340 0.0003405
*CONN
*I *1808:S1 I *D sky130_fd_sc_hd__mux4_1
*I *1945:Q O *D sky130_fd_sc_hd__dlxtp_1
*CAP
1 *1808:S1 4.64472e-05
2 *1945:Q 4.64472e-05
3 *1808:S1 *502:51 0.000123072
4 *1808:S1 *679:61 0.000124534
*RES
1 *1945:Q *1808:S1 29.2429 
*END

*D_NET *341 0.00180776
*CONN
*I *1915:S0 I *D sky130_fd_sc_hd__mux4_1
*I *1946:Q O *D sky130_fd_sc_hd__dlxtp_1
*CAP
1 *1915:S0 0.000366017
2 *1946:Q 0.000366017
3 *1915:S0 *2299:A 0.000462203
4 *1915:S0 *2319:A 9.86845e-05
5 *1915:S0 *660:99 5.33005e-05
6 *1915:S0 *676:40 0.000461533
*RES
1 *1946:Q *1915:S0 36.0821 
*END

*D_NET *342 0.00191054
*CONN
*I *1915:S1 I *D sky130_fd_sc_hd__mux4_1
*I *1947:Q O *D sky130_fd_sc_hd__dlxtp_1
*CAP
1 *1915:S1 0.00062805
2 *1947:Q 0.00062805
3 *1915:S1 *1881:A2 6.05161e-06
4 *1915:S1 *2316:A 4.10843e-05
5 *1915:S1 *2321:A 9.56535e-05
6 *1915:S1 *392:36 0.000202309
7 *1915:S1 *548:22 5.74499e-06
8 *1915:S1 *650:216 9.71712e-05
9 *1915:S1 *660:99 0.000174375
10 *72:40 *1915:S1 3.20546e-05
*RES
1 *1947:Q *1915:S1 39.0554 
*END

*D_NET *343 0.00117491
*CONN
*I *1914:S0 I *D sky130_fd_sc_hd__mux4_1
*I *1948:Q O *D sky130_fd_sc_hd__dlxtp_1
*CAP
1 *1914:S0 0.000206271
2 *1948:Q 0.000206271
3 *1914:S0 *2334:A 0.000332413
4 *1914:S0 *2339:A 9.58181e-05
5 *1882:S0 *1914:S0 0.000334135
*RES
1 *1948:Q *1914:S0 32.9214 
*END

*D_NET *344 0.000356659
*CONN
*I *1914:S1 I *D sky130_fd_sc_hd__mux4_1
*I *1949:Q O *D sky130_fd_sc_hd__dlxtp_1
*CAP
1 *1914:S1 6.8048e-05
2 *1949:Q 6.8048e-05
3 *1914:S1 *1914:A2 8.6229e-06
4 *1914:S1 *2340:A 0.000146618
5 *1914:S1 *573:28 6.53224e-05
*RES
1 *1949:Q *1914:S1 29.5464 
*END

*D_NET *345 0.00133883
*CONN
*I *1913:S0 I *D sky130_fd_sc_hd__mux4_1
*I *1950:Q O *D sky130_fd_sc_hd__dlxtp_1
*CAP
1 *1913:S0 0.000531101
2 *1950:Q 0.000531101
3 *1913:S0 *1913:A0 2.8447e-05
4 *1913:S0 *1913:A2 0.000248181
*RES
1 *1950:Q *1913:S0 25.4571 
*END

*D_NET *346 0.000818164
*CONN
*I *1913:S1 I *D sky130_fd_sc_hd__mux4_1
*I *1951:Q O *D sky130_fd_sc_hd__dlxtp_1
*CAP
1 *1913:S1 0.00023923
2 *1951:Q 0.00023923
3 *1913:S1 *2069:A 6.57032e-05
4 *1913:S1 *485:18 0.000123137
5 *1913:S1 *523:24 0.000123137
6 *1913:S1 *689:24 2.77258e-05
*RES
1 *1951:Q *1913:S1 31.4214 
*END

*D_NET *347 0.000428712
*CONN
*I *1912:S0 I *D sky130_fd_sc_hd__mux4_1
*I *1952:Q O *D sky130_fd_sc_hd__dlxtp_1
*CAP
1 *1912:S0 7.96838e-05
2 *1952:Q 7.96838e-05
3 *1912:S0 *1912:A0 9.97552e-05
4 *1912:S0 *613:138 4.84319e-05
5 *1912:S0 *628:90 2.40379e-05
6 *1912:S0 *706:38 9.71197e-05
*RES
1 *1952:Q *1912:S0 29.8857 
*END

*D_NET *348 0.0017405
*CONN
*I *1912:S1 I *D sky130_fd_sc_hd__mux4_1
*I *1953:Q O *D sky130_fd_sc_hd__dlxtp_1
*CAP
1 *1912:S1 0.000688447
2 *1953:Q 0.000688447
3 *1912:S1 *1956:D 4.19624e-06
4 *1912:S1 *486:18 0
5 *1912:S1 *486:35 8.6229e-06
6 *1912:S1 *618:30 0.000298724
7 *1912:S1 *706:38 5.20669e-05
8 *181:21 *1912:S1 0
*RES
1 *1953:Q *1912:S1 37.2607 
*END

*D_NET *349 0.00148843
*CONN
*I *1911:S0 I *D sky130_fd_sc_hd__mux4_1
*I *1954:Q O *D sky130_fd_sc_hd__dlxtp_1
*CAP
1 *1911:S0 0.000258465
2 *1954:Q 0.000258465
3 *1911:S0 *597:30 0.000524203
4 *1911:S0 *658:93 2.12087e-05
5 *1911:S0 *659:83 0.000194143
6 *1911:S0 *664:166 0.000215166
7 *1911:S0 *708:28 1.67757e-05
*RES
1 *1954:Q *1911:S0 34.7429 
*END

*D_NET *350 0.000622629
*CONN
*I *1911:S1 I *D sky130_fd_sc_hd__mux4_1
*I *1955:Q O *D sky130_fd_sc_hd__dlxtp_1
*CAP
1 *1911:S1 0.000144096
2 *1955:Q 0.000144096
3 *1911:S1 *533:18 0.000142316
4 *1911:S1 *699:66 4.82865e-05
5 *143:29 *1911:S1 0.000143834
*RES
1 *1955:Q *1911:S1 30.4929 
*END

*D_NET *351 0.00193303
*CONN
*I *1910:S1 I *D sky130_fd_sc_hd__mux4_1
*I *1956:Q O *D sky130_fd_sc_hd__dlxtp_1
*CAP
1 *1910:S1 0.000640396
2 *1956:Q 0.000640396
3 *1910:S1 *1910:S0 9.58126e-05
4 *1910:S1 *1957:D 1.13883e-05
5 *1910:S1 *2036:D 6.05161e-06
6 *1910:S1 *486:18 8.09616e-05
7 *1910:S1 *659:83 0.000169804
8 *1910:S1 *668:115 2.42516e-05
9 *1910:S1 *668:130 9.41642e-05
10 *243:42 *1910:S1 0.000169804
*RES
1 *1956:Q *1910:S1 37.5107 
*END

*D_NET *352 0.000517523
*CONN
*I *1910:S0 I *D sky130_fd_sc_hd__mux4_1
*I *1957:Q O *D sky130_fd_sc_hd__dlxtp_1
*CAP
1 *1910:S0 0.000107942
2 *1957:Q 0.000107942
3 *1910:S0 *1911:A0 0.00010377
4 *1910:S1 *1910:S0 9.58126e-05
5 *154:75 *1910:S0 0.000102056
*RES
1 *1957:Q *1910:S0 29.8857 
*END

*D_NET *353 0.00158552
*CONN
*I *1909:S1 I *D sky130_fd_sc_hd__mux4_1
*I *1958:Q O *D sky130_fd_sc_hd__dlxtp_1
*CAP
1 *1909:S1 0.00028861
2 *1958:Q 0.00028861
3 *1909:S1 *1809:A3 2.28731e-05
4 *1909:S1 *1909:A2 6.19181e-05
5 *1909:S1 *588:16 0.000139632
6 *1809:S0 *1909:S1 0.000287684
7 *148:111 *1909:S1 0.00049619
8 *323:12 *1909:S1 0
*RES
1 *1958:Q *1909:S1 35.4571 
*END

*D_NET *354 0.00211082
*CONN
*I *1909:S0 I *D sky130_fd_sc_hd__mux4_1
*I *1959:Q O *D sky130_fd_sc_hd__dlxtp_1
*CAP
1 *1909:S0 0.000342514
2 *1959:Q 0.000342514
3 *1909:S0 *1809:A0 0.000518593
4 *1909:S0 *1909:A0 1.58163e-05
5 *1909:S0 *1909:A1 5.33005e-05
6 *1909:S0 *1959:D 2.59355e-05
7 *1909:S0 *2103:A 0.000150618
8 *1909:S0 *491:96 0.000326116
9 *1909:S0 *551:20 0.000185037
10 *1909:S0 *618:132 0.000137621
11 *323:12 *1909:S0 1.27529e-05
*RES
1 *1959:Q *1909:S0 38.2071 
*END

*D_NET *355 0.00160078
*CONN
*I *1814:S1 I *D sky130_fd_sc_hd__mux4_1
*I *1932:Q O *D sky130_fd_sc_hd__dlxtp_1
*CAP
1 *1814:S1 0.000404839
2 *1932:Q 0.000404839
3 *1814:S1 *1814:A0 9.71197e-05
4 *1814:S1 *1814:A1 5.33005e-05
5 *1814:S1 *1814:A2 2.3541e-05
6 *1814:S1 *1814:S0 0.000388045
7 *1814:S1 *1886:A1 1.17968e-05
8 *1814:S1 *2012:GATE 0.000151978
9 *1814:S1 *479:174 6.53227e-05
*RES
1 *1932:Q *1814:S1 36.2429 
*END

*D_NET *356 0.000824757
*CONN
*I *1814:S0 I *D sky130_fd_sc_hd__mux4_1
*I *1933:Q O *D sky130_fd_sc_hd__dlxtp_1
*CAP
1 *1814:S0 0.000218356
2 *1933:Q 0.000218356
3 *1814:S1 *1814:S0 0.000388045
*RES
1 *1933:Q *1814:S0 22.4214 
*END

*D_NET *357 0.000820142
*CONN
*I *1813:S0 I *D sky130_fd_sc_hd__mux4_1
*I *1934:Q O *D sky130_fd_sc_hd__dlxtp_1
*CAP
1 *1813:S0 0.000171648
2 *1934:Q 0.000171648
3 *1813:S0 *2305:A 0.000170048
4 *1813:S0 *2309:A 0.00017177
5 *1813:S0 *2311:A 0.000135028
*RES
1 *1934:Q *1813:S0 31.2071 
*END

*D_NET *358 0.000738241
*CONN
*I *1813:S1 I *D sky130_fd_sc_hd__mux4_1
*I *1935:Q O *D sky130_fd_sc_hd__dlxtp_1
*CAP
1 *1813:S1 0.000220939
2 *1935:Q 0.000220939
3 *1813:S1 *547:20 6.2127e-05
4 *1813:S1 *567:94 9.35555e-05
5 *1813:S1 *599:18 5.33005e-05
6 *144:145 *1813:S1 9.25014e-06
7 *234:44 *1813:S1 6.05163e-05
8 *235:45 *1813:S1 1.76135e-05
*RES
1 *1935:Q *1813:S1 31.3143 
*END

*D_NET *359 0.00119754
*CONN
*I *1812:S0 I *D sky130_fd_sc_hd__mux4_1
*I *1936:Q O *D sky130_fd_sc_hd__dlxtp_1
*CAP
1 *1812:S0 0.000293214
2 *1936:Q 0.000293214
3 *1812:S0 *1812:A0 9.41642e-05
4 *1812:S0 *2001:D 8.44496e-06
5 *1812:S0 *590:112 0.000134268
6 *1812:S0 *652:175 8.47085e-05
7 *1812:S0 *654:82 6.05161e-06
8 *1812:S0 *665:18 8.25843e-06
9 *1812:S0 *677:57 9.91086e-05
10 *1812:S0 *693:84 0.000176108
*RES
1 *1936:Q *1812:S0 33.9214 
*END

*D_NET *360 0.00143724
*CONN
*I *1812:S1 I *D sky130_fd_sc_hd__mux4_1
*I *1937:Q O *D sky130_fd_sc_hd__dlxtp_1
*CAP
1 *1812:S1 0.000525361
2 *1937:Q 0.000525361
3 *1812:S1 *1812:A2 1.6507e-05
4 *1812:S1 *2000:D 4.07596e-05
5 *1812:S1 *2000:GATE 1.72303e-05
6 *1812:S1 *590:112 2.78962e-05
7 *1812:S1 *634:158 2.59355e-05
8 *1812:S1 *643:116 5.41093e-05
9 *1812:S1 *665:18 6.97206e-05
10 *1812:S1 *672:100 0.000122548
11 *1812:S1 *677:42 1.18079e-05
*RES
1 *1937:Q *1812:S1 35.3679 
*END

*D_NET *361 0.00150399
*CONN
*I *2060:A I *D sky130_fd_sc_hd__buf_1
*I *1814:X O *D sky130_fd_sc_hd__mux4_1
*CAP
1 *2060:A 0.000273601
2 *1814:X 0.000273601
3 *2060:A *2340:A 0
4 *2060:A *2352:A 0.000128026
5 *2060:A *2354:A 0.000137983
6 *2060:A *483:78 0.000100831
7 *2060:A *514:12 0.000113448
8 FrameData_O[28] *2060:A 0.000476499
*RES
1 *1814:X *2060:A 35.2429 
*END

*D_NET *362 0.00208694
*CONN
*I *2061:A I *D sky130_fd_sc_hd__buf_1
*I *1813:X O *D sky130_fd_sc_hd__mux4_1
*CAP
1 *2061:A 0.000857529
2 *1813:X 0.000857529
3 *2061:A *645:78 6.57032e-05
4 *1813:A2 *2061:A 1.14548e-05
5 *235:14 *2061:A 0.0001665
6 *235:21 *2061:A 6.11603e-05
7 *235:93 *2061:A 6.7061e-05
*RES
1 *1813:X *2061:A 29.1536 
*END

*D_NET *363 0.000107823
*CONN
*I *2062:A I *D sky130_fd_sc_hd__buf_1
*I *1812:X O *D sky130_fd_sc_hd__mux4_1
*CAP
1 *2062:A 2.28361e-05
2 *1812:X 2.28361e-05
3 *2062:A *637:108 5.49489e-05
4 *2062:A *665:18 7.20217e-06
*RES
1 *1812:X *2062:A 19.1357 
*END

*D_NET *364 0.000896523
*CONN
*I *2063:A I *D sky130_fd_sc_hd__clkbuf_1
*I *1811:X O *D sky130_fd_sc_hd__mux4_1
*CAP
1 *2063:A 0.000255612
2 *1811:X 0.000255612
3 *2063:A *2320:A 0.00017754
4 *2063:A *517:28 6.97625e-05
5 *1881:A1 *2063:A 3.99614e-06
6 *1881:S0 *2063:A 3.44257e-05
7 *1881:S1 *2063:A 7.83659e-05
8 *236:22 *2063:A 2.12087e-05
*RES
1 *1811:X *2063:A 31.85 
*END

*D_NET *365 0.000661303
*CONN
*I *2064:A I *D sky130_fd_sc_hd__clkbuf_1
*I *1810:X O *D sky130_fd_sc_hd__mux4_1
*CAP
1 *2064:A 0.000179434
2 *1810:X 0.000179434
3 *2064:A *695:16 1.34672e-05
4 *2064:A *702:14 0.000143626
5 *151:23 *2064:A 0.000145341
*RES
1 *1810:X *2064:A 30.9036 
*END

*D_NET *366 0.00050641
*CONN
*I *2065:A I *D sky130_fd_sc_hd__buf_1
*I *1809:X O *D sky130_fd_sc_hd__mux4_1
*CAP
1 *2065:A 0.000100781
2 *1809:X 0.000100781
3 *2065:A *2010:GATE 5.58222e-06
4 *2065:A *483:90 0.000149633
5 *2065:A *576:14 0.000149633
*RES
1 *1809:X *2065:A 30.0821 
*END

*D_NET *367 0.00230095
*CONN
*I *2066:A I *D sky130_fd_sc_hd__buf_1
*I *1808:X O *D sky130_fd_sc_hd__mux4_1
*CAP
1 *2066:A 0.000399981
2 *1808:X 0.000399981
3 *2066:A *1878:A0 1.65337e-05
4 *2066:A *480:108 9.80003e-05
5 *2066:A *502:51 0.000270257
6 *2066:A *566:24 0.000220937
7 *2066:A *582:128 0.00026721
8 *1808:S0 *2066:A 0.00011173
9 *153:129 *2066:A 0.000516319
*RES
1 *1808:X *2066:A 39.4571 
*END

*D_NET *368 0.000297002
*CONN
*I *2067:A I *D sky130_fd_sc_hd__clkbuf_1
*I *1915:X O *D sky130_fd_sc_hd__mux4_1
*CAP
1 *2067:A 4.60776e-05
2 *1915:X 4.60776e-05
3 *2067:A *660:99 6.81704e-05
4 *72:40 *2067:A 0.000136676
*RES
1 *1915:X *2067:A 19.9571 
*END

*D_NET *369 0.00432185
*CONN
*I *2068:A I *D sky130_fd_sc_hd__buf_1
*I *1914:X O *D sky130_fd_sc_hd__mux4_1
*CAP
1 *2068:A 0.00103546
2 *1914:X 0.00103546
3 *2068:A *737:DIODE 0.000298483
4 *2068:A *1949:D 0.000740613
5 *2068:A *2013:GATE 7.45687e-05
6 *2068:A *2332:A 8.50152e-05
7 *2068:A *2334:A 0.000263455
8 *2068:A *398:22 5.49544e-05
9 *2068:A *522:58 5.65955e-05
10 *2068:A *553:20 6.12847e-05
11 *2068:A *568:188 0.00021558
12 *2068:A *646:127 2.86685e-05
13 *2068:A *650:254 9.41642e-05
14 *2068:A *691:72 0.000200531
15 *2068:A *704:110 1.721e-05
16 *2068:A *708:113 3.47641e-06
17 FrameData_O[12] *2068:A 4.60153e-05
18 *1882:S0 *2068:A 1.03105e-05
*RES
1 *1914:X *2068:A 48.8857 
*END

*D_NET *370 0.000811311
*CONN
*I *2069:A I *D sky130_fd_sc_hd__clkbuf_1
*I *1913:X O *D sky130_fd_sc_hd__mux4_1
*CAP
1 *2069:A 0.000137873
2 *1913:X 0.000137873
3 *2069:A *644:34 0.000124875
4 *2069:A *689:24 0.000218404
5 *1913:S1 *2069:A 6.57032e-05
6 *143:29 *2069:A 0.000126582
*RES
1 *1913:X *2069:A 31.4214 
*END

*D_NET *371 0.00109474
*CONN
*I *2070:A I *D sky130_fd_sc_hd__clkbuf_1
*I *1912:X O *D sky130_fd_sc_hd__mux4_1
*CAP
1 *2070:A 0.000198396
2 *1912:X 0.000198396
3 *2070:A *618:30 5.58875e-06
4 *2070:A *643:28 0.000306538
5 *2070:A *706:38 9.41642e-05
6 *159:45 *2070:A 0.000291653
*RES
1 *1912:X *2070:A 32.6179 
*END

*D_NET *372 0.0019012
*CONN
*I *2071:A I *D sky130_fd_sc_hd__clkbuf_1
*I *1911:X O *D sky130_fd_sc_hd__mux4_1
*CAP
1 *2071:A 0.000529948
2 *1911:X 0.000529948
3 *2071:A *1903:A2 8.87153e-05
4 *2071:A *2079:A 0.000141265
5 *2071:A *2294:A 0.000260152
6 *2071:A *686:14 0.000140841
7 *2071:A *688:30 4.35597e-05
8 *2243:A *2071:A 2.59355e-05
9 *147:51 *2071:A 0.000140841
*RES
1 *1911:X *2071:A 36.7964 
*END

*D_NET *373 0.000114127
*CONN
*I *2072:A I *D sky130_fd_sc_hd__clkbuf_1
*I *1910:X O *D sky130_fd_sc_hd__mux4_1
*CAP
1 *2072:A 3.04135e-05
2 *1910:X 3.04135e-05
3 *2072:A *1910:A2 5.33005e-05
*RES
1 *1910:X *2072:A 19.1357 
*END

*D_NET *374 0.001242
*CONN
*I *2073:A I *D sky130_fd_sc_hd__buf_1
*I *1909:X O *D sky130_fd_sc_hd__mux4_1
*CAP
1 *2073:A 0.000417301
2 *1909:X 0.000417301
3 *2073:A *1883:A0 2.59355e-05
4 *2073:A *2126:A 0.000146992
5 *2073:A *704:119 7.16452e-05
6 *1883:S0 *2073:A 6.86792e-05
7 *150:87 *2073:A 1.78762e-05
8 *151:77 *2073:A 7.62717e-05
*RES
1 *1909:X *2073:A 33.7786 
*END

*D_NET *375 0.000963094
*CONN
*I *2074:A I *D sky130_fd_sc_hd__buf_1
*I *1908:X O *D sky130_fd_sc_hd__mux4_1
*CAP
1 *2074:A 0.000288414
2 *1908:X 0.000288414
3 *2074:A *1908:A2 8.93791e-05
4 *2074:A *677:22 6.13757e-06
5 *1908:S1 *2074:A 0.000146137
6 *143:111 *2074:A 0.000144613
*RES
1 *1908:X *2074:A 32.1357 
*END

*D_NET *376 0.000330613
*CONN
*I *2075:A I *D sky130_fd_sc_hd__clkbuf_1
*I *1907:X O *D sky130_fd_sc_hd__mux4_1
*CAP
1 *2075:A 3.81987e-05
2 *1907:X 3.81987e-05
3 *2075:A *481:84 2.12005e-05
4 *2075:A *516:58 0.000137197
5 EE4BEG[4] *2075:A 9.58181e-05
*RES
1 *1907:X *2075:A 19.9571 
*END

*D_NET *377 0.000778593
*CONN
*I *2076:A I *D sky130_fd_sc_hd__buf_1
*I *1906:X O *D sky130_fd_sc_hd__mux4_1
*CAP
1 *2076:A 0.00028212
2 *1906:X 0.00028212
3 *2076:A *2336:A 6.13757e-06
4 *2076:A *593:118 6.31786e-05
5 *2076:A *669:53 0.000117094
6 *1906:S1 *2076:A 2.79421e-05
*RES
1 *1906:X *2076:A 31.4214 
*END

*D_NET *378 0.00143216
*CONN
*I *2077:A I *D sky130_fd_sc_hd__clkbuf_1
*I *1905:X O *D sky130_fd_sc_hd__mux4_1
*CAP
1 *2077:A 0.000443776
2 *1905:X 0.000443776
3 *2077:A *1905:A2 0.000114962
4 *2077:A *2287:A 0.00031001
5 *2077:A *704:44 9.21163e-05
6 *2247:A *2077:A 2.7518e-05
*RES
1 *1905:X *2077:A 35.0821 
*END

*D_NET *379 0.000704923
*CONN
*I *2078:A I *D sky130_fd_sc_hd__buf_1
*I *1904:X O *D sky130_fd_sc_hd__mux4_1
*CAP
1 *2078:A 0.00013535
2 *1904:X 0.00013535
3 *2078:A *2169:A 5.33005e-05
4 *2078:A *626:122 0.000301016
5 *2078:A *667:8 4.82865e-05
6 *2078:A *689:24 3.16198e-05
*RES
1 *1904:X *2078:A 22.0286 
*END

*D_NET *380 0.00297549
*CONN
*I *2079:A I *D sky130_fd_sc_hd__clkbuf_1
*I *1903:X O *D sky130_fd_sc_hd__mux4_1
*CAP
1 *2079:A 0.00093165
2 *1903:X 0.00093165
3 *2079:A *1879:A2 2.79421e-05
4 *2079:A *1903:A2 2.84026e-05
5 *2079:A *2292:A 6.13706e-05
6 *2079:A *523:24 0.000107157
7 *2079:A *524:142 0.000347768
8 *2079:A *594:38 1.1692e-05
9 *2079:A *671:113 1.94879e-05
10 *2079:A *685:30 0.000105191
11 *2079:A *690:61 2.26973e-05
12 *2079:A *707:67 6.33204e-05
13 E1BEG[2] *2079:A 0
14 *2071:A *2079:A 0.000141265
15 *2243:A *2079:A 0.000175892
*RES
1 *1903:X *2079:A 43.5006 
*END

*D_NET *381 0.000705372
*CONN
*I *2080:A I *D sky130_fd_sc_hd__buf_1
*I *1886:X O *D sky130_fd_sc_hd__mux4_1
*CAP
1 *2080:A 0.000321843
2 *1886:X 0.000321843
3 *2080:A *1894:A3 0
4 *2080:A *483:78 9.25014e-06
5 *2080:A *536:8 5.24347e-05
6 *2080:A *571:18 0
7 *147:101 *2080:A 0
*RES
1 *1886:X *2080:A 33.3321 
*END

*D_NET *382 0.00200188
*CONN
*I *2081:A I *D sky130_fd_sc_hd__clkbuf_1
*I *1885:X O *D sky130_fd_sc_hd__mux4_1
*CAP
1 *2081:A 0.000356177
2 *1885:X 0.000356177
3 *2081:A *1900:A1 5.94943e-05
4 *2081:A *593:118 0.000503434
5 *2081:A *673:48 5.33005e-05
6 *2081:A *691:88 1.9021e-05
7 *2081:A *708:113 0
8 *1885:S1 *2081:A 5.49544e-05
9 *1900:S1 *2081:A 9.41642e-05
10 *145:85 *2081:A 0.000505156
*RES
1 *1885:X *2081:A 37.5464 
*END

*D_NET *383 0.000931793
*CONN
*I *2090:A I *D sky130_fd_sc_hd__buf_1
*I *1876:X O *D sky130_fd_sc_hd__mux4_1
*CAP
1 *2090:A 0.00032958
2 *1876:X 0.00032958
3 *2090:A *2027:GATE 6.05161e-06
4 *2090:A *624:82 0.000142096
5 *2090:A *643:79 6.54392e-05
6 *2090:A *675:192 5.90455e-05
*RES
1 *1876:X *2090:A 32.1357 
*END

*D_NET *384 0.000465718
*CONN
*I *2091:A I *D sky130_fd_sc_hd__clkbuf_1
*I *1875:X O *D sky130_fd_sc_hd__mux4_1
*CAP
1 *2091:A 0.000122519
2 *1875:X 0.000122519
3 *2091:A *517:60 7.50697e-05
4 *2091:A *685:49 0.000145609
5 *2091:A *690:61 0
*RES
1 *1875:X *2091:A 30.0821 
*END

*D_NET *385 0.00076706
*CONN
*I *2082:A I *D sky130_fd_sc_hd__clkbuf_1
*I *1884:X O *D sky130_fd_sc_hd__mux4_1
*CAP
1 *2082:A 0.000205634
2 *1884:X 0.000205634
3 *2082:A *540:22 0.000105891
4 *1877:S0 *2082:A 9.76435e-06
5 *1877:S1 *2082:A 3.80613e-05
6 *143:103 *2082:A 5.33431e-05
7 *150:41 *2082:A 7.29646e-05
8 *181:56 *2082:A 7.57673e-05
*RES
1 *1884:X *2082:A 31.7964 
*END

*D_NET *386 0.000627361
*CONN
*I *2083:A I *D sky130_fd_sc_hd__buf_1
*I *1883:X O *D sky130_fd_sc_hd__mux4_1
*CAP
1 *2083:A 0.000256083
2 *1883:X 0.000256083
3 *2083:A *541:40 0
4 *710:DIODE *2083:A 3.42168e-05
5 *713:DIODE *2083:A 5.20669e-05
6 *2155:A *2083:A 0
7 *147:105 *2083:A 2.89114e-05
*RES
1 *1883:X *2083:A 31.8321 
*END

*D_NET *387 0.00208439
*CONN
*I *2084:A I *D sky130_fd_sc_hd__clkbuf_1
*I *1882:X O *D sky130_fd_sc_hd__mux4_1
*CAP
1 *2084:A 0.000808148
2 *1882:X 0.000808148
3 *2084:A *1882:A1 6.57032e-05
4 *2084:A *1882:A2 1.59935e-05
5 *2084:A *2354:A 2.03917e-05
6 *2084:A *542:20 1.21258e-05
7 *2084:A *570:14 0.000151165
8 *1882:S0 *2084:A 0.000125253
9 *235:64 *2084:A 7.74578e-05
*RES
1 *1882:X *2084:A 38.3321 
*END

*D_NET *388 0.000293392
*CONN
*I *2085:A I *D sky130_fd_sc_hd__clkbuf_1
*I *1881:X O *D sky130_fd_sc_hd__mux4_1
*CAP
1 *2085:A 4.32915e-05
2 *1881:X 4.32915e-05
3 *2085:A *2305:A 0.000137313
4 *2085:A *514:72 6.94952e-05
*RES
1 *1881:X *2085:A 19.9571 
*END

*D_NET *389 0.00118628
*CONN
*I *2086:A I *D sky130_fd_sc_hd__buf_1
*I *1880:X O *D sky130_fd_sc_hd__mux4_1
*CAP
1 *2086:A 0.00034714
2 *1880:X 0.00034714
3 *2086:A *1880:A2 6.57032e-05
4 *2086:A *1955:D 9.66977e-05
5 *2086:A *544:32 9.83442e-05
6 *2086:A *643:50 7.60041e-05
7 *2086:A *668:95 3.90831e-05
8 *2086:A *705:49 5.33005e-05
9 *1880:S1 *2086:A 6.28677e-05
*RES
1 *1880:X *2086:A 33.3321 
*END

*D_NET *390 0.000688998
*CONN
*I *2087:A I *D sky130_fd_sc_hd__clkbuf_1
*I *1879:X O *D sky130_fd_sc_hd__mux4_1
*CAP
1 *2087:A 0.000237431
2 *1879:X 0.000237431
3 *2087:A *484:50 0.000119574
4 *2087:A *659:116 1.8783e-05
5 *143:59 *2087:A 7.5779e-05
*RES
1 *1879:X *2087:A 31.0107 
*END

*D_NET *391 0.000944312
*CONN
*I *2088:A I *D sky130_fd_sc_hd__clkbuf_1
*I *1878:X O *D sky130_fd_sc_hd__mux4_1
*CAP
1 *2088:A 0.000145001
2 *1878:X 0.000145001
3 *2088:A *2006:D 2.59355e-05
4 *2088:A *693:142 0.000314188
5 *143:111 *2088:A 0.000314188
*RES
1 *1878:X *2088:A 32.2071 
*END

*D_NET *392 0.00310916
*CONN
*I *2089:A I *D sky130_fd_sc_hd__clkbuf_1
*I *1877:X O *D sky130_fd_sc_hd__mux4_1
*CAP
1 *2089:A 0
2 *1877:X 0.00085348
3 *392:36 0.00085348
4 *392:36 *1947:D 2.6269e-05
5 *392:36 *2316:A 0.000295416
6 *392:36 *535:157 7.14469e-05
7 *392:36 *597:46 0.000194401
8 *392:36 *667:74 0.000127353
9 *392:36 *667:87 3.36651e-05
10 *392:36 *675:174 8.77095e-05
11 *1877:S0 *392:36 0.000244401
12 *1915:S1 *392:36 0.000202309
13 *143:103 *392:36 2.36643e-05
14 *144:91 *392:36 9.55684e-05
*RES
1 *1877:X *392:36 42.6393 
2 *392:36 *2089:A 9.3 
*END

*D_NET *393 0.00247311
*CONN
*I *2092:A I *D sky130_fd_sc_hd__clkbuf_1
*I *1902:X O *D sky130_fd_sc_hd__mux4_1
*CAP
1 *2092:A 0.00056855
2 *1902:X 0.00056855
3 *2092:A *2298:A 0.000305715
4 *2092:A *2299:A 0.00016492
5 *2092:A *2300:A 5.33005e-05
6 *2092:A *481:84 6.05161e-06
7 *2092:A *521:12 0.000305715
8 *2092:A *653:170 1.13883e-05
9 E2BEGb[2] *2092:A 0.000265276
10 E2BEGb[4] *2092:A 0.000127833
11 *234:86 *2092:A 9.58126e-05
*RES
1 *1902:X *2092:A 40.6 
*END

*D_NET *394 0.00045503
*CONN
*I *2093:A I *D sky130_fd_sc_hd__buf_1
*I *1901:X O *D sky130_fd_sc_hd__mux4_1
*CAP
1 *2093:A 0.000166452
2 *1901:X 0.000166452
3 *2093:A *2100:A 4.1331e-06
4 *2093:A *2382:A 7.6644e-05
5 *2093:A *556:22 4.13477e-05
6 *2093:A *618:132 0
*RES
1 *1901:X *2093:A 30.4929 
*END

*D_NET *395 0.00339832
*CONN
*I *2102:A I *D sky130_fd_sc_hd__clkbuf_1
*I *1892:X O *D sky130_fd_sc_hd__mux4_1
*CAP
1 *2102:A 0.00084771
2 *1892:X 0.00084771
3 *2102:A *2027:D 4.00349e-05
4 *2102:A *533:52 5.33005e-05
5 *2102:A *593:74 0.000456117
6 *2102:A *596:82 7.34118e-05
7 *2102:A *634:54 0.000250932
8 *2102:A *668:93 4.18834e-05
9 *2102:A *671:111 0.000102443
10 *1892:S0 *2102:A 5.33005e-05
11 *143:59 *2102:A 6.05161e-06
12 *150:41 *2102:A 1.90936e-05
13 *159:77 *2102:A 0.000584135
14 *181:56 *2102:A 2.21972e-05
*RES
1 *1892:X *2102:A 41.07 
*END

*D_NET *396 0.00202236
*CONN
*I *2103:A I *D sky130_fd_sc_hd__buf_1
*I *1891:X O *D sky130_fd_sc_hd__mux4_1
*CAP
1 *2103:A 0.000493734
2 *1891:X 0.000493734
3 *2103:A *1809:A1 7.43578e-06
4 *2103:A *2100:A 1.69115e-05
5 *2103:A *551:20 0.000140717
6 *2103:A *618:132 0.000492257
7 *724:DIODE *2103:A 0.000216755
8 *743:DIODE *2103:A 1.01921e-05
9 *1909:S0 *2103:A 0.000150618
*RES
1 *1891:X *2103:A 37.5107 
*END

*D_NET *397 8.11121e-05
*CONN
*I *2104:A I *D sky130_fd_sc_hd__buf_1
*I *1890:X O *D sky130_fd_sc_hd__mux4_1
*CAP
1 *2104:A 2.61003e-05
2 *1890:X 2.61003e-05
3 *2104:A *570:14 2.89114e-05
*RES
1 *1890:X *2104:A 19.1357 
*END

*D_NET *398 0.0041675
*CONN
*I *2105:A I *D sky130_fd_sc_hd__clkbuf_1
*I *1889:X O *D sky130_fd_sc_hd__mux4_1
*CAP
1 *2105:A 0
2 *1889:X 0.000992271
3 *398:22 0.000992271
4 *398:22 *2057:CLK 1.58163e-05
5 *398:22 *2095:A 0.000105471
6 *398:22 *2162:A 4.82865e-05
7 *398:22 *478:6 9.62238e-05
8 *398:22 *547:20 7.04017e-05
9 *398:22 *553:20 0.000504489
10 *398:22 *565:22 0.000547023
11 *398:22 *634:176 6.94952e-05
12 *398:22 *635:102 0
13 *2068:A *398:22 5.49544e-05
14 *145:85 *398:22 0.000334541
15 *150:69 *398:22 0.000336255
*RES
1 *1889:X *398:22 48.1929 
2 *398:22 *2105:A 9.3 
*END

*D_NET *399 0.000464077
*CONN
*I *2106:A I *D sky130_fd_sc_hd__clkbuf_1
*I *1888:X O *D sky130_fd_sc_hd__mux4_1
*CAP
1 *2106:A 6.95759e-05
2 *1888:X 6.95759e-05
3 *2106:A *516:32 0.000122814
4 *2106:A *708:84 0.000122875
5 *235:113 *2106:A 2.59355e-05
6 *236:22 *2106:A 5.33005e-05
*RES
1 *1888:X *2106:A 29.7786 
*END

*D_NET *400 0.00346491
*CONN
*I *2107:A I *D sky130_fd_sc_hd__clkbuf_1
*I *1887:X O *D sky130_fd_sc_hd__mux4_1
*CAP
1 *2107:A 0.000909794
2 *1887:X 0.000909794
3 *2107:A *2289:A 5.33005e-05
4 *2107:A *2291:A 2.7025e-05
5 *2107:A *481:50 5.65776e-05
6 *2107:A *517:60 0.000174324
7 *2107:A *521:12 0.000152415
8 *2107:A *534:40 0.000116671
9 *2107:A *645:62 0.000244253
10 *2107:A *647:222 6.57032e-05
11 *2107:A *650:216 4.64974e-05
12 *2107:A *659:161 2.84109e-05
13 *2107:A *691:16 0.000152415
14 *2107:A *698:121 2.97485e-06
15 *2107:A *702:14 0.000172163
16 E2BEG[5] *2107:A 2.63501e-05
17 E2BEG[6] *2107:A 0.000314114
18 *236:91 *2107:A 1.21258e-05
*RES
1 *1887:X *2107:A 42.4236 
*END

*D_NET *401 9.9735e-05
*CONN
*I *2094:A I *D sky130_fd_sc_hd__buf_1
*I *1900:X O *D sky130_fd_sc_hd__mux4_1
*CAP
1 *2094:A 2.3932e-05
2 *1900:X 2.3932e-05
3 *2094:A *1900:A1 2.59355e-05
4 *1900:S1 *2094:A 2.59355e-05
*RES
1 *1900:X *2094:A 19.1357 
*END

*D_NET *402 0.000829311
*CONN
*I *2095:A I *D sky130_fd_sc_hd__clkbuf_1
*I *1899:X O *D sky130_fd_sc_hd__mux4_1
*CAP
1 *2095:A 0.000129869
2 *1899:X 0.000129869
3 *2095:A *547:20 0.000218404
4 *2095:A *645:78 0.000122887
5 FrameData_O[7] *2095:A 0.000122812
6 *398:22 *2095:A 0.000105471
*RES
1 *1899:X *2095:A 31.4214 
*END

*D_NET *403 0.0010522
*CONN
*I *2096:A I *D sky130_fd_sc_hd__buf_1
*I *1898:X O *D sky130_fd_sc_hd__mux4_1
*CAP
1 *2096:A 0.000417129
2 *1898:X 0.000417129
3 *2096:A *727:DIODE 9.25014e-06
4 *2096:A *1898:A2 1.59935e-05
5 *2096:A *648:16 6.30196e-05
6 *2096:A *653:38 0.000128146
7 *2096:A *656:52 1.53439e-06
*RES
1 *1898:X *2096:A 33.0643 
*END

*D_NET *404 0.00136648
*CONN
*I *2097:A I *D sky130_fd_sc_hd__buf_1
*I *1897:X O *D sky130_fd_sc_hd__mux4_1
*CAP
1 *2097:A 0.000417185
2 *1897:X 0.000417185
3 *2097:A *653:32 0
4 *2097:A *655:14 0.00030945
5 *2097:A *657:44 0.000164168
6 *1897:S1 *2097:A 5.84943e-05
*RES
1 *1897:X *2097:A 34.975 
*END

*D_NET *405 0.000605131
*CONN
*I *2098:A I *D sky130_fd_sc_hd__clkbuf_1
*I *1896:X O *D sky130_fd_sc_hd__mux4_1
*CAP
1 *2098:A 0.00013518
2 *1896:X 0.00013518
3 *2098:A *2330:A 0.000174255
4 *2098:A *596:118 1.34631e-05
5 *2098:A *676:40 0.000147054
*RES
1 *1896:X *2098:A 30.4929 
*END

*D_NET *406 0.000120121
*CONN
*I *2099:A I *D sky130_fd_sc_hd__clkbuf_1
*I *1895:X O *D sky130_fd_sc_hd__mux4_1
*CAP
1 *2099:A 2.04425e-05
2 *1895:X 2.04425e-05
3 *2099:A *1895:A2 5.33005e-05
4 *2099:A *563:30 2.59355e-05
*RES
1 *1895:X *2099:A 19.1357 
*END

*D_NET *407 0.000886667
*CONN
*I *2100:A I *D sky130_fd_sc_hd__buf_1
*I *1894:X O *D sky130_fd_sc_hd__mux4_1
*CAP
1 *2100:A 0.000339092
2 *1894:X 0.000339092
3 *2100:A *2381:A 2.95726e-05
4 *2100:A *551:20 7.83659e-05
5 *2100:A *556:22 0
6 *725:DIODE *2100:A 6.05161e-06
7 *1894:S0 *2100:A 1.82189e-05
8 *1901:S1 *2100:A 5.52302e-05
9 *2093:A *2100:A 4.1331e-06
10 *2103:A *2100:A 1.69115e-05
11 *148:111 *2100:A 0
*RES
1 *1894:X *2100:A 32.7964 
*END

*D_NET *408 0.000977864
*CONN
*I *2101:A I *D sky130_fd_sc_hd__buf_1
*I *1893:X O *D sky130_fd_sc_hd__mux4_1
*CAP
1 *2101:A 0.000322908
2 *1893:X 0.000322908
3 *2101:A *1809:A0 0.000117913
4 *2101:A *635:112 0.000117913
5 *1893:S1 *2101:A 9.62238e-05
*RES
1 *1893:X *2101:A 32.2429 
*END

*D_NET *409 0.0210397
*CONN
*I *2162:A I *D sky130_fd_sc_hd__clkbuf_16
*I *2166:X O *D sky130_fd_sc_hd__clkbuf_16
*CAP
1 *2162:A 0.000334394
2 *2166:X 0.00138279
3 *409:34 0.00234312
4 *409:18 0.00339151
5 *2162:A *547:20 0.000357706
6 *409:18 *479:46 5.27484e-05
7 *409:18 *482:26 0.000579189
8 *409:18 *483:46 2.63501e-05
9 *409:18 *569:28 9.03775e-05
10 *409:18 *591:102 8.06559e-05
11 *409:18 *591:126 9.25014e-06
12 *409:18 *596:82 8.76591e-05
13 *409:18 *631:106 7.27952e-05
14 *409:18 *642:38 0.000116492
15 *409:18 *642:55 0.000366057
16 *409:18 *642:106 0.000329376
17 *409:18 *652:127 0.000322752
18 *409:18 *662:142 0.000219869
19 *409:18 *667:54 3.12583e-05
20 *409:18 *668:93 0.00085018
21 *409:18 *668:107 0.000335059
22 *409:18 *668:109 0.000502772
23 *409:18 *673:124 4.71844e-05
24 *409:18 *705:10 4.76637e-06
25 *409:18 *705:49 0.000384853
26 *409:34 *2307:A 0.000214308
27 *409:34 *2326:A 8.76591e-06
28 *409:34 *479:106 6.82801e-05
29 *409:34 *516:32 0.000556816
30 *409:34 *520:58 4.28249e-05
31 *409:34 *535:86 9.76767e-05
32 *409:34 *535:157 0.00127311
33 *409:34 *567:72 0.000418268
34 *409:34 *579:52 1.47779e-05
35 *409:34 *599:18 0.000884342
36 *409:34 *618:96 8.96293e-05
37 *409:34 *634:54 0.000313843
38 *409:34 *642:106 0.000352377
39 *409:34 *677:22 0.000142437
40 *409:34 *701:54 0.000977629
41 *409:34 *708:84 0.000160507
42 *143:59 *409:18 8.76591e-06
43 *144:121 *409:34 0.000236034
44 *145:75 *409:34 9.99931e-06
45 *145:85 *409:34 0.000548374
46 *150:41 *409:34 0.000123605
47 *150:57 *409:34 0.00200803
48 *159:77 *409:34 0.000110498
49 *249:34 *409:18 1.1397e-05
50 *398:22 *2162:A 4.82865e-05
*RES
1 *2166:X *409:18 47.1687 
2 *409:18 *409:34 48.2656 
3 *409:34 *2162:A 20.0857 
*END

*D_NET *410 0.00101184
*CONN
*I *1817:A1 I *D sky130_fd_sc_hd__a211oi_1
*I *1796:Y O *D sky130_fd_sc_hd__inv_1
*CAP
1 *1817:A1 0.000237381
2 *1796:Y 0.000237381
3 *1817:A1 *1817:A2 0.000411095
4 *1817:A1 *650:76 7.40571e-05
5 *1817:C1 *1817:A1 3.27359e-05
6 *160:15 *1817:A1 1.09315e-05
7 *239:24 *1817:A1 8.25843e-06
*RES
1 *1796:Y *1817:A1 32.4839 
*END

*D_NET *411 0.00065498
*CONN
*I *1824:A1 I *D sky130_fd_sc_hd__a211oi_1
*I *1797:Y O *D sky130_fd_sc_hd__inv_1
*CAP
1 *1824:A1 0.000226407
2 *1797:Y 0.000226407
3 *1824:A1 *658:133 0
4 *1797:A *1824:A1 4.83493e-05
5 *245:59 *1824:A1 0.000153816
*RES
1 *1797:Y *1824:A1 21.9482 
*END

*D_NET *412 0.000632536
*CONN
*I *1831:A1 I *D sky130_fd_sc_hd__a211oi_1
*I *1798:Y O *D sky130_fd_sc_hd__inv_1
*CAP
1 *1831:A1 0.000316268
2 *1798:Y 0.000316268
3 *143:9 *1831:A1 0
4 *146:33 *1831:A1 0
*RES
1 *1798:Y *1831:A1 31.4304 
*END

*D_NET *413 0.00176447
*CONN
*I *1838:A1 I *D sky130_fd_sc_hd__a211oi_1
*I *1799:Y O *D sky130_fd_sc_hd__inv_1
*CAP
1 *1838:A1 0.000260008
2 *1799:Y 0.000260008
3 *1838:A1 *1838:A2 0.000265385
4 *1838:A1 *1838:B1 3.22834e-05
5 *1838:A1 *2167:A 1.59935e-05
6 *1838:A1 *626:134 2.73587e-05
7 *1838:A1 *662:132 0.000125731
8 *1799:A *1838:A1 7.55747e-05
9 *1839:B *1838:A1 0.000121573
10 *154:47 *1838:A1 0.00031288
11 *262:28 *1838:A1 0.000267672
*RES
1 *1799:Y *1838:A1 36.2518 
*END

*D_NET *414 0.000186076
*CONN
*I *1846:A1 I *D sky130_fd_sc_hd__o21a_1
*I *1800:Y O *D sky130_fd_sc_hd__inv_1
*CAP
1 *1846:A1 1.69917e-05
2 *1800:Y 1.69917e-05
3 *1846:A1 *652:44 7.60465e-05
4 *257:14 *1846:A1 7.60465e-05
*RES
1 *1800:Y *1846:A1 19.3411 
*END

*D_NET *415 0.000711998
*CONN
*I *1850:B2 I *D sky130_fd_sc_hd__a22o_1
*I *1801:Y O *D sky130_fd_sc_hd__inv_1
*CAP
1 *1850:B2 0.000157562
2 *1801:Y 0.000157562
3 *1850:B2 *1843:A1 0.000324782
4 *1850:B2 *1850:B1 4.58194e-05
5 *1850:B2 *2277:A 2.6274e-05
*RES
1 *1801:Y *1850:B2 22.2339 
*END

*D_NET *416 0.00129242
*CONN
*I *1854:A1 I *D sky130_fd_sc_hd__o21a_1
*I *1857:S I *D sky130_fd_sc_hd__mux2_1
*I *1802:Y O *D sky130_fd_sc_hd__inv_2
*CAP
1 *1854:A1 0.000150796
2 *1857:S 0
3 *1802:Y 0.000227541
4 *416:14 0.000378337
5 *1854:A1 *1857:A0 2.44318e-05
6 *1854:A1 *1857:A1 0.000187041
7 *1854:A1 *1858:B1 1.92789e-05
8 *1854:A1 *487:40 6.05161e-06
9 *416:14 *1858:B1 0
10 *416:14 *487:20 0
11 *1851:S1 *416:14 0
12 *1852:A *416:14 0.000122765
13 *147:13 *416:14 0.000176178
*RES
1 *1802:Y *416:14 23.3357 
2 *416:14 *1857:S 9.3 
3 *416:14 *1854:A1 12.7286 
*END

*D_NET *417 0.000532356
*CONN
*I *1858:B2 I *D sky130_fd_sc_hd__a22o_1
*I *1803:Y O *D sky130_fd_sc_hd__inv_2
*CAP
1 *1858:B2 0.000197789
2 *1803:Y 0.000197789
3 *1858:B2 *1858:A1 2.42122e-05
4 *147:13 *1858:B2 5.56943e-05
5 *250:10 *1858:B2 5.68713e-05
*RES
1 *1803:Y *1858:B2 31.1536 
*END

*D_NET *418 0.00319404
*CONN
*I *1862:A1 I *D sky130_fd_sc_hd__o21a_1
*I *1804:Y O *D sky130_fd_sc_hd__inv_1
*CAP
1 *1862:A1 0.000807809
2 *1804:Y 0.000807809
3 *1862:A1 *1860:B 0.000294933
4 *1862:A1 *1865:A1 0.000187127
5 *1862:A1 *1866:A1 4.35597e-05
6 *1862:A1 *1866:A2 4.78169e-05
7 *1862:A1 *1866:B2 2.52078e-05
8 *1862:A1 *481:18 0.000120299
9 *1862:A1 *637:67 5.62336e-05
10 *1862:A1 *647:123 2.48437e-05
11 *1804:A *1862:A1 2.48994e-05
12 *1860:A *1862:A1 0.000185124
13 *2264:A *1862:A1 0.000274816
14 *2265:A *1862:A1 0.000225382
15 *2270:A *1862:A1 6.8175e-05
*RES
1 *1804:Y *1862:A1 46.0196 
*END

*D_NET *419 0.00313143
*CONN
*I *1866:B2 I *D sky130_fd_sc_hd__a22o_1
*I *1805:Y O *D sky130_fd_sc_hd__inv_2
*CAP
1 *1866:B2 0.00102239
2 *1805:Y 0.00102239
3 *1866:B2 *1860:B 0.000199506
4 *1866:B2 *1865:A1 0
5 *1866:B2 *1866:B1 0.000132747
6 *1866:B2 *647:133 0.000170424
7 *1866:B2 *650:156 0.000476036
8 *1866:B2 *708:12 3.06878e-06
9 *1804:A *1866:B2 1.80626e-05
10 *1862:A1 *1866:B2 2.52078e-05
11 *2254:A *1866:B2 4.11218e-05
12 *2266:A *1866:B2 2.04825e-05
13 *242:14 *1866:B2 0
*RES
1 *1805:Y *1866:B2 43.4036 
*END

*D_NET *420 0.00162308
*CONN
*I *1870:A1 I *D sky130_fd_sc_hd__o21a_1
*I *1806:Y O *D sky130_fd_sc_hd__inv_1
*CAP
1 *1870:A1 0.000490893
2 *1806:Y 0.000490893
3 *1870:A1 *1874:A1 9.60337e-06
4 *1870:A1 *1874:A2 8.76225e-05
5 *1870:A1 *1874:B1 5.68722e-05
6 *1870:A1 *1874:B2 8.00806e-05
7 *1870:A1 *458:16 0
8 *1870:A1 *487:20 0
9 *1870:A1 *642:34 2.11419e-05
10 *1870:A1 *647:28 0
11 *1870:B1 *1870:A1 2.32275e-05
12 *147:13 *1870:A1 0.000354325
13 *149:9 *1870:A1 8.42484e-06
*RES
1 *1806:Y *1870:A1 37.2696 
*END

*D_NET *421 0.000274608
*CONN
*I *1874:B2 I *D sky130_fd_sc_hd__a22o_1
*I *1807:Y O *D sky130_fd_sc_hd__inv_2
*CAP
1 *1874:B2 5.25896e-05
2 *1807:Y 5.25896e-05
3 *1874:B2 *1874:A1 1.03005e-05
4 *1874:B2 *1874:B1 9.25014e-06
5 *1870:A1 *1874:B2 8.00806e-05
6 *149:9 *1874:B2 6.97972e-05
*RES
1 *1807:Y *1874:B2 29.2429 
*END

*D_NET *422 0.00150059
*CONN
*I *1817:A2 I *D sky130_fd_sc_hd__a211oi_1
*I *1815:X O *D sky130_fd_sc_hd__mux2_1
*CAP
1 *1817:A2 0.000322672
2 *1815:X 0.000322672
3 *1817:A2 *650:76 1.68854e-05
4 *1796:A *1817:A2 0.000105268
5 *1817:A1 *1817:A2 0.000411095
6 *159:21 *1817:A2 0.000185038
7 *239:43 *1817:A2 0.000136958
*RES
1 *1815:X *1817:A2 34.2339 
*END

*D_NET *423 0.000373519
*CONN
*I *1817:B1 I *D sky130_fd_sc_hd__a211oi_1
*I *1816:X O *D sky130_fd_sc_hd__and3b_1
*CAP
1 *1817:B1 0.000152334
2 *1816:X 0.000152334
3 *1817:B1 *650:59 2.59355e-05
4 *1817:B1 *650:76 1.40034e-05
5 *1817:C1 *1817:B1 2.89114e-05
*RES
1 *1816:X *1817:B1 21.225 
*END

*D_NET *424 0.00224384
*CONN
*I *1821:B1 I *D sky130_fd_sc_hd__a41o_1
*I *1817:Y O *D sky130_fd_sc_hd__a211oi_1
*CAP
1 *1821:B1 0.000423391
2 *1817:Y 0.000423391
3 *1821:B1 *1815:A0 0.000207735
4 *1821:B1 *1819:A2 0.000105876
5 *1821:B1 *1821:A2 0.000556589
6 *1821:B1 *1821:A3 1.24368e-05
7 *1821:B1 *1821:A4 1.02504e-05
8 *1821:B1 *2183:A 1.43288e-05
9 *1821:B1 *501:14 7.13904e-05
10 *1821:B1 *582:12 4.51691e-05
11 *1819:B1 *1821:B1 1.85392e-05
12 *1821:A1 *1821:B1 5.33005e-05
13 *160:15 *1821:B1 0.000290999
14 *181:17 *1821:B1 1.0446e-05
*RES
1 *1817:Y *1821:B1 41.812 
*END

*D_NET *425 0.00159909
*CONN
*I *1821:A2 I *D sky130_fd_sc_hd__a41o_1
*I *1818:X O *D sky130_fd_sc_hd__or3b_1
*CAP
1 *1821:A2 0.000323688
2 *1818:X 0.000323688
3 *1821:A2 *1815:A0 2.33059e-05
4 *1821:A2 *1821:A3 5.52302e-05
5 *1821:A2 *2183:A 1.90936e-05
6 *1821:A2 *501:14 0.000152772
7 *1821:A2 *582:12 9.87983e-06
8 *1821:B1 *1821:A2 0.000556589
9 *181:17 *1821:A2 0.000134843
*RES
1 *1818:X *1821:A2 38.437 
*END

*D_NET *426 0.000186369
*CONN
*I *1821:A3 I *D sky130_fd_sc_hd__a41o_1
*I *1819:Y O *D sky130_fd_sc_hd__o21ai_1
*CAP
1 *1821:A3 4.52621e-05
2 *1819:Y 4.52621e-05
3 *1821:A3 *1819:A2 1.57414e-05
4 *1819:B1 *1821:A3 1.24368e-05
5 *1821:A2 *1821:A3 5.52302e-05
6 *1821:B1 *1821:A3 1.24368e-05
*RES
1 *1819:Y *1821:A3 19.5464 
*END

*D_NET *427 0.00148987
*CONN
*I *1821:A4 I *D sky130_fd_sc_hd__a41o_1
*I *1820:Y O *D sky130_fd_sc_hd__nand2_1
*CAP
1 *1821:A4 0.000455436
2 *1820:Y 0.000455436
3 *1821:A4 *1820:A 0.000100016
4 *1821:A4 *2183:A 0.000123137
5 *1821:A4 *487:40 7.40571e-05
6 *1821:A4 *579:78 0.000132967
7 *1821:A4 *582:12 5.62487e-05
8 *1820:B *1821:A4 8.25843e-06
9 *1821:B1 *1821:A4 1.02504e-05
10 *160:15 *1821:A4 7.40571e-05
*RES
1 *1820:Y *1821:A4 43.6357 
*END

*D_NET *428 0.001652
*CONN
*I *1824:A2 I *D sky130_fd_sc_hd__a211oi_1
*I *1822:X O *D sky130_fd_sc_hd__mux2_1
*CAP
1 *1824:A2 0.000345226
2 *1822:X 0.000345226
3 *1824:A2 *1824:B1 0.000270253
4 *1824:A2 *1828:A3 0.000117662
5 *1824:A2 *2041:D 1.3469e-05
6 *1824:A2 *479:46 6.99611e-05
7 *1824:A2 *479:60 0.000107052
8 *1824:A2 *593:74 3.16802e-07
9 *1824:A2 *643:110 0
10 *1824:A2 *661:177 6.76337e-05
11 *1824:A2 *662:177 2.90278e-05
12 *1824:A2 *668:93 0.000178743
13 *1824:A2 *673:116 4.06087e-07
14 *1892:S1 *1824:A2 5.63485e-05
15 *245:59 *1824:A2 4.15161e-05
16 *246:10 *1824:A2 9.15621e-06
*RES
1 *1822:X *1824:A2 36.4661 
*END

*D_NET *429 0.001014
*CONN
*I *1824:B1 I *D sky130_fd_sc_hd__a211oi_1
*I *1823:X O *D sky130_fd_sc_hd__and3b_1
*CAP
1 *1824:B1 0.000197082
2 *1823:X 0.000197082
3 *1823:C *1824:B1 0.000191856
4 *1824:A2 *1824:B1 0.000270253
5 *246:6 *1824:B1 5.33005e-05
6 *246:10 *1824:B1 7.40571e-05
7 *246:36 *1824:B1 3.03738e-05
*RES
1 *1823:X *1824:B1 32.0107 
*END

*D_NET *430 0.00166858
*CONN
*I *1828:B1 I *D sky130_fd_sc_hd__a41o_1
*I *1824:Y O *D sky130_fd_sc_hd__a211oi_1
*CAP
1 *1828:B1 0.000373613
2 *1824:Y 0.000373613
3 *1828:B1 *1828:A4 0.000313991
4 *1828:B1 *2041:D 2.42516e-05
5 *1828:B1 *582:54 0.000143967
6 *1828:B1 *658:113 7.32669e-05
7 *1828:A1 *1828:B1 5.49544e-05
8 *244:8 *1828:B1 0.000175892
9 *246:6 *1828:B1 0.000135028
*RES
1 *1824:Y *1828:B1 34.725 
*END

*D_NET *431 0.000349839
*CONN
*I *1828:A2 I *D sky130_fd_sc_hd__a41o_1
*I *1825:X O *D sky130_fd_sc_hd__or3b_1
*CAP
1 *1828:A2 0.000119028
2 *1825:X 0.000119028
3 *1828:A2 *1828:A4 9.41642e-05
4 *1828:A2 *1972:D 1.21258e-05
5 *1828:A2 *693:46 0
6 *1828:A1 *1828:A2 5.49349e-06
*RES
1 *1825:X *1828:A2 20.8143 
*END

*D_NET *432 0.00048041
*CONN
*I *1828:A3 I *D sky130_fd_sc_hd__a41o_1
*I *1826:Y O *D sky130_fd_sc_hd__o21ai_1
*CAP
1 *1828:A3 0.000109678
2 *1826:Y 0.000109678
3 *1828:A3 *668:93 0.000117457
4 *1797:A *1828:A3 1.98839e-05
5 *1824:A2 *1828:A3 0.000117662
6 *246:36 *1828:A3 6.05161e-06
*RES
1 *1826:Y *1828:A3 29.7786 
*END

*D_NET *433 0.00172984
*CONN
*I *1828:A4 I *D sky130_fd_sc_hd__a41o_1
*I *1827:Y O *D sky130_fd_sc_hd__nand2_1
*CAP
1 *1828:A4 0.000370556
2 *1827:Y 0.000370556
3 *1828:A4 *1972:D 0.000382958
4 *1828:A4 *495:20 6.34436e-05
5 *1828:A4 *582:54 9.11224e-05
6 *1828:A4 *618:50 0
7 *1828:A4 *693:46 0
8 *1828:A1 *1828:A4 2.67922e-05
9 *1828:A2 *1828:A4 9.41642e-05
10 *1828:B1 *1828:A4 0.000313991
11 *244:8 *1828:A4 1.62532e-05
*RES
1 *1827:Y *1828:A4 36.8857 
*END

*D_NET *434 0.00118434
*CONN
*I *1831:A2 I *D sky130_fd_sc_hd__a211oi_1
*I *1829:X O *D sky130_fd_sc_hd__mux2_1
*CAP
1 *1831:A2 0.000256335
2 *1829:X 0.000256335
3 *1831:A2 *1832:C_N 0.000339803
4 *1831:A2 *1833:A1 0.000101545
5 *1831:A2 *2044:D 0
6 *1831:A2 *2045:D 4.038e-06
7 *1831:A2 *2045:GATE 0.000103958
8 *1831:A2 *649:43 3.35916e-05
9 *1831:A2 *649:53 3.18676e-05
10 *1831:A2 *682:29 5.68722e-05
*RES
1 *1829:X *1831:A2 33.8679 
*END

*D_NET *435 0.00161869
*CONN
*I *1831:B1 I *D sky130_fd_sc_hd__a211oi_1
*I *1830:X O *D sky130_fd_sc_hd__and3b_1
*CAP
1 *1831:B1 0.000419827
2 *1830:X 0.000419827
3 *1831:B1 *1832:C_N 2.44318e-05
4 *1831:B1 *1851:A3 0.000137561
5 *1831:B1 *493:18 0.000265934
6 *1798:A *1831:B1 3.34366e-05
7 *1831:C1 *1831:B1 0.000226513
8 *254:35 *1831:B1 5.21214e-05
9 *254:37 *1831:B1 3.90366e-05
*RES
1 *1830:X *1831:B1 35.975 
*END

*D_NET *436 0.00103591
*CONN
*I *1835:B1 I *D sky130_fd_sc_hd__a41o_1
*I *1831:Y O *D sky130_fd_sc_hd__a211oi_1
*CAP
1 *1835:B1 0.000208153
2 *1831:Y 0.000208153
3 *1835:B1 *1832:C_N 4.63028e-05
4 *1835:B1 *1835:A3 9.80173e-05
5 *1835:B1 *1835:A4 8.40933e-05
6 *1833:A2 *1835:B1 3.63775e-05
7 *1835:A1 *1835:B1 5.52238e-05
8 *143:9 *1835:B1 0.000147211
9 *254:35 *1835:B1 0.000152375
*RES
1 *1831:Y *1835:B1 32.9571 
*END

*D_NET *437 0.000637627
*CONN
*I *1835:A2 I *D sky130_fd_sc_hd__a41o_1
*I *1832:X O *D sky130_fd_sc_hd__or3b_1
*CAP
1 *1835:A2 0.000137658
2 *1832:X 0.000137658
3 *1835:A2 *1834:A 9.25014e-06
4 *1835:A2 *493:18 0.000187654
5 *1835:A2 *501:14 0
6 *1830:B *1835:A2 1.69115e-05
7 *1833:A2 *1835:A2 7.6644e-05
8 *1835:A1 *1835:A2 1.85502e-05
9 *254:35 *1835:A2 5.33005e-05
*RES
1 *1832:X *1835:A2 30.6893 
*END

*D_NET *438 0.00021788
*CONN
*I *1835:A3 I *D sky130_fd_sc_hd__a41o_1
*I *1833:Y O *D sky130_fd_sc_hd__o21ai_1
*CAP
1 *1835:A3 3.23195e-05
2 *1833:Y 3.23195e-05
3 *1835:B1 *1835:A3 9.80173e-05
4 *254:35 *1835:A3 5.52238e-05
*RES
1 *1833:Y *1835:A3 19.5464 
*END

*D_NET *439 0.000902977
*CONN
*I *1835:A4 I *D sky130_fd_sc_hd__a41o_1
*I *1834:Y O *D sky130_fd_sc_hd__nand2_1
*CAP
1 *1835:A4 0.000167658
2 *1834:Y 0.000167658
3 *1835:A4 *501:14 5.52302e-05
4 *1833:A2 *1835:A4 0.000219711
5 *1835:A1 *1835:A4 9.71197e-05
6 *1835:B1 *1835:A4 8.40933e-05
7 *254:10 *1835:A4 9.60939e-05
8 *254:35 *1835:A4 1.54142e-05
*RES
1 *1834:Y *1835:A4 22.85 
*END

*D_NET *440 0.00103126
*CONN
*I *1838:A2 I *D sky130_fd_sc_hd__a211oi_1
*I *1836:X O *D sky130_fd_sc_hd__mux2_1
*CAP
1 *1838:A2 0.00018284
2 *1836:X 0.00018284
3 *1838:A2 *626:134 0.000290279
4 *1838:A2 *662:132 1.41029e-05
5 *1836:S *1838:A2 9.58181e-05
6 *1838:A1 *1838:A2 0.000265385
*RES
1 *1836:X *1838:A2 32.3143 
*END

*D_NET *441 0.00128386
*CONN
*I *1838:B1 I *D sky130_fd_sc_hd__a211oi_1
*I *1837:X O *D sky130_fd_sc_hd__and3b_1
*CAP
1 *1838:B1 0.000178752
2 *1837:X 0.000178752
3 *1838:B1 *1842:A3 0.000125731
4 *1838:B1 *505:24 2.99629e-05
5 *1838:B1 *591:126 0.000145876
6 *1838:B1 *643:28 0.000158565
7 *1838:B1 *662:132 0.000170124
8 *1838:A1 *1838:B1 3.22834e-05
9 *1839:B *1838:B1 0.000116481
10 *262:28 *1838:B1 0.000147332
*RES
1 *1837:X *1838:B1 34.1 
*END

*D_NET *442 0.000680063
*CONN
*I *1842:B1 I *D sky130_fd_sc_hd__a41o_1
*I *1838:Y O *D sky130_fd_sc_hd__a211oi_1
*CAP
1 *1842:B1 0.000144258
2 *1838:Y 0.000144258
3 *1842:B1 *672:184 0.000149549
4 *1838:C1 *1842:B1 0.000241998
*RES
1 *1838:Y *1842:B1 30.9036 
*END

*D_NET *443 0.000315158
*CONN
*I *1842:A2 I *D sky130_fd_sc_hd__a41o_1
*I *1839:X O *D sky130_fd_sc_hd__or3b_1
*CAP
1 *1842:A2 0.000114027
2 *1839:X 0.000114027
3 *1842:A2 *1842:A4 2.09072e-05
4 *1842:A2 *591:126 5.33005e-05
5 *1842:A2 *662:132 6.05161e-06
6 *1839:A *1842:A2 6.8445e-06
*RES
1 *1839:X *1842:A2 19.9571 
*END

*D_NET *444 0.000476749
*CONN
*I *1842:A3 I *D sky130_fd_sc_hd__a41o_1
*I *1840:Y O *D sky130_fd_sc_hd__o21ai_1
*CAP
1 *1842:A3 8.59929e-05
2 *1840:Y 8.59929e-05
3 *1842:A3 *505:24 0.000125731
4 *1836:S *1842:A3 5.33005e-05
5 *1838:B1 *1842:A3 0.000125731
*RES
1 *1840:Y *1842:A3 29.7786 
*END

*D_NET *445 0.000985907
*CONN
*I *1842:A4 I *D sky130_fd_sc_hd__a41o_1
*I *1841:Y O *D sky130_fd_sc_hd__nand2_1
*CAP
1 *1842:A4 0.000213315
2 *1841:Y 0.000213315
3 *1842:A4 *505:24 0.000147835
4 *1842:A4 *591:126 9.5586e-05
5 *1842:A4 *672:184 6.057e-07
6 *1842:A4 *672:192 5.65001e-05
7 *1836:S *1842:A4 0.000139907
8 *1838:C1 *1842:A4 3.22325e-05
9 *1839:A *1842:A4 6.57032e-05
10 *1842:A2 *1842:A4 2.09072e-05
*RES
1 *1841:Y *1842:A4 32.2607 
*END

*D_NET *446 0.000226768
*CONN
*I *1844:B I *D sky130_fd_sc_hd__or2_1
*I *1843:X O *D sky130_fd_sc_hd__mux4_1
*CAP
1 *1844:B 3.59435e-05
2 *1843:X 3.59435e-05
3 *1844:B *597:12 4.15914e-05
4 *1844:B *681:44 0.000103253
5 *143:9 *1844:B 1.00375e-05
*RES
1 *1843:X *1844:B 28.9393 
*END

*D_NET *447 0.00160415
*CONN
*I *1850:A1 I *D sky130_fd_sc_hd__a22o_1
*I *1844:X O *D sky130_fd_sc_hd__or2_1
*CAP
1 *1850:A1 0.000475851
2 *1844:X 0.000475851
3 *1850:A1 *1845:A2 5.41494e-05
4 *1850:A1 *1846:A2 5.61436e-06
5 *1850:A1 *1850:A2 0.000326859
6 *1850:A1 *650:47 0.000133097
7 *1850:A1 *655:24 3.96445e-05
8 *1845:S1 *1850:A1 8.10148e-05
9 *256:21 *1850:A1 1.20729e-05
*RES
1 *1844:X *1850:A1 35.7964 
*END

*D_NET *448 0.000824003
*CONN
*I *1846:A2 I *D sky130_fd_sc_hd__o21a_1
*I *1845:X O *D sky130_fd_sc_hd__mux4_1
*CAP
1 *1846:A2 0.00024953
2 *1845:X 0.00024953
3 *1846:A2 *1845:A2 2.59355e-05
4 *1846:A2 *653:54 7.83587e-05
5 *1846:A2 *655:24 0.000136676
6 *1850:A1 *1846:A2 5.61436e-06
7 *257:14 *1846:A2 7.83587e-05
*RES
1 *1845:X *1846:A2 31.225 
*END

*D_NET *449 0.00139433
*CONN
*I *1850:A2 I *D sky130_fd_sc_hd__a22o_1
*I *1846:X O *D sky130_fd_sc_hd__o21a_1
*CAP
1 *1850:A2 0.000278886
2 *1846:X 0.000278886
3 *1850:A2 *1845:A3 0.000128146
4 *1850:A2 *2272:A 9.71152e-05
5 *1850:A2 *2396:A 5.52302e-05
6 *1850:A2 *650:47 7.69776e-06
7 *1850:A2 *650:49 8.73437e-05
8 *1850:A2 *653:38 0
9 *1850:A2 *653:54 0
10 *1845:S0 *1850:A2 5.80276e-05
11 *1845:S1 *1850:A2 2.00751e-05
12 *1850:A1 *1850:A2 0.000326859
13 *159:21 *1850:A2 1.90936e-05
14 *257:14 *1850:A2 3.69697e-05
*RES
1 *1846:X *1850:A2 34.9393 
*END

*D_NET *450 0.00212431
*CONN
*I *1849:A0 I *D sky130_fd_sc_hd__mux2_1
*I *1847:X O *D sky130_fd_sc_hd__mux4_1
*CAP
1 *1849:A0 0.000595383
2 *1847:X 0.000595383
3 *1849:A0 *1847:A2 1.00442e-05
4 *1849:A0 *579:78 0.000447778
5 *1843:S1 *1849:A0 0.000147583
6 *1847:S0 *1849:A0 0.00016357
7 *1847:S1 *1849:A0 2.79421e-05
8 *255:41 *1849:A0 0.000136625
*RES
1 *1847:X *1849:A0 38.1357 
*END

*D_NET *451 0.000696917
*CONN
*I *1849:A1 I *D sky130_fd_sc_hd__mux2_1
*I *1848:X O *D sky130_fd_sc_hd__mux4_1
*CAP
1 *1849:A1 0.000228637
2 *1848:X 0.000228637
3 *1849:A1 *1843:A1 3.47826e-05
4 *1849:A1 *597:12 7.55769e-05
5 *1849:A1 *644:16 0.000129283
*RES
1 *1848:X *1849:A1 30.8143 
*END

*D_NET *452 0.000292838
*CONN
*I *1850:B1 I *D sky130_fd_sc_hd__a22o_1
*I *1849:X O *D sky130_fd_sc_hd__mux2_1
*CAP
1 *1850:B1 0.000117446
2 *1849:X 0.000117446
3 *1850:B1 *1843:A1 1.21258e-05
4 *1850:B2 *1850:B1 4.58194e-05
*RES
1 *1849:X *1850:B1 20.3857 
*END

*D_NET *453 9.23415e-05
*CONN
*I *1852:B I *D sky130_fd_sc_hd__or2_1
*I *1851:X O *D sky130_fd_sc_hd__mux4_1
*CAP
1 *1852:B 1.7873e-05
2 *1851:X 1.7873e-05
3 *147:13 *1852:B 5.65955e-05
*RES
1 *1851:X *1852:B 19.1357 
*END

*D_NET *454 0.00135636
*CONN
*I *1858:A1 I *D sky130_fd_sc_hd__a22o_1
*I *1852:X O *D sky130_fd_sc_hd__or2_1
*CAP
1 *1858:A1 0.000666073
2 *1852:X 0.000666073
3 *1858:B2 *1858:A1 2.42122e-05
*RES
1 *1852:X *1858:A1 26.8857 
*END

*D_NET *455 0.00260494
*CONN
*I *1854:A2 I *D sky130_fd_sc_hd__o21a_1
*I *1853:X O *D sky130_fd_sc_hd__mux4_1
*CAP
1 *1854:A2 0.000441706
2 *1853:X 0.000441706
3 *1854:A2 *1867:A3 1.50181e-05
4 *1854:A2 *487:20 0.000887504
5 *1854:A2 *647:46 0.000359091
6 *1851:S1 *1854:A2 0.000309291
7 *1867:S0 *1854:A2 0.000150625
*RES
1 *1853:X *1854:A2 40.725 
*END

*D_NET *456 0.000879869
*CONN
*I *1858:A2 I *D sky130_fd_sc_hd__a22o_1
*I *1854:X O *D sky130_fd_sc_hd__o21a_1
*CAP
1 *1858:A2 0.00027
2 *1854:X 0.00027
3 *1858:A2 *1851:A2 2.11419e-05
4 *1803:A *1858:A2 3.17163e-05
5 *1854:B1 *1858:A2 0.000122783
6 *146:33 *1858:A2 0.000164227
*RES
1 *1854:X *1858:A2 33.85 
*END

*D_NET *457 0.00441723
*CONN
*I *1857:A0 I *D sky130_fd_sc_hd__mux2_1
*I *1855:X O *D sky130_fd_sc_hd__mux4_1
*CAP
1 *1857:A0 0.000772161
2 *1855:X 0.000772161
3 *1857:A0 *1857:A1 0.000141734
4 *1857:A0 *1870:A2 0.000121953
5 *1857:A0 *458:16 0.00138984
6 *1857:A0 *487:20 0.0010286
7 *1854:A1 *1857:A0 2.44318e-05
8 *1855:S1 *1857:A0 4.78169e-05
9 *1867:S0 *1857:A0 8.41555e-06
10 *1869:S1 *1857:A0 1.01912e-05
11 *2220:A *1857:A0 1.13963e-05
12 *263:36 *1857:A0 7.07169e-05
13 *264:40 *1857:A0 1.78113e-05
*RES
1 *1855:X *1857:A0 49.5821 
*END

*D_NET *458 0.00609412
*CONN
*I *1857:A1 I *D sky130_fd_sc_hd__mux2_1
*I *1856:X O *D sky130_fd_sc_hd__mux4_1
*CAP
1 *1857:A1 3.96257e-05
2 *1856:X 0.00130502
3 *458:16 0.00134464
4 *458:16 *1873:A1 0.00014252
5 *458:16 *1874:B1 0
6 *458:16 *487:20 0.000319885
7 *458:16 *647:28 0.000185187
8 *458:16 *649:10 5.33005e-05
9 *458:16 *658:10 6.5717e-05
10 *458:16 *658:12 0.000147597
11 *458:16 *661:81 0.000622024
12 *1854:A1 *1857:A1 0.000187041
13 *1855:S1 *458:16 1.94135e-05
14 *1857:A0 *1857:A1 0.000141734
15 *1857:A0 *458:16 0.00138984
16 *1870:A1 *458:16 0
17 *1871:S0 *458:16 2.05565e-05
18 *147:13 *458:16 0
19 *263:36 *458:16 0.00011002
*RES
1 *1856:X *458:16 49.9786 
2 *458:16 *1857:A1 11.0679 
*END

*D_NET *459 0.000588551
*CONN
*I *1858:B1 I *D sky130_fd_sc_hd__a22o_1
*I *1857:X O *D sky130_fd_sc_hd__mux2_1
*CAP
1 *1858:B1 0.00023507
2 *1857:X 0.00023507
3 *1858:B1 *500:16 0
4 *1851:S1 *1858:B1 4.57538e-05
5 *1854:A1 *1858:B1 1.92789e-05
6 *147:13 *1858:B1 5.33786e-05
7 *416:14 *1858:B1 0
*RES
1 *1857:X *1858:B1 31.9036 
*END

*D_NET *460 0.00226143
*CONN
*I *1860:B I *D sky130_fd_sc_hd__or2_1
*I *1859:X O *D sky130_fd_sc_hd__mux4_1
*CAP
1 *1860:B 0.000514677
2 *1859:X 0.000514677
3 *1860:B *481:18 6.21521e-06
4 *1860:B *647:185 0.000214709
5 *1804:A *1860:B 5.47252e-05
6 *1862:A1 *1860:B 0.000294933
7 *1866:B2 *1860:B 0.000199506
8 *2264:A *1860:B 0.000276972
9 *2266:A *1860:B 6.74867e-05
10 *2267:A *1860:B 4.22135e-06
11 *2270:A *1860:B 0.000113303
*RES
1 *1859:X *1860:B 39.5464 
*END

*D_NET *461 0.00377232
*CONN
*I *1866:A1 I *D sky130_fd_sc_hd__a22o_1
*I *1860:X O *D sky130_fd_sc_hd__or2_1
*CAP
1 *1866:A1 0.000752778
2 *1860:X 0.000752778
3 *1866:A1 *1861:A3 8.79856e-06
4 *1866:A1 *1862:A2 0.000439904
5 *1866:A1 *1866:A2 0.000789382
6 *1866:A1 *1866:B1 4.15526e-05
7 *1866:A1 *2037:D 7.79781e-06
8 *1866:A1 *650:156 2.44031e-05
9 *1866:A1 *653:12 6.16568e-05
10 *1866:A1 *660:43 0
11 *1866:A1 *699:22 0.000104658
12 *1859:S1 *1866:A1 7.85273e-05
13 *1860:A *1866:A1 0.000131588
14 *1862:A1 *1866:A1 4.35597e-05
15 *1862:B1 *1866:A1 3.34295e-05
16 *1864:S1 *1866:A1 6.28203e-05
17 *2270:A *1866:A1 0.000183021
18 *146:67 *1866:A1 0.000255667
*RES
1 *1860:X *1866:A1 49.2606 
*END

*D_NET *462 0.00115858
*CONN
*I *1862:A2 I *D sky130_fd_sc_hd__o21a_1
*I *1861:X O *D sky130_fd_sc_hd__mux4_1
*CAP
1 *1862:A2 0.000258368
2 *1861:X 0.000258368
3 *1862:A2 *1861:A3 5.39166e-06
4 *1862:A2 *2037:D 7.2726e-05
5 *1862:A2 *650:156 4.78056e-05
6 *1862:A2 *660:43 4.3116e-05
7 *1866:A1 *1862:A2 0.000439904
8 *2265:A *1862:A2 3.28967e-05
*RES
1 *1861:X *1862:A2 34.0286 
*END

*D_NET *463 0.0029464
*CONN
*I *1866:A2 I *D sky130_fd_sc_hd__a22o_1
*I *1862:X O *D sky130_fd_sc_hd__o21a_1
*CAP
1 *1866:A2 0.00055343
2 *1862:X 0.00055343
3 *1866:A2 *1861:A3 0.000282473
4 *1866:A2 *494:12 5.20751e-05
5 *1866:A2 *651:181 0.000140856
6 *1866:A2 *653:12 6.88458e-06
7 *1804:A *1866:A2 0
8 *1860:A *1866:A2 0.000180452
9 *1862:A1 *1866:A2 4.78169e-05
10 *1864:S1 *1866:A2 3.03664e-05
11 *1866:A1 *1866:A2 0.000789382
12 *242:14 *1866:A2 0.000309233
*RES
1 *1862:X *1866:A2 42.1 
*END

*D_NET *464 0.00199735
*CONN
*I *1865:A0 I *D sky130_fd_sc_hd__mux2_1
*I *1863:X O *D sky130_fd_sc_hd__mux4_1
*CAP
1 *1865:A0 0.00085309
2 *1863:X 0.00085309
3 *1865:A0 *1859:A0 1.58163e-05
4 *1865:A0 *1859:A2 9.55038e-05
5 *1865:A0 *1861:A3 2.30116e-06
6 *1804:A *1865:A0 7.49952e-05
7 *1859:S0 *1865:A0 1.96616e-05
8 *1863:S1 *1865:A0 3.69047e-06
9 *147:51 *1865:A0 2.79421e-05
10 *240:20 *1865:A0 1.13894e-05
11 *241:23 *1865:A0 3.98714e-05
*RES
1 *1863:X *1865:A0 37.3857 
*END

*D_NET *465 0.00249551
*CONN
*I *1865:A1 I *D sky130_fd_sc_hd__mux2_1
*I *1864:X O *D sky130_fd_sc_hd__mux4_1
*CAP
1 *1865:A1 0.000550177
2 *1864:X 0.000550177
3 *1865:A1 *1866:B1 9.66977e-05
4 *1865:A1 *647:123 0.000314586
5 *1865:A1 *651:181 0.00048038
6 *1804:A *1865:A1 5.20669e-05
7 *1862:A1 *1865:A1 0.000187127
8 *1866:B2 *1865:A1 0
9 *2254:A *1865:A1 0.000264295
*RES
1 *1864:X *1865:A1 40.1357 
*END

*D_NET *466 0.000998711
*CONN
*I *1866:B1 I *D sky130_fd_sc_hd__a22o_1
*I *1865:X O *D sky130_fd_sc_hd__mux2_1
*CAP
1 *1866:B1 0.000282886
2 *1865:X 0.000282886
3 *1804:A *1866:B1 0.000118995
4 *1865:A1 *1866:B1 9.66977e-05
5 *1866:A1 *1866:B1 4.15526e-05
6 *1866:B2 *1866:B1 0.000132747
7 *2254:A *1866:B1 4.29471e-05
*RES
1 *1865:X *1866:B1 32.9214 
*END

*D_NET *467 0.00155185
*CONN
*I *1868:B I *D sky130_fd_sc_hd__or2_1
*I *1867:X O *D sky130_fd_sc_hd__mux4_1
*CAP
1 *1868:B 0.00036516
2 *1867:X 0.00036516
3 *1868:B *1869:A1 6.5652e-05
4 *1868:B *2113:A 0
5 *1868:B *583:42 0.000219711
6 *1868:B *651:45 0.000139292
7 *1868:B *651:47 3.42136e-05
8 *1868:B *651:49 0.000149056
9 *1868:B *651:51 0.000202835
10 *143:9 *1868:B 0
11 *264:6 *1868:B 1.07719e-05
*RES
1 *1867:X *1868:B 36.5821 
*END

*D_NET *468 0.00134777
*CONN
*I *1874:A1 I *D sky130_fd_sc_hd__a22o_1
*I *1868:X O *D sky130_fd_sc_hd__or2_1
*CAP
1 *1874:A1 0.000376037
2 *1868:X 0.000376037
3 *1874:A1 *1843:A0 0.000128748
4 *1874:A1 *1874:B1 5.37741e-06
5 *1874:A1 *487:20 3.21213e-05
6 *1874:A1 *635:42 1.15622e-05
7 *1868:A *1874:A1 8.58705e-05
8 *1870:A1 *1874:A1 9.60337e-06
9 *1870:B1 *1874:A1 9.60875e-05
10 *1874:B2 *1874:A1 1.03005e-05
11 *147:39 *1874:A1 0.00017044
12 *247:34 *1874:A1 3.4323e-06
13 *264:40 *1874:A1 4.21517e-05
*RES
1 *1868:X *1874:A1 37.4542 
*END

*D_NET *469 0.000875942
*CONN
*I *1870:A2 I *D sky130_fd_sc_hd__o21a_1
*I *1869:X O *D sky130_fd_sc_hd__mux4_1
*CAP
1 *1870:A2 0.000310948
2 *1869:X 0.000310948
3 *1870:A2 *487:20 1.01403e-05
4 *1857:A0 *1870:A2 0.000121953
5 *263:36 *1870:A2 0.000121953
*RES
1 *1869:X *1870:A2 31.8321 
*END

*D_NET *470 0.000817518
*CONN
*I *1874:A2 I *D sky130_fd_sc_hd__a22o_1
*I *1870:X O *D sky130_fd_sc_hd__o21a_1
*CAP
1 *1874:A2 0.000145387
2 *1870:X 0.000145387
3 *1870:A1 *1874:A2 8.76225e-05
4 *1870:B1 *1874:A2 0.000439122
*RES
1 *1870:X *1874:A2 22.7786 
*END

*D_NET *471 0.000290713
*CONN
*I *1873:A0 I *D sky130_fd_sc_hd__mux2_1
*I *1871:X O *D sky130_fd_sc_hd__mux4_1
*CAP
1 *1873:A0 8.60871e-05
2 *1871:X 8.60871e-05
3 *1873:A0 *1873:A1 1.00332e-05
4 *1873:A0 *661:81 3.48235e-05
5 *1873:A0 *662:16 5.49489e-05
6 *2235:A *1873:A0 1.87336e-05
*RES
1 *1871:X *1873:A0 29.1714 
*END

*D_NET *472 0.000740789
*CONN
*I *1873:A1 I *D sky130_fd_sc_hd__mux2_1
*I *1872:X O *D sky130_fd_sc_hd__mux4_1
*CAP
1 *1873:A1 0.0002395
2 *1872:X 0.0002395
3 *1873:A1 *1874:B1 0
4 *1873:A1 *661:12 9.99853e-05
5 *1873:A1 *661:81 9.25014e-06
6 *1873:A0 *1873:A1 1.00332e-05
7 *2237:A *1873:A1 0
8 *458:16 *1873:A1 0.00014252
*RES
1 *1872:X *1873:A1 31.7607 
*END

*D_NET *473 0.00136329
*CONN
*I *1874:B1 I *D sky130_fd_sc_hd__a22o_1
*I *1873:X O *D sky130_fd_sc_hd__mux2_1
*CAP
1 *1874:B1 0.000408125
2 *1873:X 0.000408125
3 *1874:B1 *487:20 0
4 *1870:A1 *1874:B1 5.68722e-05
5 *1870:B1 *1874:B1 2.84026e-05
6 *1873:A1 *1874:B1 0
7 *1874:A1 *1874:B1 5.37741e-06
8 *1874:B2 *1874:B1 9.25014e-06
9 *2220:A *1874:B1 0.000139244
10 *2232:A *1874:B1 5.33005e-05
11 *2233:A *1874:B1 3.77845e-05
12 *2237:A *1874:B1 0.000175512
13 *149:9 *1874:B1 4.12932e-05
14 *458:16 *1874:B1 0
*RES
1 *1873:X *1874:B1 35.475 
*END

*D_NET *474 0.000933197
*CONN
*I *2163:A I *D sky130_fd_sc_hd__clkbuf_16
*I *2161:X O *D sky130_fd_sc_hd__clkbuf_16
*CAP
1 *2163:A 0.000171946
2 *2161:X 0.000171946
3 *2163:A *1934:GATE 2.84109e-05
4 *2163:A *2358:A 0.000208428
5 *2163:A *597:60 7.6644e-05
6 *2163:A *645:78 0.000275822
*RES
1 *2161:X *2163:A 31.9036 
*END

*D_NET *475 0.00584711
*CONN
*I *2165:A I *D sky130_fd_sc_hd__clkbuf_16
*I *2164:A I *D sky130_fd_sc_hd__clkbuf_16
*I *2162:X O *D sky130_fd_sc_hd__clkbuf_16
*CAP
1 *2165:A 0.00013905
2 *2164:A 0.000467232
3 *2162:X 0.000457659
4 *475:8 0.00106394
5 *2164:A *1808:A1 0.000157546
6 *2164:A *1908:A2 0.000131092
7 *2164:A *2160:A 0.000360153
8 *2164:A *558:14 0.000105722
9 *2164:A *631:65 0.000688461
10 *2164:A *661:207 0.000565139
11 *2164:A *677:22 0.000265385
12 *2165:A *2006:D 3.34366e-05
13 *2165:A *2057:CLK 0.000149648
14 *2165:A *558:14 0.000146161
15 *2165:A *677:22 0.000452607
16 *475:8 *547:20 0.000584165
17 *1808:S0 *2164:A 7.97087e-05
*RES
1 *2162:X *475:8 19.675 
2 *475:8 *2164:A 30.3179 
3 *475:8 *2165:A 19.6929 
*END

*D_NET *476 0.000949354
*CONN
*I *2160:A I *D sky130_fd_sc_hd__buf_2
*I *2163:X O *D sky130_fd_sc_hd__clkbuf_16
*CAP
1 *2160:A 0.000114524
2 *2163:X 0.000114524
3 *2160:A *558:14 0.000360153
4 *2164:A *2160:A 0.000360153
*RES
1 *2163:X *2160:A 32.2786 
*END

*D_NET *477 0.0027313
*CONN
*I *2056:CLK I *D sky130_fd_sc_hd__dfxtp_1
*I *2059:CLK I *D sky130_fd_sc_hd__dfxtp_1
*I *2164:X O *D sky130_fd_sc_hd__clkbuf_16
*CAP
1 *2056:CLK 5.27992e-05
2 *2059:CLK 0.000262866
3 *2164:X 0.000435532
4 *477:10 0.000751197
5 *2056:CLK *553:20 0.000147715
6 *2056:CLK *631:65 2.32154e-05
7 *2056:CLK *634:158 9.22948e-05
8 *2059:CLK *2059:D 0.000116671
9 *2059:CLK *585:60 4.30874e-05
10 *477:10 *544:68 0.000463421
11 *477:10 *553:20 0.00017039
12 *477:10 *634:158 0.000172105
*RES
1 *2164:X *477:10 20.6929 
2 *477:10 *2059:CLK 17.6393 
3 *477:10 *2056:CLK 15.7464 
*END

*D_NET *478 0.00498726
*CONN
*I *2058:CLK I *D sky130_fd_sc_hd__dfxtp_1
*I *2057:CLK I *D sky130_fd_sc_hd__dfxtp_1
*I *2165:X O *D sky130_fd_sc_hd__clkbuf_16
*CAP
1 *2058:CLK 0.00034955
2 *2057:CLK 0.000437722
3 *2165:X 0.000291855
4 *478:6 0.00107913
5 *2057:CLK *2006:D 6.05161e-06
6 *2057:CLK *2057:D 0.000121259
7 *2057:CLK *558:14 0.000147926
8 *2057:CLK *595:18 6.13757e-06
9 *2058:CLK *519:46 0.000619026
10 *2058:CLK *553:20 0.000420465
11 *2058:CLK *632:152 0.00018589
12 *2058:CLK *662:196 0.0010575
13 *478:6 *634:176 3.06878e-06
14 *2165:A *2057:CLK 0.000149648
15 *398:22 *2057:CLK 1.58163e-05
16 *398:22 *478:6 9.62238e-05
*RES
1 *2165:X *478:6 12.7107 
2 *478:6 *2057:CLK 25.0143 
3 *478:6 *2058:CLK 32.0857 
*END

*D_NET *479 0.0587543
*CONN
*I *1892:A3 I *D sky130_fd_sc_hd__mux4_1
*I *1902:A3 I *D sky130_fd_sc_hd__mux4_1
*I *1884:A2 I *D sky130_fd_sc_hd__mux4_1
*I *1886:A1 I *D sky130_fd_sc_hd__mux4_1
*I *1814:A1 I *D sky130_fd_sc_hd__mux4_1
*I *1882:A1 I *D sky130_fd_sc_hd__mux4_1
*I *2056:D I *D sky130_fd_sc_hd__dfxtp_1
*I *2186:X O *D sky130_fd_sc_hd__buf_2
*CAP
1 *1892:A3 0.000234253
2 *1902:A3 0.0007578
3 *1884:A2 0.00017001
4 *1886:A1 0.00012855
5 *1814:A1 3.04135e-05
6 *1882:A1 0.000100808
7 *2056:D 0.000305315
8 *2186:X 0.000368286
9 *479:174 0.00039461
10 *479:161 0.000927052
11 *479:159 0.00152811
12 *479:130 0.00223887
13 *479:106 0.00245524
14 *479:62 0.0018028
15 *479:60 0.00154767
16 *479:46 0.00438836
17 *479:20 0.00592925
18 *479:8 0.00275972
19 *1882:A1 *542:20 5.33005e-05
20 *1886:A1 *1886:A2 5.33005e-05
21 *1886:A1 *2012:GATE 3.9718e-05
22 *1886:A1 *483:90 4.38942e-05
23 *1886:A1 *576:14 7.14841e-05
24 *1892:A3 *1892:A2 6.67396e-05
25 *1892:A3 *698:68 5.20669e-05
26 *1902:A3 *1826:A2 0.000543665
27 *1902:A3 *1902:A0 5.47001e-05
28 *1902:A3 *1902:A1 4.46186e-06
29 *1902:A3 *1902:A2 5.96516e-05
30 *1902:A3 *538:32 9.88464e-05
31 *1902:A3 *596:118 8.85664e-07
32 *1902:A3 *675:174 0.000104703
33 *2056:D *1935:GATE 9.41642e-05
34 *2056:D *593:102 6.43196e-05
35 *2056:D *599:18 9.6986e-05
36 *2056:D *669:108 0.000633744
37 *479:8 *640:18 1.58213e-06
38 *479:20 *1848:A1 0.000477173
39 *479:20 *1921:D 0.000170989
40 *479:20 *2049:D 2.02018e-05
41 *479:20 *590:14 0.00073409
42 *479:20 *600:36 0.000414038
43 *479:20 *601:10 0.000554403
44 *479:20 *613:146 4.85346e-05
45 *479:20 *640:26 0.000315959
46 *479:46 *2038:D 0.000170491
47 *479:46 *483:46 0.00234215
48 *479:46 *569:28 1.30275e-05
49 *479:46 *591:94 2.63501e-05
50 *479:46 *593:74 2.75217e-05
51 *479:46 *596:82 0.000259079
52 *479:46 *600:72 0.000408056
53 *479:46 *630:84 0.00100979
54 *479:46 *631:106 0.000249407
55 *479:46 *632:16 7.30663e-05
56 *479:46 *635:42 0.00131779
57 *479:46 *644:46 0.000101247
58 *479:46 *648:16 0.000135968
59 *479:46 *652:127 0.00156531
60 *479:46 *658:58 0.000256807
61 *479:46 *662:142 4.09683e-05
62 *479:46 *662:177 1.26641e-05
63 *479:46 *668:93 0.000281085
64 *479:46 *673:124 0.000135145
65 *479:46 *687:114 2.71873e-05
66 *479:60 *593:74 0.000280092
67 *479:60 *597:46 0.000106397
68 *479:60 *662:177 0
69 *479:60 *668:93 0.000112655
70 *479:60 *698:68 0.000354926
71 *479:62 *597:46 0.000432895
72 *479:62 *671:70 0.000317659
73 *479:106 *1915:A1 6.63219e-05
74 *479:106 *2326:A 0.000355727
75 *479:106 *2328:A 0.000160394
76 *479:106 *517:28 0.000101321
77 *479:106 *519:46 0.000217093
78 *479:106 *522:58 0.000450938
79 *479:106 *528:44 1.30241e-05
80 *479:106 *535:157 2.06178e-05
81 *479:106 *550:30 2.26973e-05
82 *479:106 *597:46 0.000167897
83 *479:106 *618:96 0.000189942
84 *479:106 *631:106 0.000225589
85 *479:106 *660:99 1.22751e-05
86 *479:106 *660:115 0.000144935
87 *479:106 *675:174 4.05285e-05
88 *479:106 *676:40 0.000196146
89 *479:130 *740:DIODE 4.23827e-05
90 *479:130 *1881:A0 6.20441e-06
91 *479:130 *528:44 6.13706e-05
92 *479:130 *535:86 8.15611e-05
93 *479:130 *562:30 8.58472e-05
94 *479:130 *567:72 5.01876e-06
95 *479:130 *569:82 0.000277102
96 *479:130 *585:60 0.000115206
97 *479:130 *650:248 7.57106e-05
98 *479:130 *667:138 0.000578794
99 *479:130 *676:40 0.000213051
100 *479:130 *703:40 1.82011e-05
101 *479:159 *1899:A2 0.000226402
102 *479:159 *1934:D 3.97677e-05
103 *479:159 *1978:GATE 6.05161e-06
104 *479:159 *524:43 3.69047e-06
105 *479:159 *542:20 0.000260256
106 *479:159 *574:14 2.22618e-05
107 *479:159 *636:166 6.05161e-06
108 *479:159 *659:227 0.00046167
109 *479:159 *673:90 0.000499089
110 *479:161 *1886:A2 0.000445883
111 *479:161 *524:180 0.000240719
112 *479:161 *542:20 3.62634e-05
113 *479:161 *592:26 1.90936e-05
114 *479:161 *618:116 0.000210985
115 *479:161 *708:84 0.000255429
116 *479:161 *708:99 0.000162181
117 *479:174 *1886:A2 0.000555704
118 *479:174 *2012:GATE 8.14005e-05
119 *479:174 *618:116 0.000100019
120 *479:174 *618:132 0
121 *1814:S1 *1814:A1 5.33005e-05
122 *1814:S1 *1886:A1 1.17968e-05
123 *1814:S1 *479:174 6.53227e-05
124 *1823:C *479:46 3.69047e-06
125 *1824:A2 *479:46 6.99611e-05
126 *1824:A2 *479:60 0.000107052
127 *1881:A1 *479:130 0.000489727
128 *1881:S1 *479:130 2.6153e-05
129 *1884:S1 *1884:A2 2.18792e-05
130 *1892:S0 *1892:A3 0.000231854
131 *1892:S0 *479:46 0.000104292
132 *1902:S0 *1902:A3 0.000261271
133 *1907:S0 *1884:A2 0.000117888
134 *2084:A *1882:A1 6.57032e-05
135 *2219:A *479:20 0.000329125
136 *143:59 *479:62 5.43758e-05
137 *143:59 *479:106 8.75843e-05
138 *144:91 *479:106 1.51029e-05
139 *144:121 *479:130 0.000325668
140 *146:99 *1886:A1 0.00019384
141 *146:99 *479:174 2.09826e-05
142 *150:17 *479:46 0.00189375
143 *150:41 *479:106 1.24368e-05
144 *150:57 *479:106 5.02739e-05
145 *151:77 *479:161 1.14483e-05
146 *152:13 *479:20 0
147 *153:43 *479:46 0.00113083
148 *154:47 *479:20 9.07132e-05
149 *154:47 *479:46 0.000686911
150 *159:45 *479:46 1.75792e-05
151 *159:93 *479:106 1.36991e-05
152 *159:93 *479:130 3.47064e-05
153 *160:39 *479:20 0.000486199
154 *160:113 *479:130 5.19588e-05
155 *160:127 *479:130 5.4695e-05
156 *160:127 *479:159 0.00126656
157 *160:127 *479:161 0.000476506
158 *181:17 *479:20 0.000703152
159 *233:25 *479:130 5.31158e-05
160 *233:25 *479:159 0.000261981
161 *233:62 *479:159 6.57026e-05
162 *235:45 *479:159 3.72789e-05
163 *409:18 *479:46 5.27484e-05
164 *409:34 *479:106 6.82801e-05
*RES
1 *2186:X *479:8 18.8536 
2 *479:8 *479:20 44.3198 
3 *479:20 *479:46 39.5333 
4 *479:46 *479:60 14.9811 
5 *479:60 *479:62 5.74107 
6 *479:62 *479:106 47.7633 
7 *479:106 *479:130 32.614 
8 *479:130 *2056:D 20.9473 
9 *479:130 *479:159 42.4643 
10 *479:159 *479:161 15 
11 *479:161 *1882:A1 15.5857 
12 *479:161 *479:174 7.71429 
13 *479:174 *1814:A1 14.3357 
14 *479:174 *1886:A1 17.7107 
15 *479:62 *1884:A2 16.7196 
16 *479:60 *1902:A3 34.2643 
17 *479:46 *1892:A3 14.0857 
*END

*D_NET *480 0.0338987
*CONN
*I *2122:A I *D sky130_fd_sc_hd__clkbuf_1
*I *1974:D I *D sky130_fd_sc_hd__dlxtp_1
*I *1942:D I *D sky130_fd_sc_hd__dlxtp_1
*I *2006:D I *D sky130_fd_sc_hd__dlxtp_1
*I *2038:D I *D sky130_fd_sc_hd__dlxtp_1
*I *2187:X O *D sky130_fd_sc_hd__clkbuf_2
*CAP
1 *2122:A 6.70326e-05
2 *1974:D 0.000597175
3 *1942:D 0
4 *2006:D 0.000590846
5 *2038:D 0.000348789
6 *2187:X 0.00429027
7 *480:159 0.000673523
8 *480:153 0.00198868
9 *480:108 0.00345607
10 *480:70 0.00159953
11 *480:50 0.00452108
12 *1974:D *1901:A2 3.91149e-05
13 *1974:D *1901:A3 0.00056355
14 *1974:D *1958:D 4.63768e-05
15 *1974:D *2378:A 1.92905e-05
16 *1974:D *519:14 5.6197e-05
17 *1974:D *556:22 0.000441546
18 *1974:D *588:16 0.000135028
19 *1974:D *615:10 1.53472e-05
20 *1974:D *686:58 0.000159158
21 *2006:D *558:14 0.000175519
22 *2006:D *595:18 0.000119076
23 *2006:D *662:196 4.85049e-06
24 *2006:D *677:8 5.04841e-06
25 *2006:D *677:22 2.23987e-05
26 *2038:D *652:139 5.33005e-05
27 *2038:D *662:142 0.000125731
28 *2038:D *662:177 4.30452e-05
29 *2038:D *668:93 9.41642e-05
30 *2122:A *1959:D 4.25176e-05
31 *2122:A *631:18 9.41642e-05
32 *480:50 *482:76 0.000144289
33 *480:50 *509:30 8.06334e-05
34 *480:50 *557:44 0.00029066
35 *480:50 *582:54 0.000546154
36 *480:50 *582:94 1.28239e-05
37 *480:50 *584:48 0.000552798
38 *480:50 *587:148 2.63501e-05
39 *480:50 *590:96 2.63501e-05
40 *480:50 *591:94 0.000849074
41 *480:50 *602:70 8.83878e-05
42 *480:50 *603:32 0.000225579
43 *480:50 *624:32 0.000411898
44 *480:50 *626:34 0.000798451
45 *480:50 *627:104 3.23556e-05
46 *480:50 *628:60 8.25265e-05
47 *480:50 *629:54 2.11419e-05
48 *480:50 *674:80 5.56993e-05
49 *480:50 *675:56 5.54755e-05
50 *480:50 *687:18 2.21354e-05
51 *480:50 *687:70 0.000170027
52 *480:70 *1992:D 5.96516e-05
53 *480:70 *1993:GATE 1.00332e-05
54 *480:70 *495:20 9.97363e-06
55 *480:70 *544:48 0.000507931
56 *480:70 *582:54 0
57 *480:70 *586:44 4.00276e-06
58 *480:70 *593:74 3.59165e-05
59 *480:70 *603:32 3.63775e-05
60 *480:70 *618:50 0.000260305
61 *480:70 *629:18 6.81704e-05
62 *480:70 *652:175 0.00015994
63 *480:70 *680:50 0.000180073
64 *480:108 *1878:A1 3.59225e-05
65 *480:108 *1944:GATE 0.000187793
66 *480:108 *502:14 1.90303e-05
67 *480:108 *502:51 8.25843e-06
68 *480:108 *557:32 5.2836e-05
69 *480:108 *557:44 4.00679e-05
70 *480:108 *566:24 0.000265799
71 *480:108 *582:128 0
72 *480:108 *590:145 0.000137466
73 *480:108 *643:164 6.86557e-05
74 *480:108 *679:61 1.09182e-05
75 *480:108 *698:175 4.2313e-05
76 *480:153 *491:57 8.07616e-06
77 *480:153 *535:16 1.8995e-06
78 *480:153 *557:32 2.59024e-05
79 *480:153 *579:24 0.000169613
80 *480:153 *582:128 0.000479564
81 *480:153 *584:84 0.000872934
82 *480:153 *587:176 0
83 *480:153 *590:145 3.513e-05
84 *480:153 *590:170 6.67536e-05
85 *480:153 *591:34 0.000508069
86 *480:153 *601:30 7.66584e-05
87 *480:153 *615:10 0
88 *480:153 *630:50 0.000836227
89 *480:153 *630:66 9.60337e-06
90 *480:153 *631:18 0.000311121
91 *480:153 *670:65 8.40351e-06
92 *480:153 *673:48 1.58918e-05
93 *480:153 *673:185 0.000177913
94 *480:153 *694:92 0
95 *480:159 *615:10 0.000217877
96 *480:159 *694:92 0.000216237
97 *724:DIODE *1974:D 4.19577e-05
98 *743:DIODE *1974:D 0.000307993
99 *1822:S *2038:D 0.000381858
100 *1822:S *480:70 3.30842e-05
101 *1878:S1 *480:108 7.54868e-05
102 *1878:S1 *480:153 4.3588e-05
103 *1892:S0 *480:70 1.65169e-05
104 *1892:S1 *2038:D 6.47684e-05
105 *1894:S0 *1974:D 0.000448623
106 *2057:CLK *2006:D 6.05161e-06
107 *2066:A *480:108 9.80003e-05
108 *2088:A *2006:D 2.59355e-05
109 *2165:A *2006:D 3.34366e-05
110 *2209:A *480:70 4.35849e-05
111 *2211:A *480:50 0.000127359
112 *2214:A *480:50 0.000251022
113 *154:95 *480:70 7.16794e-05
114 *157:87 *480:50 4.88511e-06
115 *158:31 *480:70 0.000504167
116 *160:133 *1974:D 1.19011e-05
117 *243:20 *2038:D 1.58163e-05
118 *479:46 *2038:D 0.000170491
*RES
1 *2187:X *480:50 47.2313 
2 *480:50 *480:70 45.3839 
3 *480:70 *2038:D 26.1393 
4 *2187:X *480:108 40.2643 
5 *480:108 *2006:D 31.925 
6 *480:108 *480:153 44.418 
7 *480:153 *480:159 11.8571 
8 *480:159 *1942:D 9.3 
9 *480:159 *1974:D 36.5143 
10 *480:153 *2122:A 10.6571 
*END

*D_NET *481 0.0190066
*CONN
*I *1877:A0 I *D sky130_fd_sc_hd__mux4_1
*I *1915:A1 I *D sky130_fd_sc_hd__mux4_1
*I *1907:A1 I *D sky130_fd_sc_hd__mux4_1
*I *2265:X O *D sky130_fd_sc_hd__buf_1
*CAP
1 *1877:A0 2.37855e-05
2 *1915:A1 0.000198051
3 *1907:A1 5.64036e-05
4 *2265:X 0.00163581
5 *481:94 0.000586512
6 *481:88 0.000621935
7 *481:84 0.00137424
8 *481:50 0.00242802
9 *481:18 0.00295569
10 *1907:A1 *517:28 0.000120865
11 *1915:A1 *517:28 6.82123e-05
12 *1915:A1 *660:115 5.33005e-05
13 *481:18 *2037:GATE 0.000139674
14 *481:18 *483:46 1.58163e-05
15 *481:18 *525:40 4.90422e-05
16 *481:18 *560:44 0.000126518
17 *481:18 *637:67 0.000486469
18 *481:18 *647:185 0
19 *481:18 *695:16 0.000449896
20 *481:18 *695:62 8.6229e-06
21 *481:18 *699:40 0.000126712
22 *481:50 *2291:A 4.8817e-05
23 *481:50 *2300:A 0.000110214
24 *481:50 *521:12 0.000282015
25 *481:50 *594:52 8.32347e-05
26 *481:50 *647:222 1.01403e-05
27 *481:50 *650:168 2.94501e-05
28 *481:50 *651:193 0.000401682
29 *481:50 *660:59 0.000942122
30 *481:50 *691:16 0.000218285
31 *481:50 *699:40 9.93847e-05
32 *481:84 *2298:A 0.000140579
33 *481:84 *2300:A 0.000319615
34 *481:84 *516:58 9.85498e-05
35 *481:84 *521:12 0.00112706
36 *481:84 *538:66 4.10883e-05
37 *481:84 *545:72 0.000285024
38 *481:84 *560:58 6.74279e-05
39 *481:84 *647:222 5.7616e-05
40 *481:84 *653:219 1.73088e-05
41 *481:84 *660:91 3.45371e-05
42 *481:84 *691:16 0.000396776
43 *481:84 *704:72 6.78771e-05
44 *481:88 *1877:A1 5.49489e-05
45 *481:88 *562:30 1.98839e-05
46 E2BEG[3] *481:50 2.37836e-05
47 E2BEG[5] *481:50 2.63501e-05
48 E2BEG[7] *481:84 6.54117e-05
49 E2BEGb[0] *481:84 2.68654e-05
50 E2BEGb[1] *481:84 1.66388e-05
51 E2BEGb[2] *481:84 9.41642e-05
52 E2BEGb[4] *481:84 1.78534e-05
53 EE4BEG[1] *481:84 2.04825e-05
54 EE4BEG[4] *481:84 0.000135028
55 *1860:B *481:18 6.21521e-06
56 *1862:A1 *481:18 0.000120299
57 *1877:A2 *481:88 0.0001561
58 *1877:A2 *481:94 9.70065e-05
59 *1877:A3 *1915:A1 4.32258e-05
60 *2075:A *481:84 2.12005e-05
61 *2092:A *481:84 6.05161e-06
62 *2107:A *481:50 5.65776e-05
63 *2244:A *481:18 0.00011205
64 *2248:A *481:50 1.94945e-05
65 *2255:A *481:18 6.29867e-05
66 *2256:A *481:18 0
67 *2257:A *481:18 8.23597e-06
68 *2268:A *481:18 0.000109137
69 *142:31 *481:50 0.000124835
70 *148:57 *481:50 0.000165434
71 *149:63 *481:50 0.000346986
72 *151:23 *481:18 0.000136682
73 *159:77 *1907:A1 0.00010887
74 *159:77 *1915:A1 1.02295e-05
75 *159:93 *1907:A1 4.22135e-06
76 *159:93 *1915:A1 0.000221732
77 *160:79 *481:84 9.69318e-05
78 *479:106 *1915:A1 6.63219e-05
*RES
1 *2265:X *481:18 47.6571 
2 *481:18 *481:50 49.1993 
3 *481:50 *481:84 45.6518 
4 *481:84 *481:88 8.73214 
5 *481:88 *481:94 8.33929 
6 *481:94 *1907:A1 15.4429 
7 *481:94 *1915:A1 18.1571 
8 *481:88 *1877:A0 9.72857 
*END

*D_NET *482 0.0386447
*CONN
*I *1908:A2 I *D sky130_fd_sc_hd__mux4_1
*I *1808:A1 I *D sky130_fd_sc_hd__mux4_1
*I *1878:A0 I *D sky130_fd_sc_hd__mux4_1
*I *2266:X O *D sky130_fd_sc_hd__dlymetal6s2s_1
*CAP
1 *1908:A2 0.000250537
2 *1808:A1 0.000315763
3 *1878:A0 0.000716594
4 *2266:X 0.00226009
5 *482:105 0.000942764
6 *482:76 0.00245594
7 *482:58 0.0024359
8 *482:40 0.00284365
9 *482:26 0.00403072
10 *1808:A1 *1808:A0 6.094e-05
11 *1808:A1 *1813:A0 2.42516e-05
12 *1808:A1 *2058:D 0
13 *1878:A0 *1878:A1 3.69047e-06
14 *1878:A0 *1908:A0 2.84109e-05
15 *1878:A0 *502:8 0.000151242
16 *1878:A0 *502:14 0.000550133
17 *1878:A0 *502:51 5.95426e-05
18 *1878:A0 *557:32 1.18064e-05
19 *1878:A0 *582:128 0.00020171
20 *1878:A0 *668:14 0.000639998
21 *1878:A0 *670:65 9.58181e-05
22 *1878:A0 *693:117 2.65218e-05
23 *1878:A0 *703:72 2.13481e-06
24 *1908:A2 *513:37 2.18792e-05
25 *1908:A2 *677:22 4.85049e-06
26 *482:26 *483:46 0.000396812
27 *482:26 *514:94 0.000867443
28 *482:26 *583:72 1.47871e-05
29 *482:26 *594:38 0.00148235
30 *482:26 *596:82 0.000170436
31 *482:26 *635:42 0.0001032
32 *482:26 *642:34 0.000117741
33 *482:26 *661:112 0.00164012
34 *482:26 *662:142 0.000576851
35 *482:26 *694:44 0.000874913
36 *482:26 *704:44 0.000413199
37 *482:40 *2019:D 0.000387489
38 *482:40 *2281:A 0.000219289
39 *482:40 *602:123 0.000323002
40 *482:40 *626:96 0.000298483
41 *482:40 *627:104 0.000315292
42 *482:40 *672:134 0.00098637
43 *482:58 *2039:D 0.000819008
44 *482:58 *568:54 8.63635e-05
45 *482:58 *601:30 0.00035934
46 *482:58 *627:68 0.00137797
47 *482:58 *628:68 0.00035934
48 *482:76 *509:30 0.000169156
49 *482:76 *584:48 3.23958e-05
50 *482:76 *587:148 0.000297538
51 *482:76 *591:34 4.64974e-05
52 *482:76 *627:68 9.41642e-05
53 *482:76 *629:54 0.000674145
54 *482:76 *669:155 0.00016375
55 *482:76 *675:38 1.00733e-05
56 *482:76 *675:56 0.000458972
57 *482:76 *675:64 2.54383e-06
58 *482:76 *693:117 0.000204173
59 *482:105 *513:82 1.36349e-05
60 *482:105 *631:65 5.52634e-05
61 *482:105 *669:155 0.000237245
62 *482:105 *672:52 4.10759e-05
63 *482:105 *693:117 0.000127325
64 *1808:S0 *1808:A1 0.000159063
65 *1808:S0 *1908:A2 0.000121544
66 *1908:S0 *1878:A0 3.41264e-05
67 *2066:A *1878:A0 1.65337e-05
68 *2074:A *1908:A2 8.93791e-05
69 *2164:A *1808:A1 0.000157546
70 *2164:A *1908:A2 0.000131092
71 *2266:A *482:26 3.4846e-06
72 *2267:A *482:26 4.01319e-05
73 *2268:A *482:26 5.41108e-05
74 *2269:A *482:26 0.000385131
75 *2271:A *482:76 7.36321e-05
76 *142:53 *482:40 0.000514541
77 *142:67 *482:40 0.000587955
78 *142:67 *482:58 0.000352118
79 *142:99 *482:76 0.000167144
80 *153:119 *482:76 4.42491e-05
81 *153:129 *1878:A0 2.05938e-05
82 *154:99 *482:76 1.77757e-05
83 *156:51 *482:40 0.000234295
84 *156:53 *482:58 0.00176414
85 *242:14 *482:26 0
86 *409:18 *482:26 0.000579189
87 *480:50 *482:76 0.000144289
*RES
1 *2266:X *482:26 49.5841 
2 *482:26 *482:40 45.625 
3 *482:40 *482:58 48.8929 
4 *482:58 *482:76 24.1614 
5 *482:76 *1878:A0 43.1654 
6 *482:76 *482:105 4.3218 
7 *482:105 *1808:A1 19.3446 
8 *482:105 *1908:A2 18.8179 
*END

*D_NET *483 0.0478033
*CONN
*I *1883:A0 I *D sky130_fd_sc_hd__mux4_1
*I *1909:A2 I *D sky130_fd_sc_hd__mux4_1
*I *1809:A1 I *D sky130_fd_sc_hd__mux4_1
*I *2267:X O *D sky130_fd_sc_hd__clkbuf_2
*CAP
1 *1883:A0 8.7262e-05
2 *1909:A2 6.23554e-05
3 *1809:A1 0.000256473
4 *2267:X 0.00521337
5 *483:102 0.000686053
6 *483:90 0.00157646
7 *483:78 0.00483844
8 *483:46 0.00892984
9 *1809:A1 *1809:A3 5.30637e-06
10 *1883:A0 *576:14 0.000118443
11 *1909:A2 *1809:A3 0.000125724
12 *1909:A2 *1909:A0 1.14548e-05
13 *1909:A2 *1909:A1 2.3541e-05
14 *1909:A2 *694:134 1.02504e-05
15 *483:46 *1861:A0 0
16 *483:46 *2003:GATE 1.498e-05
17 *483:46 *2299:A 0.000643115
18 *483:46 *2302:A 1.6127e-05
19 *483:46 *2328:A 1.93459e-06
20 *483:46 *515:40 0.000322558
21 *483:46 *517:28 6.90381e-06
22 *483:46 *519:46 0.00031864
23 *483:46 *529:40 2.08447e-05
24 *483:46 *533:52 2.16202e-05
25 *483:46 *535:157 0.000460629
26 *483:46 *545:38 5.69851e-06
27 *483:46 *555:38 0.000525076
28 *483:46 *563:30 7.83253e-05
29 *483:46 *569:28 3.93759e-05
30 *483:46 *579:52 0.000364671
31 *483:46 *579:54 2.50628e-05
32 *483:46 *596:82 0.000536115
33 *483:46 *634:54 0.00095225
34 *483:46 *636:54 8.04368e-05
35 *483:46 *642:34 5.99199e-05
36 *483:46 *642:106 0.000111775
37 *483:46 *651:209 0.000127359
38 *483:46 *653:14 0
39 *483:46 *653:20 0
40 *483:46 *653:170 0
41 *483:46 *658:58 0.00123294
42 *483:46 *665:38 0.000225044
43 *483:46 *665:50 3.57329e-05
44 *483:46 *675:174 9.5076e-05
45 *483:46 *686:14 0.000213048
46 *483:46 *690:61 0.000109422
47 *483:46 *694:44 8.91941e-06
48 *483:46 *702:30 0.000113864
49 *483:46 *706:24 0.000210741
50 *483:46 *707:93 0.000208965
51 *483:78 *2340:A 0
52 *483:78 *2345:A 9.59532e-06
53 *483:78 *521:12 9.91075e-05
54 *483:78 *529:40 0.000167109
55 *483:78 *538:66 0.000612029
56 *483:78 *545:72 9.71526e-05
57 *483:78 *551:20 0.00439747
58 *483:78 *558:52 1.0498e-05
59 *483:78 *569:62 0.000450344
60 *483:78 *571:18 0
61 *483:78 *665:38 1.43819e-05
62 *483:78 *686:52 0.00411706
63 *483:78 *697:46 0.000603854
64 *483:78 *703:40 0.000543727
65 *483:90 *1886:A2 0.000129329
66 *483:90 *2004:D 0.000127446
67 *483:90 *524:180 0.00013415
68 *483:90 *576:14 0.000286125
69 *483:102 *1809:A3 5.91336e-05
70 *483:102 *2011:GATE 1.04707e-05
71 *483:102 *551:20 0.000512612
72 *483:102 *678:49 8.6229e-06
73 *483:102 *696:26 0.000242262
74 *483:102 *696:30 4.32256e-05
75 E6BEG[3] *483:78 1.30275e-05
76 EE4BEG[4] *483:78 0.000137327
77 EE4BEG[6] *483:78 8.69554e-05
78 FrameData_O[28] *483:78 0.00018971
79 FrameData_O[30] *483:78 0.00043738
80 FrameData_O[31] *483:78 6.58294e-06
81 *743:DIODE *1809:A1 3.86935e-05
82 *1860:A *483:46 1.26938e-05
83 *1883:S0 *1883:A0 0.000132792
84 *1883:S0 *483:90 1.90936e-05
85 *1886:A1 *483:90 4.38942e-05
86 *1886:S1 *483:78 0
87 *1909:S1 *1909:A2 6.19181e-05
88 *2060:A *483:78 0.000100831
89 *2065:A *483:90 0.000149633
90 *2073:A *1883:A0 2.59355e-05
91 *2080:A *483:78 9.25014e-06
92 *2103:A *1809:A1 7.43578e-06
93 *2268:A *483:46 5.75218e-05
94 *2269:A *483:46 0.000139982
95 *72:40 *483:78 0.000149826
96 *143:59 *483:46 0.000127359
97 *146:99 *483:90 0.000737024
98 *147:101 *483:78 0
99 *148:111 *483:102 2.04825e-05
100 *150:41 *483:46 2.63501e-05
101 *150:87 *1883:A0 1.81774e-05
102 *160:79 *483:46 0.000460253
103 *242:14 *483:46 4.19624e-06
104 *409:18 *483:46 2.63501e-05
105 *479:46 *483:46 0.00234215
106 *481:18 *483:46 1.58163e-05
107 *482:26 *483:46 0.000396812
*RES
1 *2267:X *483:46 47.4083 
2 *483:46 *483:78 48.0991 
3 *483:78 *483:90 28.8125 
4 *483:90 *483:102 14.2044 
5 *483:102 *1809:A1 12.7464 
6 *483:102 *1909:A2 20.1795 
7 *483:90 *1883:A0 16.1304 
*END

*D_NET *484 0.018071
*CONN
*I *1884:A0 I *D sky130_fd_sc_hd__mux4_1
*I *1810:A1 I *D sky130_fd_sc_hd__mux4_1
*I *1910:A2 I *D sky130_fd_sc_hd__mux4_1
*I *2268:X O *D sky130_fd_sc_hd__buf_1
*CAP
1 *1884:A0 0.00100897
2 *1810:A1 4.49256e-05
3 *1910:A2 0.000223686
4 *2268:X 0.00056228
5 *484:50 0.0025232
6 *484:29 0.00162949
7 *484:18 0.000856308
8 *1810:A1 *664:125 5.33005e-05
9 *1810:A1 *664:143 9.41642e-05
10 *1884:A0 *1884:A1 9.58181e-05
11 *1884:A0 *1884:A3 0.000515838
12 *1884:A0 *529:40 9.10493e-05
13 *1884:A0 *535:157 8.76591e-06
14 *1884:A0 *582:54 3.97206e-05
15 *1884:A0 *587:90 9.18544e-05
16 *1884:A0 *634:54 0.000404846
17 *1884:A0 *634:130 0.000292978
18 *1884:A0 *635:42 2.1599e-05
19 *1884:A0 *636:54 0.00095939
20 *1884:A0 *667:74 0.000109831
21 *1884:A0 *693:68 2.08447e-05
22 *1910:A2 *1910:A0 8.25083e-05
23 *1910:A2 *1910:A3 0.000214832
24 *484:18 *2035:D 4.10926e-05
25 *484:18 *2037:GATE 1.10868e-05
26 *484:18 *485:18 0.000309539
27 *484:18 *664:125 0.00017754
28 *484:18 *676:99 2.23592e-05
29 *484:29 *485:18 0.000220092
30 *484:50 *1879:A2 0.000164544
31 *484:50 *485:18 0.00114933
32 *484:50 *517:28 3.33405e-05
33 *484:50 *533:52 4.28365e-05
34 *484:50 *534:40 0.000188478
35 *484:50 *596:82 0.000122812
36 *484:50 *600:72 0.000212433
37 *484:50 *634:54 0.000526356
38 *484:50 *651:247 6.58638e-05
39 *484:50 *659:116 4.04691e-06
40 *484:50 *661:132 1.03483e-05
41 *484:50 *667:74 5.91722e-05
42 *484:50 *671:111 0.00073449
43 *484:50 *675:174 0.000128639
44 *484:50 *675:176 0.000288738
45 *484:50 *675:192 2.21972e-05
46 *484:50 *685:30 2.01732e-05
47 *484:50 *685:49 6.60327e-05
48 *484:50 *690:61 1.15478e-05
49 *484:50 *692:16 8.27044e-05
50 *484:50 *692:22 0.000207879
51 *484:50 *692:37 0.000284172
52 *484:50 *692:64 0.000138939
53 *484:50 *694:44 0.000190589
54 *484:50 *701:28 0.000221719
55 *484:50 *707:93 8.6886e-05
56 *1810:S0 *1810:A1 0.000135028
57 *1884:S1 *1884:A0 2.59355e-05
58 *1907:S0 *1884:A0 1.21258e-05
59 *2072:A *1910:A2 5.33005e-05
60 *2087:A *484:50 0.000119574
61 *2265:A *484:18 3.08664e-05
62 *143:9 *484:18 0.000240688
63 *143:59 *484:50 1.53472e-05
64 *144:27 *484:18 0.000240763
65 *144:39 *484:18 0.000309539
66 *144:39 *484:29 0.000209047
67 *144:39 *484:50 0.000860502
68 *144:91 *484:50 2.61494e-05
*RES
1 *2268:X *484:18 34.8893 
2 *484:18 *1910:A2 18.2375 
3 *484:18 *484:29 2.85714 
4 *484:29 *1810:A1 15.1571 
5 *484:29 *484:50 49.3296 
6 *484:50 *1884:A0 24.6244 
*END

*D_NET *485 0.00928915
*CONN
*I *1903:A2 I *D sky130_fd_sc_hd__mux4_1
*I *1879:A2 I *D sky130_fd_sc_hd__mux4_1
*I *1911:A2 I *D sky130_fd_sc_hd__mux4_1
*I *2269:X O *D sky130_fd_sc_hd__buf_1
*CAP
1 *1903:A2 0.00033898
2 *1879:A2 0.000461204
3 *1911:A2 0.000141218
4 *2269:X 0.00118451
5 *485:29 0.000852325
6 *485:20 0.000193359
7 *485:18 0.00118451
8 *1879:A2 *1875:A2 5.83304e-05
9 *1879:A2 *533:18 4.22135e-06
10 *1879:A2 *533:52 0.000337565
11 *1879:A2 *659:116 4.38942e-05
12 *1879:A2 *685:49 0.000164544
13 *1879:A2 *708:28 2.90068e-05
14 *1903:A2 *1911:A3 1.98839e-05
15 *1903:A2 *676:85 4.58194e-05
16 *1911:A2 *1911:A3 0.000115413
17 *485:18 *1905:A0 4.1557e-05
18 *485:18 *2037:D 1.65169e-05
19 *485:18 *523:24 0.000228309
20 *485:18 *600:72 0.000205058
21 *485:18 *634:54 4.8817e-05
22 *485:18 *635:42 2.62977e-05
23 *485:18 *637:44 9.56795e-05
24 *485:18 *664:125 0.000519377
25 *485:18 *690:61 1.25553e-05
26 *485:18 *692:16 0.000375077
27 *485:29 *1911:A3 3.97677e-05
28 *1879:S1 *1879:A2 4.96113e-05
29 *1913:S1 *485:18 0.000123137
30 *2071:A *1903:A2 8.87153e-05
31 *2079:A *1879:A2 2.79421e-05
32 *2079:A *1903:A2 2.84026e-05
33 *2269:A *485:18 4.87953e-05
34 *143:29 *1879:A2 0.000232495
35 *148:37 *1903:A2 5.57613e-05
36 *236:124 *1879:A2 6.98553e-06
37 *484:18 *485:18 0.000309539
38 *484:29 *485:18 0.000220092
39 *484:50 *1879:A2 0.000164544
40 *484:50 *485:18 0.00114933
*RES
1 *2269:X *485:18 48.2576 
2 *485:18 *485:20 4.5 
3 *485:20 *1911:A2 11.6839 
4 *485:20 *485:29 0.946429 
5 *485:29 *1879:A2 38.1973 
6 *485:29 *1903:A2 14.9696 
*END

*D_NET *486 0.0108477
*CONN
*I *1880:A2 I *D sky130_fd_sc_hd__mux4_1
*I *1904:A2 I *D sky130_fd_sc_hd__mux4_1
*I *1912:A2 I *D sky130_fd_sc_hd__mux4_1
*I *2270:X O *D sky130_fd_sc_hd__buf_1
*CAP
1 *1880:A2 0.000359
2 *1904:A2 0.000127117
3 *1912:A2 1.44546e-05
4 *2270:X 0.00182955
5 *486:74 0.00127601
6 *486:35 0.00130913
7 *486:18 0.00210901
8 *1880:A2 *1884:A1 1.02504e-05
9 *1880:A2 *587:60 0.000177684
10 *1880:A2 *640:34 1.27625e-05
11 *1880:A2 *643:50 0.000182537
12 *1904:A2 *1904:A3 4.40853e-06
13 *1904:A2 *626:122 8.64412e-05
14 *1904:A2 *689:24 0.00013312
15 *1912:A2 *706:38 1.14548e-05
16 *486:18 *1956:D 2.01732e-05
17 *486:18 *1957:D 0.000470214
18 *486:18 *2036:D 4.58194e-05
19 *486:18 *2037:D 9.35114e-06
20 *486:18 *525:20 0.000290693
21 *486:18 *628:90 0.000210544
22 *486:18 *700:12 9.33978e-07
23 *486:35 *618:30 0.000172408
24 *486:35 *628:90 0
25 *486:74 *1987:D 2.07878e-05
26 *486:74 *505:24 0.000137561
27 *486:74 *618:30 0.000334918
28 *486:74 *624:108 4.58194e-05
29 *486:74 *626:122 0.000395857
30 *486:74 *643:50 9.1407e-06
31 *486:74 *673:143 3.78944e-05
32 *1904:S1 *486:35 0
33 *1904:S1 *486:74 0
34 *1910:S1 *486:18 8.09616e-05
35 *1912:S1 *486:18 0
36 *1912:S1 *486:35 8.6229e-06
37 *2086:A *1880:A2 6.57032e-05
38 *2269:A *486:18 3.08664e-05
39 *147:51 *486:18 3.29037e-05
40 *151:23 *486:18 3.29037e-05
41 *159:45 *1880:A2 0.000366214
42 *181:21 *486:18 1.10856e-05
43 *181:21 *486:35 0
44 *181:44 *486:74 0.000373378
*RES
1 *2270:X *486:18 45.7286 
2 *486:18 *1912:A2 14.0366 
3 *486:18 *486:35 4.875 
4 *486:35 *1904:A2 17.242 
5 *486:35 *486:74 45.2679 
6 *486:74 *1880:A2 22.3089 
*END

*D_NET *487 0.00995441
*CONN
*I *2384:A I *D sky130_fd_sc_hd__buf_2
*I *1874:X O *D sky130_fd_sc_hd__a22o_1
*CAP
1 *2384:A 0
2 *1874:X 0.000710005
3 *487:40 0.00225671
4 *487:20 0.00296672
5 *487:40 *1918:D 0.000255007
6 *487:40 *1919:GATE 3.39935e-05
7 *487:40 *2046:D 7.03543e-05
8 *487:40 *2046:GATE 5.67624e-05
9 *487:40 *492:12 5.68722e-05
10 *487:40 *501:14 0.000397029
11 *487:40 *579:86 2.89016e-05
12 *487:40 *582:12 5.52238e-05
13 *487:40 *583:16 5.62966e-05
14 *487:40 *666:151 2.84109e-05
15 *487:40 *682:29 2.89967e-05
16 *1821:A4 *487:40 7.40571e-05
17 *1835:A1 *487:40 2.15363e-05
18 *1851:S1 *487:20 3.6337e-05
19 *1854:A1 *487:40 6.05161e-06
20 *1854:A2 *487:20 0.000887504
21 *1857:A0 *487:20 0.0010286
22 *1867:S0 *487:20 0.000106299
23 *1870:A1 *487:20 0
24 *1870:A2 *487:20 1.01403e-05
25 *1870:B1 *487:20 5.33005e-05
26 *1874:A1 *487:20 3.21213e-05
27 *1874:B1 *487:20 0
28 *147:13 *487:20 0
29 *160:15 *487:40 3.77511e-05
30 *253:14 *487:40 1.92905e-05
31 *253:36 *487:40 0.000147332
32 *253:47 *487:40 0.000172913
33 *416:14 *487:20 0
34 *458:16 *487:20 0.000319885
*RES
1 *1874:X *487:20 47.6571 
2 *487:20 *487:40 44.2857 
3 *487:40 *2384:A 9.3 
*END

*D_NET *488 0.00197137
*CONN
*I *2385:A I *D sky130_fd_sc_hd__buf_2
*I *1821:X O *D sky130_fd_sc_hd__a41o_1
*CAP
1 *2385:A 0.000608956
2 *1821:X 0.000608956
3 *2385:A *1916:D 5.33005e-05
4 *2385:A *1916:GATE 3.1835e-05
5 *2385:A *489:10 9.77414e-05
6 *2385:A *492:12 0.000289195
7 *2385:A *557:104 0.000281382
8 *2385:A *641:8 0
*RES
1 *1821:X *2385:A 39.725 
*END

*D_NET *489 0.0065782
*CONN
*I *2386:A I *D sky130_fd_sc_hd__buf_2
*I *1916:Q O *D sky130_fd_sc_hd__dlxtp_1
*CAP
1 *2386:A 4.26984e-05
2 *1916:Q 0.00103972
3 *489:10 0.00108242
4 *489:10 *1917:D 2.11419e-05
5 *489:10 *2277:A 0.000124868
6 *489:10 *2391:A 0.000396125
7 *489:10 *2396:A 0.000147332
8 *489:10 *497:14 7.70456e-05
9 *489:10 *498:12 0.000334332
10 *489:10 *557:94 0.00113542
11 *489:10 *639:52 0.00036094
12 *489:10 *639:60 0
13 *489:10 *640:18 0.000543673
14 *489:10 *666:56 0.000101545
15 *2219:A *489:10 0.000134548
16 *2385:A *489:10 9.77414e-05
17 *153:21 *489:10 0.000863259
18 *160:39 *489:10 7.53964e-05
*RES
1 *1916:Q *489:10 48.2643 
2 *489:10 *2386:A 14.3357 
*END

*D_NET *490 0.0101253
*CONN
*I *2387:A I *D sky130_fd_sc_hd__buf_2
*I *1917:Q O *D sky130_fd_sc_hd__dlxtp_1
*CAP
1 *2387:A 0.00110196
2 *1917:Q 0.00100387
3 *490:12 0.00210583
4 *2387:A *2184:A 0.000209183
5 *2387:A *2277:A 2.38589e-05
6 *2387:A *2389:A 1.58163e-05
7 *2387:A *497:14 8.46507e-06
8 *2387:A *568:122 0.000287268
9 *2387:A *618:12 0.000197567
10 *2387:A *666:56 4.62317e-05
11 *2387:A *683:10 0.000647671
12 *2387:A *683:18 0.000125243
13 *2387:A *683:106 0.000311036
14 *490:12 *1917:GATE 4.05677e-05
15 *490:12 *496:16 0.000923
16 *490:12 *503:14 0.000451412
17 *490:12 *557:94 2.35985e-05
18 *490:12 *557:104 0.000749684
19 *490:12 *583:16 0.000762624
20 *490:12 *640:18 0.000131181
21 *490:12 *666:132 3.83493e-06
22 A_config_C_bit1 *2387:A 9.41642e-05
23 C_I_top *490:12 1.48756e-05
24 *2208:A *490:12 0.000140379
25 *156:47 *2387:A 0.000706015
*RES
1 *1917:Q *490:12 45.3357 
2 *490:12 *2387:A 43.2643 
*END

*D_NET *491 0.0333828
*CONN
*I *1943:D I *D sky130_fd_sc_hd__dlxtp_1
*I *1975:D I *D sky130_fd_sc_hd__dlxtp_1
*I *2123:A I *D sky130_fd_sc_hd__buf_1
*I *2007:D I *D sky130_fd_sc_hd__dlxtp_1
*I *2039:D I *D sky130_fd_sc_hd__dlxtp_1
*I *2188:X O *D sky130_fd_sc_hd__clkbuf_2
*CAP
1 *1943:D 0
2 *1975:D 0.000457933
3 *2123:A 0
4 *2007:D 0.000238774
5 *2039:D 0.00429531
6 *2188:X 0.000112793
7 *491:102 0.00076982
8 *491:96 0.0017413
9 *491:57 0.00321473
10 *491:14 0.00595465
11 *1975:D *2143:A 2.22891e-05
12 *1975:D *2376:A 0.000527092
13 *1975:D *631:18 0.000529514
14 *2007:D *558:14 0.000113647
15 *2007:D *574:14 0.000178425
16 *2007:D *595:18 0.000115369
17 *2007:D *677:104 3.69047e-06
18 *2039:D *495:20 4.38942e-05
19 *2039:D *584:48 4.1128e-05
20 *2039:D *587:90 4.21215e-05
21 *2039:D *601:30 0.0021073
22 *2039:D *618:50 0.000122183
23 *2039:D *627:104 8.69554e-05
24 *2039:D *628:68 0.000248261
25 *2039:D *644:115 0.00125846
26 *2039:D *652:175 1.34168e-05
27 *2039:D *658:113 0.000243482
28 *2039:D *672:134 4.9445e-05
29 *491:14 *512:14 1.90936e-05
30 *491:14 *584:48 6.28766e-05
31 *491:14 *675:102 2.06178e-05
32 *491:57 *1964:GATE 6.47444e-05
33 *491:57 *2020:D 0.000337177
34 *491:57 *579:24 5.98905e-05
35 *491:57 *584:84 0.000373186
36 *491:57 *590:170 5.58644e-05
37 *491:57 *601:30 0
38 *491:57 *626:34 0.000879761
39 *491:57 *627:68 0.000224104
40 *491:57 *628:60 0.000479532
41 *491:57 *672:18 0.000108043
42 *491:96 *1809:A0 0.00110787
43 *491:96 *1964:GATE 6.30454e-05
44 *491:96 *519:14 1.98839e-05
45 *491:96 *573:28 0.000620766
46 *491:96 *586:110 0.000162604
47 *491:96 *587:176 1.1984e-05
48 *491:96 *613:40 2.33124e-05
49 *491:96 *618:132 0.000247312
50 *491:96 *630:66 0.00126722
51 *491:96 *632:152 0.000104999
52 *491:96 *635:112 0.00034395
53 *491:96 *669:45 0.000467396
54 *491:96 *689:108 0.000263533
55 *491:102 *1943:GATE 9.60875e-05
56 *491:102 *519:14 0.000135028
57 *491:102 *573:28 1.58163e-05
58 *1885:S0 *491:96 2.66789e-06
59 *1894:S0 *1975:D 5.65955e-05
60 *1894:S0 *491:102 5.45293e-05
61 *1909:S0 *491:96 0.000326116
62 *2187:A *2039:D 8.38879e-05
63 *2188:A *2039:D 0.000256879
64 *2188:A *491:14 3.77315e-05
65 *2190:A *491:57 1.09611e-05
66 *2209:A *2039:D 0.000115926
67 *2210:A *2039:D 0.000268817
68 *2211:A *2039:D 2.04745e-05
69 *156:53 *2039:D 0.000990691
70 *157:87 *2039:D 0.000162804
71 *480:153 *491:57 8.07616e-06
72 *482:58 *2039:D 0.000819008
*RES
1 *2188:X *491:14 18.1776 
2 *491:14 *2039:D 48.4144 
3 *491:14 *491:57 11.2678 
4 *491:57 *2007:D 22.4511 
5 *491:57 *491:96 38.4431 
6 *491:96 *491:102 5.5 
7 *491:102 *2123:A 9.3 
8 *491:102 *1975:D 29.8 
9 *491:96 *1943:D 9.3 
*END

*D_NET *492 0.00801888
*CONN
*I *2388:A I *D sky130_fd_sc_hd__buf_2
*I *1918:Q O *D sky130_fd_sc_hd__dlxtp_1
*CAP
1 *2388:A 0
2 *1918:Q 0.000452054
3 *492:18 0.00170206
4 *492:12 0.00215411
5 *492:12 *1920:D 9.97164e-05
6 *492:12 *641:8 0
7 *492:18 *505:16 0.000312769
8 *492:18 *508:14 0.000966524
9 *492:18 *600:36 0
10 *492:18 *618:12 0
11 *492:18 *626:148 0.000252121
12 *492:18 *641:8 0
13 *492:18 *641:21 0
14 *1801:A *492:18 0.000256514
15 *1846:B1 *492:18 0.000326031
16 *2385:A *492:12 0.000289195
17 *156:27 *492:18 0
18 *157:21 *492:12 0.000833911
19 *157:21 *492:18 0.000272072
20 *267:14 *492:18 4.49292e-05
21 *487:40 *492:12 5.68722e-05
*RES
1 *1918:Q *492:12 25.6214 
2 *492:12 *492:18 42.5357 
3 *492:18 *2388:A 9.3 
*END

*D_NET *493 0.0167856
*CONN
*I *2389:A I *D sky130_fd_sc_hd__buf_2
*I *1919:Q O *D sky130_fd_sc_hd__dlxtp_1
*CAP
1 *2389:A 0.00134147
2 *1919:Q 0.001109
3 *493:18 0.00297158
4 *493:12 0.00273911
5 *2389:A *2055:D 0.000428667
6 *2389:A *2184:A 0.000481229
7 *2389:A *587:24 0.000527454
8 *2389:A *618:12 3.90513e-05
9 *2389:A *683:106 0.000608441
10 *2389:A *684:144 0.000137561
11 *493:12 *2047:D 0.000793208
12 *493:12 *591:142 0.000140519
13 *493:18 *1829:A0 6.2169e-06
14 *493:18 *1834:A 7.43583e-05
15 *493:18 *1847:A3 0.000263867
16 *493:18 *500:16 0.00110357
17 *493:18 *560:28 0.000217732
18 *493:18 *579:78 0.000153225
19 *493:18 *583:42 0.000182093
20 *493:18 *644:16 9.00426e-05
21 *493:18 *648:28 0.000192442
22 *493:18 *648:49 2.4088e-05
23 *493:18 *659:56 0.000395774
24 *493:18 *681:44 0.000334608
25 *493:18 *681:59 0.000627735
26 *1798:A *493:18 6.22238e-05
27 *1831:B1 *493:18 0.000265934
28 *1833:A2 *493:18 3.57844e-05
29 *1835:A2 *493:18 0.000187654
30 *1843:S1 *493:18 0.0001454
31 *1847:S0 *493:18 0.000247508
32 *1849:S *493:18 0.00036399
33 *2387:A *2389:A 1.58163e-05
34 *143:9 *493:18 0
35 *160:15 *493:18 0
36 *253:10 *493:12 0.00014183
37 *253:10 *493:18 0
38 *255:41 *493:18 0.000145876
39 *257:29 *493:18 0.000190554
*RES
1 *1919:Q *493:12 30.0857 
2 *493:12 *493:18 47.2321 
3 *493:18 *2389:A 46.2821 
*END

*D_NET *494 0.0140942
*CONN
*I *2390:A I *D sky130_fd_sc_hd__buf_2
*I *1866:X O *D sky130_fd_sc_hd__a22o_1
*CAP
1 *2390:A 0.0026644
2 *1866:X 0.000487331
3 *494:16 0.00394826
4 *494:12 0.0017712
5 *2390:A *1815:A1 6.10547e-05
6 *2390:A *1818:C_N 4.72917e-05
7 *2390:A *1920:D 0.000135028
8 *2390:A *2033:D 0.000180951
9 *2390:A *2117:A 0.00014715
10 *2390:A *601:8 4.60279e-05
11 *2390:A *602:166 0.000135028
12 *2390:A *647:63 0.000114655
13 *2390:A *648:49 0.000136676
14 *494:12 *651:181 0.000542204
15 *494:16 *596:40 0.000881025
16 *1796:A *2390:A 0.000107198
17 *1866:A2 *494:12 5.20751e-05
18 *2218:A *494:16 0.000444184
19 *2232:A *494:16 0.000139993
20 *142:31 *494:16 0.0004036
21 *151:9 *494:16 0.00116795
22 *239:24 *2390:A 0.000341276
23 *239:43 *2390:A 0.000107009
24 *268:8 *2390:A 3.26036e-05
*RES
1 *1866:X *494:12 22.175 
2 *494:12 *494:16 44.0893 
3 *494:16 *2390:A 45.8536 
*END

*D_NET *495 0.0243606
*CONN
*I *2391:A I *D sky130_fd_sc_hd__buf_2
*I *1828:X O *D sky130_fd_sc_hd__a41o_1
*CAP
1 *2391:A 0.000287031
2 *1828:X 0.0047397
3 *495:20 0.00502673
4 *2391:A *632:16 0.000184782
5 *2391:A *640:18 0.000247319
6 *495:20 *1972:D 0.000135028
7 *495:20 *2180:A 0.000137267
8 *495:20 *2395:A 0.001556
9 *495:20 *509:30 0.000544111
10 *495:20 *511:26 0.000127359
11 *495:20 *544:32 0.00169331
12 *495:20 *586:22 0.00116007
13 *495:20 *591:94 0.000160029
14 *495:20 *603:32 0.000150887
15 *495:20 *616:26 0.000220289
16 *495:20 *624:58 2.63501e-05
17 *495:20 *631:106 0.00161249
18 *495:20 *637:44 1.65282e-05
19 *495:20 *652:175 0.00010075
20 C_I_top *2391:A 1.72415e-05
21 *1828:A4 *495:20 6.34436e-05
22 *2039:D *495:20 4.38942e-05
23 *2208:A *2391:A 0.000117725
24 *2209:A *495:20 0.000112765
25 *154:21 *2391:A 0.000199133
26 *154:47 *495:20 0.000618848
27 *154:75 *495:20 0.0012795
28 *157:21 *2391:A 0
29 *157:21 *495:20 0.00227285
30 *158:19 *495:20 0.00108827
31 *160:79 *495:20 1.47871e-05
32 *480:70 *495:20 9.97363e-06
33 *489:10 *2391:A 0.000396125
*RES
1 *1828:X *495:20 49.5526 
2 *495:20 *2391:A 22.9314 
*END

*D_NET *496 0.0105059
*CONN
*I *2392:A I *D sky130_fd_sc_hd__buf_2
*I *1920:Q O *D sky130_fd_sc_hd__dlxtp_1
*CAP
1 *2392:A 0.00090244
2 *1920:Q 0.000828778
3 *496:16 0.00173122
4 *2392:A *2139:A 5.33005e-05
5 *2392:A *601:10 0.00143365
6 *2392:A *624:120 0.00143023
7 *2392:A *624:122 0
8 *2392:A *631:112 0.000219289
9 *496:16 *2032:D 0.000130226
10 *496:16 *499:10 0.00148914
11 *496:16 *503:14 0.000314611
12 *496:16 *583:16 0.000452128
13 *496:16 *590:12 0.000136951
14 *496:16 *624:130 0.000153047
15 *496:16 *638:24 0.000115112
16 *154:21 *496:16 0.000192816
17 *490:12 *496:16 0.000923
*RES
1 *1920:Q *496:16 48.0679 
2 *496:16 *2392:A 45.3179 
*END

*D_NET *497 0.00641962
*CONN
*I *2393:A I *D sky130_fd_sc_hd__buf_2
*I *1921:Q O *D sky130_fd_sc_hd__dlxtp_1
*CAP
1 *2393:A 0.000121091
2 *1921:Q 0.000970876
3 *497:14 0.00109197
4 *2393:A *672:184 4.00679e-05
5 *497:14 *2273:A 0
6 *497:14 *2277:A 0.000124868
7 *497:14 *498:12 0.00154188
8 *497:14 *503:14 0.000225774
9 *497:14 *504:18 0.000126428
10 *497:14 *557:58 0.000440356
11 *497:14 *666:56 0.000104974
12 *497:14 *684:130 0.000161855
13 *497:14 *684:136 0.000179656
14 A_config_C_bit0 *497:14 6.56976e-05
15 A_config_C_bit2 *497:14 1.90936e-05
16 A_config_C_bit3 *497:14 0.000109627
17 B_config_C_bit0 *497:14 2.06178e-05
18 D_I_top *497:14 9.05914e-05
19 D_T_top *497:14 2.11419e-05
20 *2387:A *497:14 8.46507e-06
21 *156:47 *497:14 0.000280861
22 *157:41 *497:14 0.000486321
23 *160:39 *497:14 0.000110359
24 *489:10 *497:14 7.70456e-05
*RES
1 *1921:Q *497:14 45.8893 
2 *497:14 *2393:A 15.5857 
*END

*D_NET *498 0.00554618
*CONN
*I *2394:A I *D sky130_fd_sc_hd__buf_2
*I *1922:Q O *D sky130_fd_sc_hd__dlxtp_1
*CAP
1 *2394:A 0
2 *1922:Q 0.000695861
3 *498:12 0.000695861
4 *498:12 *506:14 0.000678295
5 *498:12 *624:130 5.17614e-05
6 *498:12 *639:52 0.000951182
7 *498:12 *684:130 0.000194584
8 *498:12 *684:136 0.000176234
9 B_config_C_bit0 *498:12 2.06178e-05
10 *156:47 *498:12 0.000205572
11 *489:10 *498:12 0.000334332
12 *497:14 *498:12 0.00154188
*RES
1 *1922:Q *498:12 45.175 
2 *498:12 *2394:A 9.3 
*END

*D_NET *499 0.0113254
*CONN
*I *2395:A I *D sky130_fd_sc_hd__buf_2
*I *1923:Q O *D sky130_fd_sc_hd__dlxtp_1
*CAP
1 *2395:A 0.000764868
2 *1923:Q 0.000799879
3 *499:10 0.00156475
4 *2395:A *586:22 0.00153709
5 *2395:A *587:60 8.23597e-06
6 *2395:A *684:130 2.11419e-05
7 *499:10 *2273:A 0.000912771
8 *499:10 *503:14 1.4396e-05
9 *499:10 *638:24 0.00249443
10 A_config_C_bit2 *2395:A 1.1257e-05
11 B_config_C_bit3 *2395:A 2.80175e-05
12 C_config_C_bit0 *2395:A 7.69049e-05
13 *157:41 *2395:A 4.65519e-05
14 *495:20 *2395:A 0.001556
15 *496:16 *499:10 0.00148914
*RES
1 *1923:Q *499:10 47.2196 
2 *499:10 *2395:A 32.2885 
*END

*D_NET *500 0.00928326
*CONN
*I *2396:A I *D sky130_fd_sc_hd__buf_2
*I *1858:X O *D sky130_fd_sc_hd__a22o_1
*CAP
1 *2396:A 0.0013113
2 *1858:X 0.00120001
3 *500:16 0.00251131
4 *2396:A *1924:GATE 4.00679e-05
5 *2396:A *2144:A 3.42509e-05
6 *2396:A *640:18 0.000149047
7 *2396:A *641:23 2.79421e-05
8 *2396:A *652:44 3.77095e-05
9 *2396:A *653:54 0.00026373
10 *2396:A *666:32 0.000123054
11 *500:16 *1851:A2 1.59935e-05
12 *500:16 *1851:A3 0.000435813
13 *500:16 *647:46 5.41207e-05
14 *500:16 *648:49 0.000285106
15 *500:16 *649:53 0.000221634
16 *500:16 *681:44 0.000365674
17 *1803:A *500:16 1.02504e-05
18 *1846:B1 *2396:A 0.000161934
19 *1850:A2 *2396:A 5.52302e-05
20 *1851:S1 *500:16 8.25512e-05
21 *1854:B1 *500:16 0.000200413
22 *1858:B1 *500:16 0
23 *143:9 *500:16 0
24 *147:13 *500:16 4.15914e-05
25 *257:14 *2396:A 0.000225193
26 *257:29 *2396:A 0.000178425
27 *489:10 *2396:A 0.000147332
28 *493:18 *500:16 0.00110357
*RES
1 *1858:X *500:16 48.4964 
2 *500:16 *2396:A 42.675 
*END

*D_NET *501 0.00866846
*CONN
*I *2272:A I *D sky130_fd_sc_hd__buf_2
*I *1835:X O *D sky130_fd_sc_hd__a41o_1
*CAP
1 *2272:A 0.000972384
2 *1835:X 0.00118718
3 *501:14 0.00215957
4 *2272:A *1843:A0 2.8078e-05
5 *2272:A *1843:A1 5.72966e-05
6 *2272:A *1843:A3 5.495e-05
7 *2272:A *582:20 0.000475535
8 *501:14 *1843:A1 0.000339346
9 *501:14 *579:78 0.00128366
10 *501:14 *648:22 0.000377384
11 *501:14 *655:16 0.000197713
12 *501:14 *655:24 0.000149412
13 *1821:A2 *501:14 0.000152772
14 *1821:B1 *501:14 7.13904e-05
15 *1830:B *501:14 0.000237959
16 *1835:A1 *501:14 2.20608e-05
17 *1835:A2 *501:14 0
18 *1835:A4 *501:14 5.52302e-05
19 *1845:S0 *2272:A 9.09165e-05
20 *1850:A2 *2272:A 9.71152e-05
21 *150:17 *501:14 0.000135968
22 *160:15 *501:14 2.55319e-05
23 *239:24 *501:14 9.9974e-05
24 *487:40 *501:14 0.000397029
*RES
1 *1835:X *501:14 46.6571 
2 *501:14 *2272:A 32.925 
*END

*D_NET *502 0.016598
*CONN
*I *1976:D I *D sky130_fd_sc_hd__dlxtp_1
*I *2124:A I *D sky130_fd_sc_hd__clkbuf_1
*I *2008:D I *D sky130_fd_sc_hd__dlxtp_1
*I *2040:D I *D sky130_fd_sc_hd__dlxtp_1
*I *1944:D I *D sky130_fd_sc_hd__dlxtp_1
*I *2189:X O *D sky130_fd_sc_hd__buf_1
*CAP
1 *1976:D 9.49141e-05
2 *2124:A 0.000170668
3 *2008:D 0
4 *2040:D 0.000208538
5 *1944:D 2.23854e-05
6 *2189:X 0.000155416
7 *502:105 0.000546526
8 *502:79 0.000305893
9 *502:75 0.0012924
10 *502:51 0.00208877
11 *502:14 0.00115541
12 *502:8 0.000675662
13 *1976:D *673:6 1.98839e-05
14 *1976:D *673:21 2.23592e-05
15 *2040:D *582:54 0
16 *2040:D *587:90 0.000260228
17 *2040:D *618:96 0.000195817
18 *2040:D *633:78 0.000139215
19 *2040:D *634:10 4.38942e-05
20 *2040:D *636:26 3.17148e-05
21 *2040:D *671:30 0.000170661
22 *2124:A *1976:GATE 1.04232e-05
23 *2124:A *535:16 0.000112097
24 *2124:A *673:6 0.00013833
25 *502:8 *1878:A1 5.49489e-05
26 *502:8 *1928:GATE 3.97677e-05
27 *502:8 *584:84 0.000139208
28 *502:8 *668:14 0.000307148
29 *502:8 *670:65 5.50638e-05
30 *502:14 *1878:A1 5.79582e-06
31 *502:14 *557:32 0.000547466
32 *502:51 *1808:A3 0.000221822
33 *502:51 *513:37 0.000160754
34 *502:51 *513:82 0.000154036
35 *502:51 *582:128 0
36 *502:51 *643:164 2.01732e-05
37 *502:51 *672:52 3.27526e-05
38 *502:51 *674:48 2.82331e-05
39 *502:51 *679:61 0.000111972
40 *502:51 *693:84 8.07879e-05
41 *502:51 *693:117 0.000234305
42 *502:51 *693:142 1.90442e-05
43 *502:75 *1808:A3 8.43535e-06
44 *502:75 *1888:A1 5.79582e-06
45 *502:75 *513:82 0.000242806
46 *502:75 *582:54 0.000222092
47 *502:75 *634:130 0.000169185
48 *502:75 *634:158 0.000153402
49 *502:75 *635:92 1.99702e-05
50 *502:75 *636:26 0
51 *502:75 *636:117 1.08936e-05
52 *502:75 *643:110 0.000107752
53 *502:75 *671:10 6.05161e-06
54 *502:75 *672:52 0.00040174
55 *502:75 *674:48 6.55751e-05
56 *502:75 *675:130 0.000235949
57 *502:75 *677:61 0
58 *502:75 *679:49 0.000647146
59 *502:75 *687:92 5.50943e-05
60 *502:75 *693:68 0.000101363
61 *502:75 *698:44 0.000922167
62 *502:79 *556:54 9.13781e-05
63 *502:79 *635:10 3.69047e-06
64 *502:79 *636:26 5.33005e-05
65 *502:105 *1878:A1 5.11396e-07
66 *502:105 *557:32 0.000562727
67 *502:105 *670:65 0.000529331
68 *1808:S1 *502:51 0.000123072
69 *1878:A0 *502:8 0.000151242
70 *1878:A0 *502:14 0.000550133
71 *1878:A0 *502:51 5.95426e-05
72 *2066:A *502:51 0.000270257
73 *2175:A *2124:A 7.63594e-05
74 *153:129 *1976:D 9.41642e-05
75 *153:129 *2124:A 3.97677e-05
76 *153:129 *502:14 5.13908e-05
77 *153:129 *502:51 0
78 *153:129 *502:105 2.90018e-05
79 *157:87 *502:75 0.000434905
80 *480:108 *502:14 1.90303e-05
81 *480:108 *502:51 8.25843e-06
*RES
1 *2189:X *502:8 18.4429 
2 *502:8 *502:14 12.8571 
3 *502:14 *1944:D 9.72857 
4 *502:14 *502:51 48.7857 
5 *502:51 *502:75 48.7321 
6 *502:75 *502:79 6.67857 
7 *502:79 *2040:D 24.6393 
8 *502:79 *2008:D 9.3 
9 *502:8 *502:105 12.875 
10 *502:105 *2124:A 13.5679 
11 *502:105 *1976:D 11.0679 
*END

*D_NET *503 0.00907192
*CONN
*I *2273:A I *D sky130_fd_sc_hd__buf_2
*I *1924:Q O *D sky130_fd_sc_hd__dlxtp_1
*CAP
1 *2273:A 0.000869514
2 *1924:Q 0.000518996
3 *503:14 0.00138851
4 *2273:A *1927:D 0.000223253
5 *2273:A *2274:A 4.58194e-05
6 *2273:A *504:18 0.00159841
7 *2273:A *557:58 0.000114385
8 *2273:A *631:116 0.000112188
9 *2273:A *638:24 2.56643e-05
10 *2273:A *672:184 2.2355e-05
11 *2273:A *706:66 9.41642e-05
12 *503:14 *624:130 0.000150264
13 *503:14 *640:18 4.10514e-05
14 A_config_C_bit0 *2273:A 1.99644e-05
15 A_config_C_bit1 *2273:A 0.000137834
16 C_I_top *503:14 7.83587e-05
17 D_I_top *503:14 9.05914e-05
18 D_T_top *503:14 2.11419e-05
19 *157:41 *2273:A 0.0010929
20 *160:39 *503:14 0.000507591
21 *490:12 *503:14 0.000451412
22 *496:16 *503:14 0.000314611
23 *497:14 *2273:A 0
24 *497:14 *503:14 0.000225774
25 *499:10 *2273:A 0.000912771
26 *499:10 *503:14 1.4396e-05
*RES
1 *1924:Q *503:14 31.0589 
2 *503:14 *2273:A 46.5946 
*END

*D_NET *504 0.00681242
*CONN
*I *2274:A I *D sky130_fd_sc_hd__buf_2
*I *1925:Q O *D sky130_fd_sc_hd__dlxtp_1
*CAP
1 *2274:A 0.000452159
2 *1925:Q 0.000740209
3 *504:18 0.00119237
4 *2274:A *505:24 6.57032e-05
5 *2274:A *568:88 0.000278783
6 *2274:A *587:60 0.000177703
7 *2274:A *684:130 0.000637998
8 *2274:A *706:66 1.21258e-05
9 *504:18 *1927:D 5.49489e-05
10 *504:18 *1952:GATE 0.000153762
11 *504:18 *638:22 0.000208198
12 *504:18 *638:24 0.000963315
13 *504:18 *672:184 9.54798e-06
14 A_config_C_bit2 *504:18 2.06178e-05
15 C_config_C_bit0 *2274:A 8.6229e-06
16 C_config_C_bit1 *2274:A 6.57032e-05
17 *2273:A *2274:A 4.58194e-05
18 *2273:A *504:18 0.00159841
19 *497:14 *504:18 0.000126428
*RES
1 *1925:Q *504:18 47.3 
2 *504:18 *2274:A 34.2464 
*END

*D_NET *505 0.0105119
*CONN
*I *2275:A I *D sky130_fd_sc_hd__buf_2
*I *1926:Q O *D sky130_fd_sc_hd__dlxtp_1
*CAP
1 *2275:A 0
2 *1926:Q 0.000895279
3 *505:24 0.00183327
4 *505:16 0.00272855
5 *505:16 *1926:D 0.000179717
6 *505:16 *602:160 4.29471e-05
7 *505:16 *626:134 8.25843e-06
8 *505:16 *643:28 1.721e-05
9 *505:16 *651:137 0.000121143
10 *505:16 *652:34 6.05161e-06
11 *505:16 *672:192 1.18064e-05
12 *505:24 *1986:D 9.41642e-05
13 *505:24 *1986:GATE 5.31101e-05
14 *505:24 *591:126 0.000481604
15 *505:24 *626:122 3.81416e-06
16 *505:24 *643:28 0.0018882
17 *505:24 *651:137 0.000222566
18 *505:24 *668:109 0.000631863
19 *505:24 *668:115 0.000371568
20 *505:24 *672:192 2.09495e-05
21 A_config_C_bit2 *505:16 1.64281e-05
22 C_config_C_bit1 *505:24 2.68274e-05
23 *1838:B1 *505:24 2.99629e-05
24 *1838:C1 *505:24 2.29133e-05
25 *1842:A3 *505:24 0.000125731
26 *1842:A4 *505:24 0.000147835
27 *2274:A *505:24 6.57032e-05
28 *157:41 *505:24 0
29 *159:45 *505:24 1.40893e-05
30 *486:74 *505:24 0.000137561
31 *492:18 *505:16 0.000312769
*RES
1 *1926:Q *505:16 26.8804 
2 *505:16 *505:24 44.9554 
3 *505:24 *2275:A 9.3 
*END

*D_NET *506 0.00629718
*CONN
*I *2276:A I *D sky130_fd_sc_hd__buf_2
*I *1927:Q O *D sky130_fd_sc_hd__dlxtp_1
*CAP
1 *2276:A 0
2 *1927:Q 0.000903302
3 *506:14 0.000903302
4 *506:14 *1926:D 0
5 *506:14 *1927:D 6.86693e-05
6 *506:14 *1953:D 0.000185313
7 *506:14 *587:60 0.00118712
8 *506:14 *594:38 3.43988e-06
9 *506:14 *624:116 5.33005e-05
10 *506:14 *639:30 3.52836e-05
11 *506:14 *639:52 0.0016751
12 *506:14 *640:34 5.33005e-05
13 *506:14 *684:130 7.02729e-05
14 *506:14 *689:74 0.000325783
15 *156:47 *506:14 0.000154703
16 *498:12 *506:14 0.000678295
*RES
1 *1927:Q *506:14 48.55 
2 *506:14 *2276:A 9.3 
*END

*D_NET *507 0.00262968
*CONN
*I *2277:A I *D sky130_fd_sc_hd__buf_2
*I *1850:X O *D sky130_fd_sc_hd__a22o_1
*CAP
1 *2277:A 0.001033
2 *1850:X 0.001033
3 *2277:A *1843:A1 9.28394e-06
4 *2277:A *666:56 0.000157445
5 *1801:A *2277:A 9.70767e-05
6 *1850:B2 *2277:A 2.6274e-05
7 *2387:A *2277:A 2.38589e-05
8 *489:10 *2277:A 0.000124868
9 *497:14 *2277:A 0.000124868
*RES
1 *1850:X *2277:A 40.4571 
*END

*D_NET *508 0.00582236
*CONN
*I *2278:A I *D sky130_fd_sc_hd__buf_2
*I *1842:X O *D sky130_fd_sc_hd__a41o_1
*CAP
1 *2278:A 0
2 *1842:X 0.00128879
3 *508:14 0.00128879
4 *508:14 *2134:A 0.000180072
5 *508:14 *591:126 7.71915e-06
6 *508:14 *618:12 0
7 *508:14 *618:30 0.00012573
8 *508:14 *626:134 0.000114049
9 *508:14 *626:148 0.000382265
10 *508:14 *627:118 0.000230437
11 *508:14 *672:192 0.00104186
12 *1837:A_N *508:14 0.000121842
13 *1839:A *508:14 5.33005e-05
14 *1898:S0 *508:14 2.09826e-05
15 *492:18 *508:14 0.000966524
*RES
1 *1842:X *508:14 48.55 
2 *508:14 *2278:A 9.3 
*END

*D_NET *509 0.0189831
*CONN
*I *2279:A I *D sky130_fd_sc_hd__buf_2
*I *1928:Q O *D sky130_fd_sc_hd__dlxtp_1
*CAP
1 *2279:A 0.000835266
2 *1928:Q 0.00272635
3 *509:30 0.00356162
4 *2279:A *1880:A0 2.26232e-05
5 *2279:A *510:34 0.000349758
6 *2279:A *512:20 0.00011178
7 *2279:A *544:32 0.000328717
8 *2279:A *591:94 9.11942e-06
9 *2279:A *600:86 9.11541e-06
10 *2279:A *613:107 0.00044148
11 *2279:A *680:46 6.19715e-05
12 *2279:A *684:114 8.93791e-05
13 *2279:A *684:130 1.94135e-05
14 *2279:A *689:74 0.000275684
15 *509:30 *1928:D 1.58163e-05
16 *509:30 *2108:A 4.08025e-05
17 *509:30 *512:14 0.000531747
18 *509:30 *512:20 5.00841e-06
19 *509:30 *582:54 0.00113424
20 *509:30 *584:48 0.000141247
21 *509:30 *591:94 1.30275e-05
22 *509:30 *600:86 0.000230248
23 *509:30 *603:32 0.00207672
24 *509:30 *616:26 0.000586409
25 *509:30 *624:32 0.00102867
26 *509:30 *626:34 0.000948903
27 *509:30 *628:60 0.00106176
28 *509:30 *654:96 0.000532462
29 *509:30 *674:80 0.000135991
30 D_config_C_bit0 *2279:A 2.36643e-05
31 D_config_C_bit1 *2279:A 8.59024e-05
32 D_config_C_bit3 *2279:A 0.000105469
33 *1880:S0 *2279:A 2.42516e-05
34 *2193:A *509:30 0.000127359
35 *2230:A *2279:A 6.92864e-05
36 *2271:A *509:30 0.000122021
37 *142:53 *2279:A 8.64454e-05
38 *152:33 *2279:A 2.06178e-05
39 *153:79 *509:30 0.000198836
40 *480:50 *509:30 8.06334e-05
41 *482:76 *509:30 0.000169156
42 *495:20 *509:30 0.000544111
*RES
1 *1928:Q *509:30 49.8749 
2 *509:30 *2279:A 39.7308 
*END

*D_NET *510 0.0113842
*CONN
*I *2280:A I *D sky130_fd_sc_hd__buf_2
*I *1929:Q O *D sky130_fd_sc_hd__dlxtp_1
*CAP
1 *2280:A 0
2 *1929:Q 0.000930736
3 *510:34 0.000991775
4 *510:22 0.00192251
5 *510:22 *512:20 5.51397e-05
6 *510:22 *556:40 0.000390789
7 *510:22 *603:66 7.72966e-05
8 *510:22 *616:38 2.19833e-05
9 *510:22 *626:70 0.000102185
10 *510:22 *629:54 0.000296981
11 *510:22 *633:26 1.41805e-05
12 *510:22 *638:74 2.12521e-05
13 *510:22 *639:30 0.000123295
14 *510:22 *674:80 0.000151545
15 *510:34 *2025:D 2.59355e-05
16 *510:34 *512:20 0.00012225
17 *510:34 *613:107 0.000489717
18 *510:34 *616:38 0.000753011
19 *510:34 *627:104 0.000291072
20 *510:34 *638:12 1.21637e-05
21 *510:34 *638:18 0.000751808
22 *510:34 *658:113 2.14378e-05
23 *510:34 *684:8 5.61182e-06
24 *2214:A *510:22 9.41642e-05
25 *2252:A *510:22 4.43299e-05
26 *2279:A *510:34 0.000349758
27 *153:55 *510:34 3.22304e-05
28 *153:79 *510:22 5.33005e-05
29 *153:79 *510:34 0.000218294
30 *154:99 *510:22 0.000847028
31 *157:57 *510:34 0.00110633
32 *158:31 *510:22 0.000610781
33 *158:31 *510:34 2.86231e-05
34 *158:71 *510:22 0.000426665
*RES
1 *1929:Q *510:22 47.6661 
2 *510:22 *510:34 43.1696 
3 *510:34 *2280:A 9.3 
*END

*D_NET *511 0.0212443
*CONN
*I *2281:A I *D sky130_fd_sc_hd__buf_2
*I *1930:Q O *D sky130_fd_sc_hd__dlxtp_1
*CAP
1 *2281:A 5.95017e-05
2 *1930:Q 0.000405719
3 *511:26 0.00142472
4 *511:10 0.00237548
5 *511:8 0.00141598
6 *2281:A *602:123 0.000220688
7 *511:8 *602:18 0
8 *511:10 *556:24 0.000198747
9 *511:10 *557:46 9.20499e-06
10 *511:10 *568:54 0.000130576
11 *511:10 *633:32 0.00401934
12 *511:10 *694:76 0.000842883
13 *511:26 *544:32 4.73138e-05
14 *511:26 *557:46 0.00182796
15 *511:26 *591:94 0.000208166
16 *511:26 *600:86 0.000971204
17 *511:26 *624:58 7.19106e-05
18 *511:26 *626:88 0.000665722
19 *511:26 *628:68 0.00146873
20 *511:26 *633:30 0.000111626
21 *511:26 *638:18 0.00115832
22 *511:26 *680:46 1.11654e-05
23 *511:26 *694:76 3.42555e-05
24 *511:26 *706:66 0.000120708
25 *723:DIODE *511:10 8.85664e-07
26 *2205:A *511:26 1.84269e-05
27 *2209:A *511:26 7.01273e-05
28 *2230:A *511:26 9.22222e-06
29 *142:67 *511:26 0.000296329
30 *142:117 *511:10 0.00180211
31 *158:75 *511:10 0.00090064
32 *482:40 *2281:A 0.000219289
33 *495:20 *511:26 0.000127359
*RES
1 *1930:Q *511:8 18.8536 
2 *511:8 *511:10 55.1429 
3 *511:10 *511:26 46.6804 
4 *511:26 *2281:A 15.9786 
*END

*D_NET *512 0.01755
*CONN
*I *2282:A I *D sky130_fd_sc_hd__buf_2
*I *1931:Q O *D sky130_fd_sc_hd__dlxtp_1
*CAP
1 *2282:A 0
2 *1931:Q 0
3 *512:20 0.00164824
4 *512:14 0.00277913
5 *512:6 0.00113089
6 *512:14 *1928:GATE 0.00035903
7 *512:14 *1960:GATE 0.000124529
8 *512:14 *2020:GATE 0.000361649
9 *512:14 *524:14 2.26973e-05
10 *512:14 *579:24 0.000119786
11 *512:14 *584:84 0.000161658
12 *512:14 *591:34 0.00120791
13 *512:14 *625:10 1.82173e-05
14 *512:14 *628:26 6.39901e-05
15 *512:14 *629:69 2.28428e-05
16 *512:14 *654:96 9.60593e-05
17 *512:14 *674:20 0.000178823
18 *512:14 *674:114 0.00110902
19 *512:14 *675:56 7.43852e-05
20 *512:14 *675:102 0.000170357
21 *512:14 *687:70 0.000167191
22 *512:14 *698:44 7.48679e-06
23 *512:14 *698:175 0.000176806
24 *512:20 *2025:D 0.000325762
25 *512:20 *546:31 0.00213781
26 *512:20 *584:48 8.85664e-07
27 *512:20 *602:70 4.28365e-05
28 *512:20 *603:66 0.000263047
29 *512:20 *629:35 3.65015e-05
30 *512:20 *629:52 0.000518143
31 *512:20 *637:44 0.000155357
32 *512:20 *638:74 0.000143625
33 *512:20 *639:30 7.1371e-05
34 *512:20 *644:149 0.000534768
35 *512:20 *654:20 3.8468e-05
36 *512:20 *679:8 3.04325e-05
37 *512:20 *679:49 1.69153e-05
38 *512:20 *687:70 0.000223392
39 *2187:A *512:14 8.68976e-05
40 *2188:A *512:14 4.5534e-05
41 *2190:A *512:14 8.18542e-05
42 *2191:A *512:14 9.13908e-05
43 *2192:A *512:14 4.43299e-05
44 *2252:A *512:20 4.43299e-05
45 *2263:A *512:14 0.000161033
46 *2263:A *512:20 0.000107249
47 *2279:A *512:20 0.00011178
48 *142:99 *512:20 1.3409e-05
49 *153:79 *512:20 9.22222e-06
50 *154:95 *512:20 0.00116661
51 *158:71 *512:20 0.000313069
52 *491:14 *512:14 1.90936e-05
53 *509:30 *512:14 0.000531747
54 *509:30 *512:20 5.00841e-06
55 *510:22 *512:20 5.51397e-05
56 *510:34 *512:20 0.00012225
*RES
1 *1931:Q *512:6 13.8 
2 *512:6 *512:14 41.5446 
3 *512:14 *512:20 47.0804 
4 *512:20 *2282:A 13.8 
*END

*D_NET *513 0.0187206
*CONN
*I *1977:D I *D sky130_fd_sc_hd__dlxtp_1
*I *2041:D I *D sky130_fd_sc_hd__dlxtp_1
*I *2009:D I *D sky130_fd_sc_hd__dlxtp_1
*I *1945:D I *D sky130_fd_sc_hd__dlxtp_1
*I *2125:A I *D sky130_fd_sc_hd__clkbuf_1
*I *2190:X O *D sky130_fd_sc_hd__buf_1
*CAP
1 *1977:D 0.000212257
2 *2041:D 0.000745391
3 *2009:D 0.000225509
4 *1945:D 0.000223591
5 *2125:A 2.9238e-05
6 *2190:X 0.000625088
7 *513:86 0.00104747
8 *513:82 0.00148981
9 *513:37 0.00237189
10 *513:12 0.000764299
11 *513:10 0.000837345
12 *1945:D *582:94 5.29959e-05
13 *1945:D *625:8 9.18077e-05
14 *1977:D *1977:GATE 3.69047e-06
15 *1977:D *575:18 0.000334934
16 *1977:D *587:176 0
17 *1977:D *670:65 4.00388e-05
18 *1977:D *673:21 7.57673e-05
19 *1977:D *673:34 4.26825e-05
20 *1977:D *673:185 4.38243e-05
21 *2041:D *618:96 2.79421e-05
22 *2041:D *630:84 0.000671407
23 *2041:D *658:133 0.000243673
24 *2041:D *661:177 1.08524e-05
25 *2041:D *668:69 0.000619054
26 *2041:D *673:116 0.000101053
27 *2041:D *675:140 0.000136676
28 *2125:A *574:14 5.33005e-05
29 *513:10 *2020:GATE 1.58163e-05
30 *513:10 *587:176 0
31 *513:37 *1893:A3 0.000120848
32 *513:37 *519:24 0.000905012
33 *513:37 *574:14 0.000439194
34 *513:37 *679:61 0.001117
35 *513:37 *693:117 3.24765e-05
36 *513:37 *693:142 4.43299e-05
37 *513:82 *1888:A0 0.000135851
38 *513:82 *529:40 0.000128196
39 *513:82 *591:34 2.52799e-05
40 *513:82 *625:8 3.13861e-05
41 *513:82 *631:65 0
42 *513:82 *634:158 0.000173599
43 *513:82 *643:110 5.02931e-05
44 *513:82 *643:164 0.0001014
45 *513:82 *644:149 5.47269e-05
46 *513:82 *658:133 0.000304051
47 *513:82 *672:52 0.000173976
48 *513:82 *674:48 2.34927e-05
49 *513:82 *679:49 0.000622245
50 *513:82 *679:61 1.5929e-05
51 *513:82 *693:117 6.20441e-06
52 *513:86 *643:110 0.000245349
53 *513:86 *658:133 2.99869e-05
54 *513:86 *675:140 0.000175512
55 *1824:A2 *2041:D 1.3469e-05
56 *1828:B1 *2041:D 2.42516e-05
57 *1908:A2 *513:37 2.18792e-05
58 *1908:S1 *513:82 7.5779e-05
59 *143:103 *513:82 0.000923765
60 *143:111 *513:37 9.42015e-05
61 *143:111 *513:82 0.000112079
62 *153:129 *1977:D 0.000136618
63 *153:129 *513:10 0.000146777
64 *153:129 *513:82 0
65 *157:87 *513:82 0.000366165
66 *245:59 *2041:D 9.25014e-06
67 *246:6 *2041:D 0.000125355
68 *246:36 *2041:D 6.05161e-06
69 *482:105 *513:82 1.36349e-05
70 *502:51 *513:37 0.000160754
71 *502:51 *513:82 0.000154036
72 *502:75 *513:82 0.000242806
*RES
1 *2190:X *513:10 21.2107 
2 *513:10 *513:12 4.5 
3 *513:12 *2125:A 9.83571 
4 *513:12 *513:37 41.1607 
5 *513:37 *1945:D 13.5143 
6 *513:37 *513:82 49.8523 
7 *513:82 *513:86 7.66071 
8 *513:86 *2009:D 12.3 
9 *513:86 *2041:D 36.4429 
10 *513:10 *1977:D 19.3179 
*END

*D_NET *514 0.0359359
*CONN
*I *2283:A I *D sky130_fd_sc_hd__buf_2
*I *729:DIODE I *D sky130_fd_sc_hd__diode_2
*I *2060:X O *D sky130_fd_sc_hd__buf_1
*CAP
1 *2283:A 4.86118e-05
2 *729:DIODE 0
3 *2060:X 0.000599676
4 *514:94 0.00574148
5 *514:72 0.00796784
6 *514:24 0.00344979
7 *514:12 0.00177449
8 *2283:A *699:66 9.41642e-05
9 *514:12 *2352:A 0.00048203
10 *514:24 *2331:A 5.49544e-05
11 *514:24 *2346:A 5.69144e-05
12 *514:24 *524:43 0.000421074
13 *514:24 *536:16 0
14 *514:24 *564:12 0.00184084
15 *514:24 *564:36 0.000381864
16 *514:24 *567:94 0.000719908
17 *514:24 *598:28 1.46231e-05
18 *514:24 *695:90 0.000105471
19 *514:24 *704:90 0.000436132
20 *514:72 *1881:A0 5.6305e-05
21 *514:72 *1881:A2 1.59935e-05
22 *514:72 *2304:A 4.24642e-05
23 *514:72 *2305:A 5.62561e-05
24 *514:72 *2312:A 9.41642e-05
25 *514:72 *531:34 0.00048242
26 *514:72 *535:86 0.000131357
27 *514:72 *538:66 0.00026096
28 *514:72 *539:40 4.12839e-05
29 *514:72 *541:40 6.56454e-05
30 *514:72 *552:28 0.000458143
31 *514:72 *559:34 1.4811e-05
32 *514:72 *567:72 0.000187964
33 *514:72 *567:94 1.3682e-05
34 *514:72 *585:60 0.00031383
35 *514:72 *598:28 0.000114854
36 *514:72 *650:248 2.06178e-05
37 *514:72 *659:209 2.41438e-05
38 *514:72 *659:227 1.30413e-05
39 *514:72 *665:38 8.34927e-05
40 *514:72 *676:40 0
41 *514:72 *695:90 1.19197e-05
42 *514:94 *522:58 0.0018753
43 *514:94 *528:30 2.23359e-05
44 *514:94 *533:18 1.94879e-05
45 *514:94 *538:66 0.000964278
46 *514:94 *545:72 4.10533e-05
47 *514:94 *567:40 0.000189578
48 *514:94 *569:62 1.30275e-05
49 *514:94 *594:38 4.46779e-05
50 *514:94 *635:42 0.00049659
51 *514:94 *644:34 6.05161e-06
52 *514:94 *653:170 1.30275e-05
53 *514:94 *665:83 0.000786221
54 *514:94 *686:52 5.74665e-06
55 *514:94 *699:66 0.000135028
56 E1BEG[0] *514:94 4.65519e-05
57 E1BEG[1] *514:94 1.03517e-05
58 E6BEG[0] *514:94 1.40863e-05
59 E6BEG[11] *514:72 0.000418474
60 E6BEG[3] *514:94 4.13301e-05
61 FrameData_O[19] *514:24 0.000788836
62 FrameData_O[1] *514:72 0.000212721
63 FrameData_O[22] *514:12 4.35597e-05
64 FrameData_O[28] *514:12 4.20505e-05
65 FrameData_O[29] *514:12 0.000439162
66 FrameData_O[2] *514:24 0
67 FrameData_O[30] *514:12 0.000154864
68 FrameData_O[5] *514:72 2.00266e-05
69 FrameData_O[6] *514:72 3.07075e-06
70 *1881:S1 *514:72 0.000139505
71 *1889:S0 *514:24 9.83442e-05
72 *2060:A *514:12 0.000113448
73 *2085:A *514:72 6.94952e-05
74 *2243:A *514:94 6.60633e-06
75 *143:29 *514:94 2.26973e-05
76 *146:77 *514:94 4.5047e-05
77 *148:97 *514:72 0.000462153
78 *149:93 *514:72 3.64479e-05
79 *149:101 *514:72 0.000206001
80 *159:93 *514:72 2.63501e-05
81 *235:45 *514:72 1.4532e-05
82 *235:93 *514:72 0.000281076
83 *235:113 *514:72 6.05161e-06
84 *482:26 *514:94 0.000867443
*RES
1 *2060:X *514:12 27.6214 
2 *514:12 *514:24 47.8571 
3 *514:24 *514:72 49.8624 
4 *514:72 *514:94 30.6873 
5 *514:94 *729:DIODE 9.3 
6 *514:94 *2283:A 10.2464 
*END

*D_NET *515 0.0183059
*CONN
*I *2284:A I *D sky130_fd_sc_hd__buf_2
*I *2061:X O *D sky130_fd_sc_hd__buf_1
*CAP
1 *2284:A 0.000531664
2 *2061:X 0.00292453
3 *515:40 0.0034562
4 *2284:A *1903:A3 6.77303e-05
5 *2284:A *2030:D 1.94945e-05
6 *2284:A *2287:A 1.02504e-05
7 *2284:A *2288:A 8.51213e-05
8 *2284:A *517:60 0.00019902
9 *2284:A *534:40 6.09762e-05
10 *2284:A *650:216 3.50729e-05
11 *2284:A *685:22 0.000149105
12 *2284:A *696:16 0.000164442
13 *2284:A *697:46 1.21859e-05
14 *2284:A *702:14 0.000215132
15 *2284:A *704:44 2.06741e-05
16 *2284:A *707:67 8.51784e-05
17 *515:40 *1885:A2 0.00160051
18 *515:40 *1999:D 1.4396e-05
19 *515:40 *516:32 0
20 *515:40 *520:58 0.000106727
21 *515:40 *545:38 0.00153432
22 *515:40 *558:52 0.000585373
23 *515:40 *567:72 0.000361183
24 *515:40 *583:72 0.00244507
25 *515:40 *585:60 9.51343e-06
26 *515:40 *596:118 2.71935e-05
27 *515:40 *618:96 1.43819e-05
28 *515:40 *635:92 0.00120397
29 *515:40 *642:34 0.000239807
30 *515:40 *642:106 0.0002583
31 *515:40 *645:62 0.000346653
32 *515:40 *650:248 1.44215e-06
33 *515:40 *665:83 0.000250183
34 *515:40 *673:90 0.000122858
35 E1BEG[1] *2284:A 2.61233e-05
36 *1903:S0 *2284:A 0.000329624
37 *148:81 *515:40 4.17367e-05
38 *151:57 *515:40 7.28476e-05
39 *159:93 *515:40 2.63501e-05
40 *160:127 *515:40 0.000223468
41 *234:58 *515:40 5.29281e-05
42 *329:30 *2284:A 5.1588e-05
43 *483:46 *515:40 0.000322558
*RES
1 *2061:X *515:40 48.1291 
2 *515:40 *2284:A 27.7375 
*END

*D_NET *516 0.0171775
*CONN
*I *2285:A I *D sky130_fd_sc_hd__buf_2
*I *2062:X O *D sky130_fd_sc_hd__buf_1
*CAP
1 *2285:A 0.000319216
2 *2062:X 0.00243636
3 *516:58 0.00156259
4 *516:32 0.00367973
5 *2285:A *709:DIODE 0.000124909
6 *2285:A *2286:A 9.58181e-05
7 *2285:A *2294:A 3.08382e-06
8 *2285:A *594:38 0.000384397
9 *2285:A *647:222 6.57032e-05
10 *516:32 *1881:A2 0.000118065
11 *516:32 *2321:A 0.000131342
12 *516:32 *2326:A 0.000197723
13 *516:32 *2330:A 0.000200709
14 *516:32 *520:32 2.63501e-05
15 *516:32 *545:72 1.53411e-05
16 *516:32 *551:20 4.54229e-06
17 *516:32 *567:72 0.000197507
18 *516:32 *569:62 0.000122035
19 *516:32 *596:118 1.17968e-05
20 *516:32 *600:138 0.000701865
21 *516:32 *635:92 4.53014e-05
22 *516:32 *637:108 4.58194e-05
23 *516:32 *637:114 2.13481e-06
24 *516:32 *650:248 0.00047202
25 *516:32 *676:40 1.15434e-05
26 *516:32 *677:26 8.50977e-05
27 *516:32 *686:52 0.00015285
28 *516:32 *703:40 9.59079e-05
29 *516:32 *708:84 0.000127108
30 *516:58 *2298:A 4.88034e-05
31 *516:58 *538:66 0.000111349
32 *516:58 *653:219 0.000417977
33 *516:58 *659:161 0.000147757
34 *516:58 *691:16 8.05427e-05
35 *516:58 *691:38 0.000379594
36 *516:58 *704:72 0.000299646
37 E2BEG[4] *516:58 1.90936e-05
38 E2BEGb[4] *516:58 2.06178e-05
39 EE4BEG[13] *516:32 0
40 EE4BEG[4] *516:58 1.98839e-05
41 *2075:A *516:58 0.000137197
42 *2106:A *516:32 0.000122814
43 *2243:A *2285:A 0.000114568
44 *144:71 *516:58 0.000336144
45 *144:121 *516:32 4.28365e-05
46 *148:57 *2285:A 7.19706e-05
47 *148:81 *516:32 0.000150084
48 *149:87 *516:58 0.000474779
49 *151:27 *516:58 0.0008812
50 *151:57 *516:58 0.000443739
51 *160:79 *516:32 0.000261712
52 *234:58 *516:32 0
53 *234:86 *516:58 0.000503001
54 *409:34 *516:32 0.000556816
55 *481:84 *516:58 9.85498e-05
56 *515:40 *516:32 0
*RES
1 *2062:X *516:32 45.5262 
2 *516:32 *516:58 49.375 
3 *516:58 *2285:A 16.8357 
*END

*D_NET *517 0.0129555
*CONN
*I *2286:A I *D sky130_fd_sc_hd__buf_2
*I *2063:X O *D sky130_fd_sc_hd__clkbuf_1
*CAP
1 *2286:A 2.51619e-05
2 *2063:X 0.00138247
3 *517:60 0.00130148
4 *517:28 0.00265879
5 *517:28 *1885:A2 0.000120211
6 *517:28 *2299:A 8.93839e-05
7 *517:28 *535:86 0.000658152
8 *517:28 *538:32 0.000297777
9 *517:28 *550:30 1.53472e-05
10 *517:28 *593:74 0
11 *517:28 *596:118 9.46333e-05
12 *517:28 *642:106 0.000140527
13 *517:28 *660:115 0.000136966
14 *517:28 *675:174 0.000922345
15 *517:28 *676:40 4.73162e-05
16 *517:28 *692:64 1.88482e-05
17 *517:28 *708:84 0
18 *517:60 *1887:A0 6.72197e-05
19 *517:60 *2288:A 0.000155059
20 *517:60 *2292:A 0.000472266
21 *517:60 *2294:A 0.00015307
22 *517:60 *528:44 8.44271e-06
23 *517:60 *538:32 0.000203077
24 *517:60 *555:38 0
25 *517:60 *650:168 0.000115935
26 *517:60 *665:50 1.11756e-05
27 *517:60 *671:111 0.000115214
28 *517:60 *676:48 0.000135324
29 *517:60 *676:85 6.41712e-05
30 *517:60 *685:49 4.26921e-05
31 *517:60 *686:14 1.91414e-05
32 *517:60 *690:61 0.000342138
33 *517:60 *696:16 0.000105866
34 *517:60 *702:14 0.000279104
35 *517:60 *707:67 0.000151898
36 *1877:A3 *517:28 4.51691e-05
37 *1879:A1 *517:60 3.16115e-05
38 *1881:S0 *517:28 1.07719e-05
39 *1887:S0 *517:60 9.25014e-06
40 *1903:S0 *517:60 2.28677e-05
41 *1907:A1 *517:28 0.000120865
42 *1915:A1 *517:28 6.82123e-05
43 *2063:A *517:28 6.97625e-05
44 *2091:A *517:60 7.50697e-05
45 *2107:A *517:60 0.000174324
46 *2243:A *2286:A 9.58181e-05
47 *2284:A *517:60 0.00019902
48 *2285:A *2286:A 9.58181e-05
49 *144:91 *517:28 0.000644646
50 *144:121 *517:28 2.34009e-05
51 *148:37 *517:60 1.10443e-05
52 *159:77 *517:28 1.0946e-05
53 *234:58 *517:28 0.000734845
54 *235:113 *517:28 1.92571e-05
55 *479:106 *517:28 0.000101321
56 *483:46 *517:28 6.90381e-06
57 *484:50 *517:28 3.33405e-05
*RES
1 *2063:X *517:28 48.8563 
2 *517:28 *517:60 49.4939 
3 *517:60 *2286:A 14.7464 
*END

*D_NET *518 0.00247488
*CONN
*I *2287:A I *D sky130_fd_sc_hd__buf_2
*I *2064:X O *D sky130_fd_sc_hd__clkbuf_1
*CAP
1 *2287:A 0.000479656
2 *2064:X 0.000479656
3 *2287:A *1905:A2 3.80445e-05
4 *2287:A *637:63 0.000161197
5 *2287:A *647:185 1.17091e-05
6 *2287:A *689:24 5.52302e-05
7 *2287:A *702:14 0.000589352
8 *2287:A *704:44 2.76105e-05
9 E1BEG[1] *2287:A 5.33005e-05
10 *1905:S1 *2287:A 0.000160912
11 *2077:A *2287:A 0.00031001
12 *2253:A *2287:A 4.10796e-05
13 *2260:A *2287:A 5.68722e-05
14 *2284:A *2287:A 1.02504e-05
*RES
1 *2064:X *2287:A 40.6536 
*END

*D_NET *519 0.0332657
*CONN
*I *2288:A I *D sky130_fd_sc_hd__buf_2
*I *709:DIODE I *D sky130_fd_sc_hd__diode_2
*I *2065:X O *D sky130_fd_sc_hd__buf_1
*CAP
1 *2288:A 0.00035619
2 *709:DIODE 0.0004488
3 *2065:X 0.00145577
4 *519:46 0.00390113
5 *519:24 0.00411706
6 *519:14 0.0024767
7 *709:DIODE *2294:A 0.000234661
8 *709:DIODE *661:132 6.39829e-05
9 *2288:A *524:142 1.41084e-05
10 *2288:A *701:28 8.98798e-06
11 *2288:A *702:14 8.6836e-05
12 *2288:A *707:67 9.58181e-05
13 *519:14 *1890:A0 9.58181e-05
14 *519:14 *669:45 2.14771e-05
15 *519:14 *679:72 0.000142121
16 *519:14 *679:85 0.000189659
17 *519:24 *1890:A0 0.000777482
18 *519:24 *1893:A3 8.92415e-06
19 *519:24 *566:24 0.000171213
20 *519:24 *595:36 9.41642e-05
21 *519:24 *615:10 1.88482e-05
22 *519:24 *689:114 0.000297753
23 *519:46 *2015:D 5.52634e-05
24 *519:46 *2058:D 2.11419e-05
25 *519:46 *2304:A 4.23264e-06
26 *519:46 *2319:A 1.34093e-05
27 *519:46 *2326:A 0.00166551
28 *519:46 *522:58 0.000869706
29 *519:46 *553:20 0.00116645
30 *519:46 *569:28 8.47152e-05
31 *519:46 *579:52 3.634e-05
32 *519:46 *593:102 0.000501601
33 *519:46 *613:40 0.000220093
34 *519:46 *618:96 2.20394e-05
35 *519:46 *630:66 0.0013843
36 *519:46 *631:106 0.000109439
37 *519:46 *632:152 0.000164977
38 *519:46 *634:130 0.000705968
39 *519:46 *636:54 0.00188637
40 *519:46 *636:159 9.05929e-05
41 *519:46 *662:196 5.20247e-05
42 *519:46 *688:30 0.000167762
43 *519:46 *689:108 0.000187964
44 *711:DIODE *519:14 0.000432467
45 *724:DIODE *519:14 0.000816512
46 *743:DIODE *519:14 9.98998e-06
47 *1809:S1 *519:14 2.26812e-05
48 *1974:D *519:14 5.6197e-05
49 *2058:CLK *519:46 0.000619026
50 *2243:A *709:DIODE 3.21403e-05
51 *2284:A *2288:A 8.51213e-05
52 *2285:A *709:DIODE 0.000124909
53 *142:53 *2288:A 0.000357544
54 *142:53 *519:46 0.000856236
55 *143:111 *519:14 0.00107383
56 *143:111 *519:24 0.00203223
57 *145:63 *519:46 0.000266313
58 *147:51 *709:DIODE 6.39829e-05
59 *149:63 *2288:A 0.000178425
60 *479:106 *519:46 0.000217093
61 *483:46 *519:46 0.00031864
62 *491:96 *519:14 1.98839e-05
63 *491:102 *519:14 0.000135028
64 *513:37 *519:24 0.000905012
65 *517:60 *2288:A 0.000155059
*RES
1 *2065:X *519:14 46.3714 
2 *519:14 *519:24 44.2679 
3 *519:24 *519:46 43.6934 
4 *519:46 *709:DIODE 24.2546 
5 *519:46 *2288:A 20.7889 
*END

*D_NET *520 0.0181854
*CONN
*I *2289:A I *D sky130_fd_sc_hd__buf_2
*I *2066:X O *D sky130_fd_sc_hd__buf_1
*CAP
1 *2289:A 0.000805088
2 *2066:X 0.00173355
3 *520:58 0.00189553
4 *520:32 0.00282398
5 *2289:A *555:38 0.000191631
6 *2289:A *563:30 0.00090527
7 *2289:A *659:161 9.28047e-05
8 *2289:A *661:132 0.000377311
9 *2289:A *661:177 6.7848e-05
10 *2289:A *665:50 6.05161e-06
11 *2289:A *676:48 0.000803115
12 *2289:A *686:14 0.000435718
13 *2289:A *702:30 2.20319e-05
14 *520:32 *1998:GATE 0.000125355
15 *520:32 *2015:D 2.63501e-05
16 *520:32 *2342:A 0.000892015
17 *520:32 *540:22 8.78763e-05
18 *520:32 *558:52 9.09194e-05
19 *520:32 *566:24 4.85033e-05
20 *520:32 *567:72 9.67356e-06
21 *520:32 *579:52 0.000113877
22 *520:32 *586:110 4.06203e-05
23 *520:32 *600:138 8.28381e-05
24 *520:32 *632:152 0.000244203
25 *520:32 *634:130 2.63501e-05
26 *520:32 *634:176 0.00074994
27 *520:32 *635:92 0.000276837
28 *520:32 *662:196 4.21653e-05
29 *520:32 *689:108 0.000839057
30 *520:32 *701:54 0.000573802
31 *520:58 *1826:A2 0.000260152
32 *520:58 *1946:GATE 1.58163e-05
33 *520:58 *2319:A 0.000339346
34 *520:58 *528:44 0.00089912
35 *520:58 *535:86 1.34548e-05
36 *520:58 *538:32 0.000266608
37 *520:58 *558:52 1.54928e-05
38 *520:58 *642:106 0.000190945
39 *520:58 *686:52 0.000128824
40 *520:58 *688:30 0.000111243
41 *520:58 *692:64 2.35889e-05
42 *520:58 *708:56 8.80543e-05
43 *2107:A *2289:A 5.33005e-05
44 *144:121 *520:58 4.11173e-05
45 *148:81 *520:58 0
46 *159:77 *520:58 1.3409e-05
47 *159:93 *520:58 0.000562148
48 *234:58 *520:58 0.000309123
49 *236:22 *520:32 0.000247462
50 *409:34 *520:58 4.28249e-05
51 *515:40 *520:58 0.000106727
52 *516:32 *520:32 2.63501e-05
*RES
1 *2066:X *520:32 49.9538 
2 *520:32 *520:58 46.673 
3 *520:58 *2289:A 40.2403 
*END

*D_NET *521 0.00693305
*CONN
*I *2290:A I *D sky130_fd_sc_hd__buf_2
*I *2067:X O *D sky130_fd_sc_hd__clkbuf_1
*CAP
1 *2290:A 6.50775e-05
2 *2067:X 0.00129841
3 *521:12 0.00136349
4 *521:12 *2298:A 7.10285e-05
5 *521:12 *2300:A 0.000210396
6 *521:12 *545:72 6.52961e-05
7 *521:12 *560:66 0.000474432
8 *521:12 *647:222 5.41797e-06
9 *521:12 *653:170 0.000142974
10 *521:12 *660:99 0.000175892
11 *521:12 *691:16 0.000111162
12 E2BEG[1] *2290:A 4.32682e-05
13 E2BEG[5] *521:12 2.22043e-05
14 E2BEGb[0] *521:12 0.000154557
15 E2BEGb[1] *521:12 2.06178e-05
16 E2BEGb[2] *521:12 0.000106863
17 EE4BEG[6] *521:12 6.83482e-05
18 *1877:A3 *521:12 9.48994e-05
19 *2092:A *521:12 0.000305715
20 *2107:A *521:12 0.000152415
21 *72:40 *521:12 1.70656e-05
22 *148:57 *2290:A 0.000136682
23 *149:63 *2290:A 0.000179855
24 *234:86 *521:12 0.000119706
25 *236:40 *521:12 1.90936e-05
26 *481:50 *521:12 0.000282015
27 *481:84 *521:12 0.00112706
28 *483:78 *521:12 9.91075e-05
*RES
1 *2067:X *521:12 48.425 
2 *521:12 *2290:A 11.4786 
*END

*D_NET *522 0.0256252
*CONN
*I *2291:A I *D sky130_fd_sc_hd__buf_2
*I *2068:X O *D sky130_fd_sc_hd__buf_1
*CAP
1 *2291:A 0.000242119
2 *2068:X 0.0049197
3 *522:58 0.00516182
4 *2291:A *645:62 4.00349e-05
5 *2291:A *659:161 0.000137561
6 *2291:A *665:83 0.000215961
7 *2291:A *698:121 1.61405e-05
8 *522:58 *1915:A3 0.000148954
9 *522:58 *2013:GATE 5.49489e-05
10 *522:58 *2304:A 0.000246133
11 *522:58 *2326:A 0.000154982
12 *522:58 *529:40 0.000136463
13 *522:58 *538:66 0.000167762
14 *522:58 *565:22 8.22744e-05
15 *522:58 *568:188 1.45812e-05
16 *522:58 *569:62 0.00122563
17 *522:58 *613:40 0.000752463
18 *522:58 *618:96 3.93531e-05
19 *522:58 *630:66 1.47871e-05
20 *522:58 *631:65 0.00192801
21 *522:58 *631:106 0.000265117
22 *522:58 *632:107 0.000717738
23 *522:58 *632:152 0.00137187
24 *522:58 *636:159 0.000381576
25 *522:58 *642:106 0.000246715
26 *522:58 *643:164 8.43263e-05
27 *522:58 *653:170 0.000617405
28 *522:58 *673:48 0.000334724
29 *522:58 *698:68 2.63501e-05
30 *522:58 *703:40 0.000353089
31 *522:58 *703:60 0.00122655
32 *522:58 *707:93 4.01808e-05
33 E2BEG[2] *2291:A 1.98839e-05
34 *1877:A3 *522:58 0.000299638
35 *2068:A *522:58 5.65955e-05
36 *2107:A *2291:A 2.7025e-05
37 *143:103 *522:58 4.32534e-05
38 *147:75 *2291:A 9.58181e-05
39 *148:97 *522:58 0.000140879
40 *160:127 *522:58 0.00033205
41 *479:106 *522:58 0.000450938
42 *481:50 *2291:A 4.8817e-05
43 *514:94 *522:58 0.0018753
44 *519:46 *522:58 0.000869706
*RES
1 *2068:X *522:58 48.5273 
2 *522:58 *2291:A 22.9288 
*END

*D_NET *523 0.00659298
*CONN
*I *2292:A I *D sky130_fd_sc_hd__buf_2
*I *2069:X O *D sky130_fd_sc_hd__clkbuf_1
*CAP
1 *2292:A 0.000458407
2 *2069:X 0.000694893
3 *523:24 0.0011533
4 *2292:A *2294:A 2.21972e-05
5 *2292:A *676:48 1.24368e-05
6 *2292:A *686:14 0.000734851
7 *2292:A *707:67 7.21474e-05
8 *523:24 *1905:A0 0.000425625
9 *523:24 *637:46 0.000221822
10 *523:24 *637:63 8.17274e-05
11 *523:24 *685:22 0.000376941
12 *523:24 *685:30 0.000107157
13 *523:24 *686:14 0.000155116
14 *523:24 *689:24 5.52238e-05
15 *523:24 *690:61 6.75637e-05
16 *523:24 *705:10 5.68713e-05
17 *523:24 *707:28 0.000177545
18 *1887:S0 *2292:A 1.58163e-05
19 *1903:S1 *2292:A 4.19535e-05
20 *1913:S1 *523:24 0.000123137
21 *2079:A *2292:A 6.13706e-05
22 *2079:A *523:24 0.000107157
23 *147:51 *523:24 0.000568601
24 *148:37 *523:24 1.496e-05
25 *236:116 *2292:A 8.55871e-05
26 *485:18 *523:24 0.000228309
27 *517:60 *2292:A 0.000472266
*RES
1 *2069:X *523:24 48.3201 
2 *523:24 *2292:A 25.9875 
*END

*D_NET *524 0.0556692
*CONN
*I *2010:D I *D sky130_fd_sc_hd__dlxtp_1
*I *2126:A I *D sky130_fd_sc_hd__clkbuf_1
*I *736:DIODE I *D sky130_fd_sc_hd__diode_2
*I *2042:D I *D sky130_fd_sc_hd__dlxtp_1
*I *1946:D I *D sky130_fd_sc_hd__dlxtp_1
*I *1978:D I *D sky130_fd_sc_hd__dlxtp_1
*I *2191:X O *D sky130_fd_sc_hd__clkbuf_2
*CAP
1 *2010:D 0.000116017
2 *2126:A 0.000358743
3 *736:DIODE 0.000159669
4 *2042:D 0
5 *1946:D 0.000671552
6 *1978:D 0
7 *2191:X 0.00140817
8 *524:180 0.00207449
9 *524:142 0.00563439
10 *524:67 0.0071057
11 *524:43 0.00246773
12 *524:18 0.00151856
13 *524:14 0.00301816
14 *1946:D *1946:GATE 3.69047e-06
15 *1946:D *2319:A 0.000258881
16 *1946:D *2328:A 0.000403306
17 *1946:D *528:44 0.000433353
18 *1946:D *548:22 9.58126e-05
19 *1946:D *659:209 8.65267e-05
20 *2010:D *2010:GATE 0.000216755
21 *2126:A *2127:A 0.000105673
22 *2126:A *577:20 1.24368e-05
23 *524:14 *1964:GATE 0.000660626
24 *524:14 *2020:D 2.34687e-06
25 *524:14 *579:24 2.11419e-05
26 *524:14 *591:34 0.000380839
27 *524:14 *672:18 0.000716334
28 *524:14 *689:114 0.000620405
29 *524:14 *698:175 0.000109422
30 *524:18 *542:20 2.06112e-05
31 *524:18 *659:227 1.90936e-05
32 *524:43 *2340:A 0.000139208
33 *524:43 *559:34 1.73088e-05
34 *524:43 *564:36 7.37335e-05
35 *524:43 *574:14 0.000278706
36 *524:43 *653:249 0
37 *524:43 *697:62 8.55871e-05
38 *524:43 *704:90 0.000404909
39 *524:67 *2329:A 0.00021182
40 *524:67 *559:58 0.000881376
41 *524:67 *594:88 0.000368219
42 *524:67 *704:72 6.80378e-05
43 *524:67 *704:90 0.000504424
44 *524:142 *2042:GATE 0.000121418
45 *524:142 *2294:A 0.000115121
46 *524:142 *528:30 6.67383e-05
47 *524:142 *535:157 0.000164115
48 *524:142 *563:30 0.000125391
49 *524:142 *579:52 0.00112197
50 *524:142 *579:54 0.00233453
51 *524:142 *594:38 8.72578e-05
52 *524:142 *600:72 5.45632e-05
53 *524:142 *634:54 2.63501e-05
54 *524:142 *634:78 1.45709e-05
55 *524:142 *636:54 9.36247e-05
56 *524:142 *644:34 0.000115606
57 *524:142 *646:24 2.98245e-05
58 *524:142 *651:28 0.000206526
59 *524:142 *651:209 0.00199012
60 *524:142 *660:16 0.000247167
61 *524:142 *685:30 3.59701e-05
62 *524:142 *696:16 0.000546927
63 *524:142 *696:26 0.000175315
64 *524:142 *701:28 0.000452852
65 *524:142 *704:72 0.000207175
66 *524:180 *541:40 0
67 *524:180 *542:20 0.000378916
68 *524:180 *551:20 9.22174e-05
69 *524:180 *592:26 0.000127856
70 *524:180 *594:102 0.000618292
71 *524:180 *618:116 0.000240389
72 *524:180 *653:275 3.08793e-05
73 *524:180 *659:227 0.000328218
74 *524:180 *691:88 8.80543e-05
75 *524:180 *701:58 0.000109657
76 *524:180 *701:81 5.11642e-05
77 *524:180 *704:110 0.000596506
78 E1BEG[2] *524:142 0.000695585
79 E1BEG[3] *524:142 0.000301262
80 E6BEG[10] *524:43 0
81 EE4BEG[11] *1946:D 0.000126542
82 EE4BEG[14] *524:142 0.000171767
83 EE4BEG[15] *524:142 0.000171767
84 EE4BEG[7] *1946:D 0.000212308
85 FrameData_O[16] *524:43 0.000346047
86 FrameData_O[18] *524:43 0.000137833
87 *710:DIODE *524:180 0.000772814
88 *1885:S0 *524:14 0.000258094
89 *1900:S1 *524:14 1.02125e-05
90 *2073:A *2126:A 0.000146992
91 *2079:A *524:142 0.000347768
92 *2288:A *524:142 1.41084e-05
93 *142:117 *524:14 9.72119e-05
94 *143:29 *524:142 0.000119924
95 *144:27 *524:142 0.000107157
96 *146:33 *524:142 0.000427184
97 *146:77 *1946:D 6.09762e-05
98 *146:77 *524:67 6.09762e-05
99 *146:99 *2126:A 0.000379694
100 *146:99 *524:14 0.000170034
101 *146:99 *524:180 0.00103604
102 *147:101 *524:43 0.000722112
103 *149:27 *524:142 0.000114652
104 *149:101 *524:43 0.00072376
105 *150:41 *524:142 0.00289446
106 *151:57 *1946:D 6.50032e-05
107 *151:57 *524:67 5.50944e-05
108 *151:77 *2126:A 1.40849e-05
109 *153:21 *524:142 7.6371e-05
110 *160:113 *1946:D 4.5115e-05
111 *233:80 *524:14 0.000285895
112 *233:122 *2126:A 8.94191e-05
113 *233:122 *524:180 4.26759e-05
114 *235:64 *524:180 3.14008e-05
115 *236:91 *524:142 0.00051046
116 *247:10 *736:DIODE 0.000112297
117 *247:10 *524:142 3.69047e-06
118 *248:16 *736:DIODE 0.00015907
119 *479:159 *524:43 3.69047e-06
120 *479:161 *524:180 0.000240719
121 *483:90 *524:180 0.00013415
122 *512:14 *524:14 2.26973e-05
123 *514:24 *524:43 0.000421074
*RES
1 *2191:X *524:14 24.8354 
2 *524:14 *524:18 4.77679 
3 *524:18 *1978:D 9.3 
4 *524:18 *524:43 47.9821 
5 *524:43 *524:67 32.4018 
6 *524:67 *1946:D 30.6482 
7 *524:67 *524:142 49.373 
8 *524:142 *2042:D 9.3 
9 *524:142 *736:DIODE 13.1214 
10 *524:14 *524:180 38.5353 
11 *524:180 *2126:A 22.7643 
12 *524:180 *2010:D 15.9786 
*END

*D_NET *525 0.0117219
*CONN
*I *2293:A I *D sky130_fd_sc_hd__buf_2
*I *2070:X O *D sky130_fd_sc_hd__clkbuf_1
*CAP
1 *2293:A 0.000425627
2 *2070:X 0.00114353
3 *525:40 0.00212627
4 *525:20 0.00284417
5 *2293:A *2300:A 0.000319417
6 *2293:A *532:20 1.44868e-05
7 *2293:A *659:161 9.58181e-05
8 *2293:A *698:121 5.87829e-05
9 *525:20 *644:34 0.000121423
10 *525:20 *676:99 0.000153054
11 *525:40 *527:10 3.47646e-05
12 *525:40 *532:20 0.000686066
13 *525:40 *647:185 0.000437564
14 *525:40 *686:14 9.66977e-05
15 *525:40 *695:16 5.97326e-05
16 *525:40 *698:121 0.000108854
17 *525:40 *698:129 3.69047e-06
18 *525:40 *699:66 4.02565e-05
19 E1BEG[1] *525:40 0.000130803
20 E2BEG[0] *2293:A 0.00035633
21 E2BEG[2] *2293:A 1.88615e-05
22 E2BEG[3] *2293:A 6.28948e-05
23 *2240:A *525:40 0.000224321
24 *2243:A *2293:A 0.000296145
25 *2251:A *525:40 0.000112063
26 *2258:A *525:40 5.48376e-05
27 *2259:A *525:40 0.000154007
28 *143:29 *525:20 0.000139736
29 *147:51 *525:20 0.000151333
30 *147:75 *2293:A 9.83442e-05
31 *148:37 *525:40 0.000695904
32 *148:57 *2293:A 0.000116395
33 *481:18 *525:40 4.90422e-05
34 *486:18 *525:20 0.000290693
*RES
1 *2070:X *525:20 43.8714 
2 *525:20 *525:40 45.3214 
3 *525:40 *2293:A 24.5143 
*END

*D_NET *526 0.00371286
*CONN
*I *2294:A I *D sky130_fd_sc_hd__buf_2
*I *2071:X O *D sky130_fd_sc_hd__clkbuf_1
*CAP
1 *2294:A 0.000800137
2 *2071:X 0.000800137
3 *2294:A *645:62 3.48546e-05
4 *2294:A *650:168 7.65336e-05
5 *2294:A *650:216 0.000509282
6 *2294:A *688:30 0.000135028
7 *2294:A *696:16 0.000149832
8 *2294:A *698:121 0
9 *2294:A *707:67 2.06112e-05
10 *709:DIODE *2294:A 0.000234661
11 *2071:A *2294:A 0.000260152
12 *2243:A *2294:A 3.88748e-05
13 *2285:A *2294:A 3.08382e-06
14 *2292:A *2294:A 2.21972e-05
15 *142:53 *2294:A 5.05762e-05
16 *147:75 *2294:A 0.000188478
17 *148:57 *2294:A 4.38058e-05
18 *236:116 *2294:A 7.64269e-05
19 *517:60 *2294:A 0.00015307
20 *524:142 *2294:A 0.000115121
*RES
1 *2071:X *2294:A 47.9727 
*END

*D_NET *527 0.00925793
*CONN
*I *2295:A I *D sky130_fd_sc_hd__buf_2
*I *2072:X O *D sky130_fd_sc_hd__clkbuf_1
*CAP
1 *2295:A 0.000904654
2 *2072:X 0.000815307
3 *527:10 0.00171996
4 *2295:A *560:44 0.000530594
5 *2295:A *637:67 1.41225e-05
6 *2295:A *645:16 0.00174702
7 *2295:A *659:161 0.000139031
8 *527:10 *1910:A3 2.47753e-05
9 *527:10 *1941:GATE 5.33005e-05
10 *527:10 *2037:D 5.33005e-05
11 *527:10 *698:129 5.33005e-05
12 E2BEG[1] *2295:A 4.34472e-05
13 E2BEG[6] *2295:A 0.00030355
14 E2BEGb[0] *2295:A 0.000180079
15 *1810:S1 *527:10 0.000220937
16 *146:77 *2295:A 3.18155e-05
17 *148:37 *527:10 0.000343494
18 *148:81 *2295:A 0.000385484
19 *151:27 *2295:A 0.001659
20 *525:40 *527:10 3.47646e-05
*RES
1 *2072:X *527:10 28.3179 
2 *527:10 *2295:A 47.4071 
*END

*D_NET *528 0.025286
*CONN
*I *2296:A I *D sky130_fd_sc_hd__buf_2
*I *2073:X O *D sky130_fd_sc_hd__buf_1
*CAP
1 *2296:A 0
2 *2073:X 0.0052134
3 *528:44 0.00142875
4 *528:30 0.00664215
5 *528:30 *545:72 0.000363147
6 *528:30 *548:22 9.14714e-06
7 *528:30 *564:12 0.000509956
8 *528:30 *577:20 5.33005e-05
9 *528:30 *600:138 2.63501e-05
10 *528:30 *686:52 0.000153346
11 *528:30 *696:26 0.00244317
12 *528:44 *1822:A1 0.000459808
13 *528:44 *2328:A 0.000782415
14 *528:44 *533:52 0.000125731
15 *528:44 *538:32 0.000408111
16 *528:44 *550:30 0.000508341
17 *528:44 *569:62 0.000170336
18 *528:44 *661:177 5.49489e-05
19 *528:44 *667:87 7.14469e-05
20 *528:44 *667:138 8.6229e-06
21 *528:44 *671:87 8.91726e-05
22 *528:44 *671:111 7.05143e-06
23 *528:44 *686:14 3.10008e-05
24 E6BEG[0] *528:30 0.000417973
25 EE4BEG[11] *528:30 1.89507e-06
26 EE4BEG[12] *528:30 0
27 EE4BEG[13] *528:30 6.44241e-05
28 EE4BEG[14] *528:30 3.42505e-05
29 EE4BEG[15] *528:30 0.000742257
30 *711:DIODE *528:30 0.000113123
31 *1946:D *528:44 0.000433353
32 *146:99 *528:30 0.00267312
33 *151:77 *528:30 0.000115206
34 *159:93 *528:44 5.96233e-05
35 *479:106 *528:44 1.30241e-05
36 *479:130 *528:44 6.13706e-05
37 *514:94 *528:30 2.23359e-05
38 *517:60 *528:44 8.44271e-06
39 *520:58 *528:44 0.00089912
40 *524:142 *528:30 6.67383e-05
*RES
1 *2073:X *528:30 49.7654 
2 *528:30 *528:44 47.6429 
3 *528:44 *2296:A 9.3 
*END

*D_NET *529 0.016622
*CONN
*I *2297:A I *D sky130_fd_sc_hd__buf_2
*I *2074:X O *D sky130_fd_sc_hd__buf_1
*CAP
1 *2297:A 6.79849e-05
2 *2074:X 0.00375274
3 *529:40 0.00382072
4 *2297:A *702:30 0.00023411
5 *2297:A *707:93 0.00023411
6 *529:40 *1884:A3 0.000105191
7 *529:40 *2302:A 5.81363e-05
8 *529:40 *2326:A 0.0001793
9 *529:40 *535:157 4.88232e-05
10 *529:40 *555:38 6.39803e-05
11 *529:40 *558:52 8.85782e-05
12 *529:40 *632:107 0.000974357
13 *529:40 *634:54 5.99199e-06
14 *529:40 *634:130 8.76591e-06
15 *529:40 *635:42 2.63501e-05
16 *529:40 *642:106 0.000453261
17 *529:40 *643:164 0.000145309
18 *529:40 *661:207 0.00029542
19 *529:40 *665:38 0.000615257
20 *529:40 *667:74 3.8372e-05
21 *529:40 *671:30 0.00210941
22 *529:40 *672:52 4.80501e-05
23 *529:40 *686:52 0.000458349
24 *529:40 *687:92 0.000240657
25 *529:40 *689:108 1.47871e-05
26 *529:40 *693:68 0.000314296
27 *529:40 *698:44 0.000678642
28 *529:40 *698:68 2.27941e-05
29 *529:40 *703:60 0.000143389
30 *529:40 *707:93 4.65519e-05
31 EE4BEG[4] *529:40 4.12177e-05
32 *1808:S0 *529:40 0.000147469
33 *1884:A0 *529:40 9.10493e-05
34 *143:103 *529:40 1.61322e-05
35 *143:111 *529:40 0.000158454
36 *160:79 *529:40 0.000421423
37 *483:46 *529:40 2.08447e-05
38 *483:78 *529:40 0.000167109
39 *513:82 *529:40 0.000128196
40 *522:58 *529:40 0.000136463
*RES
1 *2074:X *529:40 47.3593 
2 *529:40 *2297:A 16.8089 
*END

*D_NET *530 0.00313144
*CONN
*I *2298:A I *D sky130_fd_sc_hd__buf_2
*I *2075:X O *D sky130_fd_sc_hd__clkbuf_1
*CAP
1 *2298:A 0.000603794
2 *2075:X 0.000603794
3 *2298:A *1822:A1 0.000116582
4 *2298:A *2300:A 4.47614e-05
5 *2298:A *560:66 0.000278311
6 *2298:A *653:170 0.000142974
7 E2BEGb[1] *2298:A 7.19623e-05
8 E2BEGb[3] *2298:A 6.24939e-05
9 E2BEGb[5] *2298:A 8.81622e-05
10 E2BEGb[6] *2298:A 1.5929e-05
11 E2BEGb[7] *2298:A 6.24939e-05
12 EE4BEG[2] *2298:A 0.000109271
13 *2092:A *2298:A 0.000305715
14 *144:71 *2298:A 5.1696e-05
15 *234:86 *2298:A 0.000313086
16 *481:84 *2298:A 0.000140579
17 *516:58 *2298:A 4.88034e-05
18 *521:12 *2298:A 7.10285e-05
*RES
1 *2075:X *2298:A 43.6893 
*END

*D_NET *531 0.0212692
*CONN
*I *2299:A I *D sky130_fd_sc_hd__buf_2
*I *2076:X O *D sky130_fd_sc_hd__buf_1
*CAP
1 *2299:A 0.00147099
2 *2076:X 0.00224538
3 *531:62 0.00222724
4 *531:34 0.00300163
5 *2299:A *1822:A1 3.69047e-06
6 *2299:A *1907:A0 0.000204893
7 *2299:A *1915:A3 0.000200002
8 *2299:A *2315:A 8.80625e-05
9 *2299:A *2328:A 0.000144696
10 *2299:A *533:52 2.09897e-05
11 *2299:A *538:32 0.00016892
12 *2299:A *545:38 0.000364963
13 *2299:A *550:30 0.000117962
14 *2299:A *562:30 0.000119514
15 *2299:A *563:30 0.000144008
16 *2299:A *583:72 0.000193234
17 *2299:A *642:106 1.65205e-05
18 *2299:A *650:248 0.000113863
19 *2299:A *651:209 6.33204e-05
20 *2299:A *675:174 1.80275e-05
21 *2299:A *676:40 2.33025e-05
22 *2299:A *676:48 0.000678664
23 *2299:A *686:14 2.09897e-05
24 *2299:A *702:30 1.16418e-05
25 *2299:A *702:41 4.02996e-05
26 *531:34 *1885:A2 9.95524e-05
27 *531:34 *2310:A 0.000142252
28 *531:34 *548:22 4.22135e-06
29 *531:34 *573:28 8.52738e-05
30 *531:34 *594:88 2.63501e-05
31 *531:34 *618:116 0.00113132
32 *531:34 *645:78 2.06178e-05
33 *531:34 *669:53 2.22043e-05
34 *531:34 *673:90 2.66789e-06
35 *531:34 *688:30 0.000960715
36 *531:62 *1811:A0 3.19941e-05
37 *531:62 *1811:A1 0.000114912
38 *531:62 *1881:A2 9.67203e-05
39 *531:62 *2303:A 6.39334e-05
40 *531:62 *2312:A 3.14849e-05
41 *531:62 *2320:A 3.54497e-05
42 *531:62 *2330:A 0.000177545
43 *531:62 *539:40 0.000401585
44 *531:62 *548:22 0.00018359
45 *531:62 *569:82 0.00010105
46 *531:62 *583:86 0.000135028
47 E6BEG[0] *531:62 0.000140719
48 E6BEG[11] *531:34 9.94409e-05
49 E6BEG[1] *531:62 0.000225767
50 E6BEG[9] *531:34 2.63501e-05
51 *1813:A2 *531:34 4.37252e-05
52 *1915:S0 *2299:A 0.000462203
53 *2092:A *2299:A 0.00016492
54 *144:145 *531:34 4.29271e-05
55 *148:97 *531:34 0.00244418
56 *149:101 *531:62 0.000483592
57 *151:57 *531:34 9.90269e-05
58 *159:93 *531:34 0.000215275
59 *235:93 *531:34 3.48509e-05
60 *483:46 *2299:A 0.000643115
61 *514:72 *531:34 0.00048242
62 *517:28 *2299:A 8.93839e-05
*RES
1 *2076:X *531:34 44.7569 
2 *531:34 *531:62 44.3304 
3 *531:62 *2299:A 45.0896 
*END

*D_NET *532 0.00825563
*CONN
*I *2300:A I *D sky130_fd_sc_hd__buf_2
*I *2077:X O *D sky130_fd_sc_hd__clkbuf_1
*CAP
1 *2300:A 0.000692915
2 *2077:X 0.00101436
3 *532:20 0.00170728
4 *2300:A *650:216 8.6918e-06
5 *2300:A *691:16 3.54429e-05
6 *2300:A *698:121 0.000368548
7 *532:20 *647:222 0.000231597
8 *532:20 *689:24 2.59355e-05
9 *532:20 *691:16 1.74766e-05
10 *532:20 *695:16 0.000347584
11 *532:20 *695:62 0.000873451
12 *532:20 *704:44 0.000180719
13 E2BEG[0] *532:20 0.000697599
14 E2BEGb[2] *2300:A 2.59355e-05
15 E2BEGb[3] *2300:A 6.09762e-05
16 *2092:A *2300:A 5.33005e-05
17 *2251:A *532:20 1.33846e-05
18 *2293:A *2300:A 0.000319417
19 *2293:A *532:20 1.44868e-05
20 *2298:A *2300:A 4.47614e-05
21 *144:71 *2300:A 0.000195477
22 *481:50 *2300:A 0.000110214
23 *481:84 *2300:A 0.000319615
24 *521:12 *2300:A 0.000210396
25 *525:40 *532:20 0.000686066
*RES
1 *2077:X *532:20 48.2821 
2 *532:20 *2300:A 29.8536 
*END

*D_NET *533 0.0108621
*CONN
*I *2301:A I *D sky130_fd_sc_hd__buf_2
*I *2078:X O *D sky130_fd_sc_hd__buf_1
*CAP
1 *2301:A 0
2 *2078:X 0.00108583
3 *533:52 0.00158076
4 *533:18 0.00266659
5 *533:18 *1911:A0 0.000445146
6 *533:18 *563:30 0.000283814
7 *533:18 *597:14 0.000300703
8 *533:18 *644:34 0.000578177
9 *533:18 *659:116 8.78259e-05
10 *533:18 *664:143 0.000188798
11 *533:18 *667:12 0.000119767
12 *533:18 *667:23 0.000216813
13 *533:18 *667:54 0.000128161
14 *533:18 *692:16 0.000172229
15 *533:52 *1822:A1 5.10006e-05
16 *533:52 *1875:A2 2.16637e-05
17 *533:52 *550:30 0.000182115
18 *533:52 *596:82 4.43485e-05
19 *533:52 *634:54 0.000119376
20 *533:52 *642:106 4.90258e-05
21 *533:52 *659:116 1.20719e-05
22 *533:52 *671:111 5.96516e-05
23 *533:52 *675:174 4.78369e-05
24 *533:52 *686:14 1.43864e-05
25 *533:52 *692:22 4.11218e-05
26 *533:52 *698:68 3.69047e-06
27 *533:52 *698:121 9.08427e-05
28 *1875:A3 *533:52 0.000238827
29 *1879:A2 *533:18 4.22135e-06
30 *1879:A2 *533:52 0.000337565
31 *1879:S1 *533:52 0.00030523
32 *1911:S1 *533:18 0.000142316
33 *2102:A *533:52 5.33005e-05
34 *2299:A *533:52 2.09897e-05
35 *143:29 *533:18 0.000121929
36 *143:59 *533:52 0.000187853
37 *150:41 *533:52 0.000561636
38 *181:44 *533:52 1.27529e-05
39 *236:124 *533:52 7.40571e-05
40 *483:46 *533:52 2.16202e-05
41 *484:50 *533:52 4.28365e-05
42 *514:94 *533:18 1.94879e-05
43 *528:44 *533:52 0.000125731
*RES
1 *2078:X *533:18 48.0232 
2 *533:18 *533:52 45.429 
3 *533:52 *2301:A 9.3 
*END

*D_NET *534 0.00697464
*CONN
*I *2302:A I *D sky130_fd_sc_hd__buf_2
*I *2079:X O *D sky130_fd_sc_hd__clkbuf_1
*CAP
1 *2302:A 0.000596015
2 *2079:X 0.00129445
3 *534:40 0.00189046
4 *2302:A *555:38 0.000163699
5 *2302:A *653:170 2.63501e-05
6 *2302:A *697:46 0.000203562
7 *2302:A *704:44 5.20616e-05
8 *2302:A *707:93 0.000136028
9 *534:40 *555:38 0.000545975
10 *534:40 *650:216 7.8676e-05
11 *534:40 *685:49 3.9103e-05
12 *534:40 *688:30 2.21972e-05
13 *534:40 *692:22 7.35637e-05
14 *534:40 *698:121 0.000128627
15 *534:40 *702:14 0.000351105
16 *534:40 *704:44 8.80945e-05
17 *534:40 *707:67 0.000287617
18 E2BEGb[6] *2302:A 2.59355e-05
19 *2107:A *534:40 0.000116671
20 *2284:A *534:40 6.09762e-05
21 *144:71 *2302:A 1.94945e-05
22 *149:63 *534:40 0.000511236
23 *483:46 *2302:A 1.6127e-05
24 *484:50 *534:40 0.000188478
25 *529:40 *2302:A 5.81363e-05
*RES
1 *2079:X *534:40 49.7541 
2 *534:40 *2302:A 19.2586 
*END

*D_NET *535 0.0512203
*CONN
*I *2043:D I *D sky130_fd_sc_hd__dlxtp_1
*I *1947:D I *D sky130_fd_sc_hd__dlxtp_1
*I *733:DIODE I *D sky130_fd_sc_hd__diode_2
*I *2011:D I *D sky130_fd_sc_hd__dlxtp_1
*I *2127:A I *D sky130_fd_sc_hd__clkbuf_1
*I *1979:D I *D sky130_fd_sc_hd__dlxtp_1
*I *732:DIODE I *D sky130_fd_sc_hd__diode_2
*I *2192:X O *D sky130_fd_sc_hd__clkbuf_2
*CAP
1 *2043:D 6.83452e-05
2 *1947:D 5.33389e-05
3 *733:DIODE 0.000177352
4 *2011:D 9.41007e-05
5 *2127:A 0.000218791
6 *1979:D 5.93028e-05
7 *732:DIODE 0.00275237
8 *2192:X 0.001228
9 *535:157 0.00280804
10 *535:112 0.00181916
11 *535:86 0.00120351
12 *535:52 0.0039676
13 *535:26 0.00351467
14 *535:16 0.00342555
15 *733:DIODE *1910:A0 0.000129178
16 *733:DIODE *597:14 5.85548e-05
17 *733:DIODE *644:16 0.000247146
18 *1947:D *667:74 0.000194846
19 *1947:D *667:87 4.15328e-05
20 *1979:D *1979:GATE 5.33005e-05
21 *1979:D *667:172 0.000178425
22 *2011:D *2011:GATE 1.00375e-05
23 *2043:D *2042:GATE 3.88764e-05
24 *2043:D *650:12 0.000175892
25 *2043:D *683:106 5.33005e-05
26 *2127:A *1894:A0 6.05161e-06
27 *2127:A *1894:A3 3.90661e-05
28 *535:16 *557:32 6.54117e-05
29 *535:16 *573:28 4.38296e-05
30 *535:16 *670:65 6.35819e-05
31 *535:16 *673:6 0.00013833
32 *535:16 *673:48 0.00113189
33 *535:26 *1885:A2 2.63501e-05
34 *535:26 *539:18 5.72247e-05
35 *535:26 *552:28 3.83766e-05
36 *535:26 *586:110 0.000668546
37 *535:26 *601:30 5.10784e-05
38 *535:26 *701:54 0.000664556
39 *535:26 *708:84 3.38517e-05
40 *535:52 *1998:D 0.000792274
41 *535:52 *2304:A 0.000773815
42 *535:52 *2305:A 9.91517e-05
43 *535:52 *2309:A 0.000180098
44 *535:52 *2311:A 1.46148e-05
45 *535:52 *2312:A 5.83386e-05
46 *535:52 *539:18 0.000148196
47 *535:52 *598:28 0.000180079
48 *535:52 *618:116 0.000327064
49 *535:52 *632:152 7.43249e-06
50 *535:52 *659:209 0.000478392
51 *535:52 *659:227 0.000512928
52 *535:52 *667:138 6.14727e-05
53 *535:52 *667:172 5.30167e-05
54 *535:52 *669:75 7.8795e-05
55 *535:52 *673:90 0.000143419
56 *535:52 *691:38 0.000446302
57 *535:52 *691:72 3.21598e-05
58 *535:86 *740:DIODE 0.000111867
59 *535:86 *1811:A0 6.98512e-06
60 *535:86 *1812:A0 0.00034783
61 *535:86 *1881:A0 2.35323e-05
62 *535:86 *660:115 1.08359e-05
63 *535:86 *665:38 6.1624e-05
64 *535:86 *676:40 0.00011529
65 *535:86 *708:56 0.00055379
66 *535:112 *1809:A2 0.000208777
67 *535:112 *1894:A0 5.24592e-05
68 *535:112 *1894:A1 2.32456e-05
69 *535:112 *2011:GATE 1.17746e-05
70 *535:112 *573:28 0.000975124
71 *535:112 *586:110 0.000186594
72 *535:112 *618:132 0.000138519
73 *535:112 *667:172 0.000494628
74 *535:112 *678:49 4.00595e-05
75 *535:112 *696:26 7.88667e-05
76 *535:112 *698:175 1.96771e-05
77 *535:112 *701:54 0.000368461
78 *535:112 *704:110 8.02514e-05
79 *535:157 *1885:A2 3.77014e-05
80 *535:157 *567:72 0.00261615
81 *535:157 *634:54 0.000160219
82 *535:157 *634:78 0.00274956
83 *535:157 *652:16 6.43118e-05
84 *535:157 *667:74 0.000203557
85 *535:157 *675:174 0.000402364
86 E6BEG[2] *535:52 5.53205e-05
87 E6BEG[4] *535:86 0.000343289
88 E6BEG[6] *535:52 0.00010917
89 FrameData_O[7] *535:52 0.000175318
90 *743:DIODE *2011:D 0
91 *743:DIODE *535:112 0
92 *1809:S1 *535:112 0.000125724
93 *1811:S0 *535:52 9.41642e-05
94 *1884:A0 *535:157 8.76591e-06
95 *1885:S0 *535:26 1.71321e-05
96 *1899:S1 *1979:D 4.02038e-05
97 *1900:S1 *535:16 0.000308079
98 *2124:A *535:16 0.000112097
99 *2126:A *2127:A 0.000105673
100 *142:117 *2011:D 5.75557e-05
101 *142:117 *535:16 0.000108874
102 *142:117 *535:112 1.01912e-05
103 *144:39 *535:157 0.000121805
104 *144:121 *535:86 9.60227e-05
105 *144:121 *535:157 9.23883e-05
106 *145:85 *535:112 0.000274624
107 *146:99 *2011:D 0
108 *148:97 *535:16 0.00025461
109 *149:27 *535:157 0.000132862
110 *150:41 *535:157 0.00370274
111 *150:57 *535:157 6.82091e-06
112 *150:87 *535:112 0.000648713
113 *233:62 *535:26 6.57603e-05
114 *233:62 *535:52 0.000542958
115 *234:44 *535:86 0.000182757
116 *235:113 *535:86 0.000200794
117 *236:22 *535:86 4.58194e-05
118 *392:36 *1947:D 2.6269e-05
119 *392:36 *535:157 7.14469e-05
120 *409:34 *535:86 9.76767e-05
121 *409:34 *535:157 0.00127311
122 *479:106 *535:157 2.06178e-05
123 *479:130 *535:86 8.15611e-05
124 *480:153 *535:16 1.8995e-06
125 *483:46 *535:157 0.000460629
126 *514:72 *535:86 0.000131357
127 *517:28 *535:86 0.000658152
128 *520:58 *535:86 1.34548e-05
129 *524:142 *535:157 0.000164115
130 *529:40 *535:157 4.88232e-05
*RES
1 *2192:X *535:16 28.0532 
2 *535:16 *535:26 9.8675 
3 *535:26 *535:52 49.4592 
4 *535:52 *535:86 47.1366 
5 *535:86 *732:DIODE 13.8 
6 *535:26 *1979:D 15.5679 
7 *535:16 *535:112 23.0615 
8 *535:112 *2127:A 17.6393 
9 *535:112 *2011:D 15.7464 
10 *732:DIODE *535:157 46.9004 
11 *535:157 *733:DIODE 17.1125 
12 *732:DIODE *1947:D 20.3679 
13 *733:DIODE *2043:D 20.3679 
*END

*D_NET *536 0.0150796
*CONN
*I *2303:A I *D sky130_fd_sc_hd__buf_2
*I *2080:X O *D sky130_fd_sc_hd__buf_1
*CAP
1 *2303:A 0.00175664
2 *2080:X 0.000458384
3 *536:16 0.00361423
4 *536:8 0.00231598
5 *2303:A *740:DIODE 0.000563219
6 *2303:A *1811:A0 5.16148e-05
7 *2303:A *2320:A 6.24939e-05
8 *2303:A *541:40 7.67387e-05
9 *2303:A *585:60 0.000759931
10 *2303:A *594:88 0.000118237
11 *2303:A *686:52 9.67505e-05
12 *536:16 *2346:A 0.00173083
13 *536:16 *559:34 8.69554e-05
14 *536:16 *564:12 0
15 *536:16 *696:26 0.000165771
16 E6BEG[4] *2303:A 0.000170436
17 FrameData_O[10] *536:16 8.16011e-05
18 FrameData_O[17] *536:16 0.00078645
19 FrameData_O[19] *536:16 4.59804e-05
20 FrameData_O[22] *536:16 0.000274086
21 FrameData_O[4] *536:16 0.000646197
22 FrameData_O[7] *536:16 0.000743337
23 FrameData_O[8] *536:16 0.000320974
24 *2080:A *536:8 5.24347e-05
25 *144:145 *536:16 3.6369e-05
26 *147:101 *536:16 0
27 *514:24 *536:16 0
28 *531:62 *2303:A 6.39334e-05
*RES
1 *2080:X *536:8 20.0857 
2 *536:8 *536:16 49.0835 
3 *536:16 *2303:A 25.5193 
*END

*D_NET *537 0.0239124
*CONN
*I *2304:A I *D sky130_fd_sc_hd__buf_2
*I *2090:X O *D sky130_fd_sc_hd__buf_1
*CAP
1 *2304:A 0.00603559
2 *2090:X 0.000709984
3 *537:32 0.00674557
4 *2304:A *2015:D 0.000399521
5 *2304:A *544:48 6.42662e-06
6 *2304:A *567:94 1.88258e-07
7 *2304:A *582:94 0
8 *2304:A *585:30 0.00112064
9 *2304:A *585:60 0.000213293
10 *2304:A *586:110 8.17613e-06
11 *2304:A *587:148 0.000393538
12 *2304:A *591:94 0.000428414
13 *2304:A *594:88 3.90458e-05
14 *2304:A *613:40 1.47779e-05
15 *2304:A *632:107 5.69851e-06
16 *2304:A *636:159 0.000270422
17 *2304:A *652:175 0.000131496
18 *2304:A *654:82 0.00117506
19 *2304:A *671:30 0.000349217
20 *2304:A *673:90 0.000141914
21 *2304:A *679:49 0.000157201
22 *2304:A *694:44 0.000531367
23 *2304:A *694:76 0.000114637
24 *2304:A *701:54 0.000844697
25 *2304:A *708:84 0.000836228
26 *537:32 *1884:A1 0.000258027
27 *537:32 *582:54 6.58638e-05
28 *537:32 *587:60 0.000273628
29 *537:32 *587:90 0.000253936
30 *537:32 *590:96 0.000109657
31 *537:32 *593:44 1.00541e-05
32 *537:32 *600:86 5.49544e-05
33 *537:32 *613:83 0.0001399
34 *537:32 *624:58 0.00011173
35 *537:32 *654:41 0.000136682
36 *537:32 *658:113 0.000128972
37 *537:32 *675:192 0.000115698
38 *537:32 *680:46 8.31625e-05
39 *537:32 *684:35 8.61726e-05
40 *537:32 *689:108 5.33005e-05
41 FrameData_O[5] *2304:A 4.24642e-05
42 FrameData_O[7] *2304:A 3.03523e-05
43 *235:45 *2304:A 0.000123552
44 *243:20 *537:32 9.45746e-05
45 *514:72 *2304:A 4.24642e-05
46 *519:46 *2304:A 4.23264e-06
47 *522:58 *2304:A 0.000246133
48 *535:52 *2304:A 0.000773815
*RES
1 *2090:X *537:32 45.7668 
2 *537:32 *2304:A 41.1036 
*END

*D_NET *538 0.0152572
*CONN
*I *2305:A I *D sky130_fd_sc_hd__buf_2
*I *2091:X O *D sky130_fd_sc_hd__clkbuf_1
*CAP
1 *2305:A 0.00113359
2 *2091:X 0.000700451
3 *538:66 0.00243662
4 *538:32 0.00200348
5 *2305:A *1881:A2 9.75337e-06
6 *2305:A *2309:A 0.000114869
7 *2305:A *2311:A 0.000220943
8 *2305:A *2312:A 2.2628e-05
9 *2305:A *567:72 0.000172391
10 *2305:A *650:248 0.000435484
11 *2305:A *659:227 7.20217e-06
12 *2305:A *667:138 0.000405967
13 *2305:A *691:38 3.08382e-06
14 *538:32 *1902:A0 6.2589e-06
15 *538:32 *1902:A1 0
16 *538:32 *2321:A 7.44888e-05
17 *538:32 *642:106 0.000127298
18 *538:32 *651:247 0.00034188
19 *538:32 *661:177 5.33005e-05
20 *538:32 *671:111 7.02374e-05
21 *538:32 *675:174 3.06353e-05
22 *538:32 *688:30 0.00012831
23 *538:32 *692:64 0.000195562
24 *538:32 *707:93 0.000546198
25 *538:66 *2312:A 2.06178e-05
26 *538:66 *548:22 2.06178e-05
27 *538:66 *569:62 0.000403481
28 *538:66 *600:162 0
29 *538:66 *659:209 0.000294253
30 *538:66 *686:52 8.92205e-05
31 E6BEG[1] *538:66 3.73396e-05
32 E6BEG[2] *2305:A 6.05161e-06
33 E6BEG[3] *538:66 7.38118e-05
34 EE4BEG[4] *538:66 6.34874e-05
35 *1813:S0 *2305:A 0.000170048
36 *1877:A3 *538:66 0.000170436
37 *1881:S1 *2305:A 8.35932e-05
38 *1902:A3 *538:32 9.88464e-05
39 *1907:S1 *538:32 6.34436e-05
40 *2085:A *2305:A 0.000137313
41 *2299:A *538:32 0.00016892
42 *149:101 *538:66 1.10866e-05
43 *160:79 *538:32 7.55747e-05
44 *160:79 *538:66 1.74618e-05
45 *234:86 *538:66 0.0002122
46 *235:93 *2305:A 0.000202296
47 *235:113 *2305:A 5.30637e-06
48 *236:40 *538:66 0.000102707
49 *481:84 *538:66 4.10883e-05
50 *483:78 *538:66 0.000612029
51 *514:72 *2305:A 5.62561e-05
52 *514:72 *538:66 0.00026096
53 *514:94 *538:66 0.000964278
54 *516:58 *538:66 0.000111349
55 *517:28 *538:32 0.000297777
56 *517:60 *538:32 0.000203077
57 *520:58 *538:32 0.000266608
58 *522:58 *538:66 0.000167762
59 *528:44 *538:32 0.000408111
60 *535:52 *2305:A 9.91517e-05
*RES
1 *2091:X *538:32 47.8788 
2 *538:32 *538:66 46.2178 
3 *538:66 *2305:A 45.8179 
*END

*D_NET *539 0.0109646
*CONN
*I *2306:A I *D sky130_fd_sc_hd__buf_2
*I *2081:X O *D sky130_fd_sc_hd__clkbuf_1
*CAP
1 *2306:A 0
2 *2081:X 0.00122358
3 *539:40 0.00118035
4 *539:18 0.00240393
5 *539:18 *740:DIODE 9.6299e-05
6 *539:18 *1885:A2 6.90819e-05
7 *539:18 *1899:A0 2.84109e-05
8 *539:18 *1899:A1 0.000114553
9 *539:18 *1899:A2 1.59935e-05
10 *539:18 *2361:A 0.000179709
11 *539:18 *552:28 0.000515284
12 *539:18 *645:78 0.000141353
13 *539:18 *673:90 9.25014e-06
14 *539:18 *708:84 0.000362361
15 *539:18 *708:99 0.000108924
16 *539:40 *1811:A0 3.81239e-05
17 *539:40 *1811:A1 2.79421e-05
18 *539:40 *1899:A1 9.82592e-05
19 *539:40 *2312:A 7.40571e-05
20 *539:40 *2318:A 0.000183015
21 *539:40 *2320:A 0.000259455
22 *539:40 *548:22 0.000441293
23 *539:40 *569:82 5.49544e-05
24 *539:40 *691:72 0.000426521
25 E6BEG[1] *539:40 0.000137983
26 E6BEG[9] *539:40 4.29471e-05
27 FrameData_O[1] *539:40 9.29862e-05
28 FrameData_O[8] *539:40 1.76352e-05
29 *1811:A3 *539:40 3.074e-05
30 *1811:S0 *539:40 8.6229e-06
31 *1899:A3 *539:18 4.58194e-05
32 *1899:S0 *539:18 0.000135028
33 *1899:S1 *539:18 8.80543e-05
34 *149:101 *539:40 0.00127347
35 *160:113 *539:40 1.90936e-05
36 *160:127 *539:18 7.48679e-06
37 *233:62 *539:18 1.53262e-05
38 *234:14 *539:18 5.80401e-06
39 *234:44 *539:40 2.52467e-05
40 *235:93 *539:40 0.000296232
41 *236:40 *539:40 2.11068e-05
42 *514:72 *539:40 4.12839e-05
43 *531:62 *539:40 0.000401585
44 *535:26 *539:18 5.72247e-05
45 *535:52 *539:18 0.000148196
*RES
1 *2081:X *539:18 45.8179 
2 *539:18 *539:40 45.5357 
3 *539:40 *2306:A 9.3 
*END

*D_NET *540 0.00846287
*CONN
*I *2307:A I *D sky130_fd_sc_hd__buf_2
*I *2082:X O *D sky130_fd_sc_hd__clkbuf_1
*CAP
1 *2307:A 0.000537056
2 *2082:X 0.000898637
3 *540:22 0.00143569
4 *2307:A *2314:A 0.000210885
5 *2307:A *544:68 0.000422728
6 *2307:A *567:72 8.33274e-05
7 *2307:A *585:60 0.000339346
8 *2307:A *667:138 2.32275e-05
9 *2307:A *677:22 0.000215455
10 *540:22 *1888:A2 3.53422e-06
11 *540:22 *2015:D 2.06112e-05
12 *540:22 *579:32 0.000180005
13 *540:22 *593:102 0.000238738
14 *540:22 *597:46 0.0010777
15 *540:22 *662:188 5.06921e-05
16 *540:22 *662:196 0.000480732
17 *540:22 *665:18 0.000339346
18 *540:22 *676:10 0.000339346
19 *540:22 *708:56 0.000591063
20 E6BEG[9] *2307:A 0.00042981
21 *2082:A *540:22 0.000105891
22 *143:103 *540:22 1.21258e-05
23 *144:121 *2307:A 9.72511e-05
24 *236:22 *540:22 2.74899e-05
25 *409:34 *2307:A 0.000214308
26 *520:32 *540:22 8.78763e-05
*RES
1 *2082:X *540:22 48.2107 
2 *540:22 *2307:A 28.3 
*END

*D_NET *541 0.0157847
*CONN
*I *2308:A I *D sky130_fd_sc_hd__buf_2
*I *2083:X O *D sky130_fd_sc_hd__buf_1
*CAP
1 *2308:A 0
2 *2083:X 0.00303092
3 *541:40 0.00303092
4 *541:40 *740:DIODE 0.000363777
5 *541:40 *1881:A0 1.95291e-05
6 *541:40 *1881:A2 0.000279254
7 *541:40 *2348:A 0.000967519
8 *541:40 *551:20 0.000397274
9 *541:40 *552:28 0.00223737
10 *541:40 *585:60 0.000764732
11 *541:40 *594:88 0.00024031
12 *541:40 *650:248 0.000108083
13 *541:40 *653:275 5.1926e-05
14 *710:DIODE *541:40 0.000496247
15 *1811:A2 *541:40 0.000108883
16 *2083:A *541:40 0
17 *2155:A *541:40 8.86421e-05
18 *2303:A *541:40 7.67387e-05
19 *144:145 *541:40 0.00207093
20 *149:111 *541:40 0.000862519
21 *159:93 *541:40 0.000484663
22 *235:93 *541:40 3.87608e-05
23 *514:72 *541:40 6.56454e-05
24 *524:180 *541:40 0
*RES
1 *2083:X *541:40 46.9109 
2 *541:40 *2308:A 13.8 
*END

*D_NET *542 0.00929329
*CONN
*I *2309:A I *D sky130_fd_sc_hd__buf_2
*I *2084:X O *D sky130_fd_sc_hd__clkbuf_1
*CAP
1 *2309:A 0.000829483
2 *2084:X 0.000993514
3 *542:20 0.001823
4 *2309:A *2115:A 0.000257619
5 *2309:A *2333:A 4.11218e-05
6 *2309:A *547:20 0.000936499
7 *2309:A *650:248 7.24832e-05
8 *2309:A *650:254 0.000359518
9 *2309:A *667:138 1.18554e-05
10 *2309:A *667:172 0.000294152
11 *542:20 *1893:A1 2.04825e-05
12 *542:20 *2353:A 9.41642e-05
13 *542:20 *645:82 7.40526e-05
14 *542:20 *659:227 2.88391e-05
15 *542:20 *667:172 0.000150737
16 E6BEG[4] *2309:A 0.000120524
17 E6BEG[8] *2309:A 5.20669e-05
18 *1813:S0 *2309:A 0.00017177
19 *1882:A1 *542:20 5.33005e-05
20 *1889:S1 *2309:A 0.000310086
21 *1899:S0 *2309:A 1.08524e-05
22 *2084:A *542:20 1.21258e-05
23 *2305:A *2309:A 0.000114869
24 *144:145 *2309:A 1.34631e-05
25 *151:77 *542:20 0.000499981
26 *160:127 *542:20 0.000727596
27 *235:64 *542:20 0.000342996
28 *479:159 *542:20 0.000260256
29 *479:161 *542:20 3.62634e-05
30 *524:18 *542:20 2.06112e-05
31 *524:180 *542:20 0.000378916
32 *535:52 *2309:A 0.000180098
*RES
1 *2084:X *542:20 45.8536 
2 *542:20 *2309:A 37.3357 
*END

*D_NET *543 0.0012934
*CONN
*I *2310:A I *D sky130_fd_sc_hd__buf_2
*I *2085:X O *D sky130_fd_sc_hd__clkbuf_1
*CAP
1 *2310:A 0.000251798
2 *2085:X 0.000251798
3 *2310:A *2312:A 0.000187164
4 *2310:A *548:22 0.000344086
5 E6BEG[4] *2310:A 0
6 E6BEG[5] *2310:A 0
7 *144:145 *2310:A 9.14771e-06
8 *235:93 *2310:A 0.000107157
9 *531:34 *2310:A 0.000142252
*RES
1 *2085:X *2310:A 39.4147 
*END

*D_NET *544 0.0258153
*CONN
*I *2311:A I *D sky130_fd_sc_hd__buf_2
*I *2086:X O *D sky130_fd_sc_hd__buf_1
*CAP
1 *2311:A 0.000328863
2 *2086:X 0.00172102
3 *544:68 0.00158684
4 *544:48 0.00328889
5 *544:32 0.00375194
6 *2311:A *598:28 3.41332e-05
7 *2311:A *659:227 5.61411e-05
8 *544:32 *1955:D 1.98839e-05
9 *544:32 *587:60 0.000191151
10 *544:32 *591:94 3.54557e-05
11 *544:32 *594:38 0
12 *544:32 *616:26 1.11626e-05
13 *544:32 *637:44 0.000918992
14 *544:32 *643:50 9.92853e-06
15 *544:32 *668:107 1.73088e-05
16 *544:32 *684:130 1.90936e-05
17 *544:32 *689:74 1.01912e-05
18 *544:48 *556:40 0.000463076
19 *544:48 *557:46 1.73201e-05
20 *544:48 *568:58 0.00134445
21 *544:48 *582:94 0.000242669
22 *544:48 *585:30 1.90936e-05
23 *544:48 *586:74 0.000316383
24 *544:48 *587:148 1.72698e-05
25 *544:48 *590:130 0.000356059
26 *544:48 *591:48 1.67662e-05
27 *544:48 *602:34 0.000425817
28 *544:48 *603:72 0.000311849
29 *544:48 *624:58 6.72717e-05
30 *544:48 *626:70 0.000192482
31 *544:48 *627:68 8.69554e-05
32 *544:48 *629:54 2.36583e-05
33 *544:48 *633:26 0.000781816
34 *544:48 *643:164 3.43988e-06
35 *544:48 *644:115 4.75255e-05
36 *544:48 *644:149 5.44033e-05
37 *544:48 *672:100 5.45735e-05
38 *544:48 *675:38 0.000435241
39 *544:48 *693:84 2.30116e-06
40 *544:68 *569:82 0.000506473
41 *544:68 *578:14 0.000599677
42 *544:68 *597:60 0.000169811
43 *544:68 *618:96 0.000133811
44 *544:68 *650:248 0.000376175
45 *544:68 *667:138 6.57032e-05
46 *544:68 *669:114 5.58875e-06
47 *544:68 *674:48 0.000218404
48 *544:68 *676:10 0.000221961
49 D_config_C_bit0 *544:32 0.000377275
50 D_config_C_bit1 *544:32 7.93671e-05
51 E6BEG[11] *2311:A 9.41642e-05
52 *1813:S0 *2311:A 0.000135028
53 *1880:S1 *544:32 9.41642e-05
54 *1881:A1 *544:68 6.87839e-06
55 *2086:A *544:32 9.83442e-05
56 *2205:A *544:32 8.92205e-05
57 *2279:A *544:32 0.000328717
58 *2304:A *544:48 6.42662e-06
59 *2305:A *2311:A 0.000220943
60 *2307:A *544:68 0.000422728
61 *152:33 *544:32 5.93736e-05
62 *153:119 *544:48 0.000264603
63 *154:75 *544:32 6.5804e-05
64 *158:31 *544:48 7.69349e-05
65 *158:71 *544:48 0.00024764
66 *160:79 *544:32 0.000723974
67 *160:113 *544:68 0.000118057
68 *477:10 *544:68 0.000463421
69 *480:70 *544:48 0.000507931
70 *495:20 *544:32 0.00169331
71 *511:26 *544:32 4.73138e-05
72 *535:52 *2311:A 1.46148e-05
*RES
1 *2086:X *544:32 38.6102 
2 *544:32 *544:48 49.8562 
3 *544:48 *544:68 44.6964 
4 *544:68 *2311:A 15.6036 
*END

*D_NET *545 0.0173992
*CONN
*I *2312:A I *D sky130_fd_sc_hd__buf_2
*I *2087:X O *D sky130_fd_sc_hd__clkbuf_1
*CAP
1 *2312:A 0.000924739
2 *2087:X 0.00129647
3 *545:72 0.00247221
4 *545:38 0.00284395
5 *2312:A *740:DIODE 8.77151e-05
6 *2312:A *1811:A1 1.90936e-05
7 *2312:A *548:22 0.000353076
8 *2312:A *567:72 7.40536e-05
9 *2312:A *665:18 3.69047e-06
10 *545:38 *1826:A2 0.000124821
11 *545:38 *1970:D 6.09762e-05
12 *545:38 *1970:GATE 5.33005e-05
13 *545:38 *2322:A 0.000301016
14 *545:38 *2328:A 7.41094e-05
15 *545:38 *563:30 2.11419e-05
16 *545:38 *583:72 3.49692e-05
17 *545:38 *637:44 0.000312601
18 *545:38 *642:34 5.00194e-05
19 *545:38 *645:62 0.00123559
20 *545:38 *651:209 1.22257e-05
21 *545:38 *653:219 4.08789e-05
22 *545:38 *661:132 6.28248e-05
23 *545:38 *665:83 2.66789e-06
24 *545:38 *686:14 0.000111243
25 *545:38 *686:52 4.65519e-05
26 *545:38 *688:30 1.47871e-05
27 *545:38 *692:16 5.49544e-05
28 *545:38 *694:44 9.51343e-06
29 *545:38 *702:30 1.94879e-05
30 *545:72 *2317:A 6.52967e-05
31 *545:72 *2320:A 7.7232e-05
32 *545:72 *2326:A 3.10819e-05
33 *545:72 *2329:A 0.000305191
34 *545:72 *548:22 4.21517e-05
35 *545:72 *569:62 1.53482e-05
36 *545:72 *569:82 0.000122133
37 *545:72 *600:138 2.35091e-05
38 *545:72 *651:209 3.56859e-05
39 *545:72 *704:72 0.000830648
40 E6BEG[3] *545:72 8.89195e-06
41 E6BEG[5] *2312:A 0
42 EE4BEG[0] *545:72 3.79901e-06
43 EE4BEG[10] *545:72 0.000147577
44 EE4BEG[11] *545:72 4.61463e-05
45 EE4BEG[12] *2312:A 0.000110151
46 EE4BEG[15] *545:72 1.90936e-05
47 EE4BEG[2] *545:72 0.000233307
48 EE4BEG[3] *545:72 0.000310701
49 EE4BEG[6] *545:72 6.64099e-05
50 *1811:S0 *2312:A 2.19481e-05
51 *1881:S1 *2312:A 0.000173802
52 *2299:A *545:38 0.000364963
53 *2305:A *2312:A 2.2628e-05
54 *2310:A *2312:A 0.000187164
55 *72:40 *545:72 0.000115469
56 *144:91 *545:38 4.22986e-05
57 *149:63 *545:38 0.000212441
58 *149:93 *2312:A 0.000248588
59 *149:101 *2312:A 6.79672e-06
60 *160:113 *545:72 3.86574e-05
61 *234:44 *2312:A 4.35068e-05
62 *235:93 *2312:A 2.21972e-05
63 *481:84 *545:72 0.000285024
64 *483:46 *545:38 5.69851e-06
65 *483:78 *545:72 9.71526e-05
66 *514:72 *2312:A 9.41642e-05
67 *514:94 *545:72 4.10533e-05
68 *515:40 *545:38 0.00153432
69 *516:32 *545:72 1.53411e-05
70 *521:12 *545:72 6.52961e-05
71 *528:30 *545:72 0.000363147
72 *531:62 *2312:A 3.14849e-05
73 *535:52 *2312:A 5.83386e-05
74 *538:66 *2312:A 2.06178e-05
75 *539:40 *2312:A 7.40571e-05
*RES
1 *2087:X *545:38 49.3249 
2 *545:38 *545:72 48.1881 
3 *545:72 *2312:A 49.1839 
*END

*D_NET *546 0.0103107
*CONN
*I *1993:D I *D sky130_fd_sc_hd__dlxtp_1
*I *1961:D I *D sky130_fd_sc_hd__dlxtp_1
*I *1929:D I *D sky130_fd_sc_hd__dlxtp_1
*I *2109:A I *D sky130_fd_sc_hd__clkbuf_1
*I *2025:D I *D sky130_fd_sc_hd__dlxtp_1
*I *2193:X O *D sky130_fd_sc_hd__buf_1
*CAP
1 *1993:D 0.000151264
2 *1961:D 7.84734e-05
3 *1929:D 3.46406e-05
4 *2109:A 1.69531e-05
5 *2025:D 0.000157543
6 *2193:X 0
7 *546:42 0.000322706
8 *546:31 0.0014037
9 *546:6 0.0013347
10 *546:4 0.000151264
11 *1961:D *672:100 0
12 *1961:D *687:70 0.000160036
13 *1961:D *698:44 0.000122765
14 *1993:D *1993:GATE 9.58181e-05
15 *1993:D *624:58 1.96467e-05
16 *2025:D *684:8 1.58163e-05
17 *2109:A *1812:A1 5.33005e-05
18 *2109:A *668:34 5.33005e-05
19 *546:31 *578:14 5.20232e-05
20 *546:31 *584:48 0.0001741
21 *546:31 *600:138 0.000441621
22 *546:31 *626:34 6.1271e-06
23 *546:31 *636:117 3.06878e-06
24 *546:31 *637:6 1.58163e-05
25 *546:31 *637:108 3.69047e-06
26 *546:31 *668:49 0.000260799
27 *546:31 *668:69 9.24507e-05
28 *546:31 *679:49 0.000146316
29 *546:31 *687:70 0.000323229
30 *546:42 *578:14 0.000185452
31 *546:42 *654:88 0
32 *546:42 *674:80 1.30594e-05
33 *546:42 *687:70 0.00036623
34 *2210:A *546:31 4.38058e-05
35 *2212:A *546:31 0.000226812
36 *2213:A *546:31 2.04825e-05
37 *153:79 *2025:D 0.000327342
38 *153:79 *546:31 0.000757925
39 *153:119 *1929:D 4.71644e-05
40 *157:107 *1929:D 0.000141734
41 *510:34 *2025:D 2.59355e-05
42 *512:20 *2025:D 0.000325762
43 *512:20 *546:31 0.00213781
*RES
1 *2193:X *546:4 9.3 
2 *546:4 *546:6 4.5 
3 *546:6 *2025:D 18.7107 
4 *546:6 *546:31 43.3393 
5 *546:31 *2109:A 14.3357 
6 *546:31 *546:42 4.98214 
7 *546:42 *1929:D 15.1571 
8 *546:42 *1961:D 16.05 
9 *546:4 *1993:D 11.925 
*END

*D_NET *547 0.00598802
*CONN
*I *2313:A I *D sky130_fd_sc_hd__buf_2
*I *2088:X O *D sky130_fd_sc_hd__clkbuf_1
*CAP
1 *2313:A 0
2 *2088:X 0.00114664
3 *547:20 0.00114664
4 *547:20 *2115:A 0.00030245
5 *547:20 *559:34 8.93791e-05
6 *547:20 *599:18 0.000167906
7 *547:20 *650:248 0.000905706
8 *1813:S1 *547:20 6.2127e-05
9 *2095:A *547:20 0.000218404
10 *2162:A *547:20 0.000357706
11 *2309:A *547:20 0.000936499
12 *398:22 *547:20 7.04017e-05
13 *475:8 *547:20 0.000584165
*RES
1 *2088:X *547:20 47.925 
2 *547:20 *2313:A 9.3 
*END

*D_NET *548 0.00667494
*CONN
*I *2314:A I *D sky130_fd_sc_hd__buf_2
*I *2089:X O *D sky130_fd_sc_hd__clkbuf_1
*CAP
1 *2314:A 0.000238462
2 *2089:X 0.00127408
3 *548:22 0.00151255
4 *2314:A *667:138 0.000179194
5 *548:22 *1811:A0 2.2355e-05
6 *548:22 *1881:A2 1.98839e-05
7 *548:22 *2316:A 4.10843e-05
8 *548:22 *2320:A 9.85424e-06
9 *548:22 *2328:A 9.41642e-05
10 *548:22 *600:138 2.30116e-06
11 E6BEG[7] *2314:A 0.000341732
12 E6BEG[9] *2314:A 2.55806e-05
13 EE4BEG[10] *548:22 0.000386931
14 EE4BEG[12] *548:22 0.000387479
15 EE4BEG[13] *548:22 1.39436e-05
16 EE4BEG[14] *548:22 0.000104976
17 *1915:S1 *548:22 5.74499e-06
18 *1946:D *548:22 9.58126e-05
19 *2307:A *2314:A 0.000210885
20 *2310:A *548:22 0.000344086
21 *2312:A *548:22 0.000353076
22 *144:121 *2314:A 9.41642e-05
23 *160:113 *548:22 0.000215575
24 *528:30 *548:22 9.14714e-06
25 *531:34 *548:22 4.22135e-06
26 *531:62 *548:22 0.00018359
27 *538:66 *548:22 2.06178e-05
28 *539:40 *548:22 0.000441293
29 *545:72 *548:22 4.21517e-05
*RES
1 *2089:X *548:22 47.6393 
2 *548:22 *2314:A 20.1036 
*END

*D_NET *549 0.00175094
*CONN
*I *2315:A I *D sky130_fd_sc_hd__buf_2
*I *2092:X O *D sky130_fd_sc_hd__clkbuf_1
*CAP
1 *2315:A 0.000434961
2 *2092:X 0.000434961
3 *2315:A *650:216 0.000384852
4 *2315:A *653:170 2.19302e-05
5 *2315:A *697:46 6.40586e-05
6 *2315:A *698:121 0.000170036
7 *2315:A *707:93 9.44637e-05
8 EE4BEG[0] *2315:A 0
9 *2299:A *2315:A 8.80625e-05
10 *144:71 *2315:A 0
11 *144:91 *2315:A 5.7616e-05
12 *234:86 *2315:A 0
*RES
1 *2092:X *2315:A 36.8321 
*END

*D_NET *550 0.00638234
*CONN
*I *2316:A I *D sky130_fd_sc_hd__buf_2
*I *2102:X O *D sky130_fd_sc_hd__clkbuf_1
*CAP
1 *2316:A 0.000188171
2 *2102:X 0.00110148
3 *550:30 0.00128965
4 *2316:A *1881:A2 1.21371e-05
5 *2316:A *2328:A 0.000218409
6 *2316:A *667:87 5.02105e-05
7 *550:30 *1822:A1 2.54304e-06
8 *550:30 *1915:A3 0.000225431
9 *550:30 *2326:A 8.76591e-06
10 *550:30 *2328:A 0.000588898
11 *550:30 *558:52 0.000208166
12 *550:30 *667:87 0
13 *550:30 *676:40 9.9529e-05
14 *550:30 *676:48 0.000149051
15 *550:30 *686:14 0.000516169
16 *1915:S1 *2316:A 4.10843e-05
17 *2299:A *550:30 0.000117962
18 *159:93 *550:30 0.000153136
19 *234:58 *550:30 0.000346551
20 *392:36 *2316:A 0.000295416
21 *479:106 *550:30 2.26973e-05
22 *517:28 *550:30 1.53472e-05
23 *528:44 *550:30 0.000508341
24 *533:52 *550:30 0.000182115
25 *548:22 *2316:A 4.10843e-05
*RES
1 *2102:X *550:30 48.6345 
2 *550:30 *2316:A 14.3714 
*END

*D_NET *551 0.0233684
*CONN
*I *2317:A I *D sky130_fd_sc_hd__buf_2
*I *2103:X O *D sky130_fd_sc_hd__buf_1
*CAP
1 *2317:A 3.22566e-05
2 *2103:X 0.00424821
3 *551:20 0.00428047
4 *2317:A *569:82 3.22745e-05
5 *551:20 *573:28 0
6 *551:20 *594:88 0.00113513
7 *551:20 *618:132 0
8 *551:20 *653:275 0.00350858
9 *551:20 *686:52 0.000887296
10 *551:20 *696:26 0.000750502
11 *551:20 *696:30 0
12 *551:20 *697:46 0.000752849
13 *551:20 *697:62 0.00016506
14 EE4BEG[13] *551:20 1.82011e-05
15 EE4BEG[14] *551:20 0.000338079
16 EE4BEG[15] *551:20 0.000499194
17 FrameData_O[9] *551:20 0.000186109
18 *710:DIODE *551:20 0.000130024
19 *1909:S0 *551:20 0.000185037
20 *2100:A *551:20 7.83659e-05
21 *2103:A *551:20 0.000140717
22 *147:101 *551:20 0.000171296
23 *148:111 *551:20 0
24 *160:113 *2317:A 2.04825e-05
25 *323:12 *551:20 0.000338863
26 *483:78 *551:20 0.00439747
27 *483:102 *551:20 0.000512612
28 *516:32 *551:20 4.54229e-06
29 *524:180 *551:20 9.22174e-05
30 *541:40 *551:20 0.000397274
31 *545:72 *2317:A 6.52967e-05
*RES
1 *2103:X *551:20 47.4486 
2 *551:20 *2317:A 18.0939 
*END

*D_NET *552 0.0136074
*CONN
*I *2318:A I *D sky130_fd_sc_hd__buf_2
*I *2104:X O *D sky130_fd_sc_hd__buf_1
*CAP
1 *2318:A 0.000134613
2 *2104:X 0.00233003
3 *552:28 0.00246464
4 *2318:A *1881:A2 4.15526e-05
5 *552:28 *740:DIODE 1.00926e-05
6 *552:28 *1811:A0 0.0001686
7 *552:28 *1812:A0 0.000113877
8 *552:28 *1885:A2 4.79414e-05
9 *552:28 *2333:A 4.27611e-05
10 *552:28 *2348:A 7.25533e-06
11 *552:28 *572:12 1.92712e-05
12 *552:28 *618:116 0.000702292
13 *552:28 *642:106 7.04401e-05
14 *552:28 *645:78 0.00117636
15 *552:28 *665:38 0.000259066
16 *552:28 *708:84 0.000111922
17 *552:28 *708:99 1.44954e-05
18 E6BEG[1] *2318:A 6.34436e-05
19 *1885:S0 *552:28 2.64085e-05
20 *146:99 *552:28 5.87615e-05
21 *148:97 *552:28 0.000195298
22 *159:93 *552:28 0.00161014
23 *160:113 *552:28 0.000178649
24 *234:44 *2318:A 7.4048e-05
25 *236:40 *2318:A 0.000253216
26 *514:72 *552:28 0.000458143
27 *535:26 *552:28 3.83766e-05
28 *539:18 *552:28 0.000515284
29 *539:40 *2318:A 0.000183015
30 *541:40 *552:28 0.00223737
*RES
1 *2104:X *552:28 47.7966 
2 *552:28 *2318:A 21.2189 
*END

*D_NET *553 0.0117829
*CONN
*I *2319:A I *D sky130_fd_sc_hd__buf_2
*I *2105:X O *D sky130_fd_sc_hd__clkbuf_1
*CAP
1 *2319:A 0.00144586
2 *2105:X 0.00103204
3 *553:20 0.0024779
4 *2319:A *1946:GATE 1.10137e-05
5 *2319:A *2328:A 9.41642e-05
6 *2319:A *586:110 0.000422804
7 *2319:A *593:102 2.81725e-05
8 *2319:A *631:65 9.96717e-06
9 *2319:A *634:130 5.41797e-06
10 *2319:A *634:158 0.00023431
11 *2319:A *635:92 0.000153826
12 *2319:A *636:159 0.000285779
13 *2319:A *661:207 0.000149234
14 *2319:A *673:116 3.92686e-05
15 *2319:A *708:56 9.83438e-05
16 *553:20 *1964:GATE 1.01912e-05
17 *553:20 *1998:GATE 0.000171375
18 *553:20 *558:14 3.68938e-05
19 *553:20 *565:22 0.000115961
20 *553:20 *595:36 0.000249192
21 *553:20 *613:40 0.000160692
22 *553:20 *631:65 7.48679e-06
23 *553:20 *632:152 0.000133531
24 *553:20 *634:158 1.50904e-05
25 *553:20 *635:102 5.94102e-05
26 *553:20 *662:196 0.00029853
27 *553:20 *669:108 0.000472643
28 *553:20 *675:64 4.38243e-05
29 EE4BEG[13] *2319:A 1.92691e-07
30 *1885:S0 *553:20 2.22043e-05
31 *1896:A3 *2319:A 0.000119217
32 *1915:S0 *2319:A 9.86845e-05
33 *1946:D *2319:A 0.000258881
34 *2056:CLK *553:20 0.000147715
35 *2058:CLK *553:20 0.000420465
36 *2068:A *553:20 6.12847e-05
37 *145:75 *2319:A 8.27238e-06
38 *235:113 *2319:A 0.000188951
39 *398:22 *553:20 0.000504489
40 *477:10 *553:20 0.00017039
41 *519:46 *2319:A 1.34093e-05
42 *519:46 *553:20 0.00116645
43 *520:58 *2319:A 0.000339346
*RES
1 *2105:X *553:20 44.9607 
2 *553:20 *2319:A 39.8357 
*END

*D_NET *554 0.00338347
*CONN
*I *2320:A I *D sky130_fd_sc_hd__buf_2
*I *2106:X O *D sky130_fd_sc_hd__clkbuf_1
*CAP
1 *2320:A 0.00103203
2 *2106:X 0.00103203
3 *2320:A *1811:A0 8.05048e-05
4 *1811:A2 *2320:A 6.98553e-06
5 *1811:A3 *2320:A 5.96516e-05
6 *1811:S0 *2320:A 0.000106515
7 *2063:A *2320:A 0.00017754
8 *2303:A *2320:A 6.24939e-05
9 *160:113 *2320:A 0.000188856
10 *236:22 *2320:A 0.000254875
11 *531:62 *2320:A 3.54497e-05
12 *539:40 *2320:A 0.000259455
13 *545:72 *2320:A 7.7232e-05
14 *548:22 *2320:A 9.85424e-06
*RES
1 *2106:X *2320:A 44.1179 
*END

*D_NET *555 0.00889514
*CONN
*I *2321:A I *D sky130_fd_sc_hd__buf_2
*I *2107:X O *D sky130_fd_sc_hd__clkbuf_1
*CAP
1 *2321:A 0.00068434
2 *2107:X 0.000942421
3 *555:38 0.00162676
4 *2321:A *1881:A2 0.000650515
5 *2321:A *2330:A 5.33005e-05
6 *2321:A *569:62 1.50738e-05
7 *2321:A *569:82 0.000295285
8 *2321:A *650:216 0.000638317
9 *2321:A *707:93 0.000235241
10 *555:38 *1826:A2 0.000135028
11 *555:38 *563:30 0.000328117
12 *555:38 *583:72 0.000229275
13 *555:38 *659:161 9.33698e-06
14 *555:38 *665:38 4.64974e-05
15 *555:38 *676:48 0.00016243
16 *555:38 *702:14 0.000176075
17 *555:38 *702:30 0.000437553
18 *555:38 *704:44 4.75671e-06
19 *555:38 *707:67 0.00023259
20 *555:38 *707:93 2.83392e-05
21 *1887:A3 *555:38 1.01458e-05
22 *1887:S0 *555:38 6.2589e-06
23 *1907:S1 *2321:A 0.000119347
24 *1915:S1 *2321:A 9.56535e-05
25 *2289:A *555:38 0.000191631
26 *2302:A *555:38 0.000163699
27 *160:79 *2321:A 3.62927e-05
28 *483:46 *555:38 0.000525076
29 *516:32 *2321:A 0.000131342
30 *517:60 *555:38 0
31 *529:40 *555:38 6.39803e-05
32 *534:40 *555:38 0.000545975
33 *538:32 *2321:A 7.44888e-05
*RES
1 *2107:X *555:38 49.6054 
2 *555:38 *2321:A 32.7286 
*END

*D_NET *556 0.0290011
*CONN
*I *2322:A I *D sky130_fd_sc_hd__buf_2
*I *2093:X O *D sky130_fd_sc_hd__buf_1
*CAP
1 *2322:A 0.00135234
2 *2093:X 0.00126699
3 *556:54 0.00300636
4 *556:40 0.00271117
5 *556:24 0.00228253
6 *556:22 0.00249237
7 *2322:A *1826:A2 0.000208563
8 *2322:A *653:172 1.83136e-05
9 *2322:A *692:64 8.93791e-05
10 *556:22 *1891:A2 0.000476036
11 *556:22 *1974:GATE 4.40603e-05
12 *556:22 *2363:A 0
13 *556:22 *2378:A 1.54403e-05
14 *556:22 *2382:A 0.000128357
15 *556:22 *564:8 0.000144773
16 *556:22 *628:24 4.87953e-05
17 *556:24 *568:10 0.000320213
18 *556:24 *568:28 0.00113645
19 *556:24 *603:74 0.00119016
20 *556:24 *633:32 0.00204969
21 *556:40 *557:46 0.00145214
22 *556:40 *568:28 0.000910146
23 *556:40 *582:94 0.000352935
24 *556:40 *584:48 0.000159115
25 *556:40 *602:34 6.42869e-05
26 *556:40 *603:74 0.00117501
27 *556:40 *616:38 0.000386361
28 *556:40 *626:70 0.0001921
29 *556:40 *627:68 0.000161923
30 *556:40 *633:32 6.17335e-05
31 *556:40 *644:115 2.26973e-05
32 *556:40 *675:38 6.71579e-05
33 *556:54 *2133:A 3.75081e-05
34 *556:54 *593:74 6.57032e-05
35 *556:54 *636:26 0.000384382
36 *556:54 *662:177 0.00042649
37 *556:54 *693:68 0.000281233
38 *556:54 *708:56 4.97978e-05
39 *722:DIODE *556:22 0.000139215
40 *723:DIODE *556:22 0
41 *723:DIODE *556:24 0
42 *1884:S0 *556:54 7.68393e-05
43 *1884:S1 *556:54 5.54183e-05
44 *1974:D *556:22 0.000441546
45 *2093:A *556:22 4.13477e-05
46 *2100:A *556:22 0
47 *2149:A *556:22 9.41642e-05
48 *2189:A *556:24 0.000289866
49 *2199:A *556:24 0.000290965
50 *2211:A *556:54 0.000190862
51 *2213:A *556:40 0.000107391
52 *142:99 *556:40 0.000110889
53 *143:103 *556:54 1.21258e-05
54 *148:111 *556:22 0.000108118
55 *153:119 *556:40 4.74475e-05
56 *154:95 *556:54 0.00031721
57 *502:79 *556:54 9.13781e-05
58 *510:22 *556:40 0.000390789
59 *511:10 *556:24 0.000198747
60 *544:48 *556:40 0.000463076
61 *545:38 *2322:A 0.000301016
*RES
1 *2093:X *556:22 46.2107 
2 *556:22 *556:24 50.0625 
3 *556:24 *556:40 49.7054 
4 *556:40 *556:54 37.625 
5 *556:54 *2322:A 24.9429 
*END

*D_NET *557 0.0490733
*CONN
*I *2128:A I *D sky130_fd_sc_hd__clkbuf_1
*I *1948:D I *D sky130_fd_sc_hd__dlxtp_1
*I *2012:D I *D sky130_fd_sc_hd__dlxtp_1
*I *1980:D I *D sky130_fd_sc_hd__dlxtp_1
*I *1916:D I *D sky130_fd_sc_hd__dlxtp_1
*I *2044:D I *D sky130_fd_sc_hd__dlxtp_1
*I *2194:X O *D sky130_fd_sc_hd__buf_2
*CAP
1 *2128:A 0.000158802
2 *1948:D 4.19698e-05
3 *2012:D 0.00023275
4 *1980:D 8.26093e-05
5 *1916:D 1.69613e-05
6 *2044:D 0.00149719
7 *2194:X 0.000310159
8 *557:147 0.000955286
9 *557:143 0.00104812
10 *557:104 0.00213563
11 *557:94 0.00207881
12 *557:58 0.00215355
13 *557:46 0.00250561
14 *557:44 0.00260607
15 *557:32 0.00192337
16 *557:8 0.00172823
17 *1916:D *1916:GATE 1.39726e-05
18 *1948:D *2339:A 9.35114e-06
19 *1948:D *581:14 5.33005e-05
20 *1980:D *2184:A 0.000122591
21 *1980:D *683:6 5.21937e-05
22 *2012:D *1886:A2 0.000510205
23 *2012:D *580:16 5.33005e-05
24 *2044:D *1851:A2 1.68479e-05
25 *2044:D *1917:D 8.87461e-06
26 *2044:D *2045:D 0.000433764
27 *2044:D *2045:GATE 5.92326e-05
28 *2044:D *666:145 1.34698e-05
29 *2128:A *580:16 3.69047e-06
30 *2128:A *581:14 3.27526e-05
31 *2128:A *670:65 3.26437e-05
32 *2128:A *673:189 9.11048e-06
33 *557:8 *568:163 8.17152e-05
34 *557:8 *568:188 1.98839e-05
35 *557:32 *1878:A1 2.01732e-05
36 *557:32 *1944:GATE 8.59698e-05
37 *557:32 *579:24 3.08386e-05
38 *557:32 *582:128 0.000425602
39 *557:32 *584:84 0
40 *557:32 *601:30 0.000137625
41 *557:32 *670:65 0.000136605
42 *557:32 *672:18 0
43 *557:32 *698:175 0.000169949
44 *557:44 *582:94 0.000166735
45 *557:44 *602:34 0.000224104
46 *557:46 *568:58 0.00327859
47 *557:46 *586:44 0.0015654
48 *557:46 *590:14 0.000119078
49 *557:46 *624:120 0.00270211
50 *557:46 *626:88 0.00044534
51 *557:46 *628:68 3.31229e-05
52 *557:46 *633:32 0.000954501
53 *557:46 *640:26 0.00272339
54 *557:58 *1926:D 0
55 *557:58 *2184:A 0.000226867
56 *557:58 *586:22 0.000113806
57 *557:58 *587:24 3.30337e-05
58 *557:58 *683:6 6.61173e-05
59 *557:94 *1921:D 1.30594e-05
60 *557:94 *1924:D 1.61785e-05
61 *557:94 *1981:GATE 0.000123352
62 *557:94 *2116:A 8.55871e-05
63 *557:94 *568:114 1.76471e-05
64 *557:94 *568:122 0.000289135
65 *557:94 *586:22 2.21043e-05
66 *557:94 *639:52 4.44028e-05
67 *557:94 *639:60 0
68 *557:94 *640:18 6.99972e-05
69 *557:94 *666:32 0.000167845
70 *557:94 *666:56 0.000183503
71 *557:104 *1916:GATE 6.12657e-05
72 *557:104 *583:16 7.80929e-05
73 *557:104 *640:18 0.000422361
74 *557:143 *579:24 0
75 *557:143 *581:14 0.000172085
76 *557:143 *670:65 5.60152e-05
77 *557:147 *1948:GATE 0.000165123
78 *557:147 *2339:A 1.85689e-05
79 *557:147 *581:14 0.00188715
80 *557:147 *592:26 0.000396367
81 A_config_C_bit1 *557:58 9.95153e-05
82 B_I_top *557:104 2.06178e-05
83 B_T_top *557:104 4.32309e-05
84 *1831:A2 *2044:D 0
85 *1878:A0 *557:32 1.18064e-05
86 *2174:A *557:8 9.83388e-05
87 *2174:A *557:32 0.000150096
88 *2174:A *557:143 2.21254e-05
89 *2208:A *557:94 1.02504e-05
90 *2219:A *557:94 0.000133498
91 *2273:A *557:58 0.000114385
92 *2385:A *1916:D 5.33005e-05
93 *2385:A *557:104 0.000281382
94 *142:99 *557:44 0.000368463
95 *146:33 *2044:D 0.000101527
96 *151:77 *2012:D 0.000508088
97 *153:55 *557:46 9.41223e-05
98 *153:129 *557:32 0.000512735
99 *153:142 *557:32 0.000214408
100 *156:27 *2044:D 4.38243e-05
101 *480:50 *557:44 0.00029066
102 *480:108 *557:32 5.2836e-05
103 *480:108 *557:44 4.00679e-05
104 *480:153 *557:32 2.59024e-05
105 *489:10 *557:94 0.00113542
106 *490:12 *557:94 2.35985e-05
107 *490:12 *557:104 0.000749684
108 *497:14 *557:58 0.000440356
109 *502:14 *557:32 0.000547466
110 *502:105 *557:32 0.000562727
111 *511:10 *557:46 9.20499e-06
112 *511:26 *557:46 0.00182796
113 *535:16 *557:32 6.54117e-05
114 *544:48 *557:46 1.73201e-05
115 *556:40 *557:46 0.00145214
*RES
1 *2194:X *557:8 17.6214 
2 *557:8 *557:32 45.0153 
3 *557:32 *557:44 19.1964 
4 *557:44 *557:46 96.9643 
5 *557:46 *557:58 27.1429 
6 *557:58 *557:94 45.7589 
7 *557:94 *557:104 22.0268 
8 *557:104 *2044:D 31.4642 
9 *557:104 *1916:D 9.83571 
10 *557:58 *1980:D 11.0679 
11 *557:8 *557:143 4.42857 
12 *557:143 *557:147 23.5179 
13 *557:147 *2012:D 25.6393 
14 *557:147 *1948:D 10.2643 
15 *557:143 *2128:A 16.6929 
*END

*D_NET *558 0.0181867
*CONN
*I *2323:A I *D sky130_fd_sc_hd__buf_2
*I *2094:X O *D sky130_fd_sc_hd__buf_1
*CAP
1 *2323:A 0
2 *2094:X 0.0014987
3 *558:52 0.00238513
4 *558:14 0.00388383
5 *558:14 *1809:A0 0.000435649
6 *558:14 *1900:A1 4.78045e-06
7 *558:14 *1900:A2 3.13387e-05
8 *558:14 *1998:GATE 0.000164547
9 *558:14 *565:22 9.04313e-05
10 *558:14 *595:18 0.000122952
11 *558:14 *595:36 0.000597747
12 *558:14 *631:65 0.000284712
13 *558:14 *632:107 4.62705e-05
14 *558:14 *632:152 4.75671e-06
15 *558:14 *636:159 0.000392247
16 *558:14 *669:108 0.000476589
17 *558:14 *675:64 4.5539e-05
18 *558:52 *2326:A 0.000458894
19 *558:52 *2328:A 8.72575e-05
20 *558:52 *565:22 0.000170027
21 *558:52 *579:32 1.44868e-05
22 *558:52 *596:118 4.13301e-05
23 *558:52 *597:46 0.000145318
24 *558:52 *618:96 0.000647762
25 *558:52 *634:176 8.56475e-05
26 *558:52 *642:106 0.000177601
27 *558:52 *645:62 0.00055189
28 *558:52 *651:209 0.00044086
29 *558:52 *653:219 3.10819e-05
30 *558:52 *673:90 0.000170027
31 *558:52 *686:52 0.000148219
32 *558:52 *701:54 0.000603332
33 EE4BEG[4] *558:52 2.06814e-07
34 *1900:S1 *558:14 0.000339622
35 *2006:D *558:14 0.000175519
36 *2007:D *558:14 0.000113647
37 *2057:CLK *558:14 0.000147926
38 *2160:A *558:14 0.000360153
39 *2164:A *558:14 0.000105722
40 *2165:A *558:14 0.000146161
41 *145:75 *558:52 0.000870907
42 *233:80 *558:14 0.000156648
43 *234:58 *558:52 1.75318e-05
44 *234:86 *558:52 4.19535e-05
45 *236:22 *558:52 0.000435816
46 *483:78 *558:52 1.0498e-05
47 *515:40 *558:52 0.000585373
48 *520:32 *558:52 9.09194e-05
49 *520:58 *558:52 1.54928e-05
50 *529:40 *558:52 8.85782e-05
51 *550:30 *558:52 0.000208166
52 *553:20 *558:14 3.68938e-05
*RES
1 *2094:X *558:14 49.1467 
2 *558:14 *558:52 46.4297 
3 *558:52 *2323:A 9.3 
*END

*D_NET *559 0.0144484
*CONN
*I *2324:A I *D sky130_fd_sc_hd__buf_2
*I *2095:X O *D sky130_fd_sc_hd__clkbuf_1
*CAP
1 *2324:A 0.000384515
2 *2095:X 0.00118572
3 *559:58 0.00171624
4 *559:34 0.00251745
5 *2324:A *560:58 2.00138e-06
6 *2324:A *653:219 0.000467167
7 *559:34 *1889:A2 0.000119938
8 *559:34 *564:36 6.05161e-06
9 *559:34 *569:82 6.54117e-05
10 *559:34 *585:60 0.000178665
11 *559:34 *650:248 6.35864e-05
12 *559:34 *653:249 0.000347313
13 *559:34 *659:227 0.000211799
14 *559:34 *691:38 0.000281969
15 *559:34 *691:72 3.97677e-05
16 *559:34 *695:76 0.000110889
17 *559:58 *2329:A 0.000189374
18 *559:58 *564:36 3.10885e-05
19 *559:58 *594:52 0.00103469
20 *559:58 *594:88 0.000548977
21 *559:58 *600:162 0.000333405
22 *559:58 *646:32 0.000381383
23 *559:58 *653:219 0.000246327
24 *559:58 *659:183 4.58194e-05
25 *559:58 *660:91 0.000342463
26 *559:58 *695:76 7.1675e-05
27 *559:58 *704:72 0.000263929
28 *559:58 *704:90 2.07339e-05
29 E6BEG[6] *559:58 0.000531922
30 EE4BEG[3] *2324:A 9.58126e-05
31 EE4BEG[7] *559:58 3.14107e-05
32 EE4BEG[9] *559:58 0.000337596
33 FrameData_O[3] *559:34 0.000473201
34 FrameData_O[5] *559:34 8.93791e-05
35 FrameData_O[6] *559:34 0.000122582
36 FrameData_O[7] *559:34 8.54725e-05
37 FrameData_O[8] *559:34 0
38 *144:91 *2324:A 5.33005e-05
39 *144:145 *559:34 6.29982e-05
40 *147:91 *559:58 0.000235088
41 *234:26 *559:34 5.11534e-06
42 *235:45 *559:34 2.63501e-05
43 *514:72 *559:34 1.4811e-05
44 *524:43 *559:34 1.73088e-05
45 *524:67 *559:58 0.000881376
46 *536:16 *559:34 8.69554e-05
47 *547:20 *559:34 8.93791e-05
*RES
1 *2095:X *559:34 47.6603 
2 *559:34 *559:58 45.3214 
3 *559:58 *2324:A 16.425 
*END

*D_NET *560 0.0238036
*CONN
*I *2325:A I *D sky130_fd_sc_hd__buf_2
*I *720:DIODE I *D sky130_fd_sc_hd__diode_2
*I *2096:X O *D sky130_fd_sc_hd__buf_1
*CAP
1 *2325:A 2.37855e-05
2 *720:DIODE 3.14856e-05
3 *2096:X 0.00221868
4 *560:66 0.000421275
5 *560:58 0.0014502
6 *560:44 0.00178639
7 *560:28 0.00292088
8 *560:28 *644:16 0.000433613
9 *560:28 *646:24 0.00015952
10 *560:28 *657:44 0.000180348
11 *560:28 *658:27 2.98354e-05
12 *560:28 *661:81 0.000308436
13 *560:28 *665:83 0.000702624
14 *560:44 *637:67 0.00171404
15 *560:44 *645:16 3.09273e-05
16 *560:44 *647:185 9.41642e-05
17 *560:44 *691:16 0.000300455
18 *560:44 *695:62 1.41295e-05
19 *560:58 *1903:A1 0.000204068
20 *560:58 *645:16 1.11048e-05
21 *560:58 *650:168 0.000546876
22 *560:58 *651:193 0.000134705
23 *560:58 *653:172 6.05161e-06
24 *560:58 *695:66 0.00167277
25 *560:58 *699:40 0.000386937
26 *560:58 *704:72 6.53397e-05
27 EE4BEG[1] *560:58 0.00031144
28 EE4BEG[2] *560:58 0.00031144
29 EE4BEG[6] *560:66 2.43875e-05
30 *1877:A2 *720:DIODE 2.84026e-05
31 *1877:A2 *560:66 2.59355e-05
32 *2224:A *560:28 0.000476553
33 *2225:A *560:28 0.000183754
34 *2226:A *560:28 0.000139223
35 *2266:A *560:28 0.000216564
36 *2267:A *560:28 0.000213676
37 *2295:A *560:44 0.000530594
38 *2298:A *560:66 0.000278311
39 *2324:A *560:58 2.00138e-06
40 *72:40 *560:66 0.000223611
41 *142:23 *560:28 0.000776518
42 *142:53 *560:58 2.63523e-05
43 *144:91 *560:58 3.88748e-05
44 *146:33 *560:28 8.76591e-06
45 *146:67 *560:28 0.000602158
46 *146:77 *560:58 0.00188567
47 *148:21 *560:44 0.000757131
48 *234:86 *560:66 7.49166e-06
49 *481:18 *560:44 0.000126518
50 *481:84 *560:58 6.74279e-05
51 *493:18 *560:28 0.000217732
52 *521:12 *560:66 0.000474432
*RES
1 *2096:X *560:28 42.0877 
2 *560:28 *560:44 43.4911 
3 *560:44 *560:58 45.9608 
4 *560:58 *560:66 17.2679 
5 *560:66 *720:DIODE 9.83571 
6 *560:66 *2325:A 9.72857 
*END

*D_NET *561 0.0319711
*CONN
*I *2326:A I *D sky130_fd_sc_hd__buf_2
*I *2097:X O *D sky130_fd_sc_hd__buf_1
*CAP
1 *2326:A 0.00295442
2 *2097:X 0.00533389
3 *561:30 0.00828831
4 *2326:A *569:28 0.000165782
5 *2326:A *631:106 0.00147707
6 *2326:A *637:44 0.000936333
7 *2326:A *642:106 4.65519e-05
8 *2326:A *689:108 8.69554e-05
9 *2326:A *694:44 0.000265089
10 *2326:A *707:93 0.000579567
11 *561:30 *1837:C 2.63501e-05
12 *561:30 *1861:A0 0
13 *561:30 *568:88 1.47874e-05
14 *561:30 *582:54 0.00176288
15 *561:30 *591:94 0.000908559
16 *561:30 *593:44 0.000716872
17 *561:30 *602:123 0.000233704
18 *561:30 *602:131 0.000543305
19 *561:30 *602:160 1.09611e-05
20 *561:30 *627:104 0.000904605
21 *561:30 *643:28 0.000159939
22 *561:30 *644:46 0.000113957
23 *561:30 *651:137 0.000519621
24 *561:30 *652:34 2.14474e-05
25 *561:30 *664:14 7.6644e-05
26 *561:30 *687:114 0.000717749
27 A_config_C_bit3 *561:30 0.000323894
28 B_config_C_bit0 *561:30 0.000129543
29 B_config_C_bit1 *561:30 0
30 D_config_C_bit1 *561:30 0.000114626
31 EE4BEG[10] *2326:A 4.58194e-05
32 EE4BEG[11] *2326:A 3.74059e-06
33 *1799:A *561:30 4.32258e-05
34 *1877:A3 *2326:A 1.52312e-05
35 *72:40 *2326:A 3.75856e-05
36 *148:81 *2326:A 0.000109422
37 *150:41 *2326:A 0.000144532
38 *159:77 *2326:A 1.47779e-05
39 *160:39 *561:30 0.000737011
40 *181:56 *2326:A 0.000143017
41 *234:58 *2326:A 0.000182607
42 *409:34 *2326:A 8.76591e-06
43 *479:106 *2326:A 0.000355727
44 *516:32 *2326:A 0.000197723
45 *519:46 *2326:A 0.00166551
46 *522:58 *2326:A 0.000154982
47 *529:40 *2326:A 0.0001793
48 *545:72 *2326:A 3.10819e-05
49 *550:30 *2326:A 8.76591e-06
50 *558:52 *2326:A 0.000458894
*RES
1 *2097:X *561:30 48.1231 
2 *561:30 *2326:A 48.2383 
*END

*D_NET *562 0.00390972
*CONN
*I *2327:A I *D sky130_fd_sc_hd__buf_2
*I *2098:X O *D sky130_fd_sc_hd__clkbuf_1
*CAP
1 *2327:A 0
2 *2098:X 0.000890527
3 *562:30 0.000890527
4 *562:30 *740:DIODE 1.40617e-06
5 *562:30 *1877:A1 1.24368e-05
6 *562:30 *1881:A2 0.00038714
7 *562:30 *1915:A2 0.000142686
8 *562:30 *1915:A3 0.000142686
9 *562:30 *2328:A 0.000142974
10 *562:30 *569:82 6.05161e-06
11 *562:30 *583:72 0.000216292
12 *562:30 *650:216 0.000251176
13 *562:30 *650:248 1.26108e-05
14 *562:30 *667:138 3.70204e-05
15 *562:30 *703:40 0.000282406
16 *562:30 *708:56 6.05161e-06
17 E6BEG[3] *562:30 0.000116166
18 *1877:A2 *562:30 8.52734e-05
19 *2299:A *562:30 0.000119514
20 *160:113 *562:30 3.77445e-05
21 *234:58 *562:30 2.32999e-05
22 *479:130 *562:30 8.58472e-05
23 *481:88 *562:30 1.98839e-05
*RES
1 *2098:X *562:30 42.1351 
2 *562:30 *2327:A 9.3 
*END

*D_NET *563 0.0143354
*CONN
*I *2328:A I *D sky130_fd_sc_hd__buf_2
*I *2099:X O *D sky130_fd_sc_hd__clkbuf_1
*CAP
1 *2328:A 0.000922457
2 *2099:X 0.00193931
3 *563:30 0.00286176
4 *2328:A *651:209 2.63501e-05
5 *2328:A *676:40 1.13265e-05
6 *2328:A *686:52 0.000173523
7 *563:30 *1885:A2 0.000982598
8 *563:30 *1895:A2 5.09923e-05
9 *563:30 *2003:GATE 2.01997e-05
10 *563:30 *569:28 0
11 *563:30 *594:38 2.42991e-05
12 *563:30 *600:72 0.000147561
13 *563:30 *637:44 1.94647e-05
14 *563:30 *665:38 7.04039e-05
15 *563:30 *665:50 0.000108551
16 *563:30 *676:48 1.17921e-05
17 *563:30 *685:30 9.43632e-05
18 *563:30 *688:30 0.00069231
19 *563:30 *690:61 8.60835e-05
20 *563:30 *692:16 0.000282296
21 *563:30 *702:14 0
22 *563:30 *702:30 0.000608321
23 EE4BEG[13] *2328:A 0.000189081
24 *1946:D *2328:A 0.000403306
25 *2099:A *563:30 2.59355e-05
26 *2289:A *563:30 0.00090527
27 *2299:A *2328:A 0.000144696
28 *2299:A *563:30 0.000144008
29 *2316:A *2328:A 0.000218409
30 *2319:A *2328:A 9.41642e-05
31 *143:59 *563:30 2.54069e-05
32 *145:37 *563:30 0.000259869
33 *160:113 *2328:A 2.23592e-05
34 *479:106 *2328:A 0.000160394
35 *483:46 *2328:A 1.93459e-06
36 *483:46 *563:30 7.83253e-05
37 *524:142 *563:30 0.000125391
38 *528:44 *2328:A 0.000782415
39 *533:18 *563:30 0.000283814
40 *545:38 *2328:A 7.41094e-05
41 *545:38 *563:30 2.11419e-05
42 *548:22 *2328:A 9.41642e-05
43 *550:30 *2328:A 0.000588898
44 *555:38 *563:30 0.000328117
45 *558:52 *2328:A 8.72575e-05
46 *562:30 *2328:A 0.000142974
*RES
1 *2099:X *563:30 49.7165 
2 *563:30 *2328:A 49.6898 
*END

*D_NET *564 0.0215328
*CONN
*I *2329:A I *D sky130_fd_sc_hd__buf_2
*I *2100:X O *D sky130_fd_sc_hd__buf_1
*CAP
1 *2329:A 0.00119842
2 *2100:X 0.00160226
3 *564:36 0.00234722
4 *564:12 0.00305471
5 *564:8 0.00350817
6 *2329:A *583:86 6.34413e-05
7 *2329:A *594:88 0.000297669
8 *2329:A *600:162 0.000129859
9 *2329:A *646:32 0.00021635
10 *2329:A *653:219 0.000141244
11 *2329:A *653:249 0
12 *2329:A *659:209 0.000108437
13 *2329:A *691:38 0.000158308
14 *2329:A *695:76 1.44954e-05
15 *2329:A *704:72 0.000609093
16 *2329:A *704:90 4.40545e-06
17 *564:8 *2373:A 5.80941e-05
18 *564:36 *567:94 0.000547836
19 *564:36 *567:96 0
20 *564:36 *594:88 1.32091e-05
21 *564:36 *600:162 9.95912e-06
22 *564:36 *653:275 0.000205667
23 *564:36 *691:38 0.000268558
24 *564:36 *704:90 0.000943201
25 EE4BEG[10] *2329:A 0.000135394
26 EE4BEG[7] *2329:A 4.02948e-05
27 FrameData_O[10] *564:36 0.00012027
28 FrameData_O[14] *564:36 6.33204e-05
29 FrameData_O[15] *564:36 6.05161e-06
30 FrameData_O[2] *564:36 5.33005e-05
31 FrameData_O[4] *564:36 0.000178425
32 FrameStrobe_O[19] *564:8 6.25789e-05
33 *742:DIODE *564:8 0.000357095
34 *743:DIODE *564:8 0.000315165
35 *1883:S1 *564:8 5.74499e-06
36 *2150:A *564:8 0.000265447
37 *2158:A *564:8 4.82947e-05
38 *147:101 *564:36 0.000500734
39 *149:87 *2329:A 0.000185369
40 *514:24 *564:12 0.00184084
41 *514:24 *564:36 0.000381864
42 *524:43 *564:36 7.37335e-05
43 *524:67 *2329:A 0.00021182
44 *528:30 *564:12 0.000509956
45 *536:16 *564:12 0
46 *545:72 *2329:A 0.000305191
47 *556:22 *564:8 0.000144773
48 *559:34 *564:36 6.05161e-06
49 *559:58 *2329:A 0.000189374
50 *559:58 *564:36 3.10885e-05
*RES
1 *2100:X *564:8 36.5143 
2 *564:8 *564:12 48.9464 
3 *564:12 *564:36 49.9107 
4 *564:36 *2329:A 48.4607 
*END

*D_NET *565 0.0146429
*CONN
*I *2330:A I *D sky130_fd_sc_hd__buf_2
*I *2101:X O *D sky130_fd_sc_hd__buf_1
*CAP
1 *2330:A 0.000899982
2 *2101:X 0.00182153
3 *565:22 0.00272151
4 *2330:A *583:86 8.92874e-05
5 *2330:A *596:118 5.49489e-05
6 *2330:A *600:138 9.83442e-05
7 *2330:A *676:40 0.000187584
8 *565:22 *1809:A0 0.000792023
9 *565:22 *1812:A0 2.37836e-05
10 *565:22 *2342:A 0.000127987
11 *565:22 *575:18 0.000194491
12 *565:22 *595:36 0.000187959
13 *565:22 *596:118 0.000268771
14 *565:22 *601:30 0.000129624
15 *565:22 *630:66 0.0022803
16 *565:22 *632:152 0.000594541
17 *565:22 *673:90 8.35446e-05
18 *565:22 *689:108 0.00228117
19 *565:22 *703:40 8.06456e-05
20 EE4BEG[14] *2330:A 4.96113e-05
21 EE4BEG[15] *2330:A 2.79421e-05
22 *2098:A *2330:A 0.000174255
23 *2321:A *2330:A 5.33005e-05
24 *144:121 *2330:A 1.51571e-05
25 *148:97 *565:22 2.06037e-05
26 *398:22 *565:22 0.000547023
27 *516:32 *2330:A 0.000200709
28 *522:58 *565:22 8.22744e-05
29 *531:62 *2330:A 0.000177545
30 *553:20 *565:22 0.000115961
31 *558:14 *565:22 9.04313e-05
32 *558:52 *565:22 0.000170027
*RES
1 *2101:X *565:22 48.7672 
2 *565:22 *2330:A 29.5768 
*END

*D_NET *566 0.0072372
*CONN
*I *2331:A I *D sky130_fd_sc_hd__buf_2
*I *2108:X O *D sky130_fd_sc_hd__clkbuf_1
*CAP
1 *2331:A 0.000264039
2 *2108:X 0.00164918
3 *566:24 0.00191322
4 *2331:A *585:60 0.00017754
5 *2331:A *595:36 8.55871e-05
6 *2331:A *598:28 0.000137174
7 *566:24 *1998:D 5.49489e-05
8 *566:24 *1998:GATE 0.000846281
9 *566:24 *2057:D 0.000138755
10 *566:24 *2108:A 0.000221822
11 *566:24 *2358:A 9.66977e-05
12 *566:24 *582:128 0
13 *566:24 *587:148 0.000145239
14 *566:24 *595:36 0.000231508
15 *566:24 *598:28 0
16 *566:24 *679:61 0.000320738
17 FrameData_O[5] *566:24 0.000132836
18 *1808:S0 *566:24 1.21258e-05
19 *1878:S1 *566:24 1.30597e-05
20 *1889:S0 *2331:A 3.50409e-05
21 *2066:A *566:24 0.000220937
22 *153:129 *566:24 0
23 *480:108 *566:24 0.000265799
24 *514:24 *2331:A 5.49544e-05
25 *519:24 *566:24 0.000171213
26 *520:32 *566:24 4.85033e-05
*RES
1 *2108:X *566:24 49.1036 
2 *566:24 *2331:A 14.7821 
*END

*D_NET *567 0.0432064
*CONN
*I *2332:A I *D sky130_fd_sc_hd__buf_2
*I *731:DIODE I *D sky130_fd_sc_hd__diode_2
*I *2118:X O *D sky130_fd_sc_hd__clkbuf_2
*CAP
1 *2332:A 0.000130616
2 *731:DIODE 4.2036e-05
3 *2118:X 0.00115905
4 *567:96 0.000580704
5 *567:94 0.00175563
6 *567:72 0.00422173
7 *567:40 0.00532339
8 *567:14 0.00360829
9 *2332:A *691:72 0.000193356
10 *2332:A *704:110 0.000238163
11 *567:14 *634:84 0.00166005
12 *567:14 *647:46 3.69047e-06
13 *567:14 *657:18 0.000669108
14 *567:40 *1885:A2 0.000316115
15 *567:40 *583:72 0.000153573
16 *567:40 *600:72 0.000632239
17 *567:40 *634:78 0.00129504
18 *567:40 *635:42 0.000194724
19 *567:40 *637:44 0.000188801
20 *567:40 *637:67 0.000729908
21 *567:40 *647:123 0.000133262
22 *567:40 *661:112 8.69554e-05
23 *567:40 *665:83 4.00199e-05
24 *567:40 *701:28 0.00123496
25 *567:72 *740:DIODE 1.41805e-05
26 *567:72 *1885:A2 0.00141468
27 *567:72 *569:82 0.000647784
28 *567:72 *585:60 0.000127359
29 *567:72 *596:118 0.000996398
30 *567:72 *618:96 0.00050541
31 *567:72 *635:92 2.71935e-05
32 *567:72 *642:106 0.000797139
33 *567:72 *650:248 3.59812e-05
34 *567:72 *667:138 0.000193674
35 *567:72 *703:40 0.0002886
36 *567:94 *2346:A 0.00024506
37 *567:94 *600:162 0.00078059
38 *567:94 *704:90 1.73191e-05
39 E6BEG[11] *567:94 0.000193383
40 E6BEG[4] *567:94 2.06178e-05
41 E6BEG[9] *567:72 5.33005e-05
42 FrameData_O[10] *2332:A 6.05161e-06
43 FrameData_O[12] *2332:A 9.41642e-05
44 FrameData_O[13] *567:94 4.38243e-05
45 FrameData_O[16] *731:DIODE 5.33005e-05
46 FrameData_O[16] *567:96 0.000257619
47 FrameData_O[1] *567:94 2.27941e-05
48 FrameData_O[3] *567:94 0.000349578
49 FrameData_O[4] *567:94 0.000187964
50 FrameData_O[5] *567:94 9.8394e-05
51 *1806:A *567:14 0.0001416
52 *1807:A *567:14 0.000121606
53 *1813:S1 *567:94 9.35555e-05
54 *2068:A *2332:A 8.50152e-05
55 *2227:A *567:40 3.20942e-05
56 *2228:A *567:40 0.000247807
57 *2229:A *567:40 0.000158823
58 *2231:A *567:40 1.44378e-05
59 *2304:A *567:94 1.88258e-07
60 *2305:A *567:72 0.000172391
61 *2307:A *567:72 8.33274e-05
62 *2312:A *567:72 7.40536e-05
63 *142:23 *567:40 0.000115075
64 *144:27 *567:40 2.6847e-05
65 *144:121 *567:72 2.96436e-05
66 *144:145 *567:94 4.2931e-05
67 *145:37 *567:40 0.00301355
68 *148:21 *567:14 1.75291e-05
69 *148:21 *567:40 1.30694e-05
70 *149:9 *567:14 0
71 *150:17 *567:14 9.36141e-05
72 *159:93 *567:72 0.000173798
73 *160:113 *567:72 0.00061065
74 *234:44 *567:94 0.000198298
75 *235:21 *567:94 7.06329e-05
76 *235:45 *567:94 0.000179793
77 *266:10 *567:14 6.54885e-05
78 *409:34 *567:72 0.000418268
79 *479:130 *567:72 5.01876e-06
80 *514:24 *567:94 0.000719908
81 *514:72 *567:72 0.000187964
82 *514:72 *567:94 1.3682e-05
83 *514:94 *567:40 0.000189578
84 *515:40 *567:72 0.000361183
85 *516:32 *567:72 0.000197507
86 *520:32 *567:72 9.67356e-06
87 *535:157 *567:72 0.00261615
88 *564:36 *567:94 0.000547836
89 *564:36 *567:96 0
*RES
1 *2118:X *567:14 48.6214 
2 *567:14 *567:40 43.8137 
3 *567:40 *567:72 48.8551 
4 *567:72 *567:94 45.8689 
5 *567:94 *567:96 5.875 
6 *567:96 *731:DIODE 9.83571 
7 *567:96 *2332:A 22.4071 
*END

*D_NET *568 0.051354
*CONN
*I *1949:D I *D sky130_fd_sc_hd__dlxtp_1
*I *2013:D I *D sky130_fd_sc_hd__dlxtp_1
*I *2129:A I *D sky130_fd_sc_hd__clkbuf_1
*I *1981:D I *D sky130_fd_sc_hd__dlxtp_1
*I *2045:D I *D sky130_fd_sc_hd__dlxtp_1
*I *1917:D I *D sky130_fd_sc_hd__dlxtp_1
*I *2195:X O *D sky130_fd_sc_hd__buf_2
*CAP
1 *1949:D 0.000304641
2 *2013:D 0
3 *2129:A 0
4 *1981:D 3.71145e-05
5 *2045:D 0.00118659
6 *1917:D 0.000371793
7 *2195:X 0.000459774
8 *568:188 0.00123986
9 *568:163 0.00140924
10 *568:122 0.0025339
11 *568:114 0.00204973
12 *568:88 0.0032835
13 *568:58 0.00307816
14 *568:54 0.00127441
15 *568:28 0.00150845
16 *568:10 0.0019996
17 *1917:D *640:18 2.26973e-05
18 *1949:D *735:DIODE 0.000135028
19 *1949:D *1949:GATE 0.00012177
20 *1981:D *1981:GATE 1.32056e-05
21 *2045:D *1819:A2 0.000481752
22 *2045:D *1833:A1 7.10245e-05
23 *2045:D *1851:A2 0.000523673
24 *2045:D *2045:GATE 9.25014e-06
25 *568:10 *603:74 0.000327041
26 *568:10 *629:58 2.00138e-06
27 *568:28 *603:74 0.000932348
28 *568:28 *633:32 0.00107473
29 *568:54 *626:70 0.000227338
30 *568:54 *627:68 0.000543163
31 *568:54 *633:26 3.85993e-05
32 *568:54 *633:30 0.000121324
33 *568:54 *694:76 0.000458731
34 *568:58 *590:14 0.000321998
35 *568:58 *591:94 0.00134921
36 *568:58 *602:109 0.000622685
37 *568:88 *2016:GATE 3.24081e-05
38 *568:88 *587:24 0.00080297
39 *568:88 *587:60 0.000692634
40 *568:88 *591:126 3.77315e-05
41 *568:88 *594:38 0.000450671
42 *568:88 *602:160 6.61023e-05
43 *568:88 *613:138 9.97297e-05
44 *568:88 *618:12 4.87737e-05
45 *568:88 *627:104 0.000111156
46 *568:88 *628:90 0.000471186
47 *568:88 *628:112 0.000271331
48 *568:88 *639:30 4.43053e-05
49 *568:88 *684:130 0.000139977
50 *568:88 *706:66 1.18554e-05
51 *568:114 *1925:D 0.000139966
52 *568:114 *1927:D 3.42509e-05
53 *568:114 *1927:GATE 2.51343e-06
54 *568:114 *1981:GATE 0.000146994
55 *568:114 *1983:D 0
56 *568:114 *1983:GATE 0.000238582
57 *568:114 *2184:A 0.000263967
58 *568:114 *587:24 0.000155877
59 *568:114 *639:52 0.000534745
60 *568:114 *666:76 0.000135202
61 *568:114 *672:192 3.08382e-06
62 *568:114 *672:194 1.21258e-05
63 *568:114 *672:198 0.000170075
64 *568:114 *683:10 1.43864e-05
65 *568:122 *2033:GATE 5.80379e-05
66 *568:122 *2049:D 1.90936e-05
67 *568:122 *2117:A 1.39782e-05
68 *568:122 *639:60 0.000221834
69 *568:122 *666:76 0.000412578
70 *568:122 *666:126 0.00088491
71 *568:122 *666:132 0.000126439
72 *568:122 *666:145 1.37595e-05
73 *568:122 *683:18 5.46313e-05
74 *568:122 *683:28 0.00033746
75 *568:122 *683:30 0.00024195
76 *568:122 *683:34 0.000756815
77 *568:163 *1965:GATE 0.00013017
78 *568:163 *672:18 5.49544e-05
79 *568:188 *1893:A3 2.28737e-05
80 *568:188 *1965:GATE 0.00046904
81 *568:188 *2013:GATE 2.93523e-05
82 *568:188 *575:18 0.000319909
83 *568:188 *595:18 6.7848e-05
84 *568:188 *635:102 0.000281035
85 *568:188 *635:112 3.34295e-05
86 C_config_C_bit3 *568:88 2.06178e-05
87 *1831:A2 *2045:D 4.038e-06
88 *1882:S0 *1949:D 3.63775e-05
89 *2044:D *1917:D 8.87461e-06
90 *2044:D *2045:D 0.000433764
91 *2068:A *1949:D 0.000740613
92 *2068:A *568:188 0.00021558
93 *2174:A *568:163 3.38774e-05
94 *2174:A *568:188 5.49489e-05
95 *2189:A *568:28 6.05161e-06
96 *2197:A *1917:D 0.000411853
97 *2197:A *568:122 0.000185199
98 *2274:A *568:88 0.000278783
99 *2387:A *568:122 0.000287268
100 *142:67 *568:54 0.000420334
101 *142:99 *568:28 0.000178248
102 *146:33 *2045:D 0
103 *148:97 *568:188 0.000224917
104 *152:33 *568:88 0.000139207
105 *153:43 *568:88 4.75671e-06
106 *156:27 *568:122 0.000546697
107 *156:47 *568:88 0
108 *156:47 *568:122 2.8046e-05
109 *156:53 *568:54 0.000331448
110 *158:31 *568:58 0.000138885
111 *158:75 *568:28 0.000348176
112 *159:45 *568:88 0.000263875
113 *160:127 *568:188 0.000360229
114 *181:17 *1917:D 0
115 *181:17 *2045:D 0
116 *181:21 *568:88 1.16258e-05
117 *233:99 *568:188 1.43455e-05
118 *243:42 *568:88 0.000142654
119 *482:58 *568:54 8.63635e-05
120 *489:10 *1917:D 2.11419e-05
121 *511:10 *568:54 0.000130576
122 *522:58 *568:188 1.45812e-05
123 *544:48 *568:58 0.00134445
124 *556:24 *568:10 0.000320213
125 *556:24 *568:28 0.00113645
126 *556:40 *568:28 0.000910146
127 *557:8 *568:163 8.17152e-05
128 *557:8 *568:188 1.98839e-05
129 *557:46 *568:58 0.00327859
130 *557:94 *568:114 1.76471e-05
131 *557:94 *568:122 0.000289135
132 *561:30 *568:88 1.47874e-05
*RES
1 *2195:X *568:10 22.5143 
2 *568:10 *568:28 49.3929 
3 *568:28 *568:54 40.4286 
4 *568:54 *568:58 45.9107 
5 *568:58 *568:88 49.1099 
6 *568:88 *568:114 42.0618 
7 *568:114 *568:122 36.6332 
8 *568:122 *1917:D 18.2545 
9 *568:122 *2045:D 22.5261 
10 *568:114 *1981:D 14.3357 
11 *568:10 *568:163 12.4464 
12 *568:163 *2129:A 9.3 
13 *568:163 *568:188 32.6042 
14 *568:188 *2013:D 9.3 
15 *568:188 *1949:D 16.8179 
*END

*D_NET *569 0.03154
*CONN
*I *2333:A I *D sky130_fd_sc_hd__buf_2
*I *2119:X O *D sky130_fd_sc_hd__buf_1
*CAP
1 *2333:A 0.000505722
2 *2119:X 0.00265418
3 *569:82 0.00188832
4 *569:62 0.00385061
5 *569:28 0.00512219
6 *2333:A *601:30 2.78758e-05
7 *2333:A *646:88 1.65169e-05
8 *2333:A *650:248 8.48614e-05
9 *2333:A *650:254 0.000156727
10 *569:28 *1950:D 5.59084e-05
11 *569:28 *2035:D 3.63775e-05
12 *569:28 *2035:GATE 6.57032e-05
13 *569:28 *2036:D 2.79421e-05
14 *569:28 *2037:GATE 6.05161e-06
15 *569:28 *591:102 1.4477e-06
16 *569:28 *596:40 0.000157546
17 *569:28 *596:82 0.000812965
18 *569:28 *631:106 2.63501e-05
19 *569:28 *632:66 0.00168591
20 *569:28 *652:127 0.000883413
21 *569:28 *658:58 2.63501e-05
22 *569:28 *659:83 0.000949705
23 *569:28 *694:44 0.000302068
24 *569:28 *708:12 0.000948915
25 *569:62 *1822:A1 4.02038e-05
26 *569:62 *1881:A2 2.26973e-05
27 *569:62 *2002:GATE 0.0001283
28 *569:62 *653:170 0.000405861
29 *569:62 *661:177 4.65135e-05
30 *569:62 *667:54 6.05161e-06
31 *569:62 *697:46 1.30275e-05
32 *569:62 *698:121 4.03969e-05
33 *569:62 *703:40 0.000756417
34 *569:62 *704:44 0.000101819
35 *569:62 *708:28 6.43445e-05
36 *569:82 *1881:A0 2.09897e-05
37 *569:82 *1881:A2 3.59843e-05
38 *569:82 *1998:D 1.90936e-05
39 *569:82 *1999:D 0.000582809
40 *569:82 *637:114 0.000478043
41 *569:82 *650:248 6.42318e-05
42 *569:82 *667:138 9.9067e-05
43 *569:82 *673:90 4.06791e-05
44 E2BEGb[1] *569:62 5.65955e-05
45 E2BEGb[2] *569:62 6.58294e-06
46 E2BEGb[3] *569:62 0.000167762
47 EE4BEG[11] *569:62 0.000211169
48 EE4BEG[12] *569:62 0.000172883
49 EE4BEG[13] *569:62 9.16052e-06
50 FrameData_O[5] *569:82 7.57673e-05
51 *1887:S1 *569:62 2.59355e-05
52 *1899:A3 *2333:A 8.81866e-05
53 *1899:S0 *2333:A 0.000134771
54 *2309:A *2333:A 4.11218e-05
55 *2317:A *569:82 3.22745e-05
56 *2321:A *569:62 1.50738e-05
57 *2321:A *569:82 0.000295285
58 *2326:A *569:28 0.000165782
59 *143:59 *569:28 3.29699e-05
60 *144:71 *569:62 0.000204559
61 *148:81 *569:62 2.63501e-05
62 *159:77 *569:28 0.000440724
63 *160:113 *569:82 0.000317558
64 *181:44 *569:62 6.28203e-05
65 *233:62 *2333:A 3.69047e-06
66 *234:44 *569:82 2.62227e-05
67 *234:58 *569:62 7.87582e-05
68 *234:58 *569:82 7.41091e-05
69 *235:45 *2333:A 0.000344403
70 *235:45 *569:82 0.000541339
71 *240:10 *569:28 6.54834e-06
72 *249:34 *569:62 0.000169958
73 *409:18 *569:28 9.03775e-05
74 *479:46 *569:28 1.30275e-05
75 *479:130 *569:82 0.000277102
76 *483:46 *569:28 3.93759e-05
77 *483:78 *569:62 0.000450344
78 *514:94 *569:62 1.30275e-05
79 *516:32 *569:62 0.000122035
80 *519:46 *569:28 8.47152e-05
81 *522:58 *569:62 0.00122563
82 *528:44 *569:62 0.000170336
83 *531:62 *569:82 0.00010105
84 *538:66 *569:62 0.000403481
85 *539:40 *569:82 5.49544e-05
86 *544:68 *569:82 0.000506473
87 *545:72 *569:62 1.53482e-05
88 *545:72 *569:82 0.000122133
89 *552:28 *2333:A 4.27611e-05
90 *559:34 *569:82 6.54117e-05
91 *562:30 *569:82 6.05161e-06
92 *563:30 *569:28 0
93 *567:72 *569:82 0.000647784
*RES
1 *2119:X *569:28 49.4848 
2 *569:28 *569:62 47.7608 
3 *569:62 *569:82 45.6161 
4 *569:82 *2333:A 29.4285 
*END

*D_NET *570 0.00633686
*CONN
*I *2334:A I *D sky130_fd_sc_hd__buf_2
*I *2120:X O *D sky130_fd_sc_hd__clkbuf_1
*CAP
1 *2334:A 0.000536445
2 *2120:X 0.000862441
3 *570:14 0.00139889
4 *2334:A *2335:A 6.63556e-05
5 *2334:A *2354:A 0.000283255
6 *2334:A *571:18 0
7 *2334:A *577:20 0.000306987
8 *2334:A *587:176 4.53414e-05
9 *2334:A *646:127 0.000207081
10 *570:14 *572:12 0.000640687
11 *1882:S0 *2334:A 0.000147973
12 *1882:S0 *570:14 1.90303e-05
13 *1906:S0 *2334:A 0.00040166
14 *1914:S0 *2334:A 0.000332413
15 *2068:A *2334:A 0.000263455
16 *2084:A *570:14 0.000151165
17 *2104:A *570:14 2.89114e-05
18 *150:87 *570:14 0.000644778
*RES
1 *2120:X *570:14 38.2286 
2 *570:14 *2334:A 29.5679 
*END

*D_NET *571 0.00731231
*CONN
*I *2335:A I *D sky130_fd_sc_hd__buf_2
*I *2121:X O *D sky130_fd_sc_hd__clkbuf_1
*CAP
1 *2335:A 0.000493003
2 *2121:X 0.000869543
3 *571:18 0.00136255
4 *2335:A *1882:A2 6.607e-06
5 *2335:A *1914:A2 0.000217983
6 *2335:A *2348:A 5.90443e-06
7 *2335:A *2353:A 0.000137561
8 *2335:A *2362:A 4.09684e-05
9 *2335:A *573:28 0.000571761
10 *2335:A *601:30 9.30044e-05
11 *571:18 *1814:A2 2.51989e-05
12 *571:18 *1882:A2 0.000377449
13 *571:18 *1893:A1 8.65987e-06
14 *571:18 *1894:A3 0.000244621
15 *571:18 *1914:A2 2.89656e-05
16 *571:18 *2121:A 8.45372e-05
17 *571:18 *2340:A 0.000530888
18 *571:18 *2348:A 0.000126778
19 *571:18 *577:20 2.506e-05
20 *571:18 *587:176 4.65005e-05
21 *571:18 *632:152 6.47471e-05
22 *571:18 *632:161 0.00060318
23 *571:18 *632:174 0.000186759
24 FrameData_O[13] *2335:A 4.96113e-05
25 FrameData_O[23] *2335:A 2.75217e-05
26 FrameData_O[23] *571:18 2.82648e-06
27 FrameData_O[24] *571:18 4.04691e-06
28 *1882:S1 *571:18 6.24997e-05
29 *1886:S1 *571:18 6.42145e-05
30 *1899:S0 *2335:A 0.000314105
31 *1906:S0 *2335:A 0.000517883
32 *2080:A *571:18 0
33 *2334:A *2335:A 6.63556e-05
34 *2334:A *571:18 0
35 *233:80 *2335:A 5.10173e-05
36 *483:78 *571:18 0
*RES
1 *2121:X *571:18 41.7129 
2 *571:18 *2335:A 29.3982 
*END

*D_NET *572 0.00735743
*CONN
*I *2336:A I *D sky130_fd_sc_hd__buf_2
*I *2122:X O *D sky130_fd_sc_hd__clkbuf_1
*CAP
1 *2336:A 0.00093244
2 *2122:X 0.00126979
3 *572:12 0.00220223
4 *2336:A *1882:A2 0.000196877
5 *2336:A *1906:A0 4.36968e-06
6 *2336:A *1906:A2 1.14548e-05
7 *2336:A *1906:A3 0.000191657
8 *2336:A *708:113 1.28293e-05
9 *572:12 *1959:D 0.000240583
10 *572:12 *1959:GATE 5.03772e-05
11 *572:12 *618:116 0
12 *572:12 *618:132 0.000374994
13 *572:12 *645:78 2.72545e-05
14 *572:12 *669:53 2.30043e-05
15 *572:12 *678:16 4.94446e-05
16 *572:12 *691:105 0.000322755
17 *1906:S1 *2336:A 0.000197894
18 *2076:A *2336:A 6.13757e-06
19 *150:69 *572:12 0.000470108
20 *150:87 *572:12 0.000110728
21 *233:122 *572:12 2.54304e-06
22 *552:28 *572:12 1.92712e-05
23 *570:14 *572:12 0.000640687
*RES
1 *2122:X *572:12 44.675 
2 *572:12 *2336:A 20.7286 
*END

*D_NET *573 0.0114588
*CONN
*I *2337:A I *D sky130_fd_sc_hd__buf_2
*I *2123:X O *D sky130_fd_sc_hd__buf_1
*CAP
1 *2337:A 0.000125382
2 *2123:X 0.00290592
3 *573:28 0.0030313
4 *2337:A *2362:A 9.58181e-05
5 *2337:A *646:88 0.000160395
6 *573:28 *1914:A2 4.3936e-05
7 *573:28 *2340:A 0.00011481
8 *573:28 *2348:A 5.4162e-05
9 *573:28 *586:110 0.000209196
10 *573:28 *594:88 0.000418898
11 *573:28 *613:40 0.000363517
12 *573:28 *615:10 0.000160747
13 *573:28 *618:116 0.000170027
14 *573:28 *618:132 0.000127301
15 *573:28 *673:48 9.09539e-05
16 *573:28 *691:72 0
17 *573:28 *694:92 0.000159375
18 *573:28 *701:81 7.58688e-06
19 *573:28 *704:110 0
20 FrameData_O[11] *2337:A 5.74701e-05
21 *1894:S0 *573:28 5.33005e-05
22 *1914:S1 *573:28 6.53224e-05
23 *2335:A *573:28 0.000571761
24 *148:97 *573:28 4.76341e-05
25 *160:127 *573:28 0.000672655
26 *160:133 *573:28 1.04894e-05
27 *491:96 *573:28 0.000620766
28 *491:102 *573:28 1.58163e-05
29 *531:34 *573:28 8.52738e-05
30 *535:16 *573:28 4.38296e-05
31 *535:112 *573:28 0.000975124
32 *551:20 *573:28 0
*RES
1 *2123:X *573:28 49.8162 
2 *573:28 *2337:A 12.7286 
*END

*D_NET *574 0.00558869
*CONN
*I *2338:A I *D sky130_fd_sc_hd__buf_2
*I *2124:X O *D sky130_fd_sc_hd__clkbuf_1
*CAP
1 *2338:A 0
2 *2124:X 0.00160403
3 *574:14 0.00160403
4 *574:14 *1978:GATE 0.000105471
5 *574:14 *2141:A 5.33005e-05
6 *574:14 *2340:A 0.000137561
7 *574:14 *579:24 4.82945e-05
8 *574:14 *634:176 0.000216755
9 *574:14 *672:18 9.80534e-05
10 *574:14 *677:104 2.22618e-05
11 FrameData_O[18] *574:14 9.74665e-05
12 *1906:S0 *574:14 0.00062958
13 *2007:D *574:14 0.000178425
14 *2125:A *574:14 5.33005e-05
15 *479:159 *574:14 2.22618e-05
16 *513:37 *574:14 0.000439194
17 *524:43 *574:14 0.000278706
*RES
1 *2124:X *574:14 46.4786 
2 *574:14 *2338:A 9.3 
*END

*D_NET *575 0.00704522
*CONN
*I *2339:A I *D sky130_fd_sc_hd__buf_2
*I *2125:X O *D sky130_fd_sc_hd__clkbuf_1
*CAP
1 *2339:A 0.00120877
2 *2125:X 0.00102518
3 *575:18 0.00223395
4 *2339:A *1948:GATE 1.98839e-05
5 *2339:A *2340:A 9.65701e-06
6 *2339:A *2346:A 0.000361902
7 *2339:A *581:14 6.12488e-05
8 *2339:A *592:26 0.000715128
9 *575:18 *1965:GATE 6.8445e-06
10 *575:18 *587:176 0
11 *575:18 *635:112 0.00017754
12 *575:18 *673:185 6.30388e-05
13 FrameData_O[24] *2339:A 5.33072e-05
14 *1914:S0 *2339:A 9.58181e-05
15 *1948:D *2339:A 9.35114e-06
16 *1977:D *575:18 0.000334934
17 *148:97 *575:18 5.90505e-05
18 *233:99 *575:18 7.6644e-05
19 *557:147 *2339:A 1.85689e-05
20 *565:22 *575:18 0.000194491
21 *568:188 *575:18 0.000319909
*RES
1 *2125:X *575:18 44.0857 
2 *575:18 *2339:A 35.4429 
*END

*D_NET *576 0.00944648
*CONN
*I *2340:A I *D sky130_fd_sc_hd__buf_2
*I *2126:X O *D sky130_fd_sc_hd__clkbuf_1
*CAP
1 *2340:A 0.00169176
2 *2126:X 0.00104905
3 *576:14 0.00274081
4 *2340:A *1906:A3 0.00014767
5 *2340:A *1914:A2 3.88675e-05
6 *2340:A *2341:A 1.19547e-05
7 *2340:A *691:72 0
8 *2340:A *704:110 0.000136506
9 *2340:A *708:113 1.30681e-05
10 *576:14 *1886:A2 0.000460876
11 *576:14 *1894:A3 6.72333e-05
12 *576:14 *2004:D 0.000191972
13 *576:14 *2012:GATE 0.000222014
14 *576:14 *618:132 7.46389e-05
15 *576:14 *653:275 5.24491e-05
16 FrameData_O[23] *2340:A 3.42554e-05
17 FrameData_O[24] *2340:A 4.93512e-05
18 FrameData_O[25] *2340:A 0.000189608
19 FrameData_O[28] *2340:A 0
20 FrameData_O[30] *2340:A 0.000149235
21 *743:DIODE *576:14 0.000376675
22 *1883:A0 *576:14 0.000118443
23 *1886:A1 *576:14 7.14841e-05
24 *1914:S1 *2340:A 0.000146618
25 *2060:A *2340:A 0
26 *2065:A *576:14 0.000149633
27 *2339:A *2340:A 9.65701e-06
28 *146:99 *576:14 4.40601e-05
29 *150:87 *576:14 0
30 *483:78 *2340:A 0
31 *483:90 *576:14 0.000286125
32 *524:43 *2340:A 0.000139208
33 *571:18 *2340:A 0.000530888
34 *573:28 *2340:A 0.00011481
35 *574:14 *2340:A 0.000137561
*RES
1 *2126:X *576:14 44.6036 
2 *576:14 *2340:A 46.1571 
*END

*D_NET *577 0.00658885
*CONN
*I *2341:A I *D sky130_fd_sc_hd__buf_2
*I *2127:X O *D sky130_fd_sc_hd__clkbuf_1
*CAP
1 *2341:A 0.000280271
2 *2127:X 0.00125127
3 *577:20 0.00153154
4 *577:20 *1814:A2 0.000603201
5 *577:20 *1814:A3 2.3704e-05
6 *577:20 *1894:A3 0
7 *577:20 *2351:A 0.000735683
8 *577:20 *2354:A 0.000127362
9 *577:20 *2369:A 2.51343e-06
10 *577:20 *587:176 5.31122e-05
11 *577:20 *594:102 6.35864e-05
12 *577:20 *632:174 0
13 *577:20 *698:175 1.41029e-05
14 FrameData_O[24] *2341:A 5.1588e-05
15 FrameData_O[26] *2341:A 0.000397706
16 FrameData_O[27] *2341:A 7.32756e-05
17 *710:DIODE *577:20 0
18 *711:DIODE *577:20 0.000592361
19 *1883:S1 *577:20 0.000147706
20 *1886:S0 *577:20 0.000171391
21 *2126:A *577:20 1.24368e-05
22 *2334:A *577:20 0.000306987
23 *2340:A *2341:A 1.19547e-05
24 *151:77 *577:20 6.8646e-06
25 *235:64 *577:20 5.18742e-05
26 *528:30 *577:20 5.33005e-05
27 *571:18 *577:20 2.506e-05
*RES
1 *2127:X *577:20 49.7643 
2 *577:20 *2341:A 22.9786 
*END

*D_NET *578 0.0091574
*CONN
*I *2342:A I *D sky130_fd_sc_hd__buf_2
*I *2109:X O *D sky130_fd_sc_hd__clkbuf_1
*CAP
1 *2342:A 0.00124036
2 *2109:X 0.000571538
3 *578:14 0.0018119
4 *2342:A *741:DIODE 9.41642e-05
5 *2342:A *1999:D 1.58163e-05
6 *2342:A *1999:GATE 0.000288794
7 *2342:A *632:152 0.000155356
8 *2342:A *662:196 0.000888022
9 *2342:A *669:96 0.000216755
10 *578:14 *603:66 9.41642e-05
11 *578:14 *626:34 5.58875e-06
12 *578:14 *674:48 0.000724141
13 *578:14 *674:80 0.000217859
14 *578:14 *676:10 0.000674352
15 FrameData_O[3] *2342:A 9.41642e-05
16 FrameData_O[5] *2342:A 0.000207268
17 *520:32 *2342:A 0.000892015
18 *544:68 *578:14 0.000599677
19 *546:31 *578:14 5.20232e-05
20 *546:42 *578:14 0.000185452
21 *565:22 *2342:A 0.000127987
*RES
1 *2109:X *578:14 39.6393 
2 *578:14 *2342:A 40.1571 
*END

*D_NET *579 0.0512748
*CONN
*I *2014:D I *D sky130_fd_sc_hd__dlxtp_1
*I *1950:D I *D sky130_fd_sc_hd__dlxtp_1
*I *1982:D I *D sky130_fd_sc_hd__dlxtp_1
*I *2046:D I *D sky130_fd_sc_hd__dlxtp_1
*I *2130:A I *D sky130_fd_sc_hd__clkbuf_2
*I *1918:D I *D sky130_fd_sc_hd__dlxtp_1
*I *2196:X O *D sky130_fd_sc_hd__buf_2
*CAP
1 *2014:D 0
2 *1950:D 0.000214381
3 *1982:D 0.0010522
4 *2046:D 6.48778e-05
5 *2130:A 0
6 *1918:D 0.000264698
7 *2196:X 0.00330893
8 *579:86 0.000285888
9 *579:84 0.0002444
10 *579:78 0.00176849
11 *579:54 0.00364202
12 *579:52 0.00411792
13 *579:32 0.00326482
14 *579:24 0.00364987
15 *1918:D *1919:GATE 5.33005e-05
16 *1950:D *596:40 1.1984e-05
17 *1950:D *658:58 4.65519e-05
18 *1950:D *662:142 2.26973e-05
19 *1950:D *687:114 2.70764e-05
20 *1982:D *618:12 2.21972e-05
21 *1982:D *658:27 2.62822e-05
22 *2046:D *2046:GATE 9.71197e-05
23 *2046:D *682:29 0.000227539
24 *579:24 *1989:D 3.69047e-06
25 *579:24 *2015:D 0.000112369
26 *579:24 *2020:GATE 0.000112857
27 *579:24 *584:84 0.00037531
28 *579:24 *585:30 0.00031899
29 *579:24 *586:110 0
30 *579:24 *587:148 1.61322e-05
31 *579:24 *590:130 0.00141845
32 *579:24 *591:34 0.00110571
33 *579:24 *591:94 3.85784e-05
34 *579:24 *601:30 1.46296e-05
35 *579:24 *613:40 0.00030694
36 *579:24 *629:69 0.000317331
37 *579:24 *672:18 0.00043006
38 *579:24 *698:175 0.000283661
39 *579:32 *1812:A0 1.48639e-05
40 *579:32 *2015:D 0.000357654
41 *579:32 *586:110 0.000309175
42 *579:32 *597:46 4.6392e-05
43 *579:32 *613:40 8.69554e-05
44 *579:52 *586:110 0.000295344
45 *579:52 *593:74 0.000120211
46 *579:52 *631:65 0.000317268
47 *579:52 *632:107 6.14836e-06
48 *579:52 *634:54 0.0017981
49 *579:52 *634:130 0.00101044
50 *579:52 *635:92 0.000372454
51 *579:52 *636:54 0.00200777
52 *579:52 *661:207 4.99276e-05
53 *579:52 *677:42 0.000220943
54 *579:52 *689:108 1.47871e-05
55 *579:52 *693:22 0.000151784
56 *579:52 *701:54 0.00198994
57 *579:52 *703:40 0.000496158
58 *579:54 *658:31 0.000749062
59 *579:54 *658:58 0.00177479
60 *579:78 *1820:A 0.000262498
61 *579:78 *1834:A 3.17148e-05
62 *579:78 *1847:A3 0.000117421
63 *579:78 *1848:A2 6.60111e-05
64 *579:78 *2183:A 9.60939e-05
65 *579:78 *583:42 0.000639752
66 *579:78 *596:28 0.000203265
67 *579:78 *648:28 8.60622e-05
68 *579:78 *650:76 4.43256e-05
69 *579:78 *655:16 0.000285961
70 *579:78 *658:27 0
71 *579:78 *658:31 0.000170238
72 *579:78 *682:10 1.39841e-05
73 *579:84 *2183:A 1.55475e-05
74 *579:84 *582:12 0.000338111
75 *579:84 *682:10 9.40167e-05
76 *579:84 *682:12 0.000209213
77 *579:84 *682:14 3.34366e-05
78 *1821:A4 *579:78 0.000132967
79 *1829:S *579:78 0.000177821
80 *1830:A_N *579:78 5.33005e-05
81 *1830:B *579:78 5.46971e-05
82 *1843:S1 *579:78 0.000139378
83 *1847:S0 *579:78 6.19871e-05
84 *1849:A0 *579:78 0.000447778
85 *1849:S *579:78 1.874e-05
86 *1898:S0 *1982:D 0.000126176
87 *142:23 *579:54 0.000123017
88 *142:23 *579:78 0.000479053
89 *146:33 *1982:D 0.00012239
90 *149:27 *579:54 2.61531e-05
91 *149:37 *1950:D 2.11419e-05
92 *150:17 *579:78 0.00016796
93 *150:41 *579:52 1.43819e-05
94 *157:21 *579:84 0
95 *159:21 *579:84 1.18554e-05
96 *235:113 *579:52 0.000220878
97 *236:22 *579:32 0.000107024
98 *239:24 *579:78 9.9974e-05
99 *409:34 *579:52 1.47779e-05
100 *480:153 *579:24 0.000169613
101 *483:46 *579:52 0.000364671
102 *483:46 *579:54 2.50628e-05
103 *487:40 *1918:D 0.000255007
104 *487:40 *2046:D 7.03543e-05
105 *487:40 *579:86 2.89016e-05
106 *491:57 *579:24 5.98905e-05
107 *493:18 *579:78 0.000153225
108 *501:14 *579:78 0.00128366
109 *512:14 *579:24 0.000119786
110 *519:46 *579:52 3.634e-05
111 *520:32 *579:52 0.000113877
112 *524:14 *579:24 2.11419e-05
113 *524:142 *579:52 0.00112197
114 *524:142 *579:54 0.00233453
115 *540:22 *579:32 0.000180005
116 *557:32 *579:24 3.08386e-05
117 *557:143 *579:24 0
118 *558:52 *579:32 1.44868e-05
119 *569:28 *1950:D 5.59084e-05
120 *574:14 *579:24 4.82945e-05
*RES
1 *2196:X *579:24 49.3965 
2 *579:24 *579:32 11.0795 
3 *579:32 *579:52 30.3576 
4 *579:52 *579:54 5.4802 
5 *579:54 *579:78 49.982 
6 *579:78 *579:84 14.2857 
7 *579:84 *579:86 0.535714 
8 *579:86 *1918:D 14.7643 
9 *579:86 *2130:A 9.3 
10 *579:84 *2046:D 11.8893 
11 *579:54 *1982:D 22.7094 
12 *579:52 *1950:D 21.3402 
13 *579:32 *2014:D 9.3 
*END

*D_NET *580 0.00600065
*CONN
*I *2343:A I *D sky130_fd_sc_hd__buf_2
*I *2128:X O *D sky130_fd_sc_hd__clkbuf_1
*CAP
1 *2343:A 0
2 *2128:X 0.0014735
3 *580:16 0.0014735
4 *580:16 *1933:D 0.00038109
5 *580:16 *1989:GATE 5.67375e-05
6 *580:16 *1997:GATE 5.49544e-05
7 *580:16 *2012:GATE 2.84026e-05
8 *580:16 *2355:A 9.41642e-05
9 *580:16 *584:84 0.00015169
10 *580:16 *589:16 0.000100831
11 *580:16 *595:18 0.000764186
12 *580:16 *635:112 5.33005e-05
13 *580:16 *669:45 0.000386121
14 *580:16 *670:65 0.000288557
15 *580:16 *673:185 1.48543e-05
16 *580:16 *673:189 0.000126439
17 FrameData_O[24] *580:16 5.49544e-05
18 FrameData_O[31] *580:16 6.12668e-05
19 *1882:S1 *580:16 0.000301016
20 *2012:D *580:16 5.33005e-05
21 *2128:A *580:16 3.69047e-06
22 *323:12 *580:16 7.80952e-05
*RES
1 *2128:X *580:16 49.0321 
2 *580:16 *2343:A 9.3 
*END

*D_NET *581 0.00645533
*CONN
*I *2344:A I *D sky130_fd_sc_hd__buf_2
*I *2129:X O *D sky130_fd_sc_hd__clkbuf_1
*CAP
1 *2344:A 0
2 *2129:X 0.00204475
3 *581:14 0.00204475
4 *581:14 *2346:A 5.60201e-05
5 *581:14 *670:65 0.000103266
6 *1948:D *581:14 5.33005e-05
7 *2128:A *581:14 3.27526e-05
8 *2339:A *581:14 6.12488e-05
9 *557:143 *581:14 0.000172085
10 *557:147 *581:14 0.00188715
*RES
1 *2129:X *581:14 45.9429 
2 *581:14 *2344:A 9.3 
*END

*D_NET *582 0.058882
*CONN
*I *2345:A I *D sky130_fd_sc_hd__buf_2
*I *2130:X O *D sky130_fd_sc_hd__clkbuf_2
*CAP
1 *2345:A 0.00212706
2 *2130:X 0.000737662
3 *582:128 0.00501975
4 *582:94 0.005076
5 *582:54 0.00646884
6 *582:28 0.00566948
7 *582:20 0.00235736
8 *582:12 0.00171106
9 *2345:A *584:84 0.000216737
10 *2345:A *594:102 0
11 *2345:A *667:172 0.00030616
12 *2345:A *687:18 4.58615e-05
13 *2345:A *698:175 0
14 *582:12 *1819:A2 6.39808e-05
15 *582:12 *2048:D 0.000151588
16 *582:12 *2183:A 3.93381e-05
17 *582:12 *602:166 0.00114426
18 *582:12 *652:36 0.000197207
19 *582:12 *652:44 0.00018973
20 *582:20 *1843:A0 9.58126e-05
21 *582:20 *587:12 5.07017e-06
22 *582:20 *640:24 0.000463586
23 *582:20 *666:32 0.000224341
24 *582:28 *601:10 0.00338608
25 *582:28 *602:131 0.000269928
26 *582:54 *1884:A1 0.000588568
27 *582:54 *1884:A3 4.00349e-05
28 *582:54 *1972:D 2.16899e-05
29 *582:54 *587:90 0.000284551
30 *582:54 *587:148 0
31 *582:54 *590:96 0.000195415
32 *582:54 *591:94 4.19032e-05
33 *582:54 *593:44 0.000469125
34 *582:54 *600:138 0.000827245
35 *582:54 *613:40 8.049e-05
36 *582:54 *618:50 0
37 *582:54 *624:32 2.63501e-05
38 *582:54 *627:104 0.000995028
39 *582:54 *628:60 0.000508063
40 *582:54 *631:106 6.14074e-05
41 *582:54 *636:54 1.71723e-05
42 *582:54 *637:44 0.000375484
43 *582:54 *651:247 0.000255967
44 *582:54 *658:113 4.03239e-05
45 *582:54 *687:114 0.000334669
46 *582:94 *1945:GATE 3.04311e-05
47 *582:94 *591:94 3.50637e-05
48 *582:94 *602:34 0.000205254
49 *582:94 *616:38 3.84202e-05
50 *582:94 *625:8 2.57149e-05
51 *582:94 *629:54 0.000393128
52 *582:94 *674:48 5.93521e-05
53 *582:94 *674:80 3.61321e-05
54 *582:94 *675:38 0.000149832
55 *582:94 *675:56 4.00679e-05
56 *582:94 *687:6 1.85689e-05
57 *582:128 *1878:A3 2.93215e-05
58 *582:128 *2020:D 1.31525e-05
59 *582:128 *584:48 0
60 *582:128 *584:84 0.00046742
61 *582:128 *587:176 0.000262039
62 *582:128 *590:130 0.000120211
63 *582:128 *590:145 6.76003e-05
64 *582:128 *591:34 8.69554e-05
65 *582:128 *670:65 6.81704e-05
66 *582:128 *672:18 3.87434e-05
67 *582:128 *675:64 8.69554e-05
68 *582:128 *698:175 0
69 B_config_C_bit3 *582:28 1.91823e-05
70 C_config_C_bit0 *582:28 3.77315e-05
71 *1821:A1 *582:12 0.000413582
72 *1821:A2 *582:12 9.87983e-06
73 *1821:A4 *582:12 5.62487e-05
74 *1821:B1 *582:12 4.51691e-05
75 *1822:S *582:54 9.40986e-06
76 *1828:A4 *582:54 9.11224e-05
77 *1828:B1 *582:54 0.000143967
78 *1878:A0 *582:128 0.00020171
79 *1878:S0 *582:128 1.58163e-05
80 *1884:A0 *582:54 3.97206e-05
81 *1945:D *582:94 5.29959e-05
82 *2040:D *582:54 0
83 *2066:A *582:128 0.00026721
84 *2193:A *582:54 0.000188605
85 *2212:A *582:54 6.28372e-05
86 *2215:A *582:94 3.6868e-05
87 *2230:A *582:54 1.1984e-05
88 *2241:A *582:94 0.000185653
89 *2252:A *582:94 0.000663698
90 *2271:A *582:94 5.07619e-05
91 *2272:A *582:20 0.000475535
92 *2304:A *582:94 0
93 *142:99 *582:94 8.25843e-06
94 *142:117 *582:128 8.69554e-05
95 *144:145 *2345:A 0
96 *153:119 *582:94 0.00011731
97 *153:129 *582:128 0.000324394
98 *154:75 *582:54 0.00185766
99 *157:21 *582:12 0.000159486
100 *157:87 *582:54 0.000589329
101 *157:111 *582:94 0.000217335
102 *158:71 *582:94 0.000296735
103 *159:93 *2345:A 0.00142604
104 *160:39 *582:12 7.57965e-05
105 *160:39 *582:54 0.00140366
106 *160:79 *582:54 1.65282e-05
107 *249:34 *582:54 5.40725e-06
108 *480:50 *582:54 0.000546154
109 *480:50 *582:94 1.28239e-05
110 *480:70 *582:54 0
111 *480:108 *582:128 0
112 *480:153 *582:128 0.000479564
113 *483:78 *2345:A 9.59532e-06
114 *487:40 *582:12 5.52238e-05
115 *502:51 *582:128 0
116 *502:75 *582:54 0.000222092
117 *509:30 *582:54 0.00113424
118 *537:32 *582:54 6.58638e-05
119 *544:48 *582:94 0.000242669
120 *556:40 *582:94 0.000352935
121 *557:32 *582:128 0.000425602
122 *557:44 *582:94 0.000166735
123 *561:30 *582:54 0.00176288
124 *566:24 *582:128 0
125 *579:84 *582:12 0.000338111
*RES
1 *2130:X *582:12 42.0321 
2 *582:12 *582:20 22.0179 
3 *582:20 *582:28 48.8412 
4 *582:28 *582:54 47.0574 
5 *582:54 *582:94 48.0278 
6 *582:94 *582:128 47.6333 
7 *582:128 *2345:A 25.448 
*END

*D_NET *583 0.0483764
*CONN
*I *2346:A I *D sky130_fd_sc_hd__buf_2
*I *2131:X O *D sky130_fd_sc_hd__clkbuf_2
*CAP
1 *2346:A 0.00107636
2 *2131:X 0.000740139
3 *583:86 0.00241756
4 *583:72 0.00552629
5 *583:42 0.00676623
6 *583:16 0.00332127
7 *2346:A *600:162 0.000600859
8 *583:16 *640:18 0
9 *583:42 *2029:GATE 5.33433e-05
10 *583:42 *2112:A 0.000180496
11 *583:42 *2116:A 0.000341
12 *583:42 *596:28 4.11173e-05
13 *583:42 *600:36 2.99504e-05
14 *583:42 *653:54 7.6644e-05
15 *583:42 *681:23 0.000385876
16 *583:72 *1843:A0 0.000179637
17 *583:72 *600:138 2.63501e-05
18 *583:72 *635:42 4.38192e-05
19 *583:72 *637:44 0.000163954
20 *583:72 *642:106 0.000123132
21 *583:72 *645:62 1.05496e-05
22 *583:72 *650:248 2.08038e-05
23 *583:72 *661:81 0.000519303
24 *583:72 *661:112 0.00235405
25 *583:72 *665:38 0.00199652
26 *583:72 *665:83 0.00146296
27 *583:72 *701:28 0.00191841
28 *583:72 *702:14 0.000131496
29 *583:72 *704:44 0.00168068
30 *583:86 *594:88 8.7892e-05
31 *583:86 *600:138 0.000313165
32 *583:86 *600:162 0.000178637
33 *583:86 *653:219 7.94297e-05
34 *583:86 *653:249 0.000755728
35 *583:86 *691:38 0.00026908
36 *583:86 *695:76 0.000734992
37 A_T_top *583:16 5.7903e-06
38 E6BEG[10] *583:86 0.000661236
39 E6BEG[2] *583:86 0.000389827
40 FrameData_O[13] *2346:A 4.58764e-05
41 FrameData_O[17] *2346:A 8.40933e-05
42 FrameData_O[19] *2346:A 0.000342174
43 FrameData_O[21] *2346:A 0.000430308
44 FrameData_O[4] *2346:A 8.62225e-05
45 FrameData_O[4] *583:86 0.000141708
46 FrameData_O[6] *2346:A 1.94879e-05
47 *1843:S1 *583:42 1.76025e-05
48 *1849:S *583:42 6.07232e-05
49 *1868:A *583:42 1.85392e-05
50 *1868:B *583:42 0.000219711
51 *1870:B1 *583:42 3.08382e-06
52 *2299:A *583:72 0.000193234
53 *2329:A *583:86 6.34413e-05
54 *2330:A *583:86 8.92874e-05
55 *2339:A *2346:A 0.000361902
56 *145:37 *583:72 0.00257342
57 *148:81 *583:72 9.09469e-06
58 *148:97 *583:72 5.16792e-05
59 *151:57 *583:86 5.41797e-06
60 *154:21 *583:16 0.000265275
61 *160:79 *583:72 1.47779e-05
62 *247:34 *583:72 2.13687e-05
63 *248:37 *583:72 4.6392e-05
64 *257:29 *583:42 5.44275e-05
65 *264:6 *583:42 3.83493e-06
66 *482:26 *583:72 1.47871e-05
67 *487:40 *583:16 5.62966e-05
68 *490:12 *583:16 0.000762624
69 *493:18 *583:42 0.000182093
70 *496:16 *583:16 0.000452128
71 *514:24 *2346:A 5.69144e-05
72 *515:40 *583:72 0.00244507
73 *531:62 *583:86 0.000135028
74 *536:16 *2346:A 0.00173083
75 *545:38 *583:72 3.49692e-05
76 *555:38 *583:72 0.000229275
77 *557:104 *583:16 7.80929e-05
78 *562:30 *583:72 0.000216292
79 *567:40 *583:72 0.000153573
80 *567:94 *2346:A 0.00024506
81 *579:78 *583:42 0.000639752
82 *581:14 *2346:A 5.60201e-05
*RES
1 *2131:X *583:16 37.8893 
2 *583:16 *583:42 47.5893 
3 *583:42 *583:72 44.6063 
4 *583:72 *583:86 35.75 
5 *583:86 *2346:A 48.1036 
*END

*D_NET *584 0.0244669
*CONN
*I *2347:A I *D sky130_fd_sc_hd__buf_2
*I *2132:X O *D sky130_fd_sc_hd__buf_1
*CAP
1 *2347:A 0
2 *2132:X 0.00282731
3 *584:84 0.00365294
4 *584:48 0.00648026
5 *584:48 *2132:A 2.98503e-05
6 *584:48 *587:148 6.20441e-06
7 *584:48 *590:96 0.000506827
8 *584:48 *601:30 0.00118689
9 *584:48 *602:70 0
10 *584:48 *603:74 0.00014202
11 *584:48 *624:32 0.00178243
12 *584:48 *626:34 0.000439463
13 *584:48 *628:60 0.000459857
14 *584:48 *636:26 5.74499e-06
15 *584:48 *636:117 9.41642e-05
16 *584:48 *639:30 0.00012105
17 *584:48 *644:115 0.000322161
18 *584:48 *654:96 0.000118344
19 *584:48 *675:64 7.27952e-05
20 *584:48 *694:76 7.96701e-05
21 *584:84 *1878:A1 2.38651e-06
22 *584:84 *1928:GATE 9.58181e-05
23 *584:84 *2020:GATE 0.000172681
24 *584:84 *2354:A 2.05484e-05
25 *584:84 *2355:A 9.41642e-05
26 *584:84 *594:102 0.000170769
27 *584:84 *631:65 5.92455e-05
28 *584:84 *632:152 0.000111925
29 *584:84 *654:96 4.38243e-05
30 *584:84 *667:172 6.69932e-05
31 *584:84 *670:65 4.17433e-05
32 *584:84 *698:175 0.000381481
33 *584:84 *704:110 3.94391e-05
34 FrameData_O[31] *584:84 9.58181e-05
35 *2039:D *584:48 4.1128e-05
36 *2187:A *584:48 4.75671e-06
37 *2263:A *584:48 2.52313e-05
38 *2271:A *584:48 0.000466133
39 *2345:A *584:84 0.000216737
40 *153:79 *584:48 0.000114847
41 *154:99 *584:48 0.000163444
42 *235:64 *584:84 4.50149e-05
43 *480:50 *584:48 0.000552798
44 *480:153 *584:84 0.000872934
45 *482:76 *584:48 3.23958e-05
46 *491:14 *584:48 6.28766e-05
47 *491:57 *584:84 0.000373186
48 *502:8 *584:84 0.000139208
49 *509:30 *584:48 0.000141247
50 *512:14 *584:84 0.000161658
51 *512:20 *584:48 8.85664e-07
52 *546:31 *584:48 0.0001741
53 *556:40 *584:48 0.000159115
54 *557:32 *584:84 0
55 *579:24 *584:84 0.00037531
56 *580:16 *584:84 0.00015169
57 *582:128 *584:48 0
58 *582:128 *584:84 0.00046742
*RES
1 *2132:X *584:48 48.8773 
2 *584:48 *584:84 48.465 
3 *584:84 *2347:A 9.3 
*END

*D_NET *585 0.0220799
*CONN
*I *2348:A I *D sky130_fd_sc_hd__buf_2
*I *2133:X O *D sky130_fd_sc_hd__buf_1
*CAP
1 *2348:A 0.00127172
2 *2133:X 0.00128537
3 *585:60 0.00350884
4 *585:30 0.00352249
5 *2348:A *740:DIODE 0.000281105
6 *2348:A *1893:A1 8.52609e-05
7 *2348:A *2357:A 0.00014955
8 *2348:A *2362:A 8.50269e-05
9 *2348:A *587:176 0.000240077
10 *2348:A *601:30 0.000126628
11 *2348:A *646:88 0
12 *2348:A *646:127 1.21258e-05
13 *2348:A *659:227 1.74236e-05
14 *2348:A *691:72 0
15 *2348:A *695:103 3.15692e-05
16 *585:30 *2133:A 9.56151e-05
17 *585:30 *587:148 0.000168838
18 *585:30 *590:130 0.000211173
19 *585:30 *600:138 0
20 *585:30 *613:40 0.000964953
21 *585:30 *613:48 0.000139236
22 *585:30 *635:10 0.000223456
23 *585:30 *636:26 1.21258e-05
24 *585:30 *637:44 6.36553e-06
25 *585:30 *652:175 0.00036038
26 *585:30 *654:82 2.71935e-05
27 *585:30 *671:30 0.000192909
28 *585:30 *672:100 2.06178e-05
29 *585:30 *687:92 0.000174581
30 *585:60 *2059:D 0.000100898
31 *585:60 *594:88 0.000208166
32 *585:60 *645:62 4.65519e-05
33 *585:60 *659:227 4.22135e-06
34 FrameData_O[11] *2348:A 0
35 FrameData_O[26] *2348:A 0.000135028
36 FrameData_O[27] *2348:A 4.58194e-05
37 FrameData_O[9] *2348:A 5.3531e-05
38 *1889:S0 *585:60 0.000175892
39 *2059:CLK *585:60 4.30874e-05
40 *2303:A *585:60 0.000759931
41 *2304:A *585:30 0.00112064
42 *2304:A *585:60 0.000213293
43 *2307:A *585:60 0.000339346
44 *2331:A *585:60 0.00017754
45 *2335:A *2348:A 5.90443e-06
46 *144:121 *585:60 0.00053724
47 *146:99 *2348:A 0.000250183
48 *157:107 *585:60 0.000216755
49 *159:93 *2348:A 0.000973083
50 *159:93 *585:60 0.000186053
51 *234:26 *2348:A 0.000126148
52 *234:44 *2348:A 0.000142875
53 *479:130 *585:60 0.000115206
54 *514:72 *585:60 0.00031383
55 *515:40 *585:60 9.51343e-06
56 *541:40 *2348:A 0.000967519
57 *541:40 *585:60 0.000764732
58 *544:48 *585:30 1.90936e-05
59 *552:28 *2348:A 7.25533e-06
60 *559:34 *585:60 0.000178665
61 *567:72 *585:60 0.000127359
62 *571:18 *2348:A 0.000126778
63 *573:28 *2348:A 5.4162e-05
64 *579:24 *585:30 0.00031899
*RES
1 *2133:X *585:30 42.688 
2 *585:30 *585:60 47.4434 
3 *585:60 *2348:A 49.1644 
*END

*D_NET *586 0.0397792
*CONN
*I *2349:A I *D sky130_fd_sc_hd__buf_2
*I *738:DIODE I *D sky130_fd_sc_hd__diode_2
*I *2134:X O *D sky130_fd_sc_hd__clkbuf_2
*CAP
1 *2349:A 2.39758e-05
2 *738:DIODE 2.39758e-05
3 *2134:X 0.00272085
4 *586:110 0.00292299
5 *586:74 0.0049633
6 *586:44 0.00286828
7 *586:22 0.00354882
8 *2349:A *2354:A 5.49489e-05
9 *586:22 *616:26 2.71935e-05
10 *586:22 *631:106 0.000216884
11 *586:22 *639:52 1.15281e-05
12 *586:44 *591:94 0.000110889
13 *586:44 *601:10 2.07339e-05
14 *586:44 *602:109 0.000166005
15 *586:44 *624:58 8.36296e-05
16 *586:44 *626:88 4.84712e-05
17 *586:44 *628:68 0.00114227
18 *586:74 *1962:GATE 3.57366e-05
19 *586:74 *2022:D 1.24368e-05
20 *586:74 *2022:GATE 0.000163307
21 *586:74 *2132:A 5.33005e-05
22 *586:74 *2180:A 3.26161e-05
23 *586:74 *602:80 0.0002597
24 *586:74 *602:109 0.0012818
25 *586:74 *613:48 8.44271e-06
26 *586:74 *629:52 1.02433e-05
27 *586:74 *633:26 0.000252337
28 *586:74 *635:92 0.000119348
29 *586:74 *636:26 7.49952e-05
30 *586:74 *675:130 0.000259267
31 *586:110 *1812:A0 0.000298491
32 *586:110 *1893:A1 8.74483e-05
33 *586:110 *2015:D 0
34 *586:110 *587:176 4.23326e-05
35 *586:110 *593:118 0.000119924
36 *586:110 *594:102 0.000416239
37 *586:110 *597:60 0.000200026
38 *586:110 *618:96 2.14519e-05
39 *586:110 *631:65 0.000363812
40 *586:110 *634:130 0.0001118
41 *586:110 *635:92 3.60436e-05
42 *586:110 *689:108 0.00240726
43 *586:110 *693:68 0.000211335
44 *586:110 *701:54 0.00197688
45 *586:110 *701:58 6.73212e-05
46 *586:110 *701:81 5.10058e-05
47 C_config_C_bit3 *586:22 0.000118677
48 D_T_top *586:22 9.23367e-05
49 D_config_C_bit0 *586:22 8.81375e-05
50 *1881:S1 *586:110 2.70172e-06
51 *1882:S0 *586:110 2.06178e-05
52 *1896:S0 *586:110 0.000144348
53 *1896:S1 *586:74 6.7224e-05
54 *2211:A *586:74 1.25071e-05
55 *2304:A *586:110 8.17613e-06
56 *2319:A *586:110 0.000422804
57 *2395:A *586:22 0.00153709
58 *142:67 *586:44 0
59 *150:69 *586:110 0.00012315
60 *151:77 *586:110 7.84591e-05
61 *152:33 *586:22 0.000630023
62 *153:55 *586:44 0.000386132
63 *154:47 *586:22 8.60387e-05
64 *156:47 *586:22 0.0014894
65 *157:57 *586:44 0.000212099
66 *158:19 *586:22 4.23326e-05
67 *158:31 *586:44 0.000215014
68 *159:93 *586:110 0.000413991
69 *160:127 *586:110 0.00058385
70 *235:64 *586:110 2.06178e-05
71 *480:70 *586:44 4.00276e-06
72 *491:96 *586:110 0.000162604
73 *495:20 *586:22 0.00116007
74 *520:32 *586:110 4.06203e-05
75 *535:26 *586:110 0.000668546
76 *535:112 *586:110 0.000186594
77 *544:48 *586:74 0.000316383
78 *557:46 *586:44 0.0015654
79 *557:58 *586:22 0.000113806
80 *557:94 *586:22 2.21043e-05
81 *573:28 *586:110 0.000209196
82 *579:24 *586:110 0
83 *579:32 *586:110 0.000309175
84 *579:52 *586:110 0.000295344
*RES
1 *2134:X *586:22 37.6272 
2 *586:22 *586:44 43.6339 
3 *586:44 *586:74 46.2321 
4 *586:74 *586:110 47.3209 
5 *586:110 *738:DIODE 13.8 
6 *738:DIODE *2349:A 19.1357 
*END

*D_NET *587 0.0486168
*CONN
*I *2350:A I *D sky130_fd_sc_hd__buf_2
*I *2135:X O *D sky130_fd_sc_hd__clkbuf_2
*CAP
1 *2350:A 0
2 *2135:X 0.000760555
3 *587:176 0.0026364
4 *587:148 0.00668823
5 *587:90 0.00565287
6 *587:60 0.00362126
7 *587:24 0.00340599
8 *587:12 0.00214632
9 *587:12 *638:24 0.00163874
10 *587:12 *666:32 2.22824e-05
11 *587:24 *1912:A0 0.000822494
12 *587:24 *1925:D 4.85252e-05
13 *587:24 *1927:GATE 0.000175512
14 *587:24 *2184:A 0.00010616
15 *587:24 *602:131 5.33005e-05
16 *587:24 *602:160 6.2127e-05
17 *587:24 *613:138 5.41797e-06
18 *587:24 *618:12 9.61073e-06
19 *587:24 *628:112 0.000135028
20 *587:24 *666:76 5.59013e-05
21 *587:24 *666:85 0.00020212
22 *587:24 *668:140 1.21258e-05
23 *587:60 *1884:A1 0.000185148
24 *587:60 *2016:GATE 1.25477e-05
25 *587:60 *2018:GATE 8.42635e-05
26 *587:60 *2019:GATE 9.1407e-06
27 *587:60 *594:38 0.000304954
28 *587:60 *613:138 0.000283692
29 *587:60 *616:26 8.55432e-05
30 *587:60 *624:82 0.000481624
31 *587:60 *626:100 0
32 *587:60 *635:42 1.14338e-05
33 *587:60 *643:50 5.58875e-06
34 *587:60 *643:79 0
35 *587:60 *668:93 0.000113584
36 *587:60 *668:95 0.000173256
37 *587:60 *668:107 5.41164e-05
38 *587:60 *675:192 0.000152944
39 *587:60 *684:130 0.000273072
40 *587:60 *689:74 1.17921e-05
41 *587:90 *593:74 1.39737e-05
42 *587:90 *600:138 0.00013467
43 *587:90 *603:32 1.90936e-05
44 *587:90 *613:83 0.000380457
45 *587:90 *618:50 0.000302676
46 *587:90 *618:96 0.00021113
47 *587:90 *636:54 0.00011326
48 *587:90 *643:110 0.000669043
49 *587:90 *651:247 6.90381e-06
50 *587:90 *658:113 2.53931e-05
51 *587:90 *671:53 0.000167637
52 *587:90 *672:134 2.87791e-06
53 *587:148 *1878:A1 6.5177e-05
54 *587:148 *2021:D 0.000108192
55 *587:148 *2108:A 1.72797e-05
56 *587:148 *590:130 0.000321222
57 *587:148 *591:34 0.000122695
58 *587:148 *591:94 7.69737e-05
59 *587:148 *600:138 0
60 *587:148 *601:30 5.61805e-05
61 *587:148 *602:70 6.63908e-05
62 *587:148 *603:66 5.25372e-05
63 *587:148 *613:40 3.683e-05
64 *587:148 *626:34 0.000912867
65 *587:148 *628:60 2.68431e-05
66 *587:148 *639:30 2.5143e-05
67 *587:148 *644:149 4.96004e-05
68 *587:148 *654:82 1.11624e-05
69 *587:148 *654:88 0.000219048
70 *587:148 *672:100 0.000497045
71 *587:148 *674:80 5.35539e-05
72 *587:148 *679:49 0.000433311
73 *587:148 *687:70 8.76591e-06
74 *587:148 *693:117 1.20295e-05
75 *587:148 *698:44 6.20441e-06
76 *587:176 *1893:A1 2.67463e-05
77 *587:176 *1893:A3 0.00136114
78 *587:176 *1914:A2 5.08269e-05
79 *587:176 *592:26 0.000311849
80 *587:176 *615:10 2.32566e-05
81 *587:176 *630:66 6.56445e-05
82 *587:176 *632:152 0
83 *587:176 *673:185 0
84 *587:176 *693:163 0.00014146
85 *587:176 *701:58 6.92786e-05
86 *587:176 *701:81 9.51343e-06
87 A_config_C_bit1 *587:24 0.000558836
88 C_config_C_bit0 *587:60 2.06178e-05
89 D_config_C_bit0 *587:60 3.47641e-06
90 *1822:S *587:90 0.000149498
91 *1876:S1 *587:90 0
92 *1878:S0 *587:176 0.000143712
93 *1878:S1 *587:148 2.79421e-05
94 *1880:A2 *587:60 0.000177684
95 *1884:A0 *587:90 9.18544e-05
96 *1900:S1 *587:176 0.000113059
97 *1907:S0 *587:90 2.13481e-06
98 *1977:D *587:176 0
99 *2039:D *587:90 4.21215e-05
100 *2040:D *587:90 0.000260228
101 *2274:A *587:60 0.000177703
102 *2304:A *587:148 0.000393538
103 *2334:A *587:176 4.53414e-05
104 *2348:A *587:176 0.000240077
105 *2389:A *587:24 0.000527454
106 *2395:A *587:60 8.23597e-06
107 *150:69 *587:176 9.30053e-05
108 *152:13 *587:12 0.00157114
109 *152:33 *587:12 4.02346e-05
110 *153:129 *587:176 0.000162899
111 *157:87 *587:90 0.000664676
112 *160:39 *587:12 0.000262228
113 *249:34 *587:90 7.60581e-05
114 *480:50 *587:148 2.63501e-05
115 *480:153 *587:176 0
116 *482:76 *587:148 0.000297538
117 *491:96 *587:176 1.1984e-05
118 *506:14 *587:60 0.00118712
119 *513:10 *587:176 0
120 *537:32 *587:60 0.000273628
121 *537:32 *587:90 0.000253936
122 *544:32 *587:60 0.000191151
123 *544:48 *587:148 1.72698e-05
124 *557:58 *587:24 3.30337e-05
125 *566:24 *587:148 0.000145239
126 *568:88 *587:24 0.00080297
127 *568:88 *587:60 0.000692634
128 *568:114 *587:24 0.000155877
129 *571:18 *587:176 4.65005e-05
130 *575:18 *587:176 0
131 *577:20 *587:176 5.31122e-05
132 *579:24 *587:148 1.61322e-05
133 *582:20 *587:12 5.07017e-06
134 *582:54 *587:90 0.000284551
135 *582:54 *587:148 0
136 *582:128 *587:176 0.000262039
137 *584:48 *587:148 6.20441e-06
138 *585:30 *587:148 0.000168838
139 *586:110 *587:176 4.23326e-05
*RES
1 *2135:X *587:12 43.8179 
2 *587:12 *587:24 43.9821 
3 *587:24 *587:60 46.1779 
4 *587:60 *587:90 49.05 
5 *587:90 *587:148 47.0465 
6 *587:148 *587:176 47.2522 
7 *587:176 *2350:A 13.8 
*END

*D_NET *588 0.00716047
*CONN
*I *2351:A I *D sky130_fd_sc_hd__buf_2
*I *2136:X O *D sky130_fd_sc_hd__clkbuf_1
*CAP
1 *2351:A 0.000329322
2 *2136:X 0.00115166
3 *588:16 0.00148098
4 *2351:A *2354:A 9.54798e-06
5 *588:16 *1894:A3 0.000560541
6 *588:16 *1942:GATE 9.94037e-05
7 *588:16 *1958:D 0.000374592
8 *588:16 *1958:GATE 6.76966e-05
9 *588:16 *613:40 9.11048e-06
10 *588:16 *627:22 1.98839e-05
11 *588:16 *630:26 0.000132296
12 *588:16 *669:23 0.000689256
13 *588:16 *670:6 0.000428329
14 *1809:S0 *588:16 0.000349848
15 *1891:S0 *588:16 4.3888e-05
16 *1909:S1 *588:16 0.000139632
17 *1974:D *588:16 0.000135028
18 *235:64 *2351:A 0.000403782
19 *577:20 *2351:A 0.000735683
*RES
1 *2136:X *588:16 48.7286 
2 *588:16 *2351:A 23.9429 
*END

*D_NET *589 0.00580533
*CONN
*I *2352:A I *D sky130_fd_sc_hd__buf_2
*I *2137:X O *D sky130_fd_sc_hd__clkbuf_1
*CAP
1 *2352:A 0.000519311
2 *2137:X 0.00130451
3 *589:16 0.00182382
4 *2352:A *2354:A 0.000137983
5 *589:16 *1932:D 5.49544e-05
6 *589:16 *1989:D 0.00012306
7 *589:16 *1989:GATE 0.000121842
8 *589:16 *1995:D 3.43995e-05
9 *589:16 *1996:D 0.000472299
10 *589:16 *633:53 0.000201454
11 *589:16 *670:59 0.00011795
12 *589:16 *670:65 0.000117144
13 *589:16 *679:91 6.57032e-05
14 *2060:A *2352:A 0.000128026
15 *514:12 *2352:A 0.00048203
16 *580:16 *589:16 0.000100831
*RES
1 *2137:X *589:16 40.8 
2 *589:16 *2352:A 19.3 
*END

*D_NET *590 0.0557589
*CONN
*I *1812:A2 I *D sky130_fd_sc_hd__mux4_1
*I *1891:A3 I *D sky130_fd_sc_hd__mux4_1
*I *1901:A3 I *D sky130_fd_sc_hd__mux4_1
*I *1878:A2 I *D sky130_fd_sc_hd__mux4_1
*I *2057:D I *D sky130_fd_sc_hd__dfxtp_1
*I *1876:A1 I *D sky130_fd_sc_hd__mux4_1
*I *1880:A1 I *D sky130_fd_sc_hd__mux4_1
*I *2197:X O *D sky130_fd_sc_hd__buf_2
*CAP
1 *1812:A2 0.000205696
2 *1891:A3 0.000279021
3 *1901:A3 0.000399484
4 *1878:A2 1.88585e-05
5 *2057:D 0.000217752
6 *1876:A1 9.02896e-05
7 *1880:A1 0
8 *2197:X 0.000683173
9 *590:170 0.0023761
10 *590:145 0.00183877
11 *590:130 0.0017526
12 *590:112 0.00206696
13 *590:96 0.00332347
14 *590:49 0.00360524
15 *590:18 0.000928416
16 *590:14 0.00172748
17 *590:12 0.00212245
18 *1812:A2 *643:116 3.99698e-06
19 *1812:A2 *643:129 9.66348e-05
20 *1812:A2 *665:18 9.00271e-06
21 *1812:A2 *676:10 0.000137363
22 *1876:A1 *654:20 5.33005e-05
23 *1891:A3 *1891:A1 5.30637e-06
24 *1891:A3 *1891:A2 3.52408e-05
25 *1901:A3 *1901:A2 7.08001e-05
26 *1901:A3 *2379:A 9.30532e-05
27 *1901:A3 *615:10 0.000438931
28 *590:12 *1920:D 0.000269372
29 *590:12 *601:8 0
30 *590:14 *631:112 2.17261e-05
31 *590:14 *640:26 0.00430878
32 *590:14 *658:113 0.000103013
33 *590:14 *672:148 0.000355357
34 *590:18 *689:74 3.69047e-06
35 *590:49 *1880:A0 7.64149e-05
36 *590:49 *613:107 7.33185e-06
37 *590:49 *618:50 0.000422349
38 *590:49 *624:108 0.000324122
39 *590:49 *627:104 0.000141282
40 *590:49 *654:20 1.19191e-05
41 *590:49 *689:74 5.40515e-05
42 *590:49 *689:108 9.41642e-05
43 *590:96 *1876:A0 0.000111282
44 *590:96 *1937:D 0.000143143
45 *590:96 *2001:D 0.000126645
46 *590:96 *591:94 1.47779e-05
47 *590:96 *593:44 6.14836e-06
48 *590:96 *602:70 8.66744e-05
49 *590:96 *603:32 0.00042041
50 *590:96 *613:107 6.57032e-05
51 *590:96 *618:50 3.3743e-05
52 *590:96 *624:32 0.000332325
53 *590:96 *626:70 1.21398e-05
54 *590:96 *627:104 2.95768e-05
55 *590:96 *629:52 9.87712e-06
56 *590:96 *637:44 0.00162645
57 *590:96 *639:30 0.000183341
58 *590:96 *644:115 0.00235221
59 *590:96 *654:20 4.40066e-05
60 *590:96 *654:41 1.90936e-05
61 *590:96 *654:82 0.000180683
62 *590:96 *658:113 0.000126655
63 *590:96 *680:46 0.00024628
64 *590:96 *684:6 3.97677e-05
65 *590:96 *684:8 2.59355e-05
66 *590:96 *684:114 0.000189319
67 *590:112 *1908:A0 0.000261433
68 *590:112 *2000:D 3.7371e-05
69 *590:112 *2000:GATE 6.94399e-06
70 *590:112 *626:70 6.05161e-06
71 *590:112 *652:175 1.66595e-05
72 *590:112 *676:10 0.000261914
73 *590:112 *693:84 0.000131476
74 *590:130 *591:34 0.000984386
75 *590:130 *591:48 0.000181059
76 *590:130 *601:30 0.000297177
77 *590:130 *643:129 1.26641e-05
78 *590:130 *671:30 3.5724e-05
79 *590:130 *672:100 2.67665e-05
80 *590:145 *1878:A3 1.00332e-05
81 *590:145 *643:164 5.25192e-06
82 *590:170 *1878:A3 1.21832e-05
83 *590:170 *601:30 3.24359e-05
84 *590:170 *631:65 0.00167309
85 *590:170 *643:164 4.65158e-06
86 *590:170 *672:52 0.000373295
87 C_T_top *590:14 0.000115369
88 *724:DIODE *1891:A3 4.82865e-05
89 *743:DIODE *1891:A3 6.05161e-06
90 *1812:S0 *590:112 0.000134268
91 *1812:S1 *1812:A2 1.6507e-05
92 *1812:S1 *590:112 2.78962e-05
93 *1878:S1 *2057:D 2.21751e-05
94 *1878:S1 *590:145 5.58875e-06
95 *1880:S0 *590:18 0.000178425
96 *1880:S0 *590:49 0.000129297
97 *1901:S0 *1901:A3 0.000104974
98 *1974:D *1901:A3 0.00056355
99 *2057:CLK *2057:D 0.000121259
100 *2181:A *590:18 0.000154345
101 *2193:A *590:96 0.000457691
102 *2213:A *590:96 0.00041094
103 *142:117 *590:170 0.00265129
104 *152:13 *590:14 0.00144192
105 *152:33 *590:14 0.00246466
106 *153:55 *590:18 0.000135028
107 *157:57 *590:14 0
108 *157:87 *1812:A2 0
109 *157:107 *1812:A2 0.000144501
110 *158:31 *590:14 0.000306955
111 *160:127 *590:170 0.000806394
112 *243:20 *590:49 0.000509968
113 *243:20 *590:96 0.000152746
114 *479:20 *590:14 0.00073409
115 *480:50 *590:96 2.63501e-05
116 *480:108 *590:145 0.000137466
117 *480:153 *590:145 3.513e-05
118 *480:153 *590:170 6.67536e-05
119 *491:57 *590:170 5.58644e-05
120 *496:16 *590:12 0.000136951
121 *537:32 *590:96 0.000109657
122 *544:48 *590:130 0.000356059
123 *557:46 *590:14 0.000119078
124 *566:24 *2057:D 0.000138755
125 *568:58 *590:14 0.000321998
126 *579:24 *590:130 0.00141845
127 *582:54 *590:96 0.000195415
128 *582:128 *590:130 0.000120211
129 *582:128 *590:145 6.76003e-05
130 *584:48 *590:96 0.000506827
131 *585:30 *590:130 0.000211173
132 *587:148 *590:130 0.000321222
*RES
1 *2197:X *590:12 23.5143 
2 *590:12 *590:14 77.2321 
3 *590:14 *590:18 9.96429 
4 *590:18 *1880:A1 9.3 
5 *590:18 *590:49 37.7321 
6 *590:49 *1876:A1 15.1571 
7 *590:49 *590:96 47.7514 
8 *590:96 *590:112 22.1786 
9 *590:112 *590:130 25.2097 
10 *590:130 *2057:D 17.483 
11 *590:130 *590:145 3.16071 
12 *590:145 *1878:A2 14.0366 
13 *590:145 *590:170 21.2018 
14 *590:170 *1901:A3 25.3982 
15 *590:170 *1891:A3 18.4429 
16 *590:112 *1812:A2 22.3848 
*END

*D_NET *591 0.0614381
*CONN
*I *2015:D I *D sky130_fd_sc_hd__dlxtp_1
*I *1951:D I *D sky130_fd_sc_hd__dlxtp_1
*I *1983:D I *D sky130_fd_sc_hd__dlxtp_1
*I *2131:A I *D sky130_fd_sc_hd__clkbuf_2
*I *2047:D I *D sky130_fd_sc_hd__dlxtp_1
*I *1919:D I *D sky130_fd_sc_hd__dlxtp_1
*I *2198:X O *D sky130_fd_sc_hd__buf_2
*CAP
1 *2015:D 0.000895439
2 *1951:D 0.000268915
3 *1983:D 0.000363207
4 *2131:A 0
5 *2047:D 0.000308012
6 *1919:D 0
7 *2198:X 0.00301877
8 *591:142 0.000540866
9 *591:136 0.00404531
10 *591:126 0.00654628
11 *591:102 0.00299158
12 *591:94 0.00531514
13 *591:48 0.00611413
14 *591:34 0.00327437
15 *1951:D *1951:GATE 2.36643e-05
16 *1951:D *662:132 0.000175892
17 *1951:D *705:10 2.5868e-05
18 *1983:D *639:52 4.75911e-05
19 *1983:D *666:76 8.75335e-05
20 *2015:D *636:159 6.55481e-05
21 *2047:D *1919:GATE 9.58181e-05
22 *591:34 *628:26 0.000117896
23 *591:34 *628:38 4.5539e-05
24 *591:34 *629:69 1.20729e-05
25 *591:34 *633:38 5.33005e-05
26 *591:34 *643:164 8.65193e-05
27 *591:34 *644:149 0.000309969
28 *591:34 *668:14 0.000119924
29 *591:34 *672:52 1.24365e-06
30 *591:34 *674:48 3.39503e-05
31 *591:34 *679:49 2.30116e-06
32 *591:34 *693:117 0.0001271
33 *591:34 *698:175 0.000197779
34 *591:48 *2059:D 5.49544e-05
35 *591:48 *643:129 0.000194658
36 *591:48 *643:164 0.000194048
37 *591:48 *674:48 0.000138675
38 *591:48 *698:44 4.58194e-05
39 *591:94 *594:38 9.04393e-05
40 *591:94 *600:72 0
41 *591:94 *603:32 2.83129e-05
42 *591:94 *616:38 0.000173803
43 *591:94 *624:32 0.00149835
44 *591:94 *626:34 0.000197486
45 *591:94 *627:104 0.000291647
46 *591:94 *628:60 0.000692864
47 *591:94 *630:84 0.0010335
48 *591:94 *635:42 0.0004816
49 *591:94 *637:44 0.00127574
50 *591:94 *643:79 3.70314e-05
51 *591:94 *644:46 2.6449e-05
52 *591:94 *672:134 0.000581977
53 *591:94 *674:80 4.19007e-05
54 *591:102 *596:40 1.90265e-05
55 *591:102 *627:104 2.63501e-05
56 *591:102 *667:23 0.000150774
57 *591:102 *667:54 1.1594e-05
58 *591:102 *687:114 5.14838e-05
59 *591:126 *594:38 2.63501e-05
60 *591:126 *613:146 0.00102969
61 *591:126 *618:30 0.000103373
62 *591:126 *630:84 3.86562e-05
63 *591:126 *662:132 0.000738113
64 *591:126 *667:23 2.14378e-05
65 *591:126 *668:109 0.000127441
66 *591:126 *668:115 0.000182217
67 *591:136 *613:146 0.00098929
68 *591:136 *666:76 0.000294558
69 *591:136 *666:151 1.01912e-05
70 D_config_C_bit1 *591:94 0.000441648
71 *1838:B1 *591:126 0.000145876
72 *1839:A *591:126 1.02821e-05
73 *1842:A2 *591:126 5.33005e-05
74 *1842:A4 *591:126 9.5586e-05
75 *2205:A *591:94 0.000482173
76 *2241:A *591:94 8.66554e-05
77 *2279:A *591:94 9.11942e-06
78 *2304:A *2015:D 0.000399521
79 *2304:A *591:94 0.000428414
80 *142:117 *591:34 0.000138067
81 *152:33 *591:94 1.06027e-05
82 *153:21 *591:136 2.03551e-05
83 *153:21 *591:142 1.60916e-05
84 *156:27 *591:136 0
85 *157:107 *591:48 1.98839e-05
86 *158:31 *591:94 0.00133607
87 *158:71 *591:94 0.000134769
88 *159:21 *591:136 0.000410705
89 *159:45 *591:94 2.66789e-06
90 *159:45 *591:126 2.14879e-05
91 *236:22 *2015:D 2.06112e-05
92 *243:42 *591:102 1.498e-05
93 *259:12 *591:126 0.000236407
94 *261:12 *591:126 3.28801e-05
95 *409:18 *591:102 8.06559e-05
96 *409:18 *591:126 9.25014e-06
97 *479:46 *591:94 2.63501e-05
98 *480:50 *591:94 0.000849074
99 *480:153 *591:34 0.000508069
100 *482:76 *591:34 4.64974e-05
101 *493:12 *2047:D 0.000793208
102 *493:12 *591:142 0.000140519
103 *495:20 *591:94 0.000160029
104 *505:24 *591:126 0.000481604
105 *508:14 *591:126 7.71915e-06
106 *509:30 *591:94 1.30275e-05
107 *511:26 *591:94 0.000208166
108 *512:14 *591:34 0.00120791
109 *513:82 *591:34 2.52799e-05
110 *519:46 *2015:D 5.52634e-05
111 *520:32 *2015:D 2.63501e-05
112 *524:14 *591:34 0.000380839
113 *540:22 *2015:D 2.06112e-05
114 *544:32 *591:94 3.54557e-05
115 *544:48 *591:48 1.67662e-05
116 *561:30 *591:94 0.000908559
117 *568:58 *591:94 0.00134921
118 *568:88 *591:126 3.77315e-05
119 *568:114 *1983:D 0
120 *569:28 *591:102 1.4477e-06
121 *579:24 *2015:D 0.000112369
122 *579:24 *591:34 0.00110571
123 *579:24 *591:94 3.85784e-05
124 *579:32 *2015:D 0.000357654
125 *582:54 *591:94 4.19032e-05
126 *582:94 *591:94 3.50637e-05
127 *582:128 *591:34 8.69554e-05
128 *586:44 *591:94 0.000110889
129 *586:110 *2015:D 0
130 *587:148 *591:34 0.000122695
131 *587:148 *591:94 7.69737e-05
132 *590:96 *591:94 1.47779e-05
133 *590:130 *591:34 0.000984386
134 *590:130 *591:48 0.000181059
*RES
1 *2198:X *591:34 49.8402 
2 *591:34 *591:48 19.1064 
3 *591:48 *591:94 48.4771 
4 *591:94 *591:102 9.50571 
5 *591:102 *591:126 41.9876 
6 *591:126 *591:136 15.1879 
7 *591:136 *591:142 9.03571 
8 *591:142 *1919:D 9.3 
9 *591:142 *2047:D 17.675 
10 *591:136 *2131:A 13.8 
11 *591:126 *1983:D 21.7158 
12 *591:102 *1951:D 18.0679 
13 *591:48 *2015:D 19.3167 
*END

*D_NET *592 0.00915492
*CONN
*I *2353:A I *D sky130_fd_sc_hd__buf_2
*I *2110:X O *D sky130_fd_sc_hd__buf_1
*CAP
1 *2353:A 0.000691586
2 *2110:X 0.00177323
3 *592:26 0.00246482
4 *2353:A *1906:A0 0.000369886
5 *2353:A *646:127 5.55741e-05
6 *2353:A *650:254 0.000462913
7 *2353:A *667:172 0.00013833
8 *592:26 *1906:A2 6.77187e-05
9 *592:26 *1948:GATE 0.000298483
10 *592:26 *618:116 2.04825e-05
11 *592:26 *629:69 1.83136e-05
12 *592:26 *701:81 8.54241e-05
13 FrameData_O[13] *2353:A 7.4561e-05
14 FrameData_O[4] *2353:A 9.83388e-05
15 *1882:S0 *2353:A 0.000296021
16 *1882:S0 *592:26 3.51353e-05
17 *1899:S1 *2353:A 8.25843e-06
18 *2335:A *2353:A 0.000137561
19 *2339:A *592:26 0.000715128
20 *235:45 *2353:A 9.64724e-05
21 *235:64 *2353:A 0.00015098
22 *235:64 *592:26 0.000146369
23 *479:161 *592:26 1.90936e-05
24 *524:180 *592:26 0.000127856
25 *542:20 *2353:A 9.41642e-05
26 *557:147 *592:26 0.000396367
27 *587:176 *592:26 0.000311849
*RES
1 *2110:X *592:26 44.8875 
2 *592:26 *2353:A 31.2018 
*END

*D_NET *593 0.0382072
*CONN
*I *2354:A I *D sky130_fd_sc_hd__buf_2
*I *2138:X O *D sky130_fd_sc_hd__clkbuf_2
*CAP
1 *2354:A 0.000801071
2 *2138:X 0.00105645
3 *593:118 0.00187907
4 *593:102 0.00231079
5 *593:74 0.0032032
6 *593:44 0.00502703
7 *593:18 0.00411307
8 *2354:A *1893:A1 0.000548128
9 *2354:A *594:102 6.53083e-05
10 *2354:A *691:105 1.98839e-05
11 *593:18 *1952:GATE 3.55471e-05
12 *593:18 *2054:GATE 2.42516e-05
13 *593:18 *2138:A 2.59355e-05
14 *593:18 *631:112 0.000281172
15 *593:18 *638:24 0.000277811
16 *593:18 *668:140 7.6477e-05
17 *593:44 *1912:A0 0.000351739
18 *593:44 *594:38 4.73891e-05
19 *593:44 *602:160 3.43988e-06
20 *593:44 *613:138 0.000412665
21 *593:44 *618:50 0.000336483
22 *593:44 *627:104 0.000229887
23 *593:44 *628:90 0.000897586
24 *593:44 *628:112 0.000171395
25 *593:44 *658:113 5.49609e-05
26 *593:44 *668:140 2.28631e-05
27 *593:44 *687:114 0.000108136
28 *593:44 *694:44 0.000267988
29 *593:44 *706:46 6.65294e-05
30 *593:74 *2027:D 6.33204e-05
31 *593:74 *597:46 0.000232662
32 *593:74 *618:50 4.2313e-06
33 *593:74 *642:106 0
34 *593:74 *643:110 0.000157608
35 *593:74 *651:247 0.00036978
36 *593:74 *661:177 0.000400455
37 *593:74 *662:177 1.92751e-05
38 *593:74 *673:116 4.73957e-05
39 *593:74 *673:124 6.35819e-05
40 *593:74 *675:174 0
41 *593:74 *698:68 1.08506e-05
42 *593:102 *1896:A2 6.98553e-06
43 *593:102 *636:159 0.000208713
44 *593:102 *660:115 4.87139e-06
45 *593:102 *661:207 4.11218e-05
46 *593:102 *662:177 0.000666312
47 *593:102 *662:188 0.000196691
48 *593:102 *662:196 0.000677766
49 *593:102 *673:116 0.000108403
50 *593:102 *677:32 0.000189436
51 *593:102 *708:56 0.000561435
52 *593:118 *599:18 9.25014e-06
53 *593:118 *634:176 0.00139864
54 *593:118 *645:78 0
55 *593:118 *667:172 8.0696e-05
56 *593:118 *669:45 0.000159547
57 *593:118 *669:53 0.000206722
58 *593:118 *673:50 1.36259e-05
59 *593:118 *673:90 2.00751e-05
60 *1822:S *593:74 5.28707e-05
61 *1824:A2 *593:74 3.16802e-07
62 *1882:S0 *2354:A 0.000189553
63 *1892:S1 *593:74 0.000299989
64 *1896:A3 *593:102 7.20217e-06
65 *1899:S1 *593:118 0.000103775
66 *1900:S1 *593:118 0.000132821
67 *1904:S0 *593:44 0.00010288
68 *2056:D *593:102 6.43196e-05
69 *2060:A *2354:A 0.000137983
70 *2076:A *593:118 6.31786e-05
71 *2081:A *593:118 0.000503434
72 *2084:A *2354:A 2.03917e-05
73 *2102:A *593:74 0.000456117
74 *2319:A *593:102 2.81725e-05
75 *2334:A *2354:A 0.000283255
76 *2349:A *2354:A 5.49489e-05
77 *2351:A *2354:A 9.54798e-06
78 *2352:A *2354:A 0.000137983
79 *143:59 *593:74 0.000223528
80 *143:103 *593:74 0.000135028
81 *145:63 *593:74 0.00010873
82 *145:75 *593:74 0.000456649
83 *145:75 *593:118 0.000354942
84 *145:85 *593:118 0.000901346
85 *150:41 *593:74 0.00011548
86 *150:69 *593:118 0.000681052
87 *153:43 *593:44 0
88 *159:77 *593:74 0.000171143
89 *181:44 *593:44 9.90819e-06
90 *181:56 *593:74 0.000181673
91 *234:14 *593:118 0.000177821
92 *235:64 *2354:A 9.9636e-05
93 *235:113 *593:102 0.000141019
94 *243:42 *593:44 0.000272773
95 *249:34 *593:44 0.000131787
96 *249:34 *593:74 6.4418e-06
97 *479:46 *593:74 2.75217e-05
98 *479:60 *593:74 0.000280092
99 *480:70 *593:74 3.59165e-05
100 *517:28 *593:74 0
101 *519:46 *593:102 0.000501601
102 *537:32 *593:44 1.00541e-05
103 *540:22 *593:102 0.000238738
104 *556:54 *593:74 6.57032e-05
105 *561:30 *593:44 0.000716872
106 *577:20 *2354:A 0.000127362
107 *579:52 *593:74 0.000120211
108 *582:54 *593:44 0.000469125
109 *584:84 *2354:A 2.05484e-05
110 *586:110 *593:118 0.000119924
111 *587:90 *593:74 1.39737e-05
112 *590:96 *593:44 6.14836e-06
*RES
1 *2138:X *593:18 37.5143 
2 *593:18 *593:44 47.2133 
3 *593:44 *593:74 45.1225 
4 *593:74 *593:102 48.5536 
5 *593:102 *593:118 48.9643 
6 *593:118 *2354:A 35.1929 
*END

*D_NET *594 0.0415413
*CONN
*I *2355:A I *D sky130_fd_sc_hd__buf_2
*I *739:DIODE I *D sky130_fd_sc_hd__diode_2
*I *2139:X O *D sky130_fd_sc_hd__clkbuf_2
*CAP
1 *2355:A 2.99504e-05
2 *739:DIODE 0
3 *2139:X 0.00476362
4 *594:102 0.000718204
5 *594:88 0.0037605
6 *594:52 0.00492734
7 *594:38 0.00661871
8 *594:38 *1926:D 5.7903e-06
9 *594:38 *596:82 4.78117e-05
10 *594:38 *600:72 0.000515651
11 *594:38 *613:138 0.000252999
12 *594:38 *613:146 0.000426054
13 *594:38 *627:104 0.000844505
14 *594:38 *630:84 1.28958e-05
15 *594:38 *635:42 2.90481e-05
16 *594:38 *639:52 4.01462e-06
17 *594:38 *647:222 9.76435e-06
18 *594:38 *685:30 0.000605903
19 *594:38 *694:44 0.000114637
20 *594:38 *698:121 0.000149105
21 *594:52 *647:222 0.000907649
22 *594:52 *659:183 0.000294733
23 *594:52 *660:59 7.95998e-05
24 *594:52 *660:91 0.00032026
25 *594:88 *653:249 8.83294e-05
26 *594:88 *697:62 0.00110928
27 *594:88 *704:90 0.000331676
28 *594:102 *618:116 2.05803e-05
29 *594:102 *704:110 2.53295e-05
30 E1BEG[1] *594:38 0.000200948
31 E1BEG[2] *594:38 0.000109422
32 E1BEG[3] *594:38 0.000139187
33 E6BEG[7] *594:88 0.000134766
34 E6BEG[8] *594:88 0.00012785
35 FrameData_O[23] *594:88 2.31796e-05
36 FrameData_O[5] *594:88 7.88544e-05
37 FrameData_O[7] *594:88 0.00067548
38 *710:DIODE *594:102 0.000122336
39 *2079:A *594:38 1.1692e-05
40 *2243:A *594:38 9.41642e-05
41 *2285:A *594:38 0.000384397
42 *2303:A *594:88 0.000118237
43 *2304:A *594:88 3.90458e-05
44 *2329:A *594:88 0.000297669
45 *2345:A *594:102 0
46 *2354:A *594:102 6.53083e-05
47 *144:145 *594:88 0.001226
48 *144:145 *594:102 0.000103406
49 *146:99 *594:102 0.000159176
50 *147:91 *594:52 3.17264e-05
51 *148:57 *594:38 0.00015327
52 *148:97 *594:88 3.50637e-05
53 *149:87 *594:52 0.000611828
54 *159:45 *594:38 0.000171767
55 *159:93 *594:102 0.000223437
56 *233:80 *594:88 1.74466e-05
57 *236:91 *594:52 0.000987629
58 *481:50 *594:52 8.32347e-05
59 *482:26 *594:38 0.00148235
60 *506:14 *594:38 3.43988e-06
61 *514:94 *594:38 4.46779e-05
62 *524:67 *594:88 0.000368219
63 *524:142 *594:38 8.72578e-05
64 *524:180 *594:102 0.000618292
65 *531:34 *594:88 2.63501e-05
66 *541:40 *594:88 0.00024031
67 *544:32 *594:38 0
68 *551:20 *594:88 0.00113513
69 *559:58 *594:52 0.00103469
70 *559:58 *594:88 0.000548977
71 *563:30 *594:38 2.42991e-05
72 *564:36 *594:88 1.32091e-05
73 *568:88 *594:38 0.000450671
74 *573:28 *594:88 0.000418898
75 *577:20 *594:102 6.35864e-05
76 *580:16 *2355:A 9.41642e-05
77 *583:86 *594:88 8.7892e-05
78 *584:84 *2355:A 9.41642e-05
79 *584:84 *594:102 0.000170769
80 *585:60 *594:88 0.000208166
81 *586:110 *594:102 0.000416239
82 *587:60 *594:38 0.000304954
83 *591:94 *594:38 9.04393e-05
84 *591:126 *594:38 2.63501e-05
85 *593:44 *594:38 4.73891e-05
*RES
1 *2139:X *594:38 49.9765 
2 *594:38 *594:52 48.8661 
3 *594:52 *594:88 46.8323 
4 *594:88 *594:102 18.2005 
5 *594:102 *739:DIODE 9.3 
6 *594:102 *2355:A 10.2464 
*END

*D_NET *595 0.0116576
*CONN
*I *2356:A I *D sky130_fd_sc_hd__buf_2
*I *2111:X O *D sky130_fd_sc_hd__buf_1
*CAP
1 *2356:A 0
2 *2111:X 0.00149478
3 *595:36 0.00135613
4 *595:18 0.00285091
5 *595:18 *1989:GATE 2.59355e-05
6 *595:18 *2013:GATE 0.000261587
7 *595:18 *635:112 0.000338048
8 *595:18 *669:45 9.25014e-06
9 *595:18 *677:22 0.000125304
10 *595:18 *677:98 0.000144535
11 *595:18 *679:72 0.000889617
12 *595:36 *740:DIODE 0.000243417
13 *595:36 *1998:D 1.58163e-05
14 *595:36 *1998:GATE 0.000671323
15 *595:36 *667:172 0.000240981
16 *1900:S0 *595:18 9.87648e-05
17 *2006:D *595:18 0.000119076
18 *2007:D *595:18 0.000115369
19 *2057:CLK *595:18 6.13757e-06
20 *2331:A *595:36 8.55871e-05
21 *233:80 *595:18 0.000225892
22 *233:99 *595:18 2.35549e-05
23 *519:24 *595:36 9.41642e-05
24 *553:20 *595:36 0.000249192
25 *558:14 *595:18 0.000122952
26 *558:14 *595:36 0.000597747
27 *565:22 *595:36 0.000187959
28 *566:24 *595:36 0.000231508
29 *568:188 *595:18 6.7848e-05
30 *580:16 *595:18 0.000764186
*RES
1 *2111:X *595:18 49.1214 
2 *595:18 *595:36 42.6964 
3 *595:36 *2356:A 9.3 
*END

*D_NET *596 0.0497398
*CONN
*I *2357:A I *D sky130_fd_sc_hd__buf_2
*I *740:DIODE I *D sky130_fd_sc_hd__diode_2
*I *2112:X O *D sky130_fd_sc_hd__clkbuf_2
*CAP
1 *2357:A 8.30549e-05
2 *740:DIODE 0.00197863
3 *2112:X 0.00243063
4 *596:118 0.00342268
5 *596:82 0.00315183
6 *596:40 0.00464203
7 *596:28 0.00544795
8 *740:DIODE *1811:A0 0.000272776
9 *740:DIODE *1812:A0 0.0002806
10 *740:DIODE *1889:A2 1.94879e-05
11 *740:DIODE *1899:A0 3.69047e-06
12 *740:DIODE *598:28 0.000190055
13 *740:DIODE *665:38 0.000168197
14 *740:DIODE *667:138 0.000648507
15 *740:DIODE *667:172 9.12859e-05
16 *740:DIODE *673:90 0
17 *740:DIODE *695:103 7.55769e-05
18 *740:DIODE *703:40 4.18754e-05
19 *2357:A *646:88 0
20 *596:28 *2028:GATE 2.89114e-05
21 *596:28 *600:36 3.34495e-05
22 *596:28 *645:14 0.000467832
23 *596:28 *658:27 0.000100081
24 *596:28 *681:36 5.33005e-05
25 *596:40 *1904:A0 0
26 *596:40 *630:84 0.0010394
27 *596:40 *632:66 0.00103573
28 *596:40 *645:16 0.000129706
29 *596:40 *650:168 0.00117064
30 *596:40 *658:58 4.75671e-06
31 *596:40 *693:22 0.000247322
32 *596:40 *699:22 0.0015391
33 *596:82 *1822:A1 0.000125551
34 *596:82 *1892:A0 1.98839e-05
35 *596:82 *1892:A2 9.41642e-05
36 *596:82 *2027:D 0.000384027
37 *596:82 *634:54 6.14836e-06
38 *596:82 *635:42 4.44988e-05
39 *596:82 *642:34 1.09611e-05
40 *596:82 *642:106 0.000110118
41 *596:82 *652:127 0.000167762
42 *596:82 *652:139 0.000606806
43 *596:82 *667:54 0.000199911
44 *596:82 *667:74 0.000121426
45 *596:82 *671:111 1.24368e-05
46 *596:82 *693:46 3.69047e-06
47 *596:82 *701:54 7.46275e-05
48 *596:82 *708:28 1.0912e-05
49 *596:118 *1812:A0 5.08017e-06
50 *596:118 *1885:A2 0.0010021
51 *596:118 *1902:A0 1.81805e-05
52 *596:118 *1902:A1 0.000174805
53 *596:118 *597:46 0.000110833
54 *596:118 *634:54 1.4477e-06
55 *596:118 *642:106 7.30405e-05
56 *596:118 *660:115 0.000306065
57 *596:118 *675:174 2.56114e-05
58 *596:118 *676:40 9.25014e-06
59 *596:118 *685:49 5.66157e-05
60 *596:118 *692:22 3.17148e-05
61 *596:118 *692:37 0.000293422
62 *596:118 *692:64 0.000110848
63 *596:118 *703:40 0.00018071
64 *596:118 *708:56 1.65228e-05
65 FrameData_O[11] *2357:A 0
66 *1813:A2 *740:DIODE 6.77187e-05
67 *1896:S1 *596:118 6.05161e-06
68 *1902:A3 *596:118 8.85664e-07
69 *1950:D *596:40 1.1984e-05
70 *2098:A *596:118 1.34631e-05
71 *2102:A *596:82 7.34118e-05
72 *2238:A *596:28 0.000607027
73 *2239:A *596:28 0.00106949
74 *2240:A *596:40 5.13815e-05
75 *2244:A *596:40 0.000271036
76 *2245:A *596:40 0.00135824
77 *2260:A *596:40 3.22449e-05
78 *2303:A *740:DIODE 0.000563219
79 *2312:A *740:DIODE 8.77151e-05
80 *2330:A *596:118 5.49489e-05
81 *2348:A *740:DIODE 0.000281105
82 *2348:A *2357:A 0.00014955
83 *142:23 *596:28 0.00164797
84 *142:31 *596:40 8.22376e-05
85 *143:59 *596:82 9.58126e-05
86 *144:121 *596:118 0.000385375
87 *145:75 *596:118 0.000107222
88 *149:27 *596:28 0.000169708
89 *150:17 *596:28 0.000910689
90 *151:9 *596:40 0.00114859
91 *151:57 *740:DIODE 2.14879e-05
92 *153:21 *596:28 2.98193e-05
93 *160:79 *596:82 2.35126e-05
94 *160:113 *740:DIODE 6.41086e-06
95 *181:56 *596:82 4.50321e-06
96 *234:44 *740:DIODE 0.000565821
97 *235:93 *740:DIODE 4.79414e-05
98 *243:42 *596:40 0.000586945
99 *247:32 *596:28 7.20786e-05
100 *249:34 *596:82 0.000219218
101 *409:18 *596:82 8.76591e-05
102 *479:46 *596:82 0.000259079
103 *479:130 *740:DIODE 4.23827e-05
104 *482:26 *596:82 0.000170436
105 *483:46 *596:82 0.000536115
106 *484:50 *596:82 0.000122812
107 *494:16 *596:40 0.000881025
108 *515:40 *596:118 2.71935e-05
109 *516:32 *596:118 1.17968e-05
110 *517:28 *596:118 9.46333e-05
111 *533:52 *596:82 4.43485e-05
112 *535:86 *740:DIODE 0.000111867
113 *539:18 *740:DIODE 9.6299e-05
114 *541:40 *740:DIODE 0.000363777
115 *552:28 *740:DIODE 1.00926e-05
116 *558:52 *596:118 4.13301e-05
117 *562:30 *740:DIODE 1.40617e-06
118 *565:22 *596:118 0.000268771
119 *567:72 *740:DIODE 1.41805e-05
120 *567:72 *596:118 0.000996398
121 *569:28 *596:40 0.000157546
122 *569:28 *596:82 0.000812965
123 *579:78 *596:28 0.000203265
124 *583:42 *596:28 4.11173e-05
125 *591:102 *596:40 1.90265e-05
126 *594:38 *596:82 4.78117e-05
127 *595:36 *740:DIODE 0.000243417
*RES
1 *2112:X *596:28 36.0134 
2 *596:28 *596:40 49.7254 
3 *596:40 *596:82 48.4827 
4 *596:82 *596:118 49.8486 
5 *596:118 *740:DIODE 45.9712 
6 *740:DIODE *2357:A 29.5464 
*END

*D_NET *597 0.0294262
*CONN
*I *2358:A I *D sky130_fd_sc_hd__buf_2
*I *741:DIODE I *D sky130_fd_sc_hd__diode_2
*I *2113:X O *D sky130_fd_sc_hd__buf_1
*CAP
1 *2358:A 0.000161723
2 *741:DIODE 7.70325e-05
3 *2113:X 0.00027066
4 *597:60 0.00117845
5 *597:46 0.00214361
6 *597:30 0.00226505
7 *597:14 0.00248295
8 *597:12 0.00169249
9 *2358:A *599:18 1.95475e-05
10 *2358:A *645:78 9.21418e-06
11 *2358:A *677:22 0.000110103
12 *597:12 *2113:A 2.89016e-05
13 *597:12 *644:16 2.45351e-05
14 *597:12 *681:44 1.83518e-05
15 *597:12 *681:59 7.86072e-05
16 *597:14 *1910:A0 0.00154526
17 *597:14 *644:16 0.00117733
18 *597:14 *644:34 0.000569147
19 *597:14 *663:14 0.00087195
20 *597:14 *692:16 0.000177941
21 *597:14 *699:22 6.54117e-05
22 *597:14 *707:14 0.00172123
23 *597:30 *658:93 5.49489e-05
24 *597:30 *659:83 1.08359e-05
25 *597:30 *664:166 0.00075109
26 *597:30 *675:192 0.000135028
27 *597:30 *693:46 0.000523574
28 *597:30 *708:28 0.000569754
29 *597:46 *1822:A1 0.000110884
30 *597:46 *661:177 0.000264974
31 *597:46 *671:70 2.2628e-05
32 *597:46 *693:46 1.58163e-05
33 *597:46 *693:68 1.08691e-05
34 *597:46 *698:68 0.0001417
35 *597:46 *708:28 0.000177489
36 *597:46 *708:56 0.000620341
37 *597:60 *1812:A0 0.000206603
38 *597:60 *618:96 0.000186915
39 *597:60 *618:116 4.13827e-05
40 *597:60 *636:159 0.000214944
41 *597:60 *645:78 3.22834e-05
42 *597:60 *676:40 7.08351e-05
43 *597:60 *677:22 0.00103439
44 *597:60 *708:84 1.35174e-05
45 FrameData_O[7] *2358:A 6.69937e-05
46 *733:DIODE *597:14 5.85548e-05
47 *1822:S *597:46 5.33005e-05
48 *1844:B *597:12 4.15914e-05
49 *1849:A1 *597:12 7.55769e-05
50 *1877:S0 *597:46 4.66174e-05
51 *1877:S1 *597:46 7.80714e-06
52 *1879:A1 *597:30 1.58163e-05
53 *1881:A1 *597:60 0
54 *1881:S1 *597:60 6.03793e-05
55 *1892:S1 *597:46 4.16899e-05
56 *1895:A3 *597:30 0.000568786
57 *1896:S1 *597:46 0.000328074
58 *1911:S0 *597:30 0.000524203
59 *2161:A *597:46 4.51213e-05
60 *2163:A *2358:A 0.000208428
61 *2163:A *597:60 7.6644e-05
62 *2342:A *741:DIODE 9.41642e-05
63 *143:9 *597:12 0.000490339
64 *143:9 *597:14 0.00043931
65 *143:59 *597:46 5.58875e-06
66 *144:39 *597:14 3.65015e-05
67 *145:63 *597:30 0.000540969
68 *145:63 *597:46 0.000251538
69 *145:75 *597:46 5.65065e-05
70 *149:37 *597:30 0.000109626
71 *181:56 *597:46 0
72 *392:36 *597:46 0.000194401
73 *479:60 *597:46 0.000106397
74 *479:62 *597:46 0.000432895
75 *479:106 *597:46 0.000167897
76 *533:18 *597:14 0.000300703
77 *540:22 *597:46 0.0010777
78 *544:68 *597:60 0.000169811
79 *558:52 *597:46 0.000145318
80 *566:24 *2358:A 9.66977e-05
81 *579:32 *597:46 4.6392e-05
82 *586:110 *597:60 0.000200026
83 *593:74 *597:46 0.000232662
84 *596:118 *597:46 0.000110833
*RES
1 *2113:X *597:12 21.2196 
2 *597:12 *597:14 49.4554 
3 *597:14 *597:30 47.1071 
4 *597:30 *597:46 48.2541 
5 *597:46 *597:60 21.6446 
6 *597:60 *741:DIODE 14.7464 
7 *597:60 *2358:A 17.9071 
*END

*D_NET *598 0.00360248
*CONN
*I *2359:A I *D sky130_fd_sc_hd__buf_2
*I *2114:X O *D sky130_fd_sc_hd__clkbuf_1
*CAP
1 *2359:A 0
2 *2114:X 0.00107836
3 *598:28 0.00107836
4 *598:28 *1934:D 3.63775e-05
5 *598:28 *1934:GATE 2.59355e-05
6 *598:28 *691:72 7.96587e-06
7 *598:28 *695:90 4.6025e-06
8 FrameData_O[5] *598:28 0.000259273
9 FrameData_O[6] *598:28 0.000254334
10 *740:DIODE *598:28 0.000190055
11 *2311:A *598:28 3.41332e-05
12 *2331:A *598:28 0.000137174
13 *234:44 *598:28 0.000186352
14 *514:24 *598:28 1.46231e-05
15 *514:72 *598:28 0.000114854
16 *535:52 *598:28 0.000180079
17 *566:24 *598:28 0
*RES
1 *2114:X *598:28 43.9429 
2 *598:28 *2359:A 9.3 
*END

*D_NET *599 0.00471867
*CONN
*I *2360:A I *D sky130_fd_sc_hd__buf_2
*I *2115:X O *D sky130_fd_sc_hd__clkbuf_1
*CAP
1 *2360:A 0
2 *2115:X 0.00113684
3 *599:18 0.00113684
4 *599:18 *1935:GATE 8.25843e-06
5 *599:18 *2115:A 4.98406e-05
6 *599:18 *645:78 1.37292e-05
7 *599:18 *677:22 0.000565701
8 FrameData_O[7] *599:18 0.000383654
9 *1813:S1 *599:18 5.33005e-05
10 *1899:S1 *599:18 5.49544e-05
11 *2056:D *599:18 9.6986e-05
12 *2358:A *599:18 1.95475e-05
13 *145:85 *599:18 7.42877e-05
14 *160:113 *599:18 8.27238e-06
15 *234:14 *599:18 5.49544e-05
16 *409:34 *599:18 0.000884342
17 *547:20 *599:18 0.000167906
18 *593:118 *599:18 9.25014e-06
*RES
1 *2115:X *599:18 41.5143 
2 *599:18 *2360:A 9.3 
*END

*D_NET *600 0.0542161
*CONN
*I *2361:A I *D sky130_fd_sc_hd__buf_2
*I *2116:X O *D sky130_fd_sc_hd__clkbuf_2
*CAP
1 *2361:A 0.000390649
2 *2116:X 0.00310068
3 *600:162 0.00138079
4 *600:138 0.00474892
5 *600:86 0.00490232
6 *600:72 0.00462705
7 *600:36 0.00658418
8 *2361:A *1899:A1 0.000136676
9 *2361:A *697:62 1.26013e-05
10 *600:36 *1848:A1 0
11 *600:36 *1848:A2 0.000102981
12 *600:36 *618:12 0.000198721
13 *600:36 *627:118 0.000424464
14 *600:36 *632:16 0.000196703
15 *600:36 *641:8 4.53834e-05
16 *600:36 *645:14 0
17 *600:36 *681:23 0.000259273
18 *600:72 *1885:A2 0.000378607
19 *600:72 *634:54 1.75792e-05
20 *600:72 *634:78 0.000696603
21 *600:72 *635:42 1.06027e-05
22 *600:72 *637:44 5.59608e-05
23 *600:72 *640:34 0.000556877
24 *600:72 *644:46 0.00016514
25 *600:72 *661:132 0.000255566
26 *600:72 *673:124 0.000559306
27 *600:72 *690:61 1.43455e-05
28 *600:72 *699:66 6.84037e-05
29 *600:86 *602:123 0.000301016
30 *600:86 *626:88 0.000228506
31 *600:86 *629:18 0.000198011
32 *600:86 *633:26 4.58194e-05
33 *600:86 *638:12 0.000452404
34 *600:86 *638:18 1.84099e-05
35 *600:86 *689:108 0.000415203
36 *600:86 *706:66 8.48807e-05
37 *600:138 *618:96 0.000584554
38 *600:138 *624:32 0
39 *600:138 *634:130 5.55836e-05
40 *600:138 *642:106 0.000520535
41 *600:138 *643:110 0.000123254
42 *600:138 *650:248 8.69554e-05
43 *600:138 *653:219 2.97456e-05
44 *600:138 *653:249 1.74852e-05
45 *600:138 *659:209 7.96048e-05
46 *600:138 *661:207 1.2431e-05
47 *600:138 *665:38 0.000160526
48 *600:138 *689:108 0.000186752
49 *600:138 *691:38 7.78829e-05
50 *600:138 *694:76 7.64882e-05
51 *600:138 *698:44 0.0004276
52 *600:138 *703:40 0.000271445
53 *600:162 *653:249 0.000292341
54 *600:162 *691:38 0.00012459
55 *600:162 *695:76 0.000289376
56 E6BEG[10] *600:162 0.000661924
57 E6BEG[1] *600:138 2.20156e-06
58 E6BEG[1] *600:162 2.96312e-05
59 E6BEG[2] *600:162 2.43119e-05
60 E6BEG[3] *600:138 9.92705e-06
61 E6BEG[5] *600:162 3.47619e-05
62 E6BEG[6] *600:162 0.000479822
63 E6BEG[7] *600:162 0.000150432
64 EE4BEG[15] *600:138 3.65354e-05
65 EE4BEG[9] *600:138 0.00017754
66 *2193:A *600:86 0.000155647
67 *2205:A *600:86 0.0002546
68 *2212:A *600:138 2.63501e-05
69 *2230:A *600:86 0.000251655
70 *2279:A *600:86 9.11541e-06
71 *2329:A *600:162 0.000129859
72 *2330:A *600:138 9.83442e-05
73 *2346:A *600:162 0.000600859
74 *143:103 *600:138 0.000295733
75 *144:27 *600:36 0.000378605
76 *144:27 *600:72 0.000387546
77 *145:37 *600:72 0.00150561
78 *146:33 *600:36 0.0011759
79 *148:81 *600:138 7.00877e-06
80 *149:27 *600:36 0.000370367
81 *149:87 *600:138 3.37161e-05
82 *151:57 *600:162 2.66789e-06
83 *153:21 *600:36 0.000207559
84 *153:79 *600:86 0.000230906
85 *153:79 *600:138 0.00044128
86 *154:47 *600:36 0.000745091
87 *159:45 *600:72 8.69554e-05
88 *181:17 *600:36 0.000195802
89 *181:17 *600:72 0.00199442
90 *479:20 *600:36 0.000414038
91 *479:46 *600:72 0.000408056
92 *484:50 *600:72 0.000212433
93 *485:18 *600:72 0.000205058
94 *492:18 *600:36 0
95 *509:30 *600:86 0.000230248
96 *511:26 *600:86 0.000971204
97 *516:32 *600:138 0.000701865
98 *520:32 *600:138 8.28381e-05
99 *524:142 *600:72 5.45632e-05
100 *528:30 *600:138 2.63501e-05
101 *537:32 *600:86 5.49544e-05
102 *538:66 *600:162 0
103 *539:18 *2361:A 0.000179709
104 *545:72 *600:138 2.35091e-05
105 *546:31 *600:138 0.000441621
106 *548:22 *600:138 2.30116e-06
107 *559:58 *600:162 0.000333405
108 *563:30 *600:72 0.000147561
109 *564:36 *600:162 9.95912e-06
110 *567:40 *600:72 0.000632239
111 *567:94 *600:162 0.00078059
112 *582:54 *600:138 0.000827245
113 *583:42 *600:36 2.99504e-05
114 *583:72 *600:138 2.63501e-05
115 *583:86 *600:138 0.000313165
116 *583:86 *600:162 0.000178637
117 *585:30 *600:138 0
118 *587:90 *600:138 0.00013467
119 *587:148 *600:138 0
120 *591:94 *600:72 0
121 *594:38 *600:72 0.000515651
122 *596:28 *600:36 3.34495e-05
*RES
1 *2116:X *600:36 48.8372 
2 *600:36 *600:72 46.2314 
3 *600:72 *600:86 49.7143 
4 *600:86 *600:138 49.367 
5 *600:138 *600:162 46.0296 
6 *600:162 *2361:A 15.5857 
*END

*D_NET *601 0.0396696
*CONN
*I *2362:A I *D sky130_fd_sc_hd__buf_2
*I *2117:X O *D sky130_fd_sc_hd__clkbuf_2
*CAP
1 *2362:A 0.000106972
2 *2117:X 0.000625555
3 *601:30 0.00506997
4 *601:10 0.00689601
5 *601:8 0.00255857
6 *601:8 *2032:D 0
7 *601:10 *602:131 0.000107016
8 *601:10 *624:120 0.000559887
9 *601:10 *628:68 0.00212873
10 *601:10 *640:26 0
11 *601:30 *1889:A2 3.79901e-06
12 *601:30 *1893:A1 0.000161847
13 *601:30 *2021:D 0.000130467
14 *601:30 *618:116 0.000167762
15 *601:30 *624:32 4.2932e-05
16 *601:30 *627:68 0.000151646
17 *601:30 *628:60 0.000271445
18 *601:30 *628:68 7.08544e-05
19 *601:30 *635:102 6.71543e-05
20 *601:30 *643:164 0.000129624
21 *601:30 *644:115 2.63501e-05
22 *601:30 *659:227 0.000397192
23 *601:30 *669:75 2.04745e-05
24 *601:30 *688:30 5.69851e-06
25 *601:30 *694:76 0.00214813
26 FrameData_O[11] *2362:A 4.82947e-05
27 *1899:S0 *601:30 1.53472e-05
28 *2039:D *601:30 0.0021073
29 *2189:A *601:30 7.61169e-05
30 *2190:A *601:30 8.6389e-05
31 *2214:A *601:30 8.98798e-06
32 *2215:A *601:30 4.52285e-05
33 *2333:A *601:30 2.78758e-05
34 *2335:A *2362:A 4.09684e-05
35 *2335:A *601:30 9.30044e-05
36 *2337:A *2362:A 9.58181e-05
37 *2348:A *2362:A 8.50269e-05
38 *2348:A *601:30 0.000126628
39 *2390:A *601:8 4.60279e-05
40 *2392:A *601:10 0.00143365
41 *142:67 *601:10 0.000461392
42 *153:55 *601:10 0.00167433
43 *156:51 *601:10 0.00304018
44 *156:51 *601:30 7.12029e-06
45 *156:53 *601:10 2.23987e-05
46 *156:53 *601:30 0.00197652
47 *479:20 *601:10 0.000554403
48 *480:153 *601:30 7.66584e-05
49 *482:58 *601:30 0.00035934
50 *491:57 *601:30 0
51 *535:26 *601:30 5.10784e-05
52 *557:32 *601:30 0.000137625
53 *565:22 *601:30 0.000129624
54 *579:24 *601:30 1.46296e-05
55 *582:28 *601:10 0.00338608
56 *584:48 *601:30 0.00118689
57 *586:44 *601:10 2.07339e-05
58 *587:148 *601:30 5.61805e-05
59 *590:12 *601:8 0
60 *590:130 *601:30 0.000297177
61 *590:170 *601:30 3.24359e-05
*RES
1 *2117:X *601:8 21.7286 
2 *601:8 *601:10 96.2054 
3 *601:10 *601:30 49.9654 
4 *601:30 *2362:A 16.3982 
*END

*D_NET *602 0.0515919
*CONN
*I *1984:D I *D sky130_fd_sc_hd__dlxtp_1
*I *2016:D I *D sky130_fd_sc_hd__dlxtp_1
*I *2048:D I *D sky130_fd_sc_hd__dlxtp_1
*I *1920:D I *D sky130_fd_sc_hd__dlxtp_1
*I *1952:D I *D sky130_fd_sc_hd__dlxtp_1
*I *2132:A I *D sky130_fd_sc_hd__buf_1
*I *2199:X O *D sky130_fd_sc_hd__buf_2
*CAP
1 *1984:D 2.59948e-05
2 *2016:D 0.000375816
3 *2048:D 0.000179185
4 *1920:D 0.000517288
5 *1952:D 0
6 *2132:A 9.35028e-05
7 *2199:X 0.000853965
8 *602:166 0.00126627
9 *602:160 0.00275628
10 *602:131 0.00326312
11 *602:123 0.00261902
12 *602:109 0.00269706
13 *602:80 0.00185606
14 *602:70 0.00120097
15 *602:34 0.00189541
16 *602:18 0.00180648
17 *1920:D *1920:GATE 6.81704e-05
18 *1920:D *641:8 0
19 *1984:D *668:69 1.58163e-05
20 *1984:D *675:130 2.59355e-05
21 *2016:D *628:90 0.00067639
22 *2016:D *640:34 0
23 *2016:D *658:93 0
24 *2016:D *684:130 4.38942e-05
25 *2048:D *1819:A2 6.76337e-05
26 *2048:D *2048:GATE 5.52302e-05
27 *2132:A *1985:GATE 1.42016e-05
28 *2132:A *636:26 9.41642e-05
29 *602:18 *629:54 0.000861497
30 *602:18 *674:20 3.69047e-06
31 *602:34 *603:74 0.00181378
32 *602:34 *624:32 0.000111243
33 *602:34 *626:70 8.99587e-05
34 *602:34 *627:68 0.000159861
35 *602:34 *644:115 0.000178425
36 *602:34 *668:34 0.000216755
37 *602:34 *668:49 1.46231e-05
38 *602:34 *675:38 1.58163e-05
39 *602:70 *1937:D 7.56827e-05
40 *602:70 *2000:D 0.000105247
41 *602:70 *2001:D 0.000109979
42 *602:70 *603:32 1.68042e-05
43 *602:70 *637:108 0.000135028
44 *602:70 *652:175 4.15183e-05
45 *602:70 *654:82 0.000113264
46 *602:70 *668:49 1.28569e-05
47 *602:70 *674:80 1.8087e-05
48 *602:70 *675:38 4.14709e-05
49 *602:70 *677:61 0.000121165
50 *602:70 *687:70 0.000102976
51 *602:70 *687:92 3.38552e-05
52 *602:80 *1985:D 5.33005e-05
53 *602:80 *1985:GATE 1.76939e-05
54 *602:80 *654:82 0.000183006
55 *602:80 *672:100 1.4811e-05
56 *602:80 *677:61 0.000217966
57 *602:109 *2024:GATE 5.03795e-05
58 *602:109 *2025:GATE 0
59 *602:109 *2180:A 2.59355e-05
60 *602:109 *613:48 0.000188409
61 *602:109 *624:58 0.000235253
62 *602:109 *626:88 0.000576579
63 *602:109 *636:26 3.19603e-05
64 *602:109 *654:20 3.90427e-05
65 *602:109 *684:12 8.34646e-05
66 *602:123 *613:107 0.000233644
67 *602:123 *626:88 0.000120628
68 *602:123 *626:96 4.08138e-05
69 *602:123 *654:20 0.000257619
70 *602:123 *689:74 5.28442e-06
71 *602:131 *1952:GATE 0.00022129
72 *602:160 *1904:A0 0.000207616
73 *602:160 *1956:D 0.000216143
74 *602:160 *627:118 0.000421782
75 *602:160 *630:84 0.000627597
76 *602:160 *632:66 0.00138535
77 *602:160 *643:10 0.000975116
78 *602:160 *643:28 0.0008162
79 *602:160 *652:34 0.000386447
80 *602:160 *652:36 0.00128146
81 *602:160 *668:140 3.19941e-05
82 *602:160 *672:192 1.50087e-05
83 *602:166 *2183:A 2.16719e-05
84 *602:166 *650:49 0.000203446
85 *602:166 *650:59 0.000142968
86 *602:166 *652:36 2.21418e-05
87 D_config_C_bit1 *602:123 9.13012e-05
88 *1816:C *602:166 0.000230631
89 *1821:A1 *2048:D 0.000148903
90 *1845:S0 *602:160 5.35838e-05
91 *1845:S0 *602:166 0.000233397
92 *2199:A *602:18 9.19015e-05
93 *2281:A *602:123 0.000220688
94 *2390:A *1920:D 0.000135028
95 *2390:A *602:166 0.000135028
96 *142:67 *602:109 0
97 *142:99 *602:34 0.000237169
98 *146:33 *602:160 0.000121549
99 *153:43 *602:131 9.1588e-05
100 *153:43 *602:160 0.000100281
101 *153:119 *602:34 3.85993e-05
102 *154:107 *602:18 0.000568468
103 *156:51 *602:123 0.000778536
104 *156:51 *602:131 0.000991841
105 *157:21 *2048:D 0.000508494
106 *157:57 *602:109 0.000213907
107 *157:111 *602:18 4.48128e-05
108 *157:111 *602:34 0.00182714
109 *157:115 *602:18 0.00113969
110 *158:71 *602:70 4.46689e-05
111 *159:45 *602:160 1.67585e-05
112 *181:17 *602:160 1.55812e-05
113 *480:50 *602:70 8.83878e-05
114 *482:40 *602:123 0.000323002
115 *492:12 *1920:D 9.97164e-05
116 *505:16 *602:160 4.29471e-05
117 *511:8 *602:18 0
118 *512:20 *602:70 4.28365e-05
119 *544:48 *602:34 0.000425817
120 *556:40 *602:34 6.42869e-05
121 *557:44 *602:34 0.000224104
122 *561:30 *602:123 0.000233704
123 *561:30 *602:131 0.000543305
124 *561:30 *602:160 1.09611e-05
125 *568:58 *602:109 0.000622685
126 *568:88 *602:160 6.61023e-05
127 *582:12 *2048:D 0.000151588
128 *582:12 *602:166 0.00114426
129 *582:28 *602:131 0.000269928
130 *582:94 *602:34 0.000205254
131 *584:48 *2132:A 2.98503e-05
132 *584:48 *602:70 0
133 *586:44 *602:109 0.000166005
134 *586:74 *2132:A 5.33005e-05
135 *586:74 *602:80 0.0002597
136 *586:74 *602:109 0.0012818
137 *587:24 *602:131 5.33005e-05
138 *587:24 *602:160 6.2127e-05
139 *587:148 *602:70 6.63908e-05
140 *590:12 *1920:D 0.000269372
141 *590:96 *602:70 8.66744e-05
142 *593:44 *602:160 3.43988e-06
143 *600:86 *602:123 0.000301016
144 *601:10 *602:131 0.000107016
*RES
1 *2199:X *602:18 47.7286 
2 *602:18 *602:34 49.9107 
3 *602:34 *602:70 33.1968 
4 *602:70 *602:80 10.9107 
5 *602:80 *2132:A 11.6214 
6 *602:80 *602:109 47.5536 
7 *602:109 *602:123 40.4107 
8 *602:123 *602:131 30.5893 
9 *602:131 *1952:D 9.3 
10 *602:131 *602:160 47.7333 
11 *602:160 *602:166 21.6161 
12 *602:166 *1920:D 27.3 
13 *602:166 *2048:D 25.3357 
14 *602:123 *2016:D 21.3179 
15 *602:70 *1984:D 14.3357 
*END

*D_NET *603 0.0279809
*CONN
*I *2363:A I *D sky130_fd_sc_hd__buf_2
*I *2140:X O *D sky130_fd_sc_hd__buf_1
*CAP
1 *2363:A 0.000519456
2 *2140:X 0.00195772
3 *603:74 0.00191467
4 *603:72 0.00162332
5 *603:66 0.00124053
6 *603:32 0.00297015
7 *2363:A *630:26 2.89016e-05
8 *603:32 *1992:D 0.000175892
9 *603:32 *613:83 0.000450268
10 *603:32 *616:26 0.000165782
11 *603:32 *618:50 0.000234331
12 *603:32 *624:58 9.87935e-06
13 *603:32 *639:30 0.00155806
14 *603:32 *652:175 9.96753e-05
15 *603:32 *672:134 0.000284207
16 *603:32 *674:80 3.77315e-05
17 *603:32 *680:46 4.00349e-05
18 *603:66 *1812:A1 0.00016808
19 *603:66 *1908:A0 0.000123126
20 *603:66 *644:115 1.24368e-05
21 *603:66 *654:88 1.21309e-05
22 *603:66 *665:18 3.66671e-06
23 *603:66 *668:34 9.65172e-05
24 *603:66 *674:80 5.41164e-05
25 *603:66 *676:10 0.000327436
26 *603:66 *687:70 6.35864e-05
27 *603:72 *627:68 3.50637e-05
28 *603:74 *2374:A 0
29 *603:74 *624:32 0.000121549
30 *603:74 *625:10 0
31 FrameStrobe_O[0] *2363:A 2.07878e-05
32 *1876:S1 *603:32 7.57673e-05
33 *1892:S0 *603:32 0.000137561
34 *2189:A *603:74 0.00028828
35 *2199:A *603:74 0.000289379
36 *2263:A *603:72 0.000392247
37 *142:99 *603:66 8.72952e-05
38 *154:99 *603:66 1.81709e-05
39 *157:111 *603:74 1.44954e-05
40 *157:115 *603:74 0.00297515
41 *480:50 *603:32 0.000225579
42 *480:70 *603:32 3.63775e-05
43 *495:20 *603:32 0.000150887
44 *509:30 *603:32 0.00207672
45 *510:22 *603:66 7.72966e-05
46 *512:20 *603:66 0.000263047
47 *544:48 *603:72 0.000311849
48 *556:22 *2363:A 0
49 *556:24 *603:74 0.00119016
50 *556:40 *603:74 0.00117501
51 *568:10 *603:74 0.000327041
52 *568:28 *603:74 0.000932348
53 *578:14 *603:66 9.41642e-05
54 *584:48 *603:74 0.00014202
55 *587:90 *603:32 1.90936e-05
56 *587:148 *603:66 5.25372e-05
57 *590:96 *603:32 0.00042041
58 *591:94 *603:32 2.83129e-05
59 *602:34 *603:74 0.00181378
60 *602:70 *603:32 1.68042e-05
*RES
1 *2140:X *603:32 49.3547 
2 *603:32 *603:66 47.16 
3 *603:66 *603:72 7.5156 
4 *603:72 *603:74 67.0625 
5 *603:74 *2363:A 22.1571 
*END

*D_NET *604 0.00223635
*CONN
*I *2364:A I *D sky130_fd_sc_hd__buf_2
*I *2150:X O *D sky130_fd_sc_hd__clkbuf_1
*CAP
1 *2364:A 0.000456697
2 *2150:X 0.000456697
3 *2364:A *2366:A 0.000318101
4 *2364:A *2367:A 0.000360329
5 *2364:A *2368:A 1.38323e-05
6 *2364:A *2372:A 1.55252e-05
7 *2364:A *2373:A 7.83587e-05
8 FrameStrobe_O[11] *2364:A 5.62995e-05
9 FrameStrobe_O[12] *2364:A 5.62995e-05
10 FrameStrobe_O[13] *2364:A 0.000122159
11 FrameStrobe_O[14] *2364:A 0.00014285
12 FrameStrobe_O[15] *2364:A 3.34687e-05
13 *714:DIODE *2364:A 0.000125731
*RES
1 *2150:X *2364:A 40.3321 
*END

*D_NET *605 0.000818642
*CONN
*I *2365:A I *D sky130_fd_sc_hd__buf_2
*I *2151:X O *D sky130_fd_sc_hd__clkbuf_1
*CAP
1 *2365:A 0.000271215
2 *2151:X 0.000271215
3 *2365:A *2368:A 0
4 FrameStrobe_O[15] *2365:A 0.000276211
*RES
1 *2151:X *2365:A 31.8321 
*END

*D_NET *606 0.00250412
*CONN
*I *2366:A I *D sky130_fd_sc_hd__buf_2
*I *2152:X O *D sky130_fd_sc_hd__clkbuf_1
*CAP
1 *2366:A 0.000479796
2 *2152:X 0.000479796
3 *2366:A *2367:A 0.000304592
4 *2366:A *2368:A 0.000184745
5 *2366:A *2369:A 9.41438e-05
6 *2366:A *2370:A 0
7 *2366:A *2373:A 2.00751e-05
8 *715:DIODE *2366:A 0.00012401
9 *1883:S1 *2366:A 0.000264393
10 *2152:A *2366:A 2.89016e-05
11 *2153:A *2366:A 0.000162265
12 *2158:A *2366:A 0
13 *2364:A *2366:A 0.000318101
14 *149:111 *2366:A 4.33002e-05
*RES
1 *2152:X *2366:A 40.4929 
*END

*D_NET *607 0.00124653
*CONN
*I *2367:A I *D sky130_fd_sc_hd__buf_2
*I *2153:X O *D sky130_fd_sc_hd__clkbuf_1
*CAP
1 *2367:A 0.000166826
2 *2153:X 0.000166826
3 *2367:A *2368:A 0.000180777
4 FrameStrobe_O[14] *2367:A 6.71854e-05
5 *2364:A *2367:A 0.000360329
6 *2366:A *2367:A 0.000304592
*RES
1 *2153:X *2367:A 33.4393 
*END

*D_NET *608 0.00188562
*CONN
*I *2368:A I *D sky130_fd_sc_hd__buf_2
*I *2154:X O *D sky130_fd_sc_hd__clkbuf_1
*CAP
1 *2368:A 0.000440314
2 *2154:X 0.000440314
3 *2368:A *2369:A 0.0001399
4 FrameStrobe_O[14] *2368:A 6.57682e-05
5 *715:DIODE *2368:A 5.33005e-05
6 *717:DIODE *2368:A 0.000116481
7 *2151:A *2368:A 5.41794e-05
8 *2364:A *2368:A 1.38323e-05
9 *2365:A *2368:A 0
10 *2366:A *2368:A 0.000184745
11 *2367:A *2368:A 0.000180777
12 *148:111 *2368:A 0.00014183
13 *151:85 *2368:A 5.41794e-05
*RES
1 *2154:X *2368:A 37.4036 
*END

*D_NET *609 0.00252922
*CONN
*I *2369:A I *D sky130_fd_sc_hd__buf_2
*I *2155:X O *D sky130_fd_sc_hd__clkbuf_1
*CAP
1 *2369:A 0.000621309
2 *2155:X 0.000621309
3 FrameStrobe_O[15] *2369:A 0.000204671
4 *711:DIODE *2369:A 3.06878e-06
5 *1883:S1 *2369:A 0.000171368
6 *2151:A *2369:A 5.33005e-05
7 *2152:A *2369:A 7.11447e-05
8 *2153:A *2369:A 5.33005e-05
9 *2366:A *2369:A 9.41438e-05
10 *2368:A *2369:A 0.0001399
11 *148:111 *2369:A 0.000165356
12 *149:111 *2369:A 2.04825e-05
13 *151:85 *2369:A 0.000307355
14 *577:20 *2369:A 2.51343e-06
*RES
1 *2155:X *2369:A 40.5643 
*END

*D_NET *610 0.00145918
*CONN
*I *2370:A I *D sky130_fd_sc_hd__buf_2
*I *2156:X O *D sky130_fd_sc_hd__clkbuf_1
*CAP
1 *2370:A 0.000449859
2 *2156:X 0.000449859
3 *2370:A *2371:A 2.59355e-05
4 *2370:A *2372:A 7.83587e-05
5 *2370:A *2373:A 1.78447e-05
6 FrameStrobe_O[16] *2370:A 0
7 *716:DIODE *2370:A 5.65955e-05
8 *2155:A *2370:A 0
9 *2158:A *2370:A 0.000380732
10 *2366:A *2370:A 0
*RES
1 *2156:X *2370:A 36.7071 
*END

*D_NET *611 0.000697242
*CONN
*I *2371:A I *D sky130_fd_sc_hd__buf_2
*I *2157:X O *D sky130_fd_sc_hd__clkbuf_1
*CAP
1 *2371:A 0.000188116
2 *2157:X 0.000188116
3 *2371:A *2372:A 5.49544e-05
4 *2371:A *2373:A 2.59355e-05
5 FrameStrobe_O[15] *2371:A 2.44318e-05
6 FrameStrobe_O[18] *2371:A 9.99853e-05
7 *2370:A *2371:A 2.59355e-05
8 *148:111 *2371:A 8.97673e-05
*RES
1 *2157:X *2371:A 22.8679 
*END

*D_NET *612 0.000424004
*CONN
*I *2372:A I *D sky130_fd_sc_hd__buf_2
*I *2158:X O *D sky130_fd_sc_hd__clkbuf_1
*CAP
1 *2372:A 0.000115714
2 *2158:X 0.000115714
3 *2372:A *2373:A 3.92757e-05
4 FrameStrobe_O[16] *2372:A 0
5 *714:DIODE *2372:A 4.46186e-06
6 *2364:A *2372:A 1.55252e-05
7 *2370:A *2372:A 7.83587e-05
8 *2371:A *2372:A 5.49544e-05
*RES
1 *2158:X *2372:A 30.0821 
*END

*D_NET *613 0.0467739
*CONN
*I *1985:D I *D sky130_fd_sc_hd__dlxtp_1
*I *1953:D I *D sky130_fd_sc_hd__dlxtp_1
*I *2049:D I *D sky130_fd_sc_hd__dlxtp_1
*I *1921:D I *D sky130_fd_sc_hd__dlxtp_1
*I *2017:D I *D sky130_fd_sc_hd__dlxtp_1
*I *2133:A I *D sky130_fd_sc_hd__buf_1
*I *2200:X O *D sky130_fd_sc_hd__clkbuf_2
*CAP
1 *1985:D 3.60672e-05
2 *1953:D 0.000522414
3 *2049:D 3.99398e-05
4 *1921:D 0.000201551
5 *2017:D 0
6 *2133:A 7.648e-05
7 *2200:X 0.00503195
8 *613:146 0.00153306
9 *613:138 0.00318876
10 *613:107 0.00236075
11 *613:83 0.00194392
12 *613:48 0.00125626
13 *613:42 0.000257911
14 *613:40 0.00503195
15 *1921:D *639:60 6.63572e-05
16 *1921:D *666:56 0.000128452
17 *1953:D *630:84 2.48798e-05
18 *1953:D *684:130 0.000187252
19 *1985:D *1985:GATE 1.58163e-05
20 *1985:D *687:92 1.90936e-05
21 *2049:D *639:60 9.60337e-06
22 *2049:D *643:10 5.61978e-05
23 *2049:D *683:18 1.75642e-05
24 *2133:A *635:10 2.94004e-05
25 *2133:A *636:26 9.41642e-05
26 *613:40 *1812:A0 0.000614875
27 *613:40 *618:132 2.01997e-05
28 *613:40 *630:26 8.92708e-06
29 *613:40 *630:66 0.00322889
30 *613:40 *632:152 0.00206204
31 *613:40 *636:159 0.000372579
32 *613:40 *654:82 0.000116052
33 *613:40 *670:45 0
34 *613:40 *679:49 1.42701e-05
35 *613:40 *698:175 0.00016044
36 *613:48 *2180:A 4.4757e-05
37 *613:48 *652:175 1.84717e-05
38 *613:48 *687:92 0.000130136
39 *613:83 *2180:A 0.000407815
40 *613:83 *618:50 3.92757e-05
41 *613:83 *618:96 0.000198222
42 *613:83 *633:78 0.000135028
43 *613:83 *652:175 0.000420571
44 *613:83 *654:41 0.000153126
45 *613:83 *654:82 0.000254401
46 *613:83 *672:134 0.000209292
47 *613:83 *684:46 1.721e-05
48 *613:107 *1880:A0 8.66819e-05
49 *613:107 *2016:GATE 1.99099e-05
50 *613:107 *2185:A 0.00013921
51 *613:107 *643:110 0.000138809
52 *613:107 *654:20 0.000165778
53 *613:107 *680:8 2.42516e-05
54 *613:107 *680:10 4.46481e-05
55 *613:107 *684:6 2.68253e-05
56 *613:107 *684:8 2.99653e-05
57 *613:107 *689:74 9.34059e-06
58 *613:138 *1912:A0 3.33605e-05
59 *613:138 *1912:A3 9.42567e-05
60 *613:138 *2016:GATE 0
61 *613:138 *616:26 1.44317e-05
62 *613:138 *626:122 0.000567802
63 *613:138 *628:90 0.000406067
64 *613:138 *689:74 0.000338257
65 B_config_C_bit1 *1953:D 2.18838e-05
66 D_config_C_bit0 *613:107 2.84026e-05
67 D_config_C_bit0 *613:138 2.2185e-05
68 D_config_C_bit1 *613:107 0.000106894
69 *1876:S0 *613:107 5.33005e-05
70 *1876:S1 *613:83 4.08889e-05
71 *1880:S0 *613:107 0.000113675
72 *1880:S0 *613:138 1.83053e-05
73 *1891:S0 *613:40 0.000135773
74 *1912:S0 *613:138 4.84319e-05
75 *2181:A *613:107 6.05161e-06
76 *2279:A *613:107 0.00044148
77 *2304:A *613:40 1.47779e-05
78 *152:33 *613:107 2.06178e-05
79 *153:43 *1953:D 4.74821e-05
80 *153:43 *613:138 8.76591e-06
81 *154:47 *1921:D 1.5373e-05
82 *154:47 *613:146 2.8491e-05
83 *154:95 *2133:A 9.66977e-05
84 *159:21 *613:146 0.00210359
85 *159:45 *613:138 2.63501e-05
86 *160:127 *613:40 0.000846519
87 *181:21 *613:138 0.000132156
88 *181:44 *613:138 0.000248215
89 *479:20 *1921:D 0.000170989
90 *479:20 *2049:D 2.02018e-05
91 *479:20 *613:146 4.85346e-05
92 *491:96 *613:40 2.33124e-05
93 *506:14 *1953:D 0.000185313
94 *510:34 *613:107 0.000489717
95 *519:46 *613:40 0.000220093
96 *522:58 *613:40 0.000752463
97 *537:32 *613:83 0.0001399
98 *553:20 *613:40 0.000160692
99 *556:54 *2133:A 3.75081e-05
100 *557:94 *1921:D 1.30594e-05
101 *568:88 *613:138 9.97297e-05
102 *568:122 *2049:D 1.90936e-05
103 *573:28 *613:40 0.000363517
104 *579:24 *613:40 0.00030694
105 *579:32 *613:40 8.69554e-05
106 *582:54 *613:40 8.049e-05
107 *585:30 *2133:A 9.56151e-05
108 *585:30 *613:40 0.000964953
109 *585:30 *613:48 0.000139236
110 *586:74 *613:48 8.44271e-06
111 *587:24 *613:138 5.41797e-06
112 *587:60 *613:138 0.000283692
113 *587:90 *613:83 0.000380457
114 *587:148 *613:40 3.683e-05
115 *588:16 *613:40 9.11048e-06
116 *590:49 *613:107 7.33185e-06
117 *590:96 *613:107 6.57032e-05
118 *591:126 *613:146 0.00102969
119 *591:136 *613:146 0.00098929
120 *593:44 *613:138 0.000412665
121 *594:38 *613:138 0.000252999
122 *594:38 *613:146 0.000426054
123 *602:80 *1985:D 5.33005e-05
124 *602:109 *613:48 0.000188409
125 *602:123 *613:107 0.000233644
126 *603:32 *613:83 0.000450268
*RES
1 *2200:X *613:40 48.8722 
2 *613:40 *613:42 3.41 
3 *613:42 *613:48 5.49107 
4 *613:48 *2133:A 16.3893 
5 *613:48 *613:83 46.5179 
6 *613:83 *613:107 40.25 
7 *613:107 *2017:D 9.3 
8 *613:107 *613:138 41.7394 
9 *613:138 *613:146 8.91527 
10 *613:146 *1921:D 19.6074 
11 *613:146 *2049:D 18.1055 
12 *613:138 *1953:D 23.8255 
13 *613:42 *1985:D 14.6125 
*END

*D_NET *614 0.00118378
*CONN
*I *2373:A I *D sky130_fd_sc_hd__buf_2
*I *2159:X O *D sky130_fd_sc_hd__clkbuf_1
*CAP
1 *2373:A 0.000355994
2 *2159:X 0.000355994
3 *2150:A *2373:A 3.18676e-05
4 *2158:A *2373:A 9.58181e-05
5 *2364:A *2373:A 7.83587e-05
6 *2366:A *2373:A 2.00751e-05
7 *2370:A *2373:A 1.78447e-05
8 *2371:A *2373:A 2.59355e-05
9 *2372:A *2373:A 3.92757e-05
10 *148:111 *2373:A 0.000104523
11 *564:8 *2373:A 5.80941e-05
*RES
1 *2159:X *2373:A 34.4393 
*END

*D_NET *615 0.0109889
*CONN
*I *2374:A I *D sky130_fd_sc_hd__buf_2
*I *2141:X O *D sky130_fd_sc_hd__buf_1
*CAP
1 *2374:A 0.000884221
2 *2141:X 0
3 *615:10 0.0019526
4 *615:6 0.00106838
5 *2374:A *1901:A1 0.000225385
6 *2374:A *2375:A 0
7 *2374:A *2379:A 1.58163e-05
8 *2374:A *2381:A 0.000131995
9 *2374:A *2383:A 0.000186669
10 *2374:A *625:10 0.000507559
11 *2374:A *674:129 0.000136708
12 *615:10 *1890:A0 0.000769649
13 *615:10 *1893:A3 0.000672614
14 *615:10 *1991:D 2.21972e-05
15 *615:10 *2379:A 1.08847e-05
16 *615:10 *631:22 0.000880004
17 *615:10 *689:114 0.000296272
18 *615:10 *694:92 0.00122063
19 FrameStrobe_O[0] *2374:A 0.000230482
20 *723:DIODE *2374:A 4.95586e-05
21 *724:DIODE *615:10 0.000126446
22 *743:DIODE *615:10 0.000346342
23 *1901:A3 *615:10 0.000438931
24 *1901:S1 *2374:A 0.000180073
25 *1974:D *615:10 1.53472e-05
26 *2146:A *615:10 0.000147583
27 *143:111 *615:10 5.18213e-05
28 *480:153 *615:10 0
29 *480:159 *615:10 0.000217877
30 *519:24 *615:10 1.88482e-05
31 *573:28 *615:10 0.000160747
32 *587:176 *615:10 2.32566e-05
33 *603:74 *2374:A 0
*RES
1 *2141:X *615:6 13.8 
2 *615:6 *615:10 43.1786 
3 *615:10 *2374:A 38.0857 
*END

*D_NET *616 0.0302838
*CONN
*I *2375:A I *D sky130_fd_sc_hd__buf_2
*I *726:DIODE I *D sky130_fd_sc_hd__diode_2
*I *2142:X O *D sky130_fd_sc_hd__buf_1
*CAP
1 *2375:A 0.000427478
2 *726:DIODE 0.000750852
3 *2142:X 0.001518
4 *616:38 0.00312212
5 *616:26 0.00431674
6 *726:DIODE *626:34 2.20784e-05
7 *726:DIODE *628:24 0.000126628
8 *726:DIODE *674:129 0.000160844
9 *2375:A *2383:A 9.83442e-05
10 *2375:A *625:10 0
11 *2375:A *630:26 0.000223532
12 *616:26 *624:108 0.000136676
13 *616:26 *628:90 2.8078e-05
14 *616:26 *631:106 0.00135839
15 *616:26 *639:30 0.000274517
16 *616:26 *644:52 0.000723663
17 *616:26 *644:115 0.000379234
18 *616:26 *684:130 9.93326e-05
19 *616:26 *689:74 2.21043e-05
20 *616:38 *624:32 0.0046614
21 *616:38 *626:34 0.00278903
22 *616:38 *627:40 5.27504e-05
23 *616:38 *627:68 0.00190648
24 *616:38 *628:60 3.80995e-05
25 *616:38 *629:54 0.000971617
26 *616:38 *638:12 0.00144012
27 *616:38 *644:115 0.000166513
28 C_config_C_bit3 *616:26 1.11789e-05
29 D_config_C_bit0 *616:26 4.10533e-05
30 FrameStrobe_O[0] *2375:A 0.000134192
31 *721:DIODE *2375:A 0.000153563
32 *724:DIODE *726:DIODE 5.33005e-05
33 *730:DIODE *726:DIODE 1.21258e-05
34 *2202:A *726:DIODE 0.000108459
35 *2203:A *726:DIODE 0.000132931
36 *2206:A *2375:A 0
37 *2209:A *616:26 0.000127359
38 *2214:A *616:38 0.000230124
39 *2215:A *616:38 6.24939e-05
40 *2241:A *616:38 2.17846e-05
41 *2374:A *2375:A 0
42 *142:99 *616:38 4.00349e-05
43 *152:33 *616:26 0.000320589
44 *154:99 *616:38 7.04244e-05
45 *156:69 *2375:A 2.11419e-05
46 *156:69 *616:38 7.39354e-05
47 *158:71 *616:38 0.000308525
48 *158:97 *2375:A 6.15273e-05
49 *495:20 *616:26 0.000220289
50 *509:30 *616:26 0.000586409
51 *510:22 *616:38 2.19833e-05
52 *510:34 *616:38 0.000753011
53 *544:32 *616:26 1.11626e-05
54 *556:40 *616:38 0.000386361
55 *582:94 *616:38 3.84202e-05
56 *586:22 *616:26 2.71935e-05
57 *587:60 *616:26 8.55432e-05
58 *591:94 *616:38 0.000173803
59 *603:32 *616:26 0.000165782
60 *613:138 *616:26 1.44317e-05
*RES
1 *2142:X *616:26 36.0701 
2 *616:26 *616:38 49.4962 
3 *616:38 *726:DIODE 20.9142 
4 *726:DIODE *2375:A 37.475 
*END

*D_NET *617 0.0030889
*CONN
*I *2376:A I *D sky130_fd_sc_hd__buf_2
*I *2143:X O *D sky130_fd_sc_hd__clkbuf_1
*CAP
1 *2376:A 0.000637496
2 *2143:X 0.000637496
3 *2376:A *1891:A0 0.000263148
4 *2376:A *1901:A0 0
5 *2376:A *1901:A1 1.78353e-05
6 *2376:A *1974:GATE 9.03121e-05
7 *2376:A *1988:D 4.49922e-05
8 *2376:A *1988:GATE 3.08664e-05
9 *2376:A *2380:A 0.000285547
10 *2376:A *2383:A 9.83388e-05
11 *2376:A *631:18 0.00015724
12 FrameStrobe_O[0] *2376:A 1.42165e-05
13 UserCLKo *2376:A 3.42426e-05
14 *1891:S0 *2376:A 7.70035e-05
15 *1975:D *2376:A 0.000527092
16 *2207:A *2376:A 0.000173076
*RES
1 *2143:X *2376:A 44.1 
*END

*D_NET *618 0.0477786
*CONN
*I *2377:A I *D sky130_fd_sc_hd__buf_2
*I *2144:X O *D sky130_fd_sc_hd__clkbuf_2
*CAP
1 *2377:A 0
2 *2144:X 0.00142564
3 *618:132 0.00182525
4 *618:116 0.00363054
5 *618:96 0.00496191
6 *618:50 0.00435707
7 *618:30 0.00258514
8 *618:12 0.00281032
9 *618:12 *1924:D 0.000329026
10 *618:12 *2184:A 0.00040808
11 *618:12 *626:148 2.09897e-05
12 *618:12 *627:118 4.5534e-05
13 *618:12 *628:112 3.23658e-05
14 *618:12 *683:106 0.000340781
15 *618:30 *643:28 3.6192e-05
16 *618:30 *643:50 0.000216687
17 *618:30 *658:93 0.000431193
18 *618:30 *672:184 0.000252254
19 *618:30 *672:192 1.09182e-05
20 *618:50 *1876:A2 1.37644e-05
21 *618:50 *624:58 0.00030344
22 *618:50 *643:110 2.3224e-05
23 *618:50 *654:41 7.29712e-05
24 *618:50 *658:113 2.74981e-06
25 *618:50 *684:114 0.000290553
26 *618:96 *630:66 0.000212171
27 *618:96 *631:106 1.75318e-05
28 *618:96 *632:107 0.000114637
29 *618:96 *635:42 0.000107242
30 *618:96 *635:92 0.000661315
31 *618:96 *636:159 0
32 *618:96 *642:106 0.000192294
33 *618:96 *669:114 0.000270436
34 *618:96 *671:30 0.000431155
35 *618:96 *672:134 0.000245661
36 *618:96 *673:90 0.000366096
37 *618:96 *687:92 4.99276e-05
38 *618:96 *694:76 6.79536e-05
39 *618:96 *698:68 0.000213246
40 *618:96 *701:54 2.95558e-05
41 *618:96 *708:84 2.63501e-05
42 *618:116 *1885:A2 0.000365739
43 *618:116 *636:159 5.58875e-06
44 *618:116 *645:78 0.000601982
45 *618:116 *673:90 0.000278489
46 *618:116 *688:30 3.90782e-06
47 *618:116 *708:99 2.11419e-05
48 *618:132 *1943:GATE 0.000118986
49 *618:132 *2012:GATE 0.000721111
50 *618:132 *2379:A 5.49489e-05
51 *618:132 *2380:A 1.74352e-05
52 *618:132 *2381:A 0.000652075
53 *618:132 *2382:A 0
54 *618:132 *2383:A 0.000260885
55 *618:132 *669:45 0.000139032
56 *618:132 *698:175 0
57 FrameStrobe_O[5] *618:132 5.65955e-05
58 FrameStrobe_O[7] *618:132 7.77652e-05
59 UserCLKo *618:132 0.000216284
60 *724:DIODE *618:132 0.00012321
61 *1828:A4 *618:50 0
62 *1837:A_N *618:12 0
63 *1876:S0 *618:50 0.000151841
64 *1881:S1 *618:96 0.000187
65 *1892:S1 *618:50 2.9334e-05
66 *1909:S0 *618:132 0.000137621
67 *1912:S1 *618:30 0.000298724
68 *1982:D *618:12 2.21972e-05
69 *2039:D *618:50 0.000122183
70 *2040:D *618:96 0.000195817
71 *2041:D *618:96 2.79421e-05
72 *2070:A *618:30 5.58875e-06
73 *2093:A *618:132 0
74 *2103:A *618:132 0.000492257
75 *2387:A *618:12 0.000197567
76 *2389:A *618:12 3.90513e-05
77 *146:99 *618:116 0.000407151
78 *150:87 *618:132 2.86749e-05
79 *151:57 *618:96 4.17634e-05
80 *151:77 *618:116 0.00011535
81 *156:27 *618:12 1.43864e-05
82 *156:47 *618:12 0.000775838
83 *159:45 *618:30 0.0013536
84 *159:93 *618:116 8.33331e-06
85 *160:133 *618:132 9.39336e-05
86 *181:21 *618:30 0
87 *181:44 *618:50 0.0011759
88 *233:25 *618:96 1.81805e-05
89 *233:25 *618:116 0.000247508
90 *233:62 *618:116 0.000445174
91 *243:20 *618:50 0.000262096
92 *243:42 *618:50 5.11396e-07
93 *261:12 *618:12 9.71118e-06
94 *261:12 *618:30 0.000139215
95 *409:34 *618:96 8.96293e-05
96 *479:106 *618:96 0.000189942
97 *479:161 *618:116 0.000210985
98 *479:174 *618:116 0.000100019
99 *479:174 *618:132 0
100 *480:70 *618:50 0.000260305
101 *486:35 *618:30 0.000172408
102 *486:74 *618:30 0.000334918
103 *491:96 *618:132 0.000247312
104 *492:18 *618:12 0
105 *508:14 *618:12 0
106 *508:14 *618:30 0.00012573
107 *515:40 *618:96 1.43819e-05
108 *519:46 *618:96 2.20394e-05
109 *522:58 *618:96 3.93531e-05
110 *524:180 *618:116 0.000240389
111 *531:34 *618:116 0.00113132
112 *535:52 *618:116 0.000327064
113 *535:112 *618:132 0.000138519
114 *544:68 *618:96 0.000133811
115 *551:20 *618:132 0
116 *552:28 *618:116 0.000702292
117 *558:52 *618:96 0.000647762
118 *567:72 *618:96 0.00050541
119 *568:88 *618:12 4.87737e-05
120 *572:12 *618:116 0
121 *572:12 *618:132 0.000374994
122 *573:28 *618:116 0.000170027
123 *573:28 *618:132 0.000127301
124 *576:14 *618:132 7.46389e-05
125 *582:54 *618:50 0
126 *586:110 *618:96 2.14519e-05
127 *587:24 *618:12 9.61073e-06
128 *587:90 *618:50 0.000302676
129 *587:90 *618:96 0.00021113
130 *590:49 *618:50 0.000422349
131 *590:96 *618:50 3.3743e-05
132 *591:126 *618:30 0.000103373
133 *592:26 *618:116 2.04825e-05
134 *593:44 *618:50 0.000336483
135 *593:74 *618:50 4.2313e-06
136 *594:102 *618:116 2.05803e-05
137 *597:60 *618:96 0.000186915
138 *597:60 *618:116 4.13827e-05
139 *600:36 *618:12 0.000198721
140 *600:138 *618:96 0.000584554
141 *601:30 *618:116 0.000167762
142 *603:32 *618:50 0.000234331
143 *613:40 *618:132 2.01997e-05
144 *613:83 *618:50 3.92757e-05
145 *613:83 *618:96 0.000198222
*RES
1 *2144:X *618:12 48.2821 
2 *618:12 *618:30 46.5357 
3 *618:30 *618:50 46.8929 
4 *618:50 *618:96 43.3213 
5 *618:96 *618:116 43.8715 
6 *618:116 *618:132 49.2988 
7 *618:132 *2377:A 9.3 
*END

*D_NET *619 0.00152954
*CONN
*I *2378:A I *D sky130_fd_sc_hd__buf_2
*I *2145:X O *D sky130_fd_sc_hd__clkbuf_1
*CAP
1 *2378:A 0.000621123
2 *2145:X 0.000621123
3 *2378:A *1901:A0 0.000148903
4 *2378:A *1974:GATE 2.90548e-05
5 *2378:A *2379:A 0
6 *2378:A *2380:A 5.49489e-05
7 *722:DIODE *2378:A 1.96616e-05
8 *1974:D *2378:A 1.92905e-05
9 *2207:A *2378:A 0
10 *556:22 *2378:A 1.54403e-05
*RES
1 *2145:X *2378:A 36.4393 
*END

*D_NET *620 0.00138054
*CONN
*I *2379:A I *D sky130_fd_sc_hd__buf_2
*I *2146:X O *D sky130_fd_sc_hd__clkbuf_1
*CAP
1 *2379:A 0.000419085
2 *2146:X 0.000419085
3 *2379:A *1901:A0 0
4 *2379:A *1901:A1 9.77657e-05
5 *2379:A *2381:A 5.49544e-05
6 *2379:A *2383:A 5.49489e-05
7 *1901:A3 *2379:A 9.30532e-05
8 *1901:S0 *2379:A 0.00010288
9 *2146:A *2379:A 5.7119e-05
10 *2374:A *2379:A 1.58163e-05
11 *2378:A *2379:A 0
12 *615:10 *2379:A 1.08847e-05
13 *618:132 *2379:A 5.49489e-05
*RES
1 *2146:X *2379:A 36.3857 
*END

*D_NET *621 0.00276599
*CONN
*I *2380:A I *D sky130_fd_sc_hd__buf_2
*I *2147:X O *D sky130_fd_sc_hd__clkbuf_1
*CAP
1 *2380:A 0.000761458
2 *2147:X 0.000761458
3 *2380:A *1974:GATE 2.84109e-05
4 *2380:A *2383:A 0.000820392
5 FrameStrobe_O[0] *2380:A 3.6337e-05
6 *2376:A *2380:A 0.000285547
7 *2378:A *2380:A 5.49489e-05
8 *618:132 *2380:A 1.74352e-05
*RES
1 *2147:X *2380:A 40.5643 
*END

*D_NET *622 0.0040834
*CONN
*I *2381:A I *D sky130_fd_sc_hd__buf_2
*I *2148:X O *D sky130_fd_sc_hd__clkbuf_1
*CAP
1 *2381:A 0.00112505
2 *2148:X 0.00112505
3 *2381:A *674:129 0.000225988
4 FrameStrobe_O[8] *2381:A 2.27416e-05
5 *723:DIODE *2381:A 0.000138576
6 *725:DIODE *2381:A 5.52238e-05
7 *1894:S0 *2381:A 0.000139907
8 *1901:S1 *2381:A 0.000341612
9 *2100:A *2381:A 2.95726e-05
10 *2149:A *2381:A 2.87257e-05
11 *2374:A *2381:A 0.000131995
12 *2379:A *2381:A 5.49544e-05
13 *160:133 *2381:A 1.19191e-05
14 *618:132 *2381:A 0.000652075
*RES
1 *2148:X *2381:A 48.9929 
*END

*D_NET *623 0.00140347
*CONN
*I *2382:A I *D sky130_fd_sc_hd__buf_2
*I *2149:X O *D sky130_fd_sc_hd__clkbuf_1
*CAP
1 *2382:A 0.000579979
2 *2149:X 0.000579979
3 *2093:A *2382:A 7.6644e-05
4 *2149:A *2382:A 3.69047e-06
5 *148:111 *2382:A 3.48235e-05
6 *556:22 *2382:A 0.000128357
7 *618:132 *2382:A 0
*RES
1 *2149:X *2382:A 36.3143 
*END

*D_NET *624 0.049209
*CONN
*I *2018:D I *D sky130_fd_sc_hd__dlxtp_1
*I *1954:D I *D sky130_fd_sc_hd__dlxtp_1
*I *1986:D I *D sky130_fd_sc_hd__dlxtp_1
*I *2134:A I *D sky130_fd_sc_hd__clkbuf_2
*I *2050:D I *D sky130_fd_sc_hd__dlxtp_1
*I *1922:D I *D sky130_fd_sc_hd__dlxtp_1
*I *2201:X O *D sky130_fd_sc_hd__buf_2
*CAP
1 *2018:D 0.0002096
2 *1954:D 0.000129006
3 *1986:D 0.000169939
4 *2134:A 0.000227255
5 *2050:D 0.000195777
6 *1922:D 0
7 *2201:X 0.00427491
8 *624:151 0.00050765
9 *624:130 0.000438037
10 *624:122 0.000780855
11 *624:120 0.00105012
12 *624:116 0.00141076
13 *624:108 0.00180919
14 *624:82 0.00205347
15 *624:58 0.00205748
16 *624:32 0.00541702
17 *1954:D *1954:GATE 9.66977e-05
18 *1954:D *640:34 6.05161e-06
19 *1954:D *658:93 1.66938e-05
20 *1986:D *1986:GATE 0.000122946
21 *1986:D *643:28 1.83053e-05
22 *1986:D *705:49 2.47753e-05
23 *2018:D *2018:GATE 0.000135028
24 *2018:D *668:93 0.000125355
25 *2050:D *639:60 5.49489e-05
26 *2050:D *666:56 4.00608e-05
27 *624:32 *626:34 0
28 *624:32 *627:40 0.000684823
29 *624:32 *628:24 0.000304817
30 *624:32 *628:60 1.12348e-05
31 *624:32 *637:44 0.000131541
32 *624:32 *644:115 1.65282e-05
33 *624:32 *674:114 0.000302395
34 *624:32 *687:18 0
35 *624:32 *694:76 0.00272248
36 *624:32 *698:175 9.09469e-06
37 *624:58 *1993:GATE 6.70808e-05
38 *624:58 *643:110 7.83659e-05
39 *624:58 *654:20 2.80017e-05
40 *624:58 *654:41 2.55889e-05
41 *624:58 *684:35 0.000289599
42 *624:82 *1876:A2 6.98553e-06
43 *624:82 *632:66 9.90865e-06
44 *624:82 *642:34 4.37358e-06
45 *624:82 *643:79 8.82791e-05
46 *624:82 *684:114 4.76637e-06
47 *624:108 *2142:A 0.000139215
48 *624:108 *626:122 0.000193125
49 *624:108 *628:90 4.58194e-05
50 *624:108 *684:114 0.000135028
51 *624:108 *684:130 0.000231392
52 *624:108 *689:74 0.000119709
53 *624:116 *640:34 0.000695313
54 *624:116 *672:148 0.000219289
55 *624:120 *640:26 0.00047052
56 *624:130 *639:60 0.000184246
57 *624:130 *666:56 8.62132e-05
58 *624:151 *640:34 0.000180267
59 *1876:S1 *624:58 0.000106147
60 *1876:S1 *624:82 2.49942e-05
61 *1880:S1 *624:108 3.2687e-05
62 *1993:D *624:58 1.96467e-05
63 *2090:A *624:82 0.000142096
64 *2200:A *624:32 4.79863e-05
65 *2201:A *624:32 0.000191882
66 *2209:A *624:58 0.000127359
67 *2212:A *624:32 0.000349578
68 *2213:A *624:32 4.64974e-05
69 *2392:A *624:120 0.00143023
70 *2392:A *624:122 0
71 *142:53 *624:82 0.000109428
72 *153:55 *624:120 0.00111173
73 *154:95 *624:58 3.63736e-05
74 *158:31 *624:58 6.51414e-05
75 *159:45 *1986:D 0.000124525
76 *160:79 *624:82 5.31321e-05
77 *243:20 *624:58 9.41642e-05
78 *243:20 *624:108 0.000143676
79 *243:42 *624:108 0.000234329
80 *480:50 *624:32 0.000411898
81 *486:74 *624:108 4.58194e-05
82 *495:20 *624:58 2.63501e-05
83 *496:16 *624:130 0.000153047
84 *498:12 *624:130 5.17614e-05
85 *503:14 *624:130 0.000150264
86 *505:24 *1986:D 9.41642e-05
87 *506:14 *624:116 5.33005e-05
88 *508:14 *2134:A 0.000180072
89 *509:30 *624:32 0.00102867
90 *511:26 *624:58 7.19106e-05
91 *537:32 *624:58 0.00011173
92 *544:48 *624:58 6.72717e-05
93 *557:46 *624:120 0.00270211
94 *582:54 *624:32 2.63501e-05
95 *584:48 *624:32 0.00178243
96 *586:44 *624:58 8.36296e-05
97 *587:60 *624:82 0.000481624
98 *590:49 *624:108 0.000324122
99 *590:96 *624:32 0.000332325
100 *591:94 *624:32 0.00149835
101 *600:138 *624:32 0
102 *601:10 *624:120 0.000559887
103 *601:30 *624:32 4.2932e-05
104 *602:34 *624:32 0.000111243
105 *602:109 *624:58 0.000235253
106 *603:32 *624:58 9.87935e-06
107 *603:74 *624:32 0.000121549
108 *616:26 *624:108 0.000136676
109 *616:38 *624:32 0.0046614
110 *618:50 *624:58 0.00030344
*RES
1 *2201:X *624:32 47.9522 
2 *624:32 *624:58 45.5025 
3 *624:58 *624:82 30.4082 
4 *624:82 *624:108 37.7679 
5 *624:108 *624:116 16.6786 
6 *624:116 *624:120 48.6429 
7 *624:120 *624:122 4.23214 
8 *624:122 *624:130 15.1786 
9 *624:130 *1922:D 9.3 
10 *624:130 *2050:D 12.3 
11 *624:122 *2134:A 12.7107 
12 *624:108 *624:151 3.41071 
13 *624:151 *1986:D 22.1393 
14 *624:151 *1954:D 11.4964 
15 *624:82 *2018:D 13.1214 
*END

*D_NET *625 0.0162856
*CONN
*I *2383:A I *D sky130_fd_sc_hd__buf_1
*I *2160:X O *D sky130_fd_sc_hd__buf_2
*CAP
1 *2383:A 0.000403199
2 *2160:X 0.00113413
3 *625:10 0.00211837
4 *625:8 0.00284929
5 *625:8 *1945:GATE 4.58194e-05
6 *625:8 *687:6 0.000135028
7 *625:8 *687:18 5.33005e-05
8 *625:8 *698:8 9.41642e-05
9 *625:10 *1928:GATE 8.73486e-05
10 *625:10 *627:40 4.38243e-05
11 *625:10 *628:24 0.00104588
12 *625:10 *630:26 0
13 *625:10 *674:20 0.000502711
14 *625:10 *674:114 0.000332229
15 *625:10 *675:56 9.89654e-05
16 *625:10 *675:102 0.000628814
17 *625:10 *687:18 0.00290362
18 FrameStrobe_O[0] *2383:A 6.10465e-05
19 FrameStrobe_O[4] *2383:A 2.27416e-05
20 UserCLKo *2383:A 4.3335e-05
21 *1945:D *625:8 9.18077e-05
22 *2190:A *625:10 0.000161723
23 *2194:A *625:10 6.99087e-05
24 *2195:A *625:10 0.000162204
25 *2196:A *625:10 9.48025e-05
26 *2198:A *625:10 4.5534e-05
27 *2200:A *625:10 0.000119934
28 *2201:A *625:10 0.000256447
29 *2202:A *625:10 0.000186644
30 *2204:A *625:10 1.20379e-05
31 *2206:A *625:10 9.23805e-05
32 *2374:A *2383:A 0.000186669
33 *2374:A *625:10 0.000507559
34 *2375:A *2383:A 9.83442e-05
35 *2375:A *625:10 0
36 *2376:A *2383:A 9.83388e-05
37 *2379:A *2383:A 5.49489e-05
38 *2380:A *2383:A 0.000820392
39 *154:107 *625:10 0.000285911
40 *157:115 *625:10 0
41 *512:14 *625:10 1.82173e-05
42 *513:82 *625:8 3.13861e-05
43 *582:94 *625:8 2.57149e-05
44 *603:74 *625:10 0
45 *618:132 *2383:A 0.000260885
*RES
1 *2160:X *625:8 26.6571 
2 *625:8 *625:10 62.0536 
3 *625:10 *2383:A 26.2643 
*END

*D_NET *626 0.0508759
*CONN
*I *2019:D I *D sky130_fd_sc_hd__dlxtp_1
*I *1955:D I *D sky130_fd_sc_hd__dlxtp_1
*I *1987:D I *D sky130_fd_sc_hd__dlxtp_1
*I *2051:D I *D sky130_fd_sc_hd__dlxtp_1
*I *1923:D I *D sky130_fd_sc_hd__dlxtp_1
*I *2135:A I *D sky130_fd_sc_hd__clkbuf_2
*I *2202:X O *D sky130_fd_sc_hd__buf_2
*CAP
1 *2019:D 0.000179834
2 *1955:D 0.000443611
3 *1987:D 0.000124103
4 *2051:D 0
5 *1923:D 0.000178429
6 *2135:A 8.85853e-05
7 *2202:X 0.00318912
8 *626:150 0.000286246
9 *626:148 0.000883037
10 *626:134 0.00192586
11 *626:122 0.00229995
12 *626:102 0.00147988
13 *626:100 0.000787224
14 *626:96 0.00064835
15 *626:88 0.00141854
16 *626:70 0.00221307
17 *626:34 0.00422644
18 *1923:D *639:60 0.000373704
19 *1923:D *683:30 6.88527e-05
20 *1923:D *683:34 0.000310051
21 *1955:D *1955:GATE 0.000525222
22 *1955:D *643:50 8.93791e-05
23 *1955:D *652:127 9.41642e-05
24 *1955:D *664:166 0.000125355
25 *1955:D *668:107 8.71772e-05
26 *1955:D *699:66 3.63775e-05
27 *1987:D *673:143 5.65955e-05
28 *2135:A *2051:GATE 4.05285e-05
29 *2135:A *666:32 6.05161e-06
30 *626:34 *627:40 2.93358e-05
31 *626:34 *627:68 1.66624e-05
32 *626:34 *628:24 0.000165157
33 *626:34 *628:38 0.000531687
34 *626:34 *628:60 2.74094e-05
35 *626:34 *654:82 8.94105e-05
36 *626:34 *674:80 0.000309785
37 *626:34 *674:114 4.5539e-05
38 *626:34 *674:129 0.000119618
39 *626:34 *698:175 1.94257e-05
40 *626:70 *1937:D 0.000225477
41 *626:70 *2000:D 5.54353e-05
42 *626:70 *629:54 0.000363651
43 *626:70 *633:26 0.00010894
44 *626:70 *644:115 0.000135028
45 *626:70 *654:82 1.23099e-05
46 *626:70 *668:49 5.95603e-05
47 *626:70 *674:80 9.27418e-05
48 *626:88 *628:68 0.00066169
49 *626:88 *706:66 0.0004312
50 *626:96 *689:74 0.00014314
51 *626:100 *643:50 0.00015046
52 *626:100 *643:79 0.000343064
53 *626:100 *668:93 0
54 *626:100 *684:114 0.000239005
55 *626:102 *643:50 0
56 *626:122 *1904:A3 6.65918e-06
57 *626:122 *1912:A3 0.000125468
58 *626:122 *643:50 0
59 *626:122 *667:8 1.56e-05
60 *626:122 *667:224 1.39726e-05
61 *626:122 *689:24 8.68061e-06
62 *626:122 *689:74 0.000141007
63 *626:134 *1911:A0 0.00123665
64 *626:134 *651:137 2.07394e-05
65 *626:134 *652:34 0.000501553
66 *626:134 *652:36 0.000208731
67 *626:134 *652:127 0.000111243
68 *626:134 *656:52 0.000451916
69 *626:134 *662:132 0.000137909
70 *626:134 *664:14 1.69115e-05
71 *626:134 *672:192 0.000291644
72 *626:134 *706:38 0.000462401
73 *626:148 *1843:A0 2.22043e-05
74 *626:148 *1843:A1 0.00012624
75 *626:148 *1845:A0 2.83129e-05
76 *626:148 *1848:A1 6.67737e-05
77 *626:148 *627:118 0.000144562
78 *626:148 *652:36 0.000524313
79 *626:150 *2051:GATE 1.21258e-05
80 *726:DIODE *626:34 2.20784e-05
81 *1801:A *626:148 0.000269258
82 *1838:A1 *626:134 2.73587e-05
83 *1838:A2 *626:134 0.000290279
84 *1846:B1 *626:148 0.00011294
85 *1880:S1 *626:100 0.000196174
86 *1880:S1 *626:102 0.000148765
87 *1898:S0 *626:134 1.94879e-05
88 *1904:A2 *626:122 8.64412e-05
89 *1904:S1 *626:122 7.57673e-05
90 *2078:A *626:122 0.000301016
91 *2086:A *1955:D 9.66977e-05
92 *2201:A *626:34 8.23497e-06
93 *2202:A *626:34 0.000224955
94 *2214:A *626:70 0.000111764
95 *142:53 *626:88 0.000113644
96 *142:67 *626:70 0
97 *142:67 *626:88 0.00192849
98 *154:47 *626:134 0.000440337
99 *156:69 *626:34 0.00143969
100 *157:21 *626:148 0.000137356
101 *158:31 *626:70 4.81734e-05
102 *158:71 *626:70 0.000132233
103 *160:39 *2135:A 0.000224341
104 *160:39 *626:148 0.00020813
105 *160:39 *626:150 5.33005e-05
106 *181:21 *626:122 1.03483e-05
107 *181:44 *626:100 3.59246e-05
108 *181:44 *626:102 5.25286e-05
109 *181:44 *626:122 0.000232134
110 *480:50 *626:34 0.000798451
111 *482:40 *2019:D 0.000387489
112 *482:40 *626:96 0.000298483
113 *486:74 *1987:D 2.07878e-05
114 *486:74 *626:122 0.000395857
115 *491:57 *626:34 0.000879761
116 *492:18 *626:148 0.000252121
117 *505:16 *626:134 8.25843e-06
118 *505:24 *626:122 3.81416e-06
119 *508:14 *626:134 0.000114049
120 *508:14 *626:148 0.000382265
121 *509:30 *626:34 0.000948903
122 *510:22 *626:70 0.000102185
123 *511:26 *626:88 0.000665722
124 *544:32 *1955:D 1.98839e-05
125 *544:48 *626:70 0.000192482
126 *546:31 *626:34 6.1271e-06
127 *556:40 *626:70 0.0001921
128 *557:46 *626:88 0.00044534
129 *568:54 *626:70 0.000227338
130 *578:14 *626:34 5.58875e-06
131 *584:48 *626:34 0.000439463
132 *586:44 *626:88 4.84712e-05
133 *587:60 *626:100 0
134 *587:148 *626:34 0.000912867
135 *590:96 *626:70 1.21398e-05
136 *590:112 *626:70 6.05161e-06
137 *591:94 *626:34 0.000197486
138 *600:86 *626:88 0.000228506
139 *602:34 *626:70 8.99587e-05
140 *602:109 *626:88 0.000576579
141 *602:123 *626:88 0.000120628
142 *602:123 *626:96 4.08138e-05
143 *613:138 *626:122 0.000567802
144 *616:38 *626:34 0.00278903
145 *618:12 *626:148 2.09897e-05
146 *624:32 *626:34 0
147 *624:108 *626:122 0.000193125
*RES
1 *2202:X *626:34 49.3589 
2 *626:34 *626:70 40.6429 
3 *626:70 *626:88 48.3571 
4 *626:88 *626:96 13.9464 
5 *626:96 *626:100 11.9107 
6 *626:100 *626:102 2.55357 
7 *626:102 *626:122 41.25 
8 *626:122 *626:134 41.8839 
9 *626:134 *626:148 30.8447 
10 *626:148 *626:150 0.535714 
11 *626:150 *2135:A 11.4786 
12 *626:150 *1923:D 23.8179 
13 *626:148 *2051:D 9.3 
14 *626:102 *1987:D 15.6929 
15 *626:100 *1955:D 23.925 
16 *626:96 *2019:D 13.1214 
*END

*D_NET *627 0.0527731
*CONN
*I *1988:D I *D sky130_fd_sc_hd__dlxtp_1
*I *2136:A I *D sky130_fd_sc_hd__clkbuf_1
*I *2020:D I *D sky130_fd_sc_hd__dlxtp_1
*I *1956:D I *D sky130_fd_sc_hd__dlxtp_1
*I *2052:D I *D sky130_fd_sc_hd__dlxtp_1
*I *1924:D I *D sky130_fd_sc_hd__dlxtp_1
*I *2203:X O *D sky130_fd_sc_hd__buf_2
*CAP
1 *1988:D 5.00095e-05
2 *2136:A 0
3 *2020:D 0.000335021
4 *1956:D 0.000221355
5 *2052:D 0
6 *1924:D 0.00040983
7 *2203:X 0.000297519
8 *627:118 0.0034703
9 *627:108 0.00399943
10 *627:104 0.00482009
11 *627:68 0.00576416
12 *627:40 0.0044898
13 *627:22 0.00274211
14 *627:12 0.00059654
15 *1924:D *632:16 4.24709e-05
16 *1924:D *639:60 2.27002e-05
17 *1956:D *1957:D 9.58181e-05
18 *1956:D *628:112 5.33005e-05
19 *1956:D *668:130 4.00679e-05
20 *1988:D *1988:GATE 9.83442e-05
21 *1988:D *2143:A 0.000226271
22 *2020:D *698:175 6.32297e-05
23 *627:12 *1891:A0 0
24 *627:12 *630:26 0.000339897
25 *627:22 *630:26 5.57076e-05
26 *627:22 *670:6 5.52302e-05
27 *627:22 *674:114 8.31255e-05
28 *627:40 *694:76 0.00124718
29 *627:68 *628:60 0.00142982
30 *627:68 *628:68 1.94879e-05
31 *627:68 *694:76 0.000299217
32 *627:104 *1880:A0 0.00014277
33 *627:104 *637:44 4.79308e-05
34 *627:104 *644:46 4.04035e-05
35 *627:104 *644:52 0.000216063
36 *627:104 *644:115 0.000942257
37 *627:104 *672:134 0.00041992
38 *627:104 *687:114 0.000877195
39 *627:104 *694:76 0.000349578
40 *627:108 *630:84 0.000824699
41 *627:118 *630:84 0.000569779
42 *627:118 *632:66 0.000112336
43 D_config_C_bit2 *627:104 0.00015803
44 *723:DIODE *627:40 0.000296946
45 *724:DIODE *627:12 0.000139208
46 *1912:S1 *1956:D 4.19624e-06
47 *2039:D *627:104 8.69554e-05
48 *2172:A *627:22 9.25014e-06
49 *2190:A *2020:D 2.76415e-05
50 *2190:A *627:40 5.68623e-05
51 *2191:A *2020:D 0.000135789
52 *2191:A *627:40 0.000151688
53 *2200:A *627:22 0.000175892
54 *2200:A *627:40 0.000139703
55 *2201:A *627:40 0.000488759
56 *2202:A *627:40 5.369e-05
57 *2203:A *627:12 1.90936e-05
58 *2210:A *627:104 0.000167434
59 *2211:A *627:104 0.000183733
60 *2376:A *1988:D 4.49922e-05
61 *142:67 *627:68 0.000404903
62 *142:99 *627:68 0.000204951
63 *146:33 *627:118 0.000648369
64 *153:119 *627:68 0
65 *156:27 *1924:D 0.000343056
66 *156:27 *627:118 3.73407e-05
67 *156:53 *627:104 0.000217127
68 *157:21 *1924:D 8.2899e-05
69 *157:21 *627:118 5.7811e-07
70 *157:87 *627:104 2.83129e-05
71 *158:31 *627:104 0.00029325
72 *158:71 *627:68 0.000167762
73 *159:21 *1924:D 7.13706e-06
74 *159:45 *1956:D 3.78956e-05
75 *243:42 *627:104 4.63517e-05
76 *480:50 *627:104 3.23556e-05
77 *482:40 *627:104 0.000315292
78 *482:58 *627:68 0.00137797
79 *482:76 *627:68 9.41642e-05
80 *486:18 *1956:D 2.01732e-05
81 *491:57 *2020:D 0.000337177
82 *491:57 *627:68 0.000224104
83 *508:14 *627:118 0.000230437
84 *510:34 *627:104 0.000291072
85 *524:14 *2020:D 2.34687e-06
86 *544:48 *627:68 8.69554e-05
87 *556:40 *627:68 0.000161923
88 *557:94 *1924:D 1.61785e-05
89 *561:30 *627:104 0.000904605
90 *568:54 *627:68 0.000543163
91 *568:88 *627:104 0.000111156
92 *582:54 *627:104 0.000995028
93 *582:128 *2020:D 1.31525e-05
94 *588:16 *627:22 1.98839e-05
95 *590:49 *627:104 0.000141282
96 *590:96 *627:104 2.95768e-05
97 *591:94 *627:104 0.000291647
98 *591:102 *627:104 2.63501e-05
99 *593:44 *627:104 0.000229887
100 *594:38 *627:104 0.000844505
101 *600:36 *627:118 0.000424464
102 *601:30 *627:68 0.000151646
103 *602:34 *627:68 0.000159861
104 *602:160 *1956:D 0.000216143
105 *602:160 *627:118 0.000421782
106 *603:72 *627:68 3.50637e-05
107 *616:38 *627:40 5.27504e-05
108 *616:38 *627:68 0.00190648
109 *618:12 *1924:D 0.000329026
110 *618:12 *627:118 4.5534e-05
111 *624:32 *627:40 0.000684823
112 *625:10 *627:40 4.38243e-05
113 *626:34 *627:40 2.93358e-05
114 *626:34 *627:68 1.66624e-05
115 *626:148 *627:118 0.000144562
*RES
1 *2203:X *627:12 20.0679 
2 *627:12 *627:22 9.58929 
3 *627:22 *627:40 23.1642 
4 *627:40 *627:68 49.7323 
5 *627:68 *627:104 47.3381 
6 *627:104 *627:108 5.16153 
7 *627:108 *627:118 14.8185 
8 *627:118 *1924:D 26.2786 
9 *627:118 *2052:D 13.8 
10 *627:108 *1956:D 22.6252 
11 *627:40 *2020:D 18.6661 
12 *627:22 *2136:A 9.3 
13 *627:12 *1988:D 15.9786 
*END

*D_NET *628 0.0435088
*CONN
*I *1989:D I *D sky130_fd_sc_hd__dlxtp_1
*I *2137:A I *D sky130_fd_sc_hd__clkbuf_1
*I *2021:D I *D sky130_fd_sc_hd__dlxtp_1
*I *1957:D I *D sky130_fd_sc_hd__dlxtp_1
*I *2053:D I *D sky130_fd_sc_hd__dlxtp_1
*I *1925:D I *D sky130_fd_sc_hd__dlxtp_1
*I *2204:X O *D sky130_fd_sc_hd__clkbuf_2
*CAP
1 *1989:D 0.00030119
2 *2137:A 0
3 *2021:D 6.98989e-05
4 *1957:D 0.000185166
5 *2053:D 0
6 *1925:D 0.000597214
7 *2204:X 0.00091129
8 *628:164 0.00030119
9 *628:112 0.00142345
10 *628:90 0.00224437
11 *628:68 0.00248471
12 *628:60 0.00315531
13 *628:38 0.00343624
14 *628:26 0.00153323
15 *628:24 0.000981738
16 *1925:D *1926:D 9.97164e-05
17 *1925:D *1927:GATE 0.000163705
18 *1925:D *666:76 1.19299e-05
19 *1925:D *666:85 0.000188071
20 *1925:D *684:144 0.000167746
21 *1957:D *668:115 9.58181e-05
22 *1957:D *668:130 9.09739e-05
23 *1989:D *1991:GATE 5.33005e-05
24 *1989:D *630:50 0.00017309
25 *1989:D *670:65 0.00017309
26 *2021:D *698:175 2.06178e-05
27 *628:24 *633:38 4.26001e-05
28 *628:24 *674:114 0.000352017
29 *628:24 *674:129 5.49956e-05
30 *628:26 *629:69 0.000248493
31 *628:38 *629:69 4.38243e-05
32 *628:38 *694:92 1.09611e-05
33 *628:38 *698:175 0.0012524
34 *628:68 *694:76 0.000648624
35 *628:90 *1912:A3 2.79421e-05
36 *628:90 *673:143 0
37 *628:90 *684:130 3.32709e-05
38 *628:90 *706:38 2.54558e-06
39 *628:112 *1912:A0 0.000278064
40 *628:112 *2138:A 6.05161e-06
41 *628:112 *639:52 0
42 *628:112 *668:130 2.71447e-05
43 *628:112 *668:140 0.000215704
44 A_config_C_bit1 *1925:D 5.65955e-05
45 *726:DIODE *628:24 0.000126628
46 *1880:S1 *628:90 1.32056e-05
47 *1904:S0 *628:90 0.000103253
48 *1910:S1 *1957:D 1.13883e-05
49 *1912:S0 *628:90 2.40379e-05
50 *1956:D *1957:D 9.58181e-05
51 *1956:D *628:112 5.33005e-05
52 *2016:D *628:90 0.00067639
53 *2039:D *628:68 0.000248261
54 *2148:A *628:24 7.85681e-05
55 *2201:A *628:24 0.000256447
56 *2202:A *628:24 0.000186644
57 *2204:A *628:24 0.000111339
58 *2213:A *628:60 8.98798e-06
59 *2214:A *628:60 0.000374594
60 *142:67 *628:68 0.000745395
61 *153:43 *628:112 1.84478e-05
62 *153:55 *628:68 6.05161e-06
63 *158:71 *628:60 0.000207175
64 *159:45 *628:112 0.000186981
65 *181:21 *628:90 0.000284293
66 *243:42 *628:90 0.000536363
67 *261:12 *628:112 0
68 *480:50 *628:60 8.25265e-05
69 *482:58 *628:68 0.00035934
70 *486:18 *1957:D 0.000470214
71 *486:18 *628:90 0.000210544
72 *486:35 *628:90 0
73 *491:57 *628:60 0.000479532
74 *509:30 *628:60 0.00106176
75 *511:26 *628:68 0.00146873
76 *512:14 *628:26 6.39901e-05
77 *556:22 *628:24 4.87953e-05
78 *557:46 *628:68 3.31229e-05
79 *568:88 *628:90 0.000471186
80 *568:88 *628:112 0.000271331
81 *568:114 *1925:D 0.000139966
82 *579:24 *1989:D 3.69047e-06
83 *582:54 *628:60 0.000508063
84 *584:48 *628:60 0.000459857
85 *586:44 *628:68 0.00114227
86 *587:24 *1925:D 4.85252e-05
87 *587:24 *628:112 0.000135028
88 *587:148 *2021:D 0.000108192
89 *587:148 *628:60 2.68431e-05
90 *589:16 *1989:D 0.00012306
91 *591:34 *628:26 0.000117896
92 *591:34 *628:38 4.5539e-05
93 *591:94 *628:60 0.000692864
94 *593:44 *628:90 0.000897586
95 *593:44 *628:112 0.000171395
96 *601:10 *628:68 0.00212873
97 *601:30 *2021:D 0.000130467
98 *601:30 *628:60 0.000271445
99 *601:30 *628:68 7.08544e-05
100 *613:138 *628:90 0.000406067
101 *616:26 *628:90 2.8078e-05
102 *616:38 *628:60 3.80995e-05
103 *618:12 *628:112 3.23658e-05
104 *624:32 *628:24 0.000304817
105 *624:32 *628:60 1.12348e-05
106 *624:108 *628:90 4.58194e-05
107 *625:10 *628:24 0.00104588
108 *626:34 *628:24 0.000165157
109 *626:34 *628:38 0.000531687
110 *626:34 *628:60 2.74094e-05
111 *626:88 *628:68 0.00066169
112 *627:68 *628:60 0.00142982
113 *627:68 *628:68 1.94879e-05
*RES
1 *2204:X *628:24 49.7286 
2 *628:24 *628:26 3.16071 
3 *628:26 *628:38 14.7756 
4 *628:38 *628:60 17.1562 
5 *628:60 *628:68 48.8482 
6 *628:68 *628:90 49.1071 
7 *628:90 *628:112 34.8571 
8 *628:112 *1925:D 30.9429 
9 *628:112 *2053:D 9.3 
10 *628:90 *1957:D 14.7821 
11 *628:38 *2021:D 17.714 
12 *628:26 *628:164 4.5 
13 *628:164 *2137:A 9.3 
14 *628:164 *1989:D 24.7821 
*END

*D_NET *629 0.0187569
*CONN
*I *1994:D I *D sky130_fd_sc_hd__dlxtp_1
*I *1930:D I *D sky130_fd_sc_hd__dlxtp_1
*I *2110:A I *D sky130_fd_sc_hd__buf_1
*I *1962:D I *D sky130_fd_sc_hd__dlxtp_1
*I *2026:D I *D sky130_fd_sc_hd__dlxtp_1
*I *2205:X O *D sky130_fd_sc_hd__dlymetal6s2s_1
*CAP
1 *1994:D 0.000216597
2 *1930:D 8.63159e-05
3 *2110:A 0
4 *1962:D 0
5 *2026:D 0
6 *2205:X 0.000327678
7 *629:69 0.0008919
8 *629:58 0.000785161
9 *629:54 0.00155171
10 *629:52 0.0019756
11 *629:35 0.000967706
12 *629:18 0.00067532
13 *1994:D *1995:D 0
14 *1994:D *1995:GATE 3.23542e-05
15 *1994:D *670:45 0.000161618
16 *1994:D *674:114 0.000206912
17 *1994:D *679:97 4.71644e-05
18 *629:18 *2026:GATE 2.47753e-05
19 *629:35 *2026:GATE 4.18217e-05
20 *629:35 *2040:GATE 5.03398e-05
21 *629:35 *2180:A 0
22 *629:52 *2180:A 0.000178666
23 *629:52 *637:44 0.000178039
24 *629:52 *639:30 2.996e-06
25 *629:52 *679:8 0.000109871
26 *629:54 *674:20 0.00149083
27 *629:54 *675:38 0.000434851
28 *629:54 *675:56 1.74909e-05
29 *629:69 *670:59 0
30 *629:69 *673:189 0
31 *629:69 *674:114 0.000213711
32 *2209:A *629:35 0.00014713
33 *2213:A *629:52 0.000126424
34 *142:99 *629:54 5.3244e-05
35 *153:79 *629:18 0.000193928
36 *154:95 *629:35 0.000199075
37 *154:95 *629:52 6.75733e-05
38 *154:99 *629:54 7.48679e-06
39 *154:107 *629:54 0.00212767
40 *157:111 *629:54 5.33259e-05
41 *480:50 *629:54 2.11419e-05
42 *480:70 *629:18 6.81704e-05
43 *482:76 *629:54 0.000674145
44 *510:22 *629:54 0.000296981
45 *512:14 *629:69 2.28428e-05
46 *512:20 *629:35 3.65015e-05
47 *512:20 *629:52 0.000518143
48 *544:48 *629:54 2.36583e-05
49 *568:10 *629:58 2.00138e-06
50 *579:24 *629:69 0.000317331
51 *582:94 *629:54 0.000393128
52 *586:74 *629:52 1.02433e-05
53 *590:96 *629:52 9.87712e-06
54 *591:34 *629:69 1.20729e-05
55 *592:26 *629:69 1.83136e-05
56 *600:86 *629:18 0.000198011
57 *602:18 *629:54 0.000861497
58 *616:38 *629:54 0.000971617
59 *626:70 *629:54 0.000363651
60 *628:26 *629:69 0.000248493
61 *628:38 *629:69 4.38243e-05
*RES
1 *2205:X *629:18 24.425 
2 *629:18 *2026:D 9.3 
3 *629:18 *629:35 12.0357 
4 *629:35 *1962:D 13.8 
5 *629:35 *629:52 14.5524 
6 *629:52 *629:54 50.9732 
7 *629:54 *629:58 7.08929 
8 *629:58 *2110:A 9.3 
9 *629:58 *629:69 17.8214 
10 *629:69 *1930:D 15.1571 
11 *629:69 *1994:D 19.0857 
*END

*D_NET *630 0.0472072
*CONN
*I *1958:D I *D sky130_fd_sc_hd__dlxtp_1
*I *1990:D I *D sky130_fd_sc_hd__dlxtp_1
*I *2022:D I *D sky130_fd_sc_hd__dlxtp_1
*I *2054:D I *D sky130_fd_sc_hd__dlxtp_1
*I *2138:A I *D sky130_fd_sc_hd__clkbuf_2
*I *1926:D I *D sky130_fd_sc_hd__dlxtp_1
*I *2206:X O *D sky130_fd_sc_hd__buf_2
*CAP
1 *1958:D 0.000610715
2 *1990:D 0
3 *2022:D 0.00019695
4 *2054:D 0
5 *2138:A 0.000141602
6 *1926:D 0.00106098
7 *2206:X 0.000993346
8 *630:105 0.000141602
9 *630:84 0.00444444
10 *630:66 0.00638167
11 *630:50 0.00342701
12 *630:26 0.00222981
13 *1926:D *1912:A0 0.000333271
14 *1926:D *2055:D 0.000471607
15 *1926:D *631:112 1.36444e-05
16 *1926:D *638:24 0.000444691
17 *1926:D *684:144 2.28631e-05
18 *1958:D *1942:GATE 9.33521e-05
19 *1958:D *1958:GATE 5.01871e-05
20 *1958:D *670:6 2.59355e-05
21 *2022:D *2022:GATE 2.42516e-05
22 *2022:D *2023:D 3.61366e-05
23 *2022:D *693:68 4.21517e-05
24 *2138:A *2054:GATE 0.000139208
25 *630:26 *1891:A0 0
26 *630:26 *1988:GATE 1.34631e-05
27 *630:26 *2143:A 0.00013921
28 *630:26 *670:6 0.000129628
29 *630:26 *674:114 8.32171e-05
30 *630:26 *674:129 0.000552095
31 *630:50 *1995:D 8.50349e-06
32 *630:50 *631:18 0.000127027
33 *630:50 *670:45 7.80851e-06
34 *630:50 *670:59 3.72078e-05
35 *630:50 *670:65 0.000299131
36 *630:50 *687:28 0.000255055
37 *630:50 *694:92 0
38 *630:66 *631:106 0.000194588
39 *630:66 *632:152 1.58757e-05
40 *630:66 *634:130 1.30275e-05
41 *630:66 *670:65 2.22043e-05
42 *630:66 *689:108 0.000707126
43 *630:66 *693:163 0.000310788
44 *630:66 *694:92 0.000414643
45 *630:84 *1861:A0 8.61909e-06
46 *630:84 *1912:A0 1.94945e-05
47 *630:84 *2023:D 6.33321e-05
48 *630:84 *632:66 0.000581714
49 *630:84 *634:130 2.74858e-05
50 *630:84 *635:42 3.33241e-05
51 *630:84 *643:28 6.14836e-06
52 *630:84 *651:247 0.000251243
53 *630:84 *661:177 0.000121971
54 *630:84 *662:177 5.99199e-06
55 *630:84 *668:69 1.81805e-05
56 *630:84 *673:116 0.000135991
57 *630:84 *687:92 0.000271989
58 *630:84 *687:114 0.0007288
59 *630:84 *689:108 0.00122296
60 *630:84 *693:68 0.000513571
61 A_config_C_bit2 *1926:D 9.56676e-05
62 *721:DIODE *630:26 0.000141639
63 *1891:S0 *630:26 4.30904e-05
64 *1891:S0 *630:50 6.74911e-05
65 *1891:S1 *630:50 0.000102053
66 *1896:S1 *2022:D 2.47753e-05
67 *1925:D *1926:D 9.97164e-05
68 *1953:D *630:84 2.48798e-05
69 *1974:D *1958:D 4.63768e-05
70 *1989:D *630:50 0.00017309
71 *2041:D *630:84 0.000671407
72 *2148:A *630:26 1.41029e-05
73 *2172:A *630:26 2.34969e-05
74 *2203:A *630:26 2.33003e-05
75 *2204:A *630:26 6.5238e-05
76 *2206:A *630:26 5.7903e-06
77 *2363:A *630:26 2.89016e-05
78 *2375:A *630:26 0.000223532
79 *152:33 *1926:D 0.000247974
80 *153:43 *630:84 0
81 *156:69 *630:26 1.94879e-05
82 *159:45 *630:84 1.47728e-05
83 *159:77 *630:84 0.000693956
84 *245:59 *630:84 9.28294e-05
85 *479:46 *630:84 0.00100979
86 *480:153 *630:50 0.000836227
87 *480:153 *630:66 9.60337e-06
88 *491:96 *630:66 0.00126722
89 *505:16 *1926:D 0.000179717
90 *506:14 *1926:D 0
91 *519:46 *630:66 0.0013843
92 *522:58 *630:66 1.47871e-05
93 *557:58 *1926:D 0
94 *565:22 *630:66 0.0022803
95 *586:74 *2022:D 1.24368e-05
96 *587:176 *630:66 6.56445e-05
97 *588:16 *1958:D 0.000374592
98 *588:16 *630:26 0.000132296
99 *591:94 *630:84 0.0010335
100 *591:126 *630:84 3.86562e-05
101 *593:18 *2138:A 2.59355e-05
102 *594:38 *1926:D 5.7903e-06
103 *594:38 *630:84 1.28958e-05
104 *596:40 *630:84 0.0010394
105 *602:160 *630:84 0.000627597
106 *613:40 *630:26 8.92708e-06
107 *613:40 *630:66 0.00322889
108 *618:96 *630:66 0.000212171
109 *625:10 *630:26 0
110 *627:12 *630:26 0.000339897
111 *627:22 *630:26 5.57076e-05
112 *627:108 *630:84 0.000824699
113 *627:118 *630:84 0.000569779
114 *628:112 *2138:A 6.05161e-06
*RES
1 *2206:X *630:26 48.0857 
2 *630:26 *630:50 33.0714 
3 *630:50 *630:66 25.413 
4 *630:66 *630:84 35.4991 
5 *630:84 *1926:D 44.5143 
6 *630:84 *630:105 4.5 
7 *630:105 *2138:A 11.8893 
8 *630:105 *2054:D 9.3 
9 *630:66 *2022:D 16.9875 
10 *630:50 *1990:D 13.8 
11 *630:26 *1958:D 18.8 
*END

*D_NET *631 0.0462643
*CONN
*I *1959:D I *D sky130_fd_sc_hd__dlxtp_1
*I *2139:A I *D sky130_fd_sc_hd__clkbuf_2
*I *2055:D I *D sky130_fd_sc_hd__dlxtp_1
*I *1927:D I *D sky130_fd_sc_hd__dlxtp_1
*I *2023:D I *D sky130_fd_sc_hd__dlxtp_1
*I *1991:D I *D sky130_fd_sc_hd__dlxtp_1
*I *2207:X O *D sky130_fd_sc_hd__buf_2
*CAP
1 *1959:D 0.000354957
2 *2139:A 0.000171244
3 *2055:D 0.000236969
4 *1927:D 0.00033458
5 *2023:D 0.000275888
6 *1991:D 0.000353427
7 *2207:X 0.000804399
8 *631:116 0.000623089
9 *631:112 0.000753034
10 *631:106 0.00350578
11 *631:65 0.00564237
12 *631:22 0.00304645
13 *631:18 0.00146143
14 *1927:D *1927:GATE 0
15 *1991:D *1890:A0 1.24368e-05
16 *2023:D *668:69 0.000116921
17 *2023:D *675:140 0.000172164
18 *2023:D *675:174 4.64714e-05
19 *2023:D *693:68 4.99283e-06
20 *2055:D *1912:A0 0.000140608
21 *2055:D *2184:A 8.25843e-06
22 *2139:A *684:136 6.86693e-05
23 *631:18 *1891:A1 0.000252438
24 *631:18 *1891:A2 1.91418e-05
25 *631:18 *1901:A0 6.59167e-05
26 *631:18 *1901:A1 0.000273851
27 *631:18 *2143:A 0.00010326
28 *631:22 *2179:A 7.03479e-05
29 *631:22 *679:91 0.000341624
30 *631:65 *1888:A0 0.000144474
31 *631:65 *632:107 1.60961e-05
32 *631:65 *632:152 1.61301e-05
33 *631:65 *634:158 0.000532854
34 *631:65 *637:108 0.000127441
35 *631:65 *643:164 0.000879791
36 *631:65 *658:133 0.000185255
37 *631:65 *661:207 6.00902e-05
38 *631:65 *665:18 7.66512e-05
39 *631:65 *668:69 0.000142992
40 *631:65 *669:155 1.88999e-05
41 *631:65 *672:52 0.0002341
42 *631:65 *693:68 1.39148e-05
43 *631:106 *1876:A0 0.000249062
44 *631:106 *632:66 0.000352359
45 *631:106 *632:107 1.30275e-05
46 *631:106 *637:44 1.81687e-05
47 *631:106 *680:46 6.02472e-05
48 *631:106 *687:114 0.000156268
49 *631:106 *689:108 6.13614e-05
50 *631:106 *694:44 0.000574863
51 *631:106 *698:68 0.000859267
52 *631:112 *638:18 0.000470058
53 *631:112 *638:22 0.000824508
54 *631:112 *638:24 0.000172324
55 *631:112 *672:148 0.000351935
56 C_config_C_bit2 *631:106 1.68895e-05
57 C_config_C_bit3 *631:106 0.000170436
58 *1888:S0 *631:65 0.000124649
59 *1891:S0 *631:18 0.000168045
60 *1891:S1 *631:18 0.000139065
61 *1893:S0 *1991:D 1.65169e-05
62 *1896:S0 *631:65 0.000143626
63 *1909:S0 *1959:D 2.59355e-05
64 *1926:D *2055:D 0.000471607
65 *1926:D *631:112 1.36444e-05
66 *1975:D *631:18 0.000529514
67 *2022:D *2023:D 3.61366e-05
68 *2056:CLK *631:65 2.32154e-05
69 *2122:A *1959:D 4.25176e-05
70 *2122:A *631:18 9.41642e-05
71 *2164:A *631:65 0.000688461
72 *2230:A *631:106 0.000128752
73 *2273:A *1927:D 0.000223253
74 *2273:A *631:116 0.000112188
75 *2319:A *631:65 9.96717e-06
76 *2326:A *631:106 0.00147707
77 *2376:A *631:18 0.00015724
78 *2389:A *2055:D 0.000428667
79 *2392:A *2139:A 5.33005e-05
80 *2392:A *631:112 0.000219289
81 *143:103 *631:65 4.7632e-05
82 *143:111 *1991:D 9.59532e-06
83 *143:111 *631:22 0.000240359
84 *152:33 *631:106 1.4389e-05
85 *152:33 *631:112 0.00158614
86 *154:75 *631:106 0.000132695
87 *157:41 *1927:D 0.000219891
88 *157:41 *631:116 0.000120724
89 *157:57 *631:112 2.01359e-05
90 *159:77 *631:106 0.000422235
91 *160:127 *631:65 0.000829186
92 *233:122 *1959:D 3.04394e-05
93 *409:18 *631:106 7.27952e-05
94 *479:46 *631:106 0.000249407
95 *479:106 *631:106 0.000225589
96 *480:153 *631:18 0.000311121
97 *482:105 *631:65 5.52634e-05
98 *495:20 *631:106 0.00161249
99 *504:18 *1927:D 5.49489e-05
100 *506:14 *1927:D 6.86693e-05
101 *513:82 *631:65 0
102 *519:46 *631:106 0.000109439
103 *522:58 *631:65 0.00192801
104 *522:58 *631:106 0.000265117
105 *553:20 *631:65 7.48679e-06
106 *558:14 *631:65 0.000284712
107 *568:114 *1927:D 3.42509e-05
108 *569:28 *631:106 2.63501e-05
109 *572:12 *1959:D 0.000240583
110 *579:52 *631:65 0.000317268
111 *582:54 *631:106 6.14074e-05
112 *584:84 *631:65 5.92455e-05
113 *586:22 *631:106 0.000216884
114 *586:110 *631:65 0.000363812
115 *590:14 *631:112 2.17261e-05
116 *590:170 *631:65 0.00167309
117 *593:18 *631:112 0.000281172
118 *615:10 *1991:D 2.21972e-05
119 *615:10 *631:22 0.000880004
120 *616:26 *631:106 0.00135839
121 *618:96 *631:106 1.75318e-05
122 *630:50 *631:18 0.000127027
123 *630:66 *631:106 0.000194588
124 *630:84 *2023:D 6.33321e-05
*RES
1 *2207:X *631:18 40.3536 
2 *631:18 *631:22 16.0089 
3 *631:22 *1991:D 19.1661 
4 *631:22 *631:65 46.3412 
5 *631:65 *2023:D 18.7375 
6 *631:65 *631:106 31.5583 
7 *631:106 *631:112 31.2411 
8 *631:112 *631:116 6.14286 
9 *631:116 *1927:D 21.4429 
10 *631:116 *2055:D 20.5143 
11 *631:112 *2139:A 11.8893 
12 *631:18 *1959:D 16.1393 
*END

*D_NET *632 0.0590903
*CONN
*I *1894:A3 I *D sky130_fd_sc_hd__mux4_1
*I *1886:A3 I *D sky130_fd_sc_hd__mux4_1
*I *1814:A3 I *D sky130_fd_sc_hd__mux4_1
*I *1882:A3 I *D sky130_fd_sc_hd__mux4_1
*I *2058:D I *D sky130_fd_sc_hd__dfxtp_1
*I *1884:A3 I *D sky130_fd_sc_hd__mux4_1
*I *1898:A3 I *D sky130_fd_sc_hd__mux4_1
*I *727:DIODE I *D sky130_fd_sc_hd__diode_2
*I *2208:X O *D sky130_fd_sc_hd__buf_2
*CAP
1 *1894:A3 0.00120018
2 *1886:A3 0
3 *1814:A3 8.42036e-05
4 *1882:A3 0
5 *2058:D 0.000129486
6 *1884:A3 0.000527038
7 *1898:A3 5.86439e-06
8 *727:DIODE 0.000431296
9 *2208:X 0.0018515
10 *632:174 0.00129215
11 *632:161 0.000378889
12 *632:152 0.00322047
13 *632:107 0.00533397
14 *632:66 0.00593432
15 *632:22 0.000665598
16 *632:16 0.00530049
17 *727:DIODE *1898:A0 0.000136676
18 *727:DIODE *648:16 4.38265e-05
19 *727:DIODE *653:38 1.60795e-05
20 *727:DIODE *656:52 5.51929e-05
21 *1814:A3 *1814:A2 1.02504e-05
22 *1884:A3 *1884:A1 9.58181e-05
23 *1884:A3 *635:42 0.000128748
24 *1894:A3 *1894:A0 9.71197e-05
25 *1894:A3 *1894:A1 4.33002e-05
26 *1894:A3 *653:275 0.000296015
27 *1894:A3 *696:26 0.000190586
28 *1894:A3 *698:175 7.53159e-05
29 *1894:A3 *704:110 2.22043e-05
30 *1898:A3 *648:16 2.11419e-05
31 *1898:A3 *653:32 9.54798e-06
32 *1898:A3 *653:38 7.44945e-07
33 *2058:D *1813:A0 5.00182e-05
34 *2058:D *662:196 2.06112e-05
35 *632:16 *640:18 0.000114999
36 *632:66 *642:34 9.11825e-07
37 *632:66 *652:127 0.00166033
38 *632:66 *662:177 0.000222862
39 *632:66 *689:108 0.00120182
40 *632:66 *698:68 0.000499567
41 *632:107 *636:159 3.18812e-05
42 *632:107 *637:108 0.000165026
43 *632:107 *643:164 2.68453e-05
44 *632:107 *661:207 0.000313435
45 *632:107 *669:155 0
46 *632:107 *672:52 9.60635e-05
47 *632:107 *672:100 0
48 *632:107 *673:90 0
49 *632:107 *689:108 0.000755005
50 *632:107 *698:44 9.70312e-05
51 *632:107 *698:68 0.000372579
52 *632:107 *703:40 8.76591e-06
53 *632:107 *703:60 0.000867339
54 *632:152 *1814:A2 6.47471e-05
55 *632:152 *1893:A1 0.000102681
56 *632:152 *1998:GATE 5.59013e-05
57 *632:152 *634:176 0.0001449
58 *632:152 *636:159 2.46018e-06
59 *632:152 *662:196 0.000411372
60 *632:152 *672:52 1.23091e-05
61 *632:152 *675:64 0
62 *632:152 *704:110 0.000673481
63 *632:161 *1814:A2 0.000552384
64 *743:DIODE *1894:A3 9.44703e-05
65 *1808:A1 *2058:D 0
66 *1884:A0 *1884:A3 0.000515838
67 *1884:S1 *1884:A3 8.12539e-05
68 *1886:S0 *1894:A3 6.07037e-07
69 *1886:S0 *632:174 1.19416e-05
70 *1894:S0 *1894:A3 8.28137e-05
71 *1898:S0 *632:22 0.000301287
72 *1907:S0 *1884:A3 0.0005885
73 *1924:D *632:16 4.24709e-05
74 *2058:CLK *632:152 0.00018589
75 *2080:A *1894:A3 0
76 *2096:A *727:DIODE 9.25014e-06
77 *2127:A *1894:A3 3.90661e-05
78 *2304:A *632:107 5.69851e-06
79 *2342:A *632:152 0.000155356
80 *2391:A *632:16 0.000184782
81 *142:53 *632:66 9.49752e-06
82 *143:103 *632:107 0.000235119
83 *146:33 *632:16 0.00185037
84 *146:33 *632:66 0.000400332
85 *150:17 *632:16 0.000116226
86 *150:87 *1894:A3 0.000243221
87 *153:21 *632:16 0.000106365
88 *153:43 *632:66 6.72711e-05
89 *154:47 *632:16 0.000634415
90 *154:47 *632:66 0.000771044
91 *157:21 *632:16 0
92 *159:21 *632:16 0
93 *159:77 *632:66 0.0013869
94 *160:79 *632:66 0.000107157
95 *160:127 *632:152 0.000669055
96 *479:46 *632:16 7.30663e-05
97 *491:96 *632:152 0.000104999
98 *519:46 *2058:D 2.11419e-05
99 *519:46 *632:152 0.000164977
100 *520:32 *632:152 0.000244203
101 *522:58 *632:107 0.000717738
102 *522:58 *632:152 0.00137187
103 *529:40 *1884:A3 0.000105191
104 *529:40 *632:107 0.000974357
105 *535:52 *632:152 7.43249e-06
106 *553:20 *632:152 0.000133531
107 *558:14 *632:107 4.62705e-05
108 *558:14 *632:152 4.75671e-06
109 *565:22 *632:152 0.000594541
110 *569:28 *632:66 0.00168591
111 *571:18 *1894:A3 0.000244621
112 *571:18 *632:152 6.47471e-05
113 *571:18 *632:161 0.00060318
114 *571:18 *632:174 0.000186759
115 *576:14 *1894:A3 6.72333e-05
116 *577:20 *1814:A3 2.3704e-05
117 *577:20 *1894:A3 0
118 *577:20 *632:174 0
119 *579:52 *632:107 6.14836e-06
120 *582:54 *1884:A3 4.00349e-05
121 *584:84 *632:152 0.000111925
122 *587:176 *632:152 0
123 *588:16 *1894:A3 0.000560541
124 *596:40 *632:66 0.00103573
125 *600:36 *632:16 0.000196703
126 *602:160 *632:66 0.00138535
127 *613:40 *632:152 0.00206204
128 *618:96 *632:107 0.000114637
129 *624:82 *632:66 9.90865e-06
130 *627:118 *632:66 0.000112336
131 *630:66 *632:152 1.58757e-05
132 *630:84 *632:66 0.000581714
133 *631:65 *632:107 1.60961e-05
134 *631:65 *632:152 1.61301e-05
135 *631:106 *632:66 0.000352359
136 *631:106 *632:107 1.30275e-05
*RES
1 *2208:X *632:16 28.0221 
2 *632:16 *632:22 7.33543 
3 *632:22 *727:DIODE 19.0232 
4 *632:22 *1898:A3 14.0768 
5 *632:16 *632:66 20.9701 
6 *632:66 *1884:A3 28.6992 
7 *632:66 *632:107 16.8962 
8 *632:107 *2058:D 19.7368 
9 *632:107 *632:152 29.9463 
10 *632:152 *1882:A3 13.8 
11 *632:152 *632:161 7.86607 
12 *632:161 *1814:A3 15.3268 
13 *632:161 *632:174 2.40179 
14 *632:174 *1886:A3 13.8 
15 *632:174 *1894:A3 49.7286 
*END

*D_NET *633 0.0239389
*CONN
*I *1963:D I *D sky130_fd_sc_hd__dlxtp_1
*I *2027:D I *D sky130_fd_sc_hd__dlxtp_1
*I *1995:D I *D sky130_fd_sc_hd__dlxtp_1
*I *1931:D I *D sky130_fd_sc_hd__dlxtp_1
*I *2111:A I *D sky130_fd_sc_hd__buf_1
*I *2209:X O *D sky130_fd_sc_hd__clkbuf_2
*CAP
1 *1963:D 0.000190678
2 *2027:D 0.000645471
3 *1995:D 0.000312855
4 *1931:D 0
5 *2111:A 0
6 *2209:X 0.00146125
7 *633:78 0.00142172
8 *633:53 0.000487713
9 *633:38 0.000738655
10 *633:32 0.00142014
11 *633:30 0.00095031
12 *633:26 0.000969644
13 *1963:D *671:53 8.25843e-06
14 *1963:D *671:70 2.19059e-05
15 *1995:D *1995:GATE 0
16 *1995:D *670:45 0.000219994
17 *1995:D *670:59 0.000128292
18 *1995:D *687:28 1.79654e-05
19 *2027:D *652:139 5.41797e-06
20 *2027:D *661:177 0.000455951
21 *2027:D *662:142 4.98055e-06
22 *2027:D *662:177 6.057e-07
23 *2027:D *667:54 0.000349275
24 *2027:D *668:93 0.000507618
25 *2027:D *675:192 0.000175892
26 *2027:D *701:54 0.000224974
27 *633:26 *634:10 0.000137561
28 *633:26 *638:12 0.000150618
29 *633:53 *1989:GATE 9.11048e-06
30 *633:78 *2040:GATE 5.33005e-05
31 *633:78 *634:10 7.28771e-05
32 *633:78 *668:69 0.000175892
33 *633:78 *671:53 0.000225589
34 *1825:A *2027:D 0.000184253
35 *1891:S0 *1995:D 0.000127246
36 *1994:D *1995:D 0
37 *2040:D *633:78 0.000139215
38 *2102:A *2027:D 4.00349e-05
39 *142:67 *633:30 8.32797e-05
40 *145:63 *2027:D 4.32182e-06
41 *145:75 *2027:D 2.42758e-05
42 *153:79 *633:26 0.000172264
43 *153:79 *633:30 0.000136107
44 *158:31 *633:26 0.000740042
45 *158:71 *633:26 6.05161e-06
46 *245:10 *633:78 0.000180009
47 *510:22 *633:26 1.41805e-05
48 *511:10 *633:32 0.00401934
49 *511:26 *633:30 0.000111626
50 *544:48 *633:26 0.000781816
51 *556:24 *633:32 0.00204969
52 *556:40 *633:32 6.17335e-05
53 *557:46 *633:32 0.000954501
54 *568:28 *633:32 0.00107473
55 *568:54 *633:26 3.85993e-05
56 *568:54 *633:30 0.000121324
57 *586:74 *633:26 0.000252337
58 *589:16 *1995:D 3.43995e-05
59 *589:16 *633:53 0.000201454
60 *591:34 *633:38 5.33005e-05
61 *593:74 *2027:D 6.33204e-05
62 *596:82 *2027:D 0.000384027
63 *600:86 *633:26 4.58194e-05
64 *613:83 *633:78 0.000135028
65 *626:70 *633:26 0.00010894
66 *628:24 *633:38 4.26001e-05
67 *630:50 *1995:D 8.50349e-06
*RES
1 *2209:X *633:26 48.2107 
2 *633:26 *633:30 8.26786 
3 *633:30 *633:32 50.2143 
4 *633:32 *633:38 12.8571 
5 *633:38 *2111:A 9.3 
6 *633:38 *633:53 8.55357 
7 *633:53 *1931:D 13.8 
8 *633:53 *1995:D 20.9071 
9 *2209:X *633:78 20.9429 
10 *633:78 *2027:D 36.2821 
11 *633:78 *1963:D 11.925 
*END

*D_NET *634 0.0584962
*CONN
*I *1964:D I *D sky130_fd_sc_hd__dlxtp_1
*I *1932:D I *D sky130_fd_sc_hd__dlxtp_1
*I *1996:D I *D sky130_fd_sc_hd__dlxtp_1
*I *2028:D I *D sky130_fd_sc_hd__dlxtp_1
*I *2112:A I *D sky130_fd_sc_hd__clkbuf_2
*I *2210:X O *D sky130_fd_sc_hd__clkbuf_2
*CAP
1 *1964:D 0
2 *1932:D 1.91139e-05
3 *1996:D 0.000197534
4 *2028:D 0
5 *2112:A 0.000121629
6 *2210:X 0.000701861
7 *634:186 0.000974129
8 *634:176 0.00202492
9 *634:158 0.00223799
10 *634:130 0.00253546
11 *634:84 0.00154743
12 *634:78 0.00410097
13 *634:54 0.00543013
14 *634:10 0.00502173
15 *2112:A *2028:GATE 9.60939e-05
16 *2112:A *681:23 2.2351e-05
17 *2112:A *681:36 2.71447e-05
18 *634:10 *2040:GATE 2.59355e-05
19 *634:10 *671:53 0.000303542
20 *634:54 *1884:A1 8.77012e-05
21 *634:54 *635:42 0.000433059
22 *634:54 *636:54 0.000804453
23 *634:54 *642:106 6.66368e-05
24 *634:54 *643:110 8.6281e-05
25 *634:54 *644:46 3.77315e-05
26 *634:54 *651:247 0.000950731
27 *634:54 *667:74 0.000524918
28 *634:54 *675:174 7.67089e-05
29 *634:54 *687:114 0
30 *634:54 *701:54 2.71873e-05
31 *634:78 *1885:A2 0.000622352
32 *634:78 *2030:D 0
33 *634:78 *647:123 0.000142403
34 *634:78 *652:16 5.42383e-05
35 *634:78 *665:83 0.000480553
36 *634:84 *2034:GATE 0.000213716
37 *634:84 *681:36 3.14163e-05
38 *634:130 *1888:A1 0.00013088
39 *634:130 *1896:A0 2.59355e-05
40 *634:130 *635:92 0.000167874
41 *634:130 *636:117 0.00017984
42 *634:130 *643:110 1.67864e-05
43 *634:130 *643:116 0.000119783
44 *634:130 *660:115 1.149e-05
45 *634:130 *661:177 6.09762e-05
46 *634:130 *661:207 0.00014895
47 *634:130 *671:53 0.00033109
48 *634:130 *689:108 0.000268789
49 *634:130 *693:68 0.000268771
50 *634:158 *636:159 0.000175892
51 *634:158 *637:108 5.08678e-05
52 *634:158 *643:116 3.35939e-05
53 *634:158 *665:18 2.05475e-05
54 *634:158 *677:42 0.000175892
55 *634:158 *679:49 4.04292e-05
56 *634:176 *1998:GATE 5.41794e-05
57 *634:176 *635:102 0.000425355
58 *634:176 *662:196 3.97627e-05
59 *634:176 *667:172 0.000333833
60 *634:176 *669:108 0.000267871
61 *634:176 *689:108 0.000233048
62 *634:186 *1933:D 0.000220395
63 *634:186 *635:102 7.31401e-05
64 *634:186 *669:45 4.62246e-05
65 *634:186 *673:48 0.000331771
66 *1812:S1 *634:158 2.59355e-05
67 *1884:A0 *634:54 0.000404846
68 *1884:A0 *634:130 0.000292978
69 *1890:S0 *1996:D 6.0012e-05
70 *1890:S1 *634:186 6.97972e-05
71 *1893:S0 *634:186 0
72 *1896:S0 *634:130 9.41642e-05
73 *1899:S1 *634:176 9.33978e-07
74 *2040:D *634:10 4.38942e-05
75 *2056:CLK *634:158 9.22948e-05
76 *2102:A *634:54 0.000250932
77 *2226:A *634:78 4.1879e-05
78 *2227:A *634:78 0.000191822
79 *2228:A *634:78 2.04825e-05
80 *2231:A *634:78 4.19535e-05
81 *2319:A *634:130 5.41797e-06
82 *2319:A *634:158 0.00023431
83 *143:103 *634:130 4.90303e-05
84 *144:27 *634:78 0.000127111
85 *145:75 *634:176 1.20719e-05
86 *145:85 *634:186 0.000613417
87 *146:67 *634:78 0.000137221
88 *148:21 *634:84 0.000716291
89 *148:97 *634:186 0
90 *149:27 *634:78 2.05803e-05
91 *149:27 *634:84 0.000378594
92 *150:41 *634:54 0.00045815
93 *150:69 *634:176 0.000133935
94 *150:69 *634:186 0.000652532
95 *153:21 *634:78 2.71935e-05
96 *157:87 *634:158 0.000316148
97 *157:107 *634:158 0.00011333
98 *159:77 *634:54 3.23958e-05
99 *181:17 *634:78 0.00111352
100 *263:10 *634:84 5.72869e-05
101 *265:14 *634:78 0.000181257
102 *266:10 *634:78 4.21517e-05
103 *266:10 *634:84 5.68312e-06
104 *398:22 *634:176 6.94952e-05
105 *409:34 *634:54 0.000313843
106 *477:10 *634:158 0.000172105
107 *478:6 *634:176 3.06878e-06
108 *483:46 *634:54 0.00095225
109 *484:50 *634:54 0.000526356
110 *485:18 *634:54 4.8817e-05
111 *502:75 *634:130 0.000169185
112 *502:75 *634:158 0.000153402
113 *513:82 *634:158 0.000173599
114 *519:46 *634:130 0.000705968
115 *520:32 *634:130 2.63501e-05
116 *520:32 *634:176 0.00074994
117 *524:142 *634:54 2.63501e-05
118 *524:142 *634:78 1.45709e-05
119 *529:40 *634:54 5.99199e-06
120 *529:40 *634:130 8.76591e-06
121 *533:52 *634:54 0.000119376
122 *535:157 *634:54 0.000160219
123 *535:157 *634:78 0.00274956
124 *553:20 *634:158 1.50904e-05
125 *558:52 *634:176 8.56475e-05
126 *567:14 *634:84 0.00166005
127 *567:40 *634:78 0.00129504
128 *574:14 *634:176 0.000216755
129 *579:52 *634:54 0.0017981
130 *579:52 *634:130 0.00101044
131 *583:42 *2112:A 0.000180496
132 *586:110 *634:130 0.0001118
133 *589:16 *1932:D 5.49544e-05
134 *589:16 *1996:D 0.000472299
135 *593:118 *634:176 0.00139864
136 *596:82 *634:54 6.14836e-06
137 *596:118 *634:54 1.4477e-06
138 *600:72 *634:54 1.75792e-05
139 *600:72 *634:78 0.000696603
140 *600:138 *634:130 5.55836e-05
141 *630:66 *634:130 1.30275e-05
142 *630:84 *634:130 2.74858e-05
143 *631:65 *634:158 0.000532854
144 *632:152 *634:176 0.0001449
145 *633:26 *634:10 0.000137561
146 *633:78 *634:10 7.28771e-05
*RES
1 *2210:X *634:10 19.0143 
2 *634:10 *634:54 48.1856 
3 *634:54 *634:78 38.1872 
4 *634:78 *634:84 41.8661 
5 *634:84 *2112:A 12.3179 
6 *634:84 *2028:D 9.3 
7 *634:10 *634:130 47.9027 
8 *634:130 *634:158 47.1429 
9 *634:158 *634:176 49.1964 
10 *634:176 *634:186 29.2143 
11 *634:186 *1996:D 13.9429 
12 *634:186 *1932:D 9.83571 
13 *634:176 *1964:D 9.3 
*END

*D_NET *635 0.0543727
*CONN
*I *1965:D I *D sky130_fd_sc_hd__dlxtp_1
*I *1933:D I *D sky130_fd_sc_hd__dlxtp_1
*I *1997:D I *D sky130_fd_sc_hd__dlxtp_1
*I *2029:D I *D sky130_fd_sc_hd__dlxtp_1
*I *2113:A I *D sky130_fd_sc_hd__buf_1
*I *2211:X O *D sky130_fd_sc_hd__clkbuf_2
*CAP
1 *1965:D 8.25598e-05
2 *1933:D 0.000434745
3 *1997:D 0
4 *2029:D 0
5 *2113:A 0.000157307
6 *2211:X 0.000480863
7 *635:112 0.000975868
8 *635:102 0.00157649
9 *635:92 0.00332808
10 *635:42 0.0100161
11 *635:10 0.0127149
12 *1933:D *667:176 0.000166982
13 *2113:A *655:24 7.56926e-05
14 *635:10 *636:26 3.87787e-05
15 *635:42 *1843:A0 0.00011383
16 *635:42 *1848:A1 3.12518e-05
17 *635:42 *1848:A2 0
18 *635:42 *2030:D 0.000421904
19 *635:42 *636:26 4.48011e-05
20 *635:42 *636:54 1.28217e-05
21 *635:42 *637:44 3.46801e-05
22 *635:42 *646:24 0.000808024
23 *635:42 *651:45 0
24 *635:42 *652:127 0.000170027
25 *635:42 *653:170 0.00229783
26 *635:42 *671:30 4.48011e-05
27 *635:42 *687:92 0.000676159
28 *635:42 *687:114 0.000935517
29 *635:42 *694:76 7.19586e-05
30 *635:42 *698:121 0.000140924
31 *635:92 *1885:A2 1.47779e-05
32 *635:92 *636:26 8.38812e-05
33 *635:92 *661:207 0.000119204
34 *635:92 *668:69 8.99426e-05
35 *635:92 *671:30 1.04707e-05
36 *635:92 *672:100 3.25078e-05
37 *635:92 *672:134 0.000146687
38 *635:92 *673:90 1.5732e-05
39 *635:92 *673:116 1.24368e-05
40 *635:92 *675:130 0.000141372
41 *635:92 *677:61 0.00022545
42 *635:92 *693:68 0.000395541
43 *635:92 *703:40 0.000306511
44 *635:92 *708:84 0.00151897
45 *635:102 *1964:GATE 2.11419e-05
46 *635:102 *662:196 0.000319336
47 *635:102 *669:75 0.000283634
48 *635:102 *673:48 0.000463072
49 *635:112 *1809:A0 9.57347e-05
50 *635:112 *1965:GATE 9.48948e-05
51 *635:112 *669:45 5.31122e-05
52 *1855:S1 *635:42 0.000403312
53 *1868:B *2113:A 0
54 *1874:A1 *635:42 1.15622e-05
55 *1884:A0 *635:42 2.1599e-05
56 *1884:A3 *635:42 0.000128748
57 *1885:S0 *635:102 9.60337e-06
58 *2101:A *635:112 0.000117913
59 *2133:A *635:10 2.94004e-05
60 *2220:A *635:42 0.000631179
61 *2221:A *635:42 0.000534901
62 *2222:A *635:42 8.92006e-05
63 *2242:A *635:42 0.000531394
64 *2243:A *635:42 0.000577165
65 *2319:A *635:92 0.000153826
66 *143:9 *2113:A 0.00017018
67 *143:9 *635:42 0.000178934
68 *145:85 *1933:D 4.7515e-05
69 *147:39 *635:42 0
70 *148:97 *1933:D 6.19514e-05
71 *148:97 *635:102 1.65337e-05
72 *150:69 *635:102 6.98306e-05
73 *151:77 *635:92 0.000953345
74 *154:95 *635:10 1.17966e-05
75 *157:87 *635:42 2.19621e-05
76 *157:87 *635:92 0.000137561
77 *233:99 *635:112 0.000105696
78 *248:35 *635:42 1.33331e-05
79 *323:12 *1933:D 3.14163e-05
80 *323:12 *635:112 1.58163e-05
81 *398:22 *635:102 0
82 *479:46 *635:42 0.00131779
83 *482:26 *635:42 0.0001032
84 *485:18 *635:42 2.62977e-05
85 *491:96 *635:112 0.00034395
86 *502:75 *635:92 1.99702e-05
87 *502:79 *635:10 3.69047e-06
88 *514:94 *635:42 0.00049659
89 *515:40 *635:92 0.00120397
90 *516:32 *635:92 4.53014e-05
91 *520:32 *635:92 0.000276837
92 *529:40 *635:42 2.63501e-05
93 *553:20 *635:102 5.94102e-05
94 *567:40 *635:42 0.000194724
95 *567:72 *635:92 2.71935e-05
96 *568:188 *635:102 0.000281035
97 *568:188 *635:112 3.34295e-05
98 *575:18 *635:112 0.00017754
99 *579:52 *635:92 0.000372454
100 *580:16 *1933:D 0.00038109
101 *580:16 *635:112 5.33005e-05
102 *583:72 *635:42 4.38192e-05
103 *585:30 *635:10 0.000223456
104 *586:74 *635:92 0.000119348
105 *586:110 *635:92 3.60436e-05
106 *587:60 *635:42 1.14338e-05
107 *591:94 *635:42 0.0004816
108 *594:38 *635:42 2.90481e-05
109 *595:18 *635:112 0.000338048
110 *596:82 *635:42 4.44988e-05
111 *597:12 *2113:A 2.89016e-05
112 *600:72 *635:42 1.06027e-05
113 *601:30 *635:102 6.71543e-05
114 *618:96 *635:42 0.000107242
115 *618:96 *635:92 0.000661315
116 *630:84 *635:42 3.33241e-05
117 *634:54 *635:42 0.000433059
118 *634:130 *635:92 0.000167874
119 *634:176 *635:102 0.000425355
120 *634:186 *1933:D 0.000220395
121 *634:186 *635:102 7.31401e-05
*RES
1 *2211:X *635:10 19.6929 
2 *635:10 *635:42 48.0513 
3 *635:42 *2113:A 17.4071 
4 *635:42 *2029:D 13.8 
5 *635:10 *635:92 48.8531 
6 *635:92 *635:102 28.4177 
7 *635:102 *635:112 23.0893 
8 *635:112 *1997:D 9.3 
9 *635:112 *1933:D 28.8357 
10 *635:102 *1965:D 10.675 
*END

*D_NET *636 0.0469303
*CONN
*I *1934:D I *D sky130_fd_sc_hd__dlxtp_1
*I *1998:D I *D sky130_fd_sc_hd__dlxtp_1
*I *2114:A I *D sky130_fd_sc_hd__clkbuf_1
*I *2030:D I *D sky130_fd_sc_hd__dlxtp_1
*I *1966:D I *D sky130_fd_sc_hd__dlxtp_1
*I *2212:X O *D sky130_fd_sc_hd__clkbuf_2
*CAP
1 *1934:D 0.000114714
2 *1998:D 0.000770996
3 *2114:A 0
4 *2030:D 0.00369564
5 *1966:D 0
6 *2212:X 0.00213852
7 *636:166 0.000908679
8 *636:159 0.00192959
9 *636:117 0.00315651
10 *636:54 0.00646303
11 *636:26 0.00365603
12 *1934:D *1934:GATE 9.41642e-05
13 *1998:D *1889:A2 2.53512e-06
14 *1998:D *673:90 8.98813e-05
15 *2030:D *650:139 3.04605e-05
16 *2030:D *653:12 6.28248e-05
17 *2030:D *665:83 0.00311763
18 *2030:D *681:67 8.6229e-06
19 *2030:D *698:121 0.000362318
20 *2030:D *702:14 2.09897e-05
21 *636:26 *2180:A 6.53185e-05
22 *636:26 *671:30 1.53472e-05
23 *636:26 *677:61 7.46506e-05
24 *636:26 *679:8 9.92257e-05
25 *636:26 *687:92 0.000502807
26 *636:54 *1962:GATE 0.000302657
27 *636:54 *1971:D 0.000117919
28 *636:54 *651:247 2.45117e-05
29 *636:54 *661:132 0.000285135
30 *636:54 *671:53 0.000301155
31 *636:54 *671:113 2.72636e-05
32 *636:54 *676:99 5.7248e-05
33 *636:54 *701:28 0.000392985
34 *636:117 *1888:A1 0.000179037
35 *636:117 *637:6 2.59355e-05
36 *636:117 *637:108 0.000509859
37 *636:117 *668:69 0.000262525
38 *636:117 *672:100 4.90373e-05
39 *636:117 *674:80 3.63775e-05
40 *636:117 *679:8 7.53168e-05
41 *636:117 *679:49 0.000507621
42 *636:117 *693:68 1.02937e-05
43 *636:117 *693:84 1.42165e-05
44 *636:159 *1934:GATE 0.000135028
45 *636:159 *643:116 2.22164e-05
46 *636:159 *645:78 0.000201636
47 *636:159 *661:207 0.000219289
48 *636:159 *673:90 0.000381065
49 *636:159 *677:42 7.33964e-05
50 *636:159 *679:49 0.000218409
51 *636:166 *1934:GATE 5.33005e-05
52 FrameData_O[7] *1998:D 0.000699156
53 *1884:A0 *636:54 0.00095939
54 *1907:S0 *636:54 8.25843e-06
55 *2015:D *636:159 6.55481e-05
56 *2040:D *636:26 3.17148e-05
57 *2132:A *636:26 9.41642e-05
58 *2133:A *636:26 9.41642e-05
59 *2213:A *636:117 0.000543438
60 *2227:A *2030:D 0
61 *2228:A *2030:D 7.47077e-05
62 *2284:A *2030:D 1.94945e-05
63 *2304:A *636:159 0.000270422
64 *2319:A *636:159 0.000285779
65 *144:39 *2030:D 4.48128e-05
66 *144:39 *636:54 1.58163e-05
67 *145:63 *636:54 0.000680828
68 *146:67 *2030:D 0.000388372
69 *147:39 *2030:D 0
70 *147:51 *636:54 0.000511437
71 *154:95 *636:26 5.83099e-05
72 *157:87 *636:54 0.000195941
73 *157:87 *636:159 1.00332e-05
74 *157:107 *636:159 6.52971e-06
75 *160:127 *1998:D 0.000273324
76 *233:62 *1998:D 0.000273324
77 *235:45 *1998:D 2.82126e-05
78 *329:30 *2030:D 0.000136682
79 *479:159 *1934:D 3.97677e-05
80 *479:159 *636:166 6.05161e-06
81 *483:46 *636:54 8.04368e-05
82 *502:75 *636:26 0
83 *502:75 *636:117 1.08936e-05
84 *502:79 *636:26 5.33005e-05
85 *519:46 *636:54 0.00188637
86 *519:46 *636:159 9.05929e-05
87 *522:58 *636:159 0.000381576
88 *524:142 *636:54 9.36247e-05
89 *535:52 *1998:D 0.000792274
90 *546:31 *636:117 3.06878e-06
91 *556:54 *636:26 0.000384382
92 *558:14 *636:159 0.000392247
93 *566:24 *1998:D 5.49489e-05
94 *569:82 *1998:D 1.90936e-05
95 *579:52 *636:54 0.00200777
96 *582:54 *636:54 1.71723e-05
97 *584:48 *636:26 5.74499e-06
98 *584:48 *636:117 9.41642e-05
99 *585:30 *636:26 1.21258e-05
100 *586:74 *636:26 7.49952e-05
101 *587:90 *636:54 0.00011326
102 *593:102 *636:159 0.000208713
103 *595:36 *1998:D 1.58163e-05
104 *597:60 *636:159 0.000214944
105 *598:28 *1934:D 3.63775e-05
106 *602:109 *636:26 3.19603e-05
107 *613:40 *636:159 0.000372579
108 *618:96 *636:159 0
109 *618:116 *636:159 5.58875e-06
110 *632:107 *636:159 3.18812e-05
111 *632:152 *636:159 2.46018e-06
112 *634:54 *636:54 0.000804453
113 *634:78 *2030:D 0
114 *634:130 *636:117 0.00017984
115 *634:158 *636:159 0.000175892
116 *635:10 *636:26 3.87787e-05
117 *635:42 *2030:D 0.000421904
118 *635:42 *636:26 4.48011e-05
119 *635:42 *636:54 1.28217e-05
120 *635:92 *636:26 8.38812e-05
*RES
1 *2212:X *636:26 48.3714 
2 *636:26 *636:54 49.2988 
3 *636:54 *1966:D 9.3 
4 *636:54 *2030:D 46.631 
5 *2212:X *636:117 47.3838 
6 *636:117 *636:159 48.5798 
7 *636:159 *2114:A 9.3 
8 *636:159 *636:166 0.535714 
9 *636:166 *1998:D 31.344 
10 *636:166 *1934:D 11.4786 
*END

*D_NET *637 0.0448415
*CONN
*I *1999:D I *D sky130_fd_sc_hd__dlxtp_1
*I *2115:A I *D sky130_fd_sc_hd__clkbuf_1
*I *1935:D I *D sky130_fd_sc_hd__dlxtp_1
*I *2031:D I *D sky130_fd_sc_hd__dlxtp_1
*I *1967:D I *D sky130_fd_sc_hd__dlxtp_1
*I *2213:X O *D sky130_fd_sc_hd__clkbuf_2
*CAP
1 *1999:D 0.000269643
2 *2115:A 0.000178641
3 *1935:D 0
4 *2031:D 0.000384555
5 *1967:D 0
6 *2213:X 2.59948e-05
7 *637:116 0.000178641
8 *637:114 0.00122069
9 *637:108 0.00243916
10 *637:67 0.00144678
11 *637:63 0.0016276
12 *637:46 0.000702767
13 *637:44 0.00492827
14 *637:6 0.00630499
15 *1999:D *645:62 0.000178354
16 *1999:D *673:90 0.000367144
17 *637:44 *2003:GATE 5.59172e-05
18 *637:44 *639:30 1.84229e-05
19 *637:44 *645:62 2.63501e-05
20 *637:44 *679:8 0.000155734
21 *637:44 *680:46 0.000249386
22 *637:44 *688:30 0.000495995
23 *637:44 *690:61 6.13349e-05
24 *637:44 *694:44 0.000525852
25 *637:44 *698:121 2.66789e-06
26 *637:44 *701:28 0.000653271
27 *637:63 *647:185 2.72521e-05
28 *637:63 *697:46 4.82947e-05
29 *637:63 *707:28 8.08521e-05
30 *637:67 *647:123 0.000787245
31 *637:67 *691:16 1.74766e-05
32 *637:108 *1812:A0 0.000309175
33 *637:108 *1888:A1 0.000149235
34 *637:108 *2177:A 5.33005e-05
35 *637:108 *661:207 0.000295204
36 *637:108 *668:69 8.7686e-05
37 *637:108 *672:100 0
38 *637:108 *673:90 0
39 *637:108 *674:80 9.41642e-05
40 *637:108 *675:38 9.9129e-05
41 *637:108 *675:130 1.83053e-05
42 *637:108 *677:26 5.90008e-05
43 *637:108 *679:49 0
44 *637:108 *687:92 0.000167506
45 *637:108 *693:68 5.47047e-05
46 *637:108 *693:84 0.000208504
47 *637:108 *698:44 2.82648e-06
48 *637:114 *1881:A0 4.58194e-05
49 *637:114 *645:62 6.47471e-05
50 *637:114 *667:138 0.000374457
51 *637:114 *677:26 0.000463586
52 D_config_C_bit3 *637:44 0.000456857
53 E2BEG[0] *637:63 9.58181e-05
54 FrameData_O[5] *1999:D 1.24368e-05
55 *1862:A1 *637:67 5.62336e-05
56 *1881:S0 *637:114 0.000287145
57 *2062:A *637:108 5.49489e-05
58 *2213:A *637:44 3.83695e-05
59 *2230:A *637:44 3.47692e-05
60 *2244:A *637:67 0.000109993
61 *2253:A *637:63 0.00040288
62 *2253:A *637:67 2.95642e-05
63 *2261:A *637:67 0.000875505
64 *2265:A *637:67 1.01487e-05
65 *2287:A *637:63 0.000161197
66 *2295:A *637:67 1.41225e-05
67 *2309:A *2115:A 0.000257619
68 *2326:A *637:44 0.000936333
69 *2342:A *1999:D 1.58163e-05
70 *144:39 *637:63 5.07017e-06
71 *145:37 *637:44 0.000744911
72 *148:21 *637:67 0.00029509
73 *151:27 *637:67 0.000389544
74 *154:75 *637:44 0.000434351
75 *159:93 *637:114 2.0319e-05
76 *160:79 *637:44 0.000338017
77 *160:113 *2115:A 6.57032e-05
78 *181:44 *637:44 0.00125408
79 *266:10 *2031:D 7.32173e-05
80 *481:18 *637:67 0.000486469
81 *485:18 *637:44 9.56795e-05
82 *495:20 *637:44 1.65282e-05
83 *512:20 *637:44 0.000155357
84 *515:40 *1999:D 1.4396e-05
85 *516:32 *637:108 4.58194e-05
86 *516:32 *637:114 2.13481e-06
87 *523:24 *637:46 0.000221822
88 *523:24 *637:63 8.17274e-05
89 *544:32 *637:44 0.000918992
90 *545:38 *637:44 0.000312601
91 *546:31 *637:6 1.58163e-05
92 *546:31 *637:108 3.69047e-06
93 *547:20 *2115:A 0.00030245
94 *560:44 *637:67 0.00171404
95 *563:30 *637:44 1.94647e-05
96 *567:40 *637:44 0.000188801
97 *567:40 *637:67 0.000729908
98 *569:82 *1999:D 0.000582809
99 *569:82 *637:114 0.000478043
100 *582:54 *637:44 0.000375484
101 *583:72 *637:44 0.000163954
102 *585:30 *637:44 6.36553e-06
103 *590:96 *637:44 0.00162645
104 *591:94 *637:44 0.00127574
105 *599:18 *2115:A 4.98406e-05
106 *600:72 *637:44 5.59608e-05
107 *602:70 *637:108 0.000135028
108 *624:32 *637:44 0.000131541
109 *627:104 *637:44 4.79308e-05
110 *629:52 *637:44 0.000178039
111 *631:65 *637:108 0.000127441
112 *631:106 *637:44 1.81687e-05
113 *632:107 *637:108 0.000165026
114 *634:158 *637:108 5.08678e-05
115 *635:42 *637:44 3.46801e-05
116 *636:117 *637:6 2.59355e-05
117 *636:117 *637:108 0.000509859
*RES
1 *2213:X *637:6 9.83571 
2 *637:6 *637:44 47.4285 
3 *637:44 *637:46 2.58929 
4 *637:46 *1967:D 9.3 
5 *637:46 *637:63 16 
6 *637:63 *637:67 46.2143 
7 *637:67 *2031:D 15.175 
8 *637:6 *637:108 42.8234 
9 *637:108 *637:114 20.1607 
10 *637:114 *637:116 4.5 
11 *637:116 *1935:D 9.3 
12 *637:116 *2115:A 13.9429 
13 *637:114 *1999:D 22.05 
*END

*D_NET *638 0.0283842
*CONN
*I *1936:D I *D sky130_fd_sc_hd__dlxtp_1
*I *2000:D I *D sky130_fd_sc_hd__dlxtp_1
*I *1968:D I *D sky130_fd_sc_hd__dlxtp_1
*I *2116:A I *D sky130_fd_sc_hd__clkbuf_2
*I *2032:D I *D sky130_fd_sc_hd__dlxtp_1
*I *2214:X O *D sky130_fd_sc_hd__clkbuf_2
*CAP
1 *1936:D 0
2 *2000:D 0.000603075
3 *1968:D 0.000265331
4 *2116:A 0.000202777
5 *2032:D 0.00061641
6 *2214:X 0.000951773
7 *638:74 0.00080692
8 *638:24 0.00172555
9 *638:22 0.00112232
10 *638:18 0.00148231
11 *638:12 0.00174895
12 *1968:D *1968:GATE 0.000218685
13 *1968:D *672:148 0
14 *2000:D *1937:D 2.41052e-05
15 *2000:D *2000:GATE 9.55638e-05
16 *2000:D *643:116 2.30913e-05
17 *2000:D *668:49 0.000117242
18 *2000:D *672:100 2.72619e-05
19 *2000:D *677:42 0.00026646
20 *2000:D *693:84 8.50971e-06
21 *2032:D *2182:A 2.83827e-05
22 *2032:D *2183:A 1.90303e-05
23 *2032:D *681:6 5.33005e-05
24 *638:12 *674:80 1.46231e-05
25 *638:18 *672:148 0.000937735
26 *638:18 *672:152 4.22135e-06
27 *638:18 *706:66 0.000121307
28 *638:22 *1952:GATE 0.000157191
29 *638:22 *672:152 1.01075e-05
30 *638:22 *672:184 0.000251166
31 *638:74 *1936:GATE 3.8834e-05
32 *638:74 *2001:D 3.69047e-06
33 *638:74 *639:30 0.00010516
34 *638:74 *639:98 0.000178425
35 *638:74 *674:80 5.49489e-05
36 *638:74 *675:38 5.33005e-05
37 C_config_C_bit1 *638:18 0.000334505
38 *1812:S1 *2000:D 4.07596e-05
39 *1926:D *638:24 0.000444691
40 *2211:A *638:12 6.39808e-05
41 *2214:A *638:12 6.57032e-05
42 *2273:A *638:24 2.56643e-05
43 *152:13 *638:24 0.000201103
44 *152:33 *638:24 0.000126521
45 *153:55 *638:18 3.17645e-05
46 *153:79 *638:12 6.95541e-05
47 *154:21 *2032:D 0.00013352
48 *154:21 *638:24 0.000305709
49 *154:99 *638:12 0.000664739
50 *157:57 *638:18 0.00143915
51 *158:71 *638:74 3.10074e-05
52 *496:16 *2032:D 0.000130226
53 *496:16 *638:24 0.000115112
54 *499:10 *638:24 0.00249443
55 *504:18 *638:22 0.000208198
56 *504:18 *638:24 0.000963315
57 *510:22 *638:74 2.12521e-05
58 *510:34 *638:12 1.21637e-05
59 *510:34 *638:18 0.000751808
60 *511:26 *638:18 0.00115832
61 *512:20 *638:74 0.000143625
62 *557:94 *2116:A 8.55871e-05
63 *583:42 *2116:A 0.000341
64 *587:12 *638:24 0.00163874
65 *590:112 *2000:D 3.7371e-05
66 *593:18 *638:24 0.000277811
67 *600:86 *638:12 0.000452404
68 *600:86 *638:18 1.84099e-05
69 *601:8 *2032:D 0
70 *602:70 *2000:D 0.000105247
71 *616:38 *638:12 0.00144012
72 *626:70 *2000:D 5.54353e-05
73 *631:112 *638:18 0.000470058
74 *631:112 *638:22 0.000824508
75 *631:112 *638:24 0.000172324
76 *633:26 *638:12 0.000150618
*RES
1 *2214:X *638:12 35.6571 
2 *638:12 *638:18 36.7143 
3 *638:18 *638:22 10.8304 
4 *638:22 *638:24 46.4196 
5 *638:24 *2032:D 23.3893 
6 *638:24 *2116:A 18.0321 
7 *638:18 *1968:D 18.0321 
8 *2214:X *638:74 23.5143 
9 *638:74 *2000:D 36.2107 
10 *638:74 *1936:D 9.3 
*END

*D_NET *639 0.0295667
*CONN
*I *1937:D I *D sky130_fd_sc_hd__dlxtp_1
*I *2001:D I *D sky130_fd_sc_hd__dlxtp_1
*I *1969:D I *D sky130_fd_sc_hd__dlxtp_1
*I *2033:D I *D sky130_fd_sc_hd__dlxtp_1
*I *2117:A I *D sky130_fd_sc_hd__clkbuf_2
*I *2215:X O *D sky130_fd_sc_hd__clkbuf_2
*CAP
1 *1937:D 0.000163866
2 *2001:D 0.0006315
3 *1969:D 0
4 *2033:D 8.03315e-05
5 *2117:A 0.00023552
6 *2215:X 0.00419834
7 *639:98 0.000883437
8 *639:60 0.00156169
9 *639:52 0.00293136
10 *639:30 0.00579579
11 *1937:D *668:49 3.16795e-05
12 *2001:D *1888:A1 3.69047e-06
13 *2001:D *654:82 3.41234e-05
14 *2001:D *668:49 4.57559e-05
15 *2001:D *687:70 1.6683e-05
16 *639:30 *644:52 0.000707411
17 *639:30 *644:115 0.000405861
18 *639:30 *672:134 0.000114637
19 *639:30 *689:74 4.51632e-05
20 *639:52 *1904:A0 0.00021052
21 *639:52 *1981:GATE 0
22 *639:52 *666:76 0
23 *639:52 *672:198 0
24 *639:52 *684:144 6.08432e-05
25 *639:52 *689:74 0.000171986
26 *639:52 *706:46 1.03782e-05
27 *639:60 *2033:GATE 0.000194446
28 *639:60 *666:32 0.000263421
29 *639:60 *666:56 1.71144e-05
30 *639:60 *681:23 0.000182828
31 *639:60 *683:28 4.7464e-05
32 *639:60 *683:30 4.89922e-05
33 *639:60 *683:34 8.52405e-05
34 *639:98 *687:70 0.000216755
35 B_config_C_bit1 *639:52 0.000197909
36 *1812:S0 *2001:D 8.44496e-06
37 *1921:D *639:60 6.63572e-05
38 *1923:D *639:60 0.000373704
39 *1924:D *639:60 2.27002e-05
40 *1983:D *639:52 4.75911e-05
41 *2000:D *1937:D 2.41052e-05
42 *2049:D *639:60 9.60337e-06
43 *2050:D *639:60 5.49489e-05
44 *2390:A *2033:D 0.000180951
45 *2390:A *2117:A 0.00014715
46 *152:33 *639:30 0.000930902
47 *153:21 *639:60 0
48 *153:43 *639:52 0.000276978
49 *154:99 *639:30 9.90819e-06
50 *156:47 *639:52 0.000378544
51 *157:87 *2001:D 0
52 *158:71 *639:30 1.21258e-05
53 *489:10 *639:52 0.00036094
54 *489:10 *639:60 0
55 *498:12 *639:52 0.000951182
56 *506:14 *639:30 3.52836e-05
57 *506:14 *639:52 0.0016751
58 *510:22 *639:30 0.000123295
59 *512:20 *639:30 7.1371e-05
60 *557:94 *639:52 4.44028e-05
61 *557:94 *639:60 0
62 *568:88 *639:30 4.43053e-05
63 *568:114 *639:52 0.000534745
64 *568:122 *2117:A 1.39782e-05
65 *568:122 *639:60 0.000221834
66 *584:48 *639:30 0.00012105
67 *586:22 *639:52 1.15281e-05
68 *587:148 *639:30 2.5143e-05
69 *590:96 *1937:D 0.000143143
70 *590:96 *2001:D 0.000126645
71 *590:96 *639:30 0.000183341
72 *594:38 *639:52 4.01462e-06
73 *602:70 *1937:D 7.56827e-05
74 *602:70 *2001:D 0.000109979
75 *603:32 *639:30 0.00155806
76 *616:26 *639:30 0.000274517
77 *624:130 *639:60 0.000184246
78 *626:70 *1937:D 0.000225477
79 *628:112 *639:52 0
80 *629:52 *639:30 2.996e-06
81 *637:44 *639:30 1.84229e-05
82 *638:74 *2001:D 3.69047e-06
83 *638:74 *639:30 0.00010516
84 *638:74 *639:98 0.000178425
*RES
1 *2215:X *639:30 41.6634 
2 *639:30 *639:52 47.9254 
3 *639:52 *639:60 33.7679 
4 *639:60 *2117:A 17.1393 
5 *639:60 *2033:D 15.5679 
6 *639:30 *1969:D 13.8 
7 *2215:X *639:98 16.3893 
8 *639:98 *2001:D 28.4897 
9 *639:98 *1937:D 17.925 
*END

*D_NET *640 0.0244142
*CONN
*I *2038:GATE I *D sky130_fd_sc_hd__dlxtp_1
*I *2140:A I *D sky130_fd_sc_hd__buf_1
*I *2185:A I *D sky130_fd_sc_hd__clkbuf_2
*I *2027:GATE I *D sky130_fd_sc_hd__dlxtp_1
*I *2216:X O *D sky130_fd_sc_hd__clkbuf_2
*CAP
1 *2038:GATE 0.000133607
2 *2140:A 0
3 *2185:A 7.85924e-05
4 *2027:GATE 5.75687e-05
5 *2216:X 0.00120086
6 *640:49 0.000220853
7 *640:45 0.00035831
8 *640:34 0.00108692
9 *640:26 0.00190272
10 *640:24 0.00112888
11 *640:18 0.00137393
12 *2027:GATE *675:192 4.58194e-05
13 *2038:GATE *1884:A1 0.000181412
14 *2038:GATE *643:110 0.000192001
15 *2038:GATE *652:139 6.57032e-05
16 *2185:A *643:110 2.2816e-05
17 *640:34 *1884:A1 0.000766513
18 *640:34 *1986:GATE 8.58786e-05
19 *640:34 *658:93 0.000940659
20 *640:34 *673:124 4.82815e-05
21 *640:34 *689:108 0.000115446
22 *640:34 *705:49 0.000400271
23 *640:45 *1884:A1 0.000180904
24 *640:45 *643:110 5.55449e-05
25 *640:45 *673:124 1.95405e-05
26 *640:45 *689:108 8.83121e-05
27 *640:49 *643:110 0.000123259
28 A_I_top *640:18 0.000115369
29 A_T_top *640:18 2.06178e-05
30 B_I_top *640:18 2.06178e-05
31 B_T_top *640:18 4.32309e-05
32 C_I_top *640:18 0.000113061
33 C_T_top *640:24 0.000339346
34 *1880:A2 *640:34 1.27625e-05
35 *1917:D *640:18 2.26973e-05
36 *1954:D *640:34 6.05161e-06
37 *2016:D *640:34 0
38 *2090:A *2027:GATE 6.05161e-06
39 *2208:A *640:18 0.000118386
40 *2391:A *640:18 0.000247319
41 *2396:A *640:18 0.000149047
42 *153:21 *640:18 0.00037266
43 *154:21 *640:18 0
44 *159:45 *640:34 0.000483253
45 *160:39 *640:18 0.000171368
46 *243:20 *2038:GATE 6.57032e-05
47 *479:8 *640:18 1.58213e-06
48 *479:20 *640:26 0.000315959
49 *489:10 *640:18 0.000543673
50 *490:12 *640:18 0.000131181
51 *503:14 *640:18 4.10514e-05
52 *506:14 *640:34 5.33005e-05
53 *557:46 *640:26 0.00272339
54 *557:94 *640:18 6.99972e-05
55 *557:104 *640:18 0.000422361
56 *582:20 *640:24 0.000463586
57 *583:16 *640:18 0
58 *590:14 *640:26 0.00430878
59 *600:72 *640:34 0.000556877
60 *601:10 *640:26 0
61 *613:107 *2185:A 0.00013921
62 *624:116 *640:34 0.000695313
63 *624:120 *640:26 0.00047052
64 *624:151 *640:34 0.000180267
65 *632:16 *640:18 0.000114999
*RES
1 *2216:X *640:18 45.55 
2 *640:18 *640:24 13.6429 
3 *640:24 *640:26 53.5536 
4 *640:26 *640:34 39.9107 
5 *640:34 *2027:GATE 14.7464 
6 *640:34 *640:45 2.55357 
7 *640:45 *640:49 7.08929 
8 *640:49 *2185:A 11.0679 
9 *640:49 *2140:A 9.3 
10 *640:45 *2038:GATE 17.7107 
*END

*D_NET *641 0.00438673
*CONN
*I *2144:A I *D sky130_fd_sc_hd__clkbuf_2
*I *2168:A I *D sky130_fd_sc_hd__clkbuf_2
*I *1924:GATE I *D sky130_fd_sc_hd__dlxtp_1
*I *1923:GATE I *D sky130_fd_sc_hd__dlxtp_1
*I *2217:X O *D sky130_fd_sc_hd__buf_1
*CAP
1 *2144:A 4.30223e-05
2 *2168:A 0
3 *1924:GATE 6.76818e-05
4 *1923:GATE 0.000108169
5 *2217:X 0.000929662
6 *641:23 0.000126103
7 *641:21 0.000201322
8 *641:8 0.00113771
9 *1924:GATE *666:32 5.33005e-05
10 *1924:GATE *666:126 2.59355e-05
11 *641:8 *1919:GATE 0.000146474
12 *1920:D *641:8 0
13 *2385:A *641:8 0
14 *2396:A *1924:GATE 4.00679e-05
15 *2396:A *2144:A 3.42509e-05
16 *2396:A *641:23 2.79421e-05
17 *156:27 *641:8 0.00121409
18 *156:27 *641:21 0.000185619
19 *157:21 *641:8 0
20 *492:12 *641:8 0
21 *492:18 *641:8 0
22 *492:18 *641:21 0
23 *600:36 *641:8 4.53834e-05
*RES
1 *2217:X *641:8 34.8714 
2 *641:8 *1923:GATE 15.1571 
3 *641:8 *641:21 7.05357 
4 *641:21 *641:23 0.946429 
5 *641:23 *1924:GATE 10.6571 
6 *641:23 *2168:A 9.3 
7 *641:21 *2144:A 10.2464 
*END

*D_NET *642 0.049336
*CONN
*I *1812:A0 I *D sky130_fd_sc_hd__mux4_1
*I *1811:A0 I *D sky130_fd_sc_hd__mux4_1
*I *1875:A0 I *D sky130_fd_sc_hd__mux4_1
*I *1879:A0 I *D sky130_fd_sc_hd__mux4_1
*I *2218:X O *D sky130_fd_sc_hd__clkbuf_2
*CAP
1 *1812:A0 0.00167254
2 *1811:A0 0.00041718
3 *1875:A0 0
4 *1879:A0 0.000143649
5 *2218:X 0.00664765
6 *642:106 0.00541281
7 *642:55 0.00371433
8 *642:38 0.000568897
9 *642:34 0.00668166
10 *1811:A0 *686:52 5.2908e-05
11 *1812:A0 *661:207 7.34491e-05
12 *1812:A0 *665:18 5.60201e-05
13 *1812:A0 *672:100 0.000104976
14 *1812:A0 *673:90 0.000304981
15 *1812:A0 *676:40 4.36178e-05
16 *1812:A0 *679:49 0.000236753
17 *1812:A0 *693:84 0.000110179
18 *1879:A0 *1875:A2 4.58194e-05
19 *642:34 *646:24 0.00245995
20 *642:34 *647:16 0.0012505
21 *642:34 *647:28 0.000457382
22 *642:34 *659:116 0.000352252
23 *642:34 *661:81 4.99973e-05
24 *642:34 *661:112 0.0002601
25 *642:34 *665:83 0.000498776
26 *642:34 *671:111 2.22866e-05
27 *642:34 *694:44 8.7498e-06
28 *642:34 *701:28 2.68015e-05
29 *642:34 *703:40 0.00197688
30 *642:38 *662:142 0.000114834
31 *642:55 *662:142 0.000372241
32 *642:106 *1825:C_N 9.83313e-05
33 *642:106 *1885:A2 0.000781116
34 *642:106 *664:166 9.25014e-06
35 *642:106 *665:38 0.000129334
36 *642:106 *675:174 0.000196762
37 *642:106 *686:52 0.000297379
38 *642:106 *688:30 0.000169708
39 *642:106 *692:64 6.54117e-05
40 *642:106 *701:54 0.000566556
41 E2BEG[2] *642:34 0.000375128
42 E2BEG[3] *642:34 0.000329376
43 *740:DIODE *1811:A0 0.000272776
44 *740:DIODE *1812:A0 0.0002806
45 *1811:A3 *1811:A0 8.6229e-06
46 *1811:S0 *1811:A0 2.51343e-06
47 *1812:S0 *1812:A0 9.41642e-05
48 *1862:B1 *642:34 3.28681e-06
49 *1870:A1 *642:34 2.11419e-05
50 *1875:A1 *642:55 2.79421e-05
51 *1875:A1 *642:106 2.13481e-06
52 *1875:S0 *642:106 6.05161e-06
53 *1879:A1 *1879:A0 2.42516e-05
54 *1881:S1 *1812:A0 5.99199e-06
55 *1895:A3 *1879:A0 6.05161e-06
56 *2255:A *642:34 0.000219224
57 *2256:A *642:34 2.05415e-05
58 *2269:A *642:34 4.38038e-05
59 *2270:A *642:34 0.000303706
60 *2299:A *642:106 1.65205e-05
61 *2303:A *1811:A0 5.16148e-05
62 *2320:A *1811:A0 8.05048e-05
63 *2326:A *642:106 4.65519e-05
64 *142:53 *642:34 0.00156999
65 *145:37 *642:34 1.76121e-05
66 *145:63 *642:106 0.000109742
67 *146:67 *642:34 0.000406805
68 *148:81 *642:106 5.30819e-05
69 *148:97 *1812:A0 9.32971e-05
70 *148:97 *642:106 0.00060593
71 *150:41 *642:34 1.42701e-05
72 *159:77 *642:106 8.96716e-05
73 *160:79 *642:34 1.59393e-05
74 *160:113 *1811:A0 8.66083e-05
75 *236:40 *1811:A0 1.90936e-05
76 *409:18 *642:38 0.000116492
77 *409:18 *642:55 0.000366057
78 *409:18 *642:106 0.000329376
79 *409:34 *642:106 0.000352377
80 *482:26 *642:34 0.000117741
81 *483:46 *642:34 5.99199e-05
82 *483:46 *642:106 0.000111775
83 *515:40 *642:34 0.000239807
84 *515:40 *642:106 0.0002583
85 *517:28 *642:106 0.000140527
86 *520:58 *642:106 0.000190945
87 *522:58 *642:106 0.000246715
88 *529:40 *642:106 0.000453261
89 *531:62 *1811:A0 3.19941e-05
90 *533:52 *642:106 4.90258e-05
91 *535:86 *1811:A0 6.98512e-06
92 *535:86 *1812:A0 0.00034783
93 *538:32 *642:106 0.000127298
94 *539:40 *1811:A0 3.81239e-05
95 *545:38 *642:34 5.00194e-05
96 *548:22 *1811:A0 2.2355e-05
97 *552:28 *1811:A0 0.0001686
98 *552:28 *1812:A0 0.000113877
99 *552:28 *642:106 7.04401e-05
100 *558:52 *642:106 0.000177601
101 *565:22 *1812:A0 2.37836e-05
102 *567:72 *642:106 0.000797139
103 *579:32 *1812:A0 1.48639e-05
104 *583:72 *642:106 0.000123132
105 *586:110 *1812:A0 0.000298491
106 *593:74 *642:106 0
107 *596:82 *642:34 1.09611e-05
108 *596:82 *642:106 0.000110118
109 *596:118 *1812:A0 5.08017e-06
110 *596:118 *642:106 7.30405e-05
111 *597:60 *1812:A0 0.000206603
112 *600:138 *642:106 0.000520535
113 *613:40 *1812:A0 0.000614875
114 *618:96 *642:106 0.000192294
115 *624:82 *642:34 4.37358e-06
116 *632:66 *642:34 9.11825e-07
117 *634:54 *642:106 6.66368e-05
118 *637:108 *1812:A0 0.000309175
*RES
1 *2218:X *642:34 49.3691 
2 *642:34 *642:38 4.90107 
3 *642:38 *1879:A0 15.9786 
4 *642:38 *642:55 12.9107 
5 *642:55 *1875:A0 9.3 
6 *642:55 *642:106 45.9927 
7 *642:106 *1811:A0 32.9492 
8 *642:106 *1812:A0 27.9946 
*END

*D_NET *643 0.0383496
*CONN
*I *1897:A3 I *D sky130_fd_sc_hd__mux4_1
*I *1893:A3 I *D sky130_fd_sc_hd__mux4_1
*I *1878:A3 I *D sky130_fd_sc_hd__mux4_1
*I *2059:D I *D sky130_fd_sc_hd__dfxtp_1
*I *1812:A3 I *D sky130_fd_sc_hd__mux4_1
*I *1876:A3 I *D sky130_fd_sc_hd__mux4_1
*I *1880:A3 I *D sky130_fd_sc_hd__mux4_1
*I *2219:X O *D sky130_fd_sc_hd__clkbuf_2
*CAP
1 *1897:A3 0.00016867
2 *1893:A3 0.000977219
3 *1878:A3 0.000153067
4 *2059:D 0.000145665
5 *1812:A3 0
6 *1876:A3 0
7 *1880:A3 0
8 *2219:X 0.000881152
9 *643:164 0.00209357
10 *643:129 0.00134729
11 *643:116 0.00055951
12 *643:110 0.00193284
13 *643:79 0.00218723
14 *643:50 0.0013797
15 *643:28 0.00243786
16 *643:10 0.00268355
17 *1893:A3 *1809:A0 6.08808e-05
18 *1893:A3 *1890:A2 8.6229e-06
19 *1893:A3 *679:61 0.00010377
20 *1893:A3 *693:163 6.53397e-05
21 *1897:A3 *1897:A0 3.29284e-05
22 *2059:D *698:44 2.55806e-05
23 *643:10 *1848:A1 9.41642e-05
24 *643:10 *664:14 0.000472929
25 *643:10 *683:18 3.55751e-05
26 *643:10 *683:28 0.000275123
27 *643:28 *1837:C 0.000137464
28 *643:28 *1861:A0 0
29 *643:28 *1910:A1 0.000262085
30 *643:28 *664:14 0.000222789
31 *643:28 *672:184 1.78353e-05
32 *643:28 *705:49 0.000441907
33 *643:50 *668:93 0
34 *643:50 *668:95 2.19502e-05
35 *643:50 *668:107 5.56331e-05
36 *643:79 *1876:A2 0.00018879
37 *643:79 *644:46 0.000109428
38 *643:79 *684:114 0.000117987
39 *643:110 *1884:A1 0.000146013
40 *643:110 *652:139 0.0002831
41 *643:110 *658:133 0.000622011
42 *643:110 *673:116 2.14622e-05
43 *643:110 *673:124 0.000452836
44 *643:110 *693:68 5.10822e-05
45 *643:110 *698:44 8.83765e-05
46 *643:116 *672:100 1.52736e-05
47 *643:116 *679:49 4.43299e-05
48 *643:116 *693:84 0
49 *643:116 *698:44 5.51709e-05
50 *643:129 *672:100 1.21317e-05
51 *643:129 *674:48 1.0033e-05
52 *643:164 *1808:A3 5.25862e-06
53 *643:164 *672:52 0.000926901
54 *643:164 *674:48 1.0033e-05
55 *643:164 *679:61 0.000300465
56 *643:164 *693:84 0
57 *643:164 *703:60 0.000116046
58 *1799:A *643:28 2.00842e-05
59 *1812:A2 *643:116 3.99698e-06
60 *1812:A2 *643:129 9.66348e-05
61 *1812:S1 *643:116 5.41093e-05
62 *1823:C *643:110 3.2215e-05
63 *1824:A2 *643:110 0
64 *1824:C1 *643:110 0.000207778
65 *1838:B1 *643:28 0.000158565
66 *1838:C1 *643:28 0.000113277
67 *1845:S0 *643:10 2.21807e-05
68 *1876:S1 *643:79 4.58611e-05
69 *1876:S1 *643:110 8.65638e-05
70 *1878:S1 *643:164 0.000123495
71 *1880:A2 *643:50 0.000182537
72 *1880:S1 *643:50 1.00596e-05
73 *1897:S0 *1897:A3 0.000182003
74 *1897:S1 *1897:A3 6.37089e-05
75 *1900:S1 *1893:A3 0.000111643
76 *1955:D *643:50 8.93791e-05
77 *1986:D *643:28 1.83053e-05
78 *2000:D *643:116 2.30913e-05
79 *2038:GATE *643:110 0.000192001
80 *2049:D *643:10 5.61978e-05
81 *2059:CLK *2059:D 0.000116671
82 *2070:A *643:28 0.000306538
83 *2086:A *643:50 7.60041e-05
84 *2090:A *643:79 6.54392e-05
85 *2185:A *643:110 2.2816e-05
86 *146:33 *643:10 0.000121549
87 *153:43 *643:28 1.16796e-05
88 *157:87 *643:110 0.000227335
89 *157:87 *643:116 8.1516e-05
90 *157:107 *2059:D 5.33005e-05
91 *157:107 *643:116 2.28193e-05
92 *157:107 *643:129 0.000174614
93 *159:45 *643:28 6.69511e-05
94 *159:45 *643:50 1.50009e-05
95 *181:44 *643:50 0.000151978
96 *181:44 *643:79 0.000103885
97 *233:99 *1893:A3 0.000203361
98 *245:10 *643:110 0.000155468
99 *245:16 *643:110 0.00034086
100 *255:12 *643:10 9.88191e-05
101 *262:28 *643:28 1.91414e-05
102 *480:108 *643:164 6.86557e-05
103 *486:74 *643:50 9.1407e-06
104 *502:51 *643:164 2.01732e-05
105 *502:75 *643:110 0.000107752
106 *505:16 *643:28 1.721e-05
107 *505:24 *643:28 0.0018882
108 *513:37 *1893:A3 0.000120848
109 *513:82 *643:110 5.02931e-05
110 *513:82 *643:164 0.0001014
111 *513:86 *643:110 0.000245349
112 *519:24 *1893:A3 8.92415e-06
113 *522:58 *643:164 8.43263e-05
114 *529:40 *643:164 0.000145309
115 *544:32 *643:50 9.92853e-06
116 *544:48 *643:164 3.43988e-06
117 *561:30 *643:28 0.000159939
118 *568:188 *1893:A3 2.28737e-05
119 *582:128 *1878:A3 2.93215e-05
120 *585:60 *2059:D 0.000100898
121 *587:60 *643:50 5.58875e-06
122 *587:60 *643:79 0
123 *587:90 *643:110 0.000669043
124 *587:176 *1893:A3 0.00136114
125 *590:130 *643:129 1.26641e-05
126 *590:145 *1878:A3 1.00332e-05
127 *590:145 *643:164 5.25192e-06
128 *590:170 *1878:A3 1.21832e-05
129 *590:170 *643:164 4.65158e-06
130 *591:34 *643:164 8.65193e-05
131 *591:48 *2059:D 5.49544e-05
132 *591:48 *643:129 0.000194658
133 *591:48 *643:164 0.000194048
134 *591:94 *643:79 3.70314e-05
135 *593:74 *643:110 0.000157608
136 *600:138 *643:110 0.000123254
137 *601:30 *643:164 0.000129624
138 *602:160 *643:10 0.000975116
139 *602:160 *643:28 0.0008162
140 *613:107 *643:110 0.000138809
141 *615:10 *1893:A3 0.000672614
142 *618:30 *643:28 3.6192e-05
143 *618:30 *643:50 0.000216687
144 *618:50 *643:110 2.3224e-05
145 *624:58 *643:110 7.83659e-05
146 *624:82 *643:79 8.82791e-05
147 *626:100 *643:50 0.00015046
148 *626:100 *643:79 0.000343064
149 *626:102 *643:50 0
150 *626:122 *643:50 0
151 *630:84 *643:28 6.14836e-06
152 *631:65 *643:164 0.000879791
153 *632:107 *643:164 2.68453e-05
154 *634:54 *643:110 8.6281e-05
155 *634:130 *643:110 1.67864e-05
156 *634:130 *643:116 0.000119783
157 *634:158 *643:116 3.35939e-05
158 *636:159 *643:116 2.22164e-05
159 *640:45 *643:110 5.55449e-05
160 *640:49 *643:110 0.000123259
*RES
1 *2219:X *643:10 35.1214 
2 *643:10 *643:28 49.2694 
3 *643:28 *643:50 24.1429 
4 *643:50 *1880:A3 13.8 
5 *643:50 *643:79 18.8343 
6 *643:79 *1876:A3 13.8 
7 *643:79 *643:110 48.9464 
8 *643:110 *643:116 6.85714 
9 *643:116 *1812:A3 13.8 
10 *643:116 *643:129 5.33929 
11 *643:129 *2059:D 17.2643 
12 *643:129 *643:164 24.3779 
13 *643:164 *1878:A3 16.3 
14 *643:164 *1893:A3 37.9432 
15 *643:10 *1897:A3 17.3357 
*END

*D_NET *644 0.0422167
*CONN
*I *1880:A0 I *D sky130_fd_sc_hd__mux4_1
*I *1812:A1 I *D sky130_fd_sc_hd__mux4_1
*I *1813:A0 I *D sky130_fd_sc_hd__mux4_1
*I *1876:A0 I *D sky130_fd_sc_hd__mux4_1
*I *2220:X O *D sky130_fd_sc_hd__clkbuf_2
*CAP
1 *1880:A0 0.000115654
2 *1812:A1 0.000133319
3 *1813:A0 0.00154484
4 *1876:A0 0.000188391
5 *2220:X 0.000830233
6 *644:149 0.00260902
7 *644:115 0.00383883
8 *644:52 0.00339322
9 *644:46 0.00227566
10 *644:34 0.00292449
11 *644:16 0.00215823
12 *1812:A1 *668:34 0.000139187
13 *1813:A0 *1808:A0 8.55871e-05
14 *1813:A0 *645:78 2.2351e-05
15 *1813:A0 *703:60 5.40323e-06
16 *1813:A0 *703:72 0.000123744
17 *1876:A0 *654:20 0.000111282
18 *1876:A0 *680:46 0.000249407
19 *1880:A0 *689:74 8.47606e-05
20 *644:16 *1843:A1 4.884e-05
21 *644:16 *1910:A0 1.721e-05
22 *644:16 *659:56 0.000138507
23 *644:16 *681:59 0.000715652
24 *644:34 *1861:A1 0.000312571
25 *644:34 *1910:A0 0.0013816
26 *644:34 *1913:A2 1.90936e-05
27 *644:34 *2036:D 8.15221e-05
28 *644:34 *659:56 3.03458e-05
29 *644:34 *659:83 1.78353e-05
30 *644:34 *664:166 0.000264747
31 *644:34 *689:24 9.96264e-05
32 *644:34 *699:66 3.03892e-05
33 *644:34 *708:28 0.000270752
34 *644:115 *658:113 0.000329376
35 *644:115 *668:34 0.000198428
36 *644:115 *672:134 0.000113957
37 *644:115 *674:80 9.62902e-05
38 *644:115 *675:38 0.000108099
39 *644:149 *654:88 2.05728e-05
40 *644:149 *671:164 0.000181051
41 *644:149 *674:48 4.17542e-05
42 *644:149 *687:70 0.000530738
43 *644:149 *698:44 2.28007e-05
44 D_config_C_bit2 *644:52 3.28681e-06
45 *733:DIODE *644:16 0.000247146
46 *1805:A *644:34 5.71387e-05
47 *1808:A1 *1813:A0 2.42516e-05
48 *1849:A1 *644:16 0.000129283
49 *2039:D *644:115 0.00125846
50 *2058:D *1813:A0 5.00182e-05
51 *2069:A *644:34 0.000124875
52 *2109:A *1812:A1 5.33005e-05
53 *2193:A *644:115 4.69869e-05
54 *2214:A *644:115 5.31813e-05
55 *2215:A *644:115 5.62831e-05
56 *2279:A *1880:A0 2.26232e-05
57 *142:53 *644:46 0.000270684
58 *142:53 *644:52 4.11066e-05
59 *142:67 *644:115 0
60 *142:99 *644:115 3.99614e-06
61 *143:29 *644:34 0.00110244
62 *145:63 *644:46 4.22232e-05
63 *153:119 *644:115 2.58211e-05
64 *154:99 *644:115 0.000162181
65 *158:71 *644:115 1.7722e-05
66 *235:14 *1813:A0 0.000315905
67 *479:46 *644:46 0.000101247
68 *493:18 *644:16 9.00426e-05
69 *512:20 *644:149 0.000534768
70 *513:82 *644:149 5.47269e-05
71 *514:94 *644:34 6.05161e-06
72 *524:142 *644:34 0.000115606
73 *525:20 *644:34 0.000121423
74 *533:18 *644:34 0.000578177
75 *544:48 *644:115 4.75255e-05
76 *544:48 *644:149 5.44033e-05
77 *556:40 *644:115 2.26973e-05
78 *560:28 *644:16 0.000433613
79 *561:30 *644:46 0.000113957
80 *584:48 *644:115 0.000322161
81 *587:148 *644:149 4.96004e-05
82 *590:49 *1880:A0 7.64149e-05
83 *590:96 *1876:A0 0.000111282
84 *590:96 *644:115 0.00235221
85 *591:34 *644:149 0.000309969
86 *591:94 *644:46 2.6449e-05
87 *597:12 *644:16 2.45351e-05
88 *597:14 *644:16 0.00117733
89 *597:14 *644:34 0.000569147
90 *600:72 *644:46 0.00016514
91 *601:30 *644:115 2.63501e-05
92 *602:34 *644:115 0.000178425
93 *603:66 *1812:A1 0.00016808
94 *603:66 *644:115 1.24368e-05
95 *613:107 *1880:A0 8.66819e-05
96 *616:26 *644:52 0.000723663
97 *616:26 *644:115 0.000379234
98 *616:38 *644:115 0.000166513
99 *624:32 *644:115 1.65282e-05
100 *626:70 *644:115 0.000135028
101 *627:104 *1880:A0 0.00014277
102 *627:104 *644:46 4.04035e-05
103 *627:104 *644:52 0.000216063
104 *627:104 *644:115 0.000942257
105 *631:106 *1876:A0 0.000249062
106 *634:54 *644:46 3.77315e-05
107 *639:30 *644:52 0.000707411
108 *639:30 *644:115 0.000405861
109 *643:79 *644:46 0.000109428
*RES
1 *2220:X *644:16 37.9875 
2 *644:16 *644:34 49.375 
3 *644:34 *644:46 6.59347 
4 *644:46 *644:52 5.31977 
5 *644:52 *1876:A0 22.5544 
6 *644:52 *644:115 45.0282 
7 *644:115 *644:149 37.8966 
8 *644:149 *1813:A0 26.5857 
9 *644:115 *1812:A1 12.7107 
10 *644:46 *1880:A0 20.4511 
*END

*D_NET *645 0.0415804
*CONN
*I *1813:A1 I *D sky130_fd_sc_hd__mux4_1
*I *1886:A0 I *D sky130_fd_sc_hd__mux4_1
*I *1814:A0 I *D sky130_fd_sc_hd__mux4_1
*I *1882:A0 I *D sky130_fd_sc_hd__mux4_1
*I *2221:X O *D sky130_fd_sc_hd__clkbuf_2
*CAP
1 *1813:A1 0
2 *1886:A0 8.41658e-05
3 *1814:A0 4.57542e-05
4 *1882:A0 0
5 *2221:X 0.00117678
6 *645:91 0.000351833
7 *645:82 0.000282833
8 *645:78 0.00165591
9 *645:64 0.00159499
10 *645:62 0.00332088
11 *645:16 0.00449977
12 *645:14 0.00235567
13 *645:14 *656:10 0.000148903
14 *645:14 *656:30 0.000153663
15 *645:14 *657:24 0.000187466
16 *645:14 *662:22 7.75765e-05
17 *645:16 *650:168 0.00226848
18 *645:62 *647:222 6.85372e-05
19 *645:62 *665:83 0.000115223
20 *645:62 *688:30 0.00369668
21 *645:62 *690:61 2.80057e-05
22 *645:62 *698:121 0.000100796
23 *645:62 *702:14 9.83936e-06
24 *645:78 *1893:A1 0.000116649
25 *645:78 *1978:GATE 0.000123153
26 *645:78 *667:172 7.84437e-05
27 *645:78 *669:53 8.62585e-05
28 *645:78 *669:75 1.94879e-05
29 *645:78 *673:50 0.000264386
30 *645:78 *673:90 0.000483081
31 *645:78 *691:105 0.000506107
32 E2BEG[1] *645:62 0.000550124
33 FrameData_O[7] *645:78 8.7246e-05
34 *1813:A0 *645:78 2.2351e-05
35 *1814:S1 *1814:A0 9.71197e-05
36 *1871:S0 *645:14 7.31653e-05
37 *1899:S1 *645:78 7.8178e-06
38 *1999:D *645:62 0.000178354
39 *2061:A *645:78 6.57032e-05
40 *2095:A *645:78 0.000122887
41 *2107:A *645:62 0.000244253
42 *2163:A *645:78 0.000275822
43 *2236:A *645:14 0.000283235
44 *2237:A *645:14 0.000472334
45 *2238:A *645:14 0.000520085
46 *2291:A *645:62 4.00349e-05
47 *2294:A *645:62 3.48546e-05
48 *2295:A *645:16 0.00174702
49 *2358:A *645:78 9.21418e-06
50 *143:9 *645:14 0.000165067
51 *146:77 *645:16 0.000293909
52 *147:75 *645:62 0.000185277
53 *148:21 *645:16 0.00227216
54 *148:97 *645:62 0.00149086
55 *149:27 *645:14 0
56 *151:9 *645:16 0.00124134
57 *151:77 *1886:A0 8.99641e-05
58 *151:77 *645:82 1.8791e-05
59 *151:77 *645:91 0.000286169
60 *159:93 *645:62 0.000101611
61 *160:79 *645:62 0.000377846
62 *160:127 *645:62 2.00756e-05
63 *235:14 *645:78 0.000216755
64 *235:64 *1886:A0 0.000193125
65 *235:64 *645:82 0.000121953
66 *235:64 *645:91 0.000561394
67 *515:40 *645:62 0.000346653
68 *531:34 *645:78 2.06178e-05
69 *539:18 *645:78 0.000141353
70 *542:20 *645:82 7.40526e-05
71 *545:38 *645:62 0.00123559
72 *552:28 *645:78 0.00117636
73 *558:52 *645:62 0.00055189
74 *560:44 *645:16 3.09273e-05
75 *560:58 *645:16 1.11048e-05
76 *572:12 *645:78 2.72545e-05
77 *583:72 *645:62 1.05496e-05
78 *585:60 *645:62 4.65519e-05
79 *593:118 *645:78 0
80 *596:28 *645:14 0.000467832
81 *596:40 *645:16 0.000129706
82 *597:60 *645:78 3.22834e-05
83 *599:18 *645:78 1.37292e-05
84 *600:36 *645:14 0
85 *618:116 *645:78 0.000601982
86 *636:159 *645:78 0.000201636
87 *637:44 *645:62 2.63501e-05
88 *637:114 *645:62 6.47471e-05
*RES
1 *2221:X *645:14 29.8411 
2 *645:14 *645:16 52.4911 
3 *645:16 *645:62 46.744 
4 *645:62 *645:64 4.5 
5 *645:64 *645:78 48.6786 
6 *645:78 *645:82 6.14286 
7 *645:82 *1882:A0 13.8 
8 *645:82 *645:91 7.41071 
9 *645:91 *1814:A0 14.7464 
10 *645:91 *1886:A0 16.3536 
11 *645:64 *1813:A1 9.3 
*END

*D_NET *646 0.0482143
*CONN
*I *1814:A2 I *D sky130_fd_sc_hd__mux4_1
*I *1885:A0 I *D sky130_fd_sc_hd__mux4_1
*I *1881:A0 I *D sky130_fd_sc_hd__mux4_1
*I *1811:A1 I *D sky130_fd_sc_hd__mux4_1
*I *2222:X O *D sky130_fd_sc_hd__clkbuf_2
*CAP
1 *1814:A2 0.000278261
2 *1885:A0 5.24448e-05
3 *1881:A0 0.000714775
4 *1811:A1 0.000229542
5 *2222:X 0.00472943
6 *646:127 0.00173029
7 *646:88 0.00446501
8 *646:53 0.00400832
9 *646:32 0.00102753
10 *646:24 0.00519439
11 *1811:A1 *686:52 0.000113877
12 *1881:A0 *665:38 4.88232e-05
13 *1881:A0 *667:138 2.09897e-05
14 *1885:A0 *650:254 5.59013e-05
15 *646:24 *653:170 0.00248363
16 *646:24 *659:12 2.51989e-05
17 *646:24 *696:26 0.0032437
18 *646:24 *697:46 0.00166635
19 *646:24 *703:40 0.00123402
20 *646:32 *695:76 0.000387389
21 *646:53 *686:52 0.000268
22 *646:88 *1893:A1 8.69554e-05
23 *646:88 *686:52 0.00183962
24 *646:88 *691:72 5.80273e-05
25 *646:127 *1949:GATE 0
26 *646:127 *650:254 0.000249243
27 *646:127 *691:72 9.41642e-05
28 *646:127 *704:110 4.01406e-05
29 E6BEG[0] *646:24 0.000174868
30 E6BEG[1] *646:24 0.000170263
31 E6BEG[3] *1811:A1 8.83488e-05
32 E6BEG[4] *1811:A1 8.92267e-05
33 E6BEG[4] *1881:A0 1.47728e-05
34 E6BEG[4] *646:32 0.000574471
35 E6BEG[5] *1881:A0 8.79678e-05
36 E6BEG[5] *646:32 0.000434567
37 FrameData_O[10] *646:127 6.90372e-06
38 FrameData_O[11] *646:88 0.000164803
39 FrameData_O[12] *646:127 9.28657e-05
40 FrameData_O[1] *646:88 0.000339417
41 FrameData_O[26] *646:127 0.000121322
42 FrameData_O[27] *646:127 0.000590214
43 FrameData_O[28] *646:127 4.15161e-05
44 FrameData_O[9] *646:88 7.55363e-05
45 *1814:A3 *1814:A2 1.02504e-05
46 *1814:S1 *1814:A2 2.3541e-05
47 *1871:S0 *646:24 0.000147561
48 *1871:S1 *646:24 0.00011122
49 *1881:S0 *1881:A0 9.41642e-05
50 *1881:S1 *1881:A0 0.000668152
51 *1882:S0 *646:127 9.25014e-06
52 *1906:S0 *646:127 2.38783e-05
53 *2068:A *646:127 2.86685e-05
54 *2235:A *646:24 0.000590989
55 *2236:A *646:24 0.000758574
56 *2312:A *1811:A1 1.90936e-05
57 *2329:A *646:32 0.00021635
58 *2333:A *646:88 1.65169e-05
59 *2334:A *646:127 0.000207081
60 *2337:A *646:88 0.000160395
61 *2348:A *646:88 0
62 *2348:A *646:127 1.21258e-05
63 *2353:A *646:127 5.55741e-05
64 *2357:A *646:88 0
65 *146:67 *646:24 0.000552582
66 *147:39 *646:24 5.48645e-05
67 *147:101 *646:127 0.000608146
68 *149:27 *646:24 8.60827e-05
69 *149:101 *646:127 0.000485192
70 *151:57 *1881:A0 4.38296e-05
71 *233:62 *1885:A0 6.57372e-05
72 *233:62 *646:88 5.33005e-05
73 *233:80 *1885:A0 5.41794e-05
74 *233:80 *646:127 0.000244418
75 *479:130 *1881:A0 6.20441e-06
76 *514:72 *1881:A0 5.6305e-05
77 *524:142 *646:24 2.98245e-05
78 *531:62 *1811:A1 0.000114912
79 *535:86 *1881:A0 2.35323e-05
80 *539:40 *1811:A1 2.79421e-05
81 *541:40 *1881:A0 1.95291e-05
82 *559:58 *646:32 0.000381383
83 *560:28 *646:24 0.00015952
84 *569:82 *1881:A0 2.09897e-05
85 *571:18 *1814:A2 2.51989e-05
86 *577:20 *1814:A2 0.000603201
87 *632:152 *1814:A2 6.47471e-05
88 *632:161 *1814:A2 0.000552384
89 *635:42 *646:24 0.000808024
90 *637:114 *1881:A0 4.58194e-05
91 *642:34 *646:24 0.00245995
*RES
1 *2222:X *646:24 48.2984 
2 *646:24 *646:32 12.822 
3 *646:32 *1811:A1 22.2584 
4 *646:32 *646:53 0.579667 
5 *646:53 *1881:A0 23.4114 
6 *646:53 *646:88 28.2228 
7 *646:88 *1885:A0 15.0679 
8 *646:88 *646:127 47.1607 
9 *646:127 *1814:A2 22.9652 
*END

*D_NET *647 0.0434296
*CONN
*I *1822:A1 I *D sky130_fd_sc_hd__mux2_1
*I *1903:A0 I *D sky130_fd_sc_hd__mux4_1
*I *1836:A1 I *D sky130_fd_sc_hd__mux2_1
*I *1859:A0 I *D sky130_fd_sc_hd__mux4_1
*I *1843:A0 I *D sky130_fd_sc_hd__mux4_1
*I *1867:A0 I *D sky130_fd_sc_hd__mux4_1
*I *1851:A0 I *D sky130_fd_sc_hd__mux4_1
*I *1832:C_N I *D sky130_fd_sc_hd__or3b_1
*I *1818:C_N I *D sky130_fd_sc_hd__or3b_1
*I *2223:X O *D sky130_fd_sc_hd__buf_2
*CAP
1 *1822:A1 0.00176946
2 *1903:A0 0.00014751
3 *1836:A1 0.000571913
4 *1859:A0 7.95212e-05
5 *1843:A0 0.00153854
6 *1867:A0 2.7833e-05
7 *1851:A0 0
8 *1832:C_N 0.000288396
9 *1818:C_N 7.02704e-05
10 *2223:X 0
11 *647:222 0.00266446
12 *647:189 0.00110921
13 *647:185 0.00145327
14 *647:133 0.00108893
15 *647:123 0.00266396
16 *647:63 0.000674048
17 *647:46 0.00136122
18 *647:28 0.00135678
19 *647:16 0.00282379
20 *647:4 0.00170149
21 *1818:C_N *648:49 9.41642e-05
22 *1822:A1 *660:91 1.96263e-05
23 *1822:A1 *671:111 0.000257619
24 *1822:A1 *686:14 7.40571e-05
25 *1822:A1 *693:46 5.61436e-06
26 *1832:C_N *1833:A1 3.32148e-05
27 *1832:C_N *682:29 0.000186393
28 *1836:A1 *1839:C_N 6.28948e-05
29 *1836:A1 *1859:A2 0.000194005
30 *1836:A1 *1911:A0 6.48447e-05
31 *1836:A1 *652:16 8.90828e-06
32 *1836:A1 *652:18 1.10722e-05
33 *1836:A1 *653:20 0.000482178
34 *1836:A1 *653:32 0.000260759
35 *1836:A1 *699:22 1.92398e-05
36 *1843:A0 *1843:A1 2.59355e-05
37 *1843:A0 *1845:A0 0.000273841
38 *1843:A0 *1848:A1 0
39 *1843:A0 *650:47 0.000154578
40 *1843:A0 *652:36 1.90936e-05
41 *1859:A0 *664:125 8.7425e-05
42 *1859:A0 *706:24 0
43 *1867:A0 *1867:A1 1.83136e-05
44 *1903:A0 *1903:A1 0.000177545
45 *1903:A0 *650:168 2.59996e-05
46 *647:16 *658:27 6.14836e-06
47 *647:16 *661:81 0
48 *647:16 *665:83 0.00122202
49 *647:28 *665:83 0.000417456
50 *647:46 *1867:A1 1.16398e-05
51 *647:46 *1867:A2 0.000736562
52 *647:46 *1867:A3 4.46186e-06
53 *647:46 *2118:A 2.28378e-05
54 *647:63 *1833:A1 8.34352e-05
55 *647:63 *2034:D 9.25014e-06
56 *647:63 *651:51 0.000264034
57 *647:123 *650:156 3.63775e-05
58 *647:133 *1861:A3 8.0321e-05
59 *647:133 *650:156 3.83189e-05
60 *647:133 *664:125 0.000289198
61 *647:133 *706:24 0
62 *647:133 *708:12 0.000135757
63 *647:185 *691:16 1.43864e-05
64 *647:185 *693:22 2.64807e-05
65 *647:185 *701:28 1.99406e-05
66 *647:185 *703:40 3.21078e-05
67 *647:185 *704:44 0
68 *647:189 *1903:A1 0.000123471
69 *647:222 *660:59 3.41747e-05
70 *647:222 *691:16 0.000229943
71 *647:222 *695:66 0.000245756
72 E1BEG[3] *647:189 8.13895e-06
73 E2BEGb[0] *647:222 4.29471e-05
74 E2BEGb[1] *1822:A1 5.6879e-05
75 *1818:B *1818:C_N 3.14163e-05
76 *1831:A2 *1832:C_N 0.000339803
77 *1831:B1 *1832:C_N 2.44318e-05
78 *1831:C1 *1832:C_N 9.90431e-05
79 *1835:B1 *1832:C_N 4.63028e-05
80 *1854:A2 *647:46 0.000359091
81 *1860:A *647:185 0
82 *1860:B *647:185 0.000214709
83 *1862:A1 *647:123 2.48437e-05
84 *1862:B1 *647:185 0
85 *1865:A0 *1859:A0 1.58163e-05
86 *1865:A1 *647:123 0.000314586
87 *1866:B2 *647:133 0.000170424
88 *1867:S0 *647:46 2.59355e-05
89 *1870:A1 *647:28 0
90 *1874:A1 *1843:A0 0.000128748
91 *2107:A *647:222 6.57032e-05
92 *2224:A *647:16 5.68365e-05
93 *2225:A *647:16 0.000136949
94 *2226:A *647:123 4.60232e-06
95 *2228:A *647:123 4.19624e-06
96 *2229:A *647:123 1.13794e-05
97 *2231:A *647:123 6.88458e-06
98 *2239:A *647:16 0.000157627
99 *2240:A *647:185 0.000226373
100 *2246:A *647:185 4.12038e-05
101 *2250:A *647:185 0.000320949
102 *2253:A *647:185 0.000265592
103 *2255:A *647:185 1.43349e-05
104 *2256:A *647:185 6.71336e-05
105 *2257:A *647:185 6.92148e-06
106 *2258:A *647:185 6.71336e-05
107 *2259:A *647:185 0.000156018
108 *2260:A *647:185 0
109 *2262:A *1836:A1 0.000315215
110 *2264:A *647:123 8.2607e-05
111 *2264:A *647:133 0.000435366
112 *2265:A *647:123 0.000384879
113 *2265:A *647:133 0.000517793
114 *2267:A *647:185 0.000121375
115 *2268:A *647:185 1.31516e-05
116 *2270:A *647:185 0.000136822
117 *2272:A *1843:A0 2.8078e-05
118 *2285:A *647:222 6.57032e-05
119 *2287:A *647:185 1.17091e-05
120 *2298:A *1822:A1 0.000116582
121 *2299:A *1822:A1 3.69047e-06
122 *2390:A *1818:C_N 4.72917e-05
123 *2390:A *647:63 0.000114655
124 *143:9 *1832:C_N 0
125 *143:9 *647:46 0.000171752
126 *143:9 *647:63 0
127 *144:71 *647:185 0.000420428
128 *145:37 *647:28 1.53979e-05
129 *147:39 *1843:A0 7.33808e-05
130 *147:39 *1859:A0 2.8266e-06
131 *147:91 *647:222 0.000366396
132 *149:63 *647:222 0.000377713
133 *150:17 *1836:A1 0.000354926
134 *150:17 *647:28 0
135 *151:27 *647:185 0.000491703
136 *234:86 *1822:A1 2.59355e-05
137 *234:94 *1822:A1 0.000139215
138 *236:91 *1822:A1 0.000178425
139 *236:91 *647:222 0.000587062
140 *241:23 *1859:A0 5.49544e-05
141 *265:14 *647:123 0.000164672
142 *458:16 *647:28 0.000185187
143 *481:18 *647:185 0
144 *481:50 *647:222 1.01403e-05
145 *481:84 *647:222 5.7616e-05
146 *500:16 *647:46 5.41207e-05
147 *521:12 *647:222 5.41797e-06
148 *525:40 *647:185 0.000437564
149 *528:44 *1822:A1 0.000459808
150 *532:20 *647:222 0.000231597
151 *533:52 *1822:A1 5.10006e-05
152 *550:30 *1822:A1 2.54304e-06
153 *560:44 *647:185 9.41642e-05
154 *567:14 *647:46 3.69047e-06
155 *567:40 *647:123 0.000133262
156 *569:62 *1822:A1 4.02038e-05
157 *582:20 *1843:A0 9.58126e-05
158 *583:72 *1843:A0 0.000179637
159 *594:38 *647:222 9.76435e-06
160 *594:52 *647:222 0.000907649
161 *596:82 *1822:A1 0.000125551
162 *597:46 *1822:A1 0.000110884
163 *626:148 *1843:A0 2.22043e-05
164 *634:78 *647:123 0.000142403
165 *635:42 *1843:A0 0.00011383
166 *637:63 *647:185 2.72521e-05
167 *637:67 *647:123 0.000787245
168 *642:34 *647:16 0.0012505
169 *642:34 *647:28 0.000457382
170 *645:62 *647:222 6.85372e-05
*RES
1 *2223:X *647:4 9.3 
2 *647:4 *647:16 16.4125 
3 *647:16 *647:28 14.9203 
4 *647:28 *647:46 35.3571 
5 *647:46 *1818:C_N 11.0679 
6 *647:46 *647:63 12.3214 
7 *647:63 *1832:C_N 21.2107 
8 *647:63 *1851:A0 13.8 
9 *647:28 *1867:A0 9.83571 
10 *647:16 *1843:A0 25.3638 
11 *647:4 *647:123 30.0357 
12 *647:123 *647:133 17.6161 
13 *647:133 *1859:A0 15.5232 
14 *647:133 *1836:A1 23.1364 
15 *647:123 *647:185 47.6964 
16 *647:185 *647:189 5.85714 
17 *647:189 *1903:A0 11.8893 
18 *647:189 *647:222 46.2143 
19 *647:222 *1822:A1 47.6929 
*END

*D_NET *648 0.0276556
*CONN
*I *1904:A0 I *D sky130_fd_sc_hd__mux4_1
*I *1859:A2 I *D sky130_fd_sc_hd__mux4_1
*I *1843:A2 I *D sky130_fd_sc_hd__mux4_1
*I *1867:A2 I *D sky130_fd_sc_hd__mux4_1
*I *1851:A2 I *D sky130_fd_sc_hd__mux4_1
*I *1829:A1 I *D sky130_fd_sc_hd__mux2_1
*I *1815:A1 I *D sky130_fd_sc_hd__mux2_1
*I *2224:X O *D sky130_fd_sc_hd__clkbuf_2
*CAP
1 *1904:A0 0.00235295
2 *1859:A2 0.000640545
3 *1843:A2 1.58849e-05
4 *1867:A2 0.000592142
5 *1851:A2 0.000430293
6 *1829:A1 0
7 *1815:A1 0.000162393
8 *2224:X 4.06656e-05
9 *648:109 0.00344708
10 *648:49 0.000630641
11 *648:28 0.000452521
12 *648:22 0.00128072
13 *648:16 0.0015201
14 *648:8 0.00139967
15 *1843:A2 *1845:A3 6.98553e-06
16 *1851:A2 *1819:A2 0.000424483
17 *1851:A2 *664:51 4.94884e-05
18 *1859:A2 *1861:A3 0.000128164
19 *1859:A2 *653:14 0.000290348
20 *1859:A2 *653:20 0.000277998
21 *1859:A2 *653:170 0.000210501
22 *1867:A2 *1867:A1 6.98553e-06
23 *1867:A2 *1867:A3 6.80706e-05
24 *1867:A2 *2118:A 4.50033e-05
25 *1904:A0 *1905:A0 0.000980404
26 *1904:A0 *664:125 0.000575357
27 *1904:A0 *706:46 0.00019751
28 *648:8 *2042:GATE 8.6229e-06
29 *648:8 *660:16 3.17264e-05
30 *648:16 *650:12 0.000551681
31 *648:16 *653:32 0.000162056
32 *648:16 *653:38 0.000910187
33 *648:16 *655:14 0.000139383
34 *648:16 *655:16 0.00130234
35 *648:22 *653:38 0.000216685
36 *648:22 *653:54 0.00012116
37 *648:22 *655:16 6.88527e-05
38 *648:22 *655:24 0.000149412
39 *648:49 *1829:A0 0.000152155
40 *648:109 *1905:A0 9.74761e-05
41 *648:109 *2042:GATE 0.000117693
42 *648:109 *649:134 0.000370845
43 *648:109 *651:28 8.6229e-06
44 *648:109 *655:8 6.57032e-05
45 *648:109 *660:16 0.00026054
46 *648:109 *660:43 8.68244e-05
47 *648:109 *681:80 3.07357e-05
48 *727:DIODE *648:16 4.38265e-05
49 *1804:A *1859:A2 1.30694e-05
50 *1818:A *1815:A1 0.000255147
51 *1818:B *1815:A1 3.69047e-06
52 *1818:B *648:49 6.8377e-06
53 *1818:C_N *648:49 9.41642e-05
54 *1836:A1 *1859:A2 0.000194005
55 *1851:S1 *1867:A2 0.0003857
56 *1854:B1 *1851:A2 1.94945e-05
57 *1858:A2 *1851:A2 2.11419e-05
58 *1862:B1 *1904:A0 0
59 *1865:A0 *1859:A2 9.55038e-05
60 *1898:A3 *648:16 2.11419e-05
61 *2044:D *1851:A2 1.68479e-05
62 *2045:D *1851:A2 0.000523673
63 *2096:A *648:16 6.30196e-05
64 *2262:A *1859:A2 0.000105874
65 *2390:A *1815:A1 6.10547e-05
66 *2390:A *648:49 0.000136676
67 *143:9 *648:8 7.57673e-05
68 *143:9 *648:49 6.10246e-05
69 *143:9 *648:109 0.000176226
70 *144:27 *1904:A0 9.67666e-05
71 *144:27 *648:109 5.0147e-05
72 *150:17 *648:22 0.000121549
73 *151:23 *1859:A2 0.000365133
74 *154:75 *1904:A0 0.000207931
75 *159:21 *648:22 0
76 *160:15 *648:22 0.000408562
77 *181:17 *1904:A0 0
78 *239:24 *1815:A1 0.000264129
79 *239:43 *1815:A1 7.00169e-06
80 *240:20 *1859:A2 3.58774e-05
81 *241:8 *1904:A0 7.83659e-05
82 *241:12 *1904:A0 0.000128018
83 *241:12 *648:109 0.000152173
84 *257:14 *648:22 1.46717e-05
85 *479:46 *648:16 0.000135968
86 *493:18 *648:28 0.000192442
87 *493:18 *648:49 2.4088e-05
88 *500:16 *1851:A2 1.59935e-05
89 *500:16 *648:49 0.000285106
90 *501:14 *648:22 0.000377384
91 *579:78 *648:28 8.60622e-05
92 *596:40 *1904:A0 0
93 *602:160 *1904:A0 0.000207616
94 *639:52 *1904:A0 0.00021052
95 *647:46 *1867:A2 0.000736562
*RES
1 *2224:X *648:8 14.8357 
2 *648:8 *648:16 33.1071 
3 *648:16 *648:22 19.6607 
4 *648:22 *648:28 11.5536 
5 *648:28 *1815:A1 13.8536 
6 *648:28 *648:49 10.6607 
7 *648:49 *1829:A1 13.8 
8 *648:49 *1851:A2 22.5713 
9 *648:22 *1867:A2 31.858 
10 *648:16 *1843:A2 14.0366 
11 *648:8 *648:109 20.1696 
12 *648:109 *1859:A2 26.1428 
13 *648:109 *1904:A0 39.6345 
*END

*D_NET *649 0.0246537
*CONN
*I *1905:A0 I *D sky130_fd_sc_hd__mux4_1
*I *1859:A1 I *D sky130_fd_sc_hd__mux4_1
*I *1843:A1 I *D sky130_fd_sc_hd__mux4_1
*I *1867:A1 I *D sky130_fd_sc_hd__mux4_1
*I *1851:A1 I *D sky130_fd_sc_hd__mux4_1
*I *1834:A I *D sky130_fd_sc_hd__nand2_1
*I *1820:A I *D sky130_fd_sc_hd__nand2_1
*I *1898:A0 I *D sky130_fd_sc_hd__mux4_1
*I *2225:X O *D sky130_fd_sc_hd__clkbuf_2
*CAP
1 *1905:A0 0.000762432
2 *1859:A1 0
3 *1843:A1 0.000852444
4 *1867:A1 0.000741588
5 *1851:A1 0
6 *1834:A 0.000232368
7 *1820:A 0.000255329
8 *1898:A0 0.000419592
9 *2225:X 0.000486694
10 *649:134 0.00133848
11 *649:53 0.000684499
12 *649:43 0.000655176
13 *649:33 0.00146767
14 *649:29 0.00153823
15 *649:12 0.000907558
16 *649:10 0.00113262
17 *1820:A *650:76 0.000157451
18 *1843:A1 *1855:A1 9.99853e-05
19 *1843:A1 *652:36 0.00012401
20 *1867:A1 *1867:A3 2.79849e-05
21 *1898:A0 *651:45 5.23296e-05
22 *1898:A0 *656:52 0.000309076
23 *1898:A0 *659:33 8.25843e-06
24 *1905:A0 *1810:A2 0.000125724
25 *1905:A0 *1810:A3 2.82057e-05
26 *1905:A0 *1905:A1 5.33005e-05
27 *1905:A0 *1905:A3 2.84026e-05
28 *1905:A0 *1910:A3 0.000197991
29 *1905:A0 *1941:GATE 0.00012401
30 *1905:A0 *2037:D 0.000182963
31 *1905:A0 *664:125 5.2084e-05
32 *1905:A0 *676:99 6.7603e-05
33 *1905:A0 *681:80 0.000327337
34 *1905:A0 *681:103 0.000226484
35 *1905:A0 *690:8 0.000146759
36 *1905:A0 *690:17 0.000139158
37 *1905:A0 *690:61 4.56437e-05
38 *1905:A0 *698:129 0
39 *1905:A0 *707:28 9.58181e-05
40 *649:10 *1856:A2 7.80203e-05
41 *649:10 *659:33 1.58163e-05
42 *649:10 *706:24 3.85959e-05
43 *649:12 *659:33 2.76633e-05
44 *649:29 *1855:A0 0.000197977
45 *649:29 *651:45 0.000155445
46 *649:29 *660:150 0.000518892
47 *649:29 *664:45 0.000213838
48 *649:29 *664:51 3.10885e-05
49 *649:33 *1853:A3 0.000150611
50 *649:33 *651:45 0.00033642
51 *649:33 *651:47 4.33002e-05
52 *649:33 *651:49 0.000158707
53 *649:33 *651:51 0.000142797
54 *649:33 *664:51 0.000264835
55 *649:43 *1833:A1 6.09762e-05
56 *649:43 *1851:A3 0.000176813
57 *649:43 *2034:GATE 0.000405122
58 *649:43 *651:51 0.000934637
59 *649:43 *664:51 0.00023068
60 *649:53 *1851:A3 0.000230531
61 *649:134 *651:45 9.99931e-06
62 *649:134 *651:137 0.000135028
63 *649:134 *651:181 2.23592e-05
64 *649:134 *655:8 0.000179194
65 *649:134 *659:25 1.65337e-05
66 *649:134 *662:77 0.000157763
67 *649:134 *681:80 0.000369328
68 *649:134 *706:24 0.00024445
69 *727:DIODE *1898:A0 0.000136676
70 *1801:A *1843:A1 5.3517e-05
71 *1819:A1 *1820:A 2.14315e-05
72 *1819:B1 *1820:A 0
73 *1820:B *1820:A 1.76227e-05
74 *1821:A4 *1820:A 0.000100016
75 *1829:S *1820:A 2.14658e-05
76 *1829:S *649:53 4.35597e-05
77 *1830:B *1834:A 6.35224e-05
78 *1831:A2 *649:43 3.35916e-05
79 *1831:A2 *649:53 3.18676e-05
80 *1835:A2 *1834:A 9.25014e-06
81 *1843:A0 *1843:A1 2.59355e-05
82 *1849:A1 *1843:A1 3.47826e-05
83 *1850:B1 *1843:A1 1.21258e-05
84 *1850:B2 *1843:A1 0.000324782
85 *1851:S0 *649:43 4.21624e-05
86 *1867:A0 *1867:A1 1.83136e-05
87 *1867:A2 *1867:A1 6.98553e-06
88 *1867:S0 *1867:A1 1.58163e-05
89 *1871:S0 *649:29 2.26973e-05
90 *1904:A0 *1905:A0 0.000980404
91 *2220:A *1843:A1 3.72563e-05
92 *2245:A *1905:A0 1.28585e-05
93 *2247:A *1905:A0 2.12005e-05
94 *2261:A *649:10 3.08664e-05
95 *2272:A *1843:A1 5.72966e-05
96 *2277:A *1843:A1 9.28394e-06
97 *143:9 *649:53 5.20232e-05
98 *147:39 *649:134 2.36373e-05
99 *160:15 *1820:A 0.000153314
100 *247:10 *649:134 5.88893e-05
101 *247:32 *649:29 0.000166245
102 *247:32 *649:134 6.72688e-05
103 *248:16 *649:134 7.29712e-05
104 *248:35 *649:29 6.36482e-06
105 *254:10 *1834:A 2.44073e-05
106 *254:35 *1834:A 9.26262e-05
107 *264:12 *649:29 2.89791e-06
108 *458:16 *649:10 5.33005e-05
109 *485:18 *1905:A0 4.1557e-05
110 *493:18 *1834:A 7.43583e-05
111 *500:16 *649:53 0.000221634
112 *501:14 *1843:A1 0.000339346
113 *523:24 *1905:A0 0.000425625
114 *579:78 *1820:A 0.000262498
115 *579:78 *1834:A 3.17148e-05
116 *626:148 *1843:A1 0.00012624
117 *644:16 *1843:A1 4.884e-05
118 *647:46 *1867:A1 1.16398e-05
119 *648:109 *1905:A0 9.74761e-05
120 *648:109 *649:134 0.000370845
*RES
1 *2225:X *649:10 16.1393 
2 *649:10 *649:12 0.946429 
3 *649:12 *1898:A0 15.7464 
4 *649:12 *649:29 16.4643 
5 *649:29 *649:33 9.16071 
6 *649:33 *649:43 19.6964 
7 *649:43 *649:53 14.0893 
8 *649:53 *1820:A 24.1661 
9 *649:53 *1834:A 22.6393 
10 *649:43 *1851:A1 9.3 
11 *649:33 *1867:A1 22.05 
12 *649:29 *1843:A1 38.675 
13 *649:10 *649:134 29.1071 
14 *649:134 *1859:A1 13.8 
15 *649:134 *1905:A0 39.5679 
*END

*D_NET *650 0.0497249
*CONN
*I *1906:A0 I *D sky130_fd_sc_hd__mux4_1
*I *737:DIODE I *D sky130_fd_sc_hd__diode_2
*I *1859:A3 I *D sky130_fd_sc_hd__mux4_1
*I *1843:A3 I *D sky130_fd_sc_hd__mux4_1
*I *1867:A3 I *D sky130_fd_sc_hd__mux4_1
*I *1851:A3 I *D sky130_fd_sc_hd__mux4_1
*I *1830:C I *D sky130_fd_sc_hd__and3b_1
*I *1816:B I *D sky130_fd_sc_hd__and3b_1
*I *1897:A0 I *D sky130_fd_sc_hd__mux4_1
*I *2226:X O *D sky130_fd_sc_hd__buf_2
*CAP
1 *1906:A0 0.000568478
2 *737:DIODE 0.000242611
3 *1859:A3 2.94813e-05
4 *1843:A3 0.000137943
5 *1867:A3 0.0013106
6 *1851:A3 0.000424492
7 *1830:C 0
8 *1816:B 0.000106638
9 *1897:A0 0.000153508
10 *2226:X 0.00107663
11 *650:254 0.00125712
12 *650:248 0.00213763
13 *650:216 0.00343194
14 *650:168 0.00304262
15 *650:156 0.00189425
16 *650:139 0.00105641
17 *650:76 0.000953799
18 *650:59 0.00087079
19 *650:49 0.00181247
20 *650:47 0.00132929
21 *650:12 0.00171951
22 *1816:B *2183:A 5.33005e-05
23 *1843:A3 *1845:A3 6.96405e-05
24 *1859:A3 *660:43 9.1407e-06
25 *1906:A0 *1906:A2 6.98553e-06
26 *1906:A0 *1906:A3 0.000158689
27 *650:12 *2042:GATE 0.000143286
28 *650:12 *656:52 3.06406e-05
29 *650:12 *664:14 0.000102056
30 *650:12 *681:80 0.000137497
31 *650:12 *683:106 0.000326302
32 *650:47 *1848:A1 2.07761e-05
33 *650:47 *653:32 1.87445e-05
34 *650:47 *653:38 4.83992e-05
35 *650:47 *656:52 9.64628e-05
36 *650:47 *664:14 0.000428074
37 *650:49 *1845:A3 0.000129868
38 *650:59 *2183:A 1.24368e-05
39 *650:76 *1815:A0 0.000198761
40 *650:139 *1864:A2 4.65158e-06
41 *650:139 *653:12 0.000279536
42 *650:139 *660:43 5.11408e-05
43 *650:139 *681:80 7.1959e-05
44 *650:139 *706:24 2.7979e-05
45 *650:156 *653:12 0.000175545
46 *650:156 *660:43 0.000325806
47 *650:168 *1903:A1 7.95355e-05
48 *650:168 *695:62 0.000298483
49 *650:168 *696:16 3.41652e-05
50 *650:168 *699:22 1.13265e-05
51 *650:168 *699:40 0.000153774
52 *650:216 *1881:A2 6.50032e-05
53 *650:216 *1915:A2 0.000199351
54 *650:216 *698:121 0.000302413
55 *650:216 *702:30 0.000494747
56 *650:216 *702:41 0.000178251
57 *650:216 *707:67 0.000467561
58 *650:216 *707:93 0.000267715
59 *650:248 *1881:A2 2.30116e-06
60 *650:248 *665:38 0.000207921
61 *650:248 *676:40 3.34476e-05
62 E1BEG[1] *650:168 4.15183e-05
63 E1BEG[2] *650:168 6.2802e-05
64 E6BEG[3] *650:248 2.21972e-05
65 *1811:A2 *650:248 0.000103542
66 *1811:S1 *650:248 0.000298402
67 *1816:C *650:59 3.27359e-05
68 *1817:A1 *650:76 7.40571e-05
69 *1817:A2 *650:76 1.68854e-05
70 *1817:B1 *650:59 2.59355e-05
71 *1817:B1 *650:76 1.40034e-05
72 *1817:C1 *650:76 6.05161e-06
73 *1820:A *650:76 0.000157451
74 *1829:S *1851:A3 0.000181381
75 *1829:S *650:76 0.000122591
76 *1830:A_N *650:76 5.33005e-05
77 *1831:B1 *1851:A3 0.000137561
78 *1843:A0 *650:47 0.000154578
79 *1843:S0 *1843:A3 5.52302e-05
80 *1843:S0 *650:47 0
81 *1845:S0 *650:47 0.00013042
82 *1845:S0 *650:49 0.000223258
83 *1847:S1 *650:47 8.50667e-05
84 *1848:S0 *650:47 0
85 *1850:A1 *650:47 0.000133097
86 *1850:A2 *650:47 7.69776e-06
87 *1850:A2 *650:49 8.73437e-05
88 *1854:A2 *1867:A3 1.50181e-05
89 *1862:A2 *650:156 4.78056e-05
90 *1866:A1 *650:156 2.44031e-05
91 *1866:B2 *650:156 0.000476036
92 *1867:A1 *1867:A3 2.79849e-05
93 *1867:A2 *1867:A3 6.80706e-05
94 *1867:S0 *1867:A3 5.80706e-06
95 *1885:A0 *650:254 5.59013e-05
96 *1887:A3 *650:216 6.1452e-06
97 *1887:S1 *650:216 0.000130841
98 *1897:A3 *1897:A0 3.29284e-05
99 *1897:S0 *1897:A0 9.35794e-06
100 *1898:S1 *650:47 0.000122814
101 *1899:A3 *650:254 8.6281e-05
102 *1899:S0 *650:254 8.64053e-06
103 *1902:S1 *650:216 0.000119347
104 *1903:A0 *650:168 2.59996e-05
105 *1903:S0 *650:168 9.56446e-06
106 *1903:S0 *650:216 0.000101346
107 *1907:S1 *650:216 0.000121953
108 *1915:S1 *650:216 9.71712e-05
109 *2030:D *650:139 3.04605e-05
110 *2043:D *650:12 0.000175892
111 *2068:A *737:DIODE 0.000298483
112 *2068:A *650:254 9.41642e-05
113 *2107:A *650:216 4.64974e-05
114 *2226:A *650:12 5.04841e-06
115 *2228:A *650:139 3.55018e-05
116 *2248:A *650:168 0.000307749
117 *2264:A *650:156 0.000267352
118 *2272:A *1843:A3 5.495e-05
119 *2284:A *650:216 3.50729e-05
120 *2294:A *650:168 7.65336e-05
121 *2294:A *650:216 0.000509282
122 *2299:A *650:248 0.000113863
123 *2300:A *650:216 8.6918e-06
124 *2305:A *650:248 0.000435484
125 *2309:A *650:248 7.24832e-05
126 *2309:A *650:254 0.000359518
127 *2315:A *650:216 0.000384852
128 *2321:A *650:216 0.000638317
129 *2333:A *650:248 8.48614e-05
130 *2333:A *650:254 0.000156727
131 *2336:A *1906:A0 4.36968e-06
132 *2353:A *1906:A0 0.000369886
133 *2353:A *650:254 0.000462913
134 *147:39 *650:139 6.89801e-05
135 *148:37 *650:168 9.77118e-05
136 *148:57 *650:168 7.59196e-05
137 *159:21 *650:49 0.00032189
138 *159:21 *650:59 0.000311283
139 *159:21 *650:76 5.81489e-05
140 *160:15 *1867:A3 9.76946e-05
141 *160:15 *650:76 7.76277e-05
142 *160:113 *650:248 0.000249685
143 *234:44 *650:248 0
144 *235:45 *650:248 0.000375047
145 *235:45 *650:254 8.85664e-07
146 *235:64 *1906:A0 0.000369034
147 *235:93 *650:248 2.63674e-05
148 *236:116 *650:216 5.93353e-05
149 *255:39 *650:47 9.80405e-05
150 *256:10 *650:47 4.46819e-05
151 *256:21 *650:47 0.000244635
152 *268:27 *650:76 5.74391e-05
153 *268:31 *650:76 0.000141969
154 *479:130 *650:248 7.57106e-05
155 *481:50 *650:168 2.94501e-05
156 *500:16 *1851:A3 0.000435813
157 *514:72 *650:248 2.06178e-05
158 *515:40 *650:248 1.44215e-06
159 *516:32 *650:248 0.00047202
160 *517:60 *650:168 0.000115935
161 *534:40 *650:216 7.8676e-05
162 *541:40 *650:248 0.000108083
163 *544:68 *650:248 0.000376175
164 *547:20 *650:248 0.000905706
165 *559:34 *650:248 6.35864e-05
166 *560:58 *650:168 0.000546876
167 *562:30 *650:216 0.000251176
168 *562:30 *650:248 1.26108e-05
169 *567:72 *650:248 3.59812e-05
170 *569:82 *650:248 6.42318e-05
171 *579:78 *650:76 4.43256e-05
172 *583:72 *650:248 2.08038e-05
173 *596:40 *650:168 0.00117064
174 *600:138 *650:248 8.69554e-05
175 *602:166 *650:49 0.000203446
176 *602:166 *650:59 0.000142968
177 *645:16 *650:168 0.00226848
178 *646:127 *650:254 0.000249243
179 *647:46 *1867:A3 4.46186e-06
180 *647:123 *650:156 3.63775e-05
181 *647:133 *650:156 3.83189e-05
182 *648:16 *650:12 0.000551681
183 *649:43 *1851:A3 0.000176813
184 *649:53 *1851:A3 0.000230531
*RES
1 *2226:X *650:12 28.0143 
2 *650:12 *1897:A0 15.8893 
3 *650:12 *650:47 26.4629 
4 *650:47 *650:49 8.32143 
5 *650:49 *650:59 10.6786 
6 *650:59 *1816:B 10.6571 
7 *650:59 *650:76 19.6429 
8 *650:76 *1830:C 9.3 
9 *650:76 *1851:A3 20.425 
10 *650:49 *1867:A3 37.6214 
11 *650:47 *1843:A3 16.3893 
12 *2226:X *650:139 22.3179 
13 *650:139 *1859:A3 14.3357 
14 *650:139 *650:156 22.8393 
15 *650:156 *650:168 49.375 
16 *650:168 *650:216 47.5837 
17 *650:216 *650:248 40.2349 
18 *650:248 *650:254 16.0446 
19 *650:254 *737:DIODE 12.3 
20 *650:254 *1906:A0 28.2464 
*END

*D_NET *651 0.0509904
*CONN
*I *1907:A0 I *D sky130_fd_sc_hd__mux4_1
*I *1827:A I *D sky130_fd_sc_hd__nand2_1
*I *1861:A0 I *D sky130_fd_sc_hd__mux4_1
*I *1841:A I *D sky130_fd_sc_hd__nand2_1
*I *1869:A0 I *D sky130_fd_sc_hd__mux4_1
*I *1845:A0 I *D sky130_fd_sc_hd__mux4_1
*I *1853:A0 I *D sky130_fd_sc_hd__mux4_1
*I *1819:A2 I *D sky130_fd_sc_hd__o21ai_1
*I *1833:A1 I *D sky130_fd_sc_hd__o21ai_1
*I *1898:A1 I *D sky130_fd_sc_hd__mux4_1
*I *2227:X O *D sky130_fd_sc_hd__buf_2
*CAP
1 *1907:A0 0.00044179
2 *1827:A 0
3 *1861:A0 0.00101352
4 *1841:A 2.04425e-05
5 *1869:A0 3.39029e-05
6 *1845:A0 0.00114316
7 *1853:A0 7.00644e-05
8 *1819:A2 0.00076673
9 *1833:A1 0.000256597
10 *1898:A1 6.69138e-05
11 *2227:X 0.00052792
12 *651:247 0.0016591
13 *651:209 0.00382369
14 *651:193 0.00350216
15 *651:181 0.00269494
16 *651:137 0.00202635
17 *651:125 0.00190797
18 *651:51 0.0014274
19 *651:49 0.000531299
20 *651:47 0.00121561
21 *651:45 0.000700477
22 *651:28 0.00124612
23 *1819:A2 *1815:A0 0.000332211
24 *1819:A2 *664:51 0.000192979
25 *1833:A1 *2045:GATE 5.52302e-05
26 *1845:A0 *1845:A1 5.52302e-05
27 *1861:A0 *653:20 0.000436395
28 *1861:A0 *653:32 0.000296407
29 *1861:A0 *706:24 0
30 *1869:A0 *655:24 2.59355e-05
31 *1898:A1 *656:52 0.000183274
32 *1898:A1 *659:33 0.000219289
33 *1907:A0 *1907:A3 3.00769e-05
34 *1907:A0 *702:30 0.0001417
35 *1907:A0 *702:41 7.18158e-05
36 *651:28 *2042:GATE 9.89536e-05
37 *651:28 *655:8 6.57032e-05
38 *651:28 *660:16 0.000179485
39 *651:28 *662:77 7.03753e-05
40 *651:28 *681:80 0.00012265
41 *651:45 *1855:A0 0.000197977
42 *651:45 *1855:A1 4.30835e-05
43 *651:45 *656:52 4.17433e-05
44 *651:45 *659:33 0.000221822
45 *651:45 *660:150 0.000509642
46 *651:45 *662:22 0.000290634
47 *651:45 *662:24 2.17823e-05
48 *651:45 *662:77 0.000456227
49 *651:51 *2034:D 0.000281197
50 *651:137 *652:34 9.78144e-05
51 *651:137 *655:8 0.000164188
52 *651:137 *655:14 0.000172707
53 *651:137 *672:192 0.000506058
54 *651:181 *1864:A2 1.22507e-05
55 *651:181 *1864:A3 2.79421e-05
56 *651:181 *652:16 7.40526e-05
57 *651:181 *662:77 7.40526e-05
58 *651:193 *660:59 0.00142316
59 *651:193 *695:62 9.72299e-05
60 *651:209 *696:26 0.00198378
61 *651:209 *702:30 5.52571e-05
62 *651:247 *1884:A1 0.000235114
63 *651:247 *1972:D 2.63501e-05
64 *651:247 *661:177 3.12453e-05
65 *651:247 *662:177 7.41205e-06
66 *651:247 *667:74 6.75178e-05
67 *651:247 *672:134 1.86181e-05
68 *651:247 *673:116 7.86172e-05
69 *651:247 *707:93 9.94194e-05
70 E1BEG[3] *651:209 5.00194e-05
71 E2BEG[0] *651:209 4.65519e-05
72 EE4BEG[3] *651:209 0.000652604
73 EE4BEG[4] *651:209 0.000600198
74 *1819:B1 *1819:A2 4.10373e-05
75 *1821:A1 *1819:A2 6.05161e-06
76 *1821:A3 *1819:A2 1.57414e-05
77 *1821:B1 *1819:A2 0.000105876
78 *1831:A2 *1833:A1 0.000101545
79 *1832:C_N *1833:A1 3.32148e-05
80 *1836:S *1841:A 2.59355e-05
81 *1840:A2 *1841:A 5.33005e-05
82 *1843:A0 *1845:A0 0.000273841
83 *1846:B1 *1845:A0 2.04825e-05
84 *1851:A2 *1819:A2 0.000424483
85 *1861:S0 *1861:A0 1.84997e-05
86 *1864:S1 *651:181 5.46828e-05
87 *1865:A1 *651:181 0.00048038
88 *1866:A2 *651:181 0.000140856
89 *1868:B *651:45 0.000139292
90 *1868:B *651:47 3.42136e-05
91 *1868:B *651:49 0.000149056
92 *1868:B *651:51 0.000202835
93 *1898:A0 *651:45 5.23296e-05
94 *1907:S0 *1907:A0 5.27174e-05
95 *1907:S1 *651:247 0.000630111
96 *2045:D *1819:A2 0.000481752
97 *2045:D *1833:A1 7.10245e-05
98 *2048:D *1819:A2 6.76337e-05
99 *2227:A *651:137 5.04841e-06
100 *2254:A *651:181 3.52739e-05
101 *2299:A *1907:A0 0.000204893
102 *2299:A *651:209 6.33204e-05
103 *2328:A *651:209 2.63501e-05
104 *142:31 *651:193 0.000564647
105 *142:53 *651:193 0.000133188
106 *143:9 *1861:A0 2.11419e-05
107 *143:9 *651:28 8.71047e-05
108 *143:9 *651:45 0
109 *143:9 *651:51 0
110 *144:27 *1861:A0 1.94879e-05
111 *157:21 *1845:A0 2.83129e-05
112 *157:87 *651:247 2.63501e-05
113 *159:21 *1845:A0 0.000131686
114 *160:39 *1845:A0 3.49099e-05
115 *160:79 *651:209 8.76591e-06
116 *181:17 *1819:A2 0
117 *245:22 *651:247 5.33005e-05
118 *245:59 *651:247 4.75671e-06
119 *247:32 *651:45 4.58764e-05
120 *254:35 *1833:A1 0
121 *481:50 *651:193 0.000401682
122 *483:46 *1861:A0 0
123 *483:46 *651:209 0.000127359
124 *484:50 *651:247 6.58638e-05
125 *494:12 *651:181 0.000542204
126 *505:16 *651:137 0.000121143
127 *505:24 *651:137 0.000222566
128 *524:142 *651:28 0.000206526
129 *524:142 *651:209 0.00199012
130 *538:32 *651:247 0.00034188
131 *545:38 *651:209 1.22257e-05
132 *545:72 *651:209 3.56859e-05
133 *558:52 *651:209 0.00044086
134 *560:58 *651:193 0.000134705
135 *561:30 *1861:A0 0
136 *561:30 *651:137 0.000519621
137 *582:12 *1819:A2 6.39808e-05
138 *582:54 *651:247 0.000255967
139 *587:90 *651:247 6.90381e-06
140 *593:74 *651:247 0.00036978
141 *626:134 *651:137 2.07394e-05
142 *626:148 *1845:A0 2.83129e-05
143 *630:84 *1861:A0 8.61909e-06
144 *630:84 *651:247 0.000251243
145 *634:54 *651:247 0.000950731
146 *635:42 *651:45 0
147 *636:54 *651:247 2.45117e-05
148 *643:28 *1861:A0 0
149 *647:63 *1833:A1 8.34352e-05
150 *647:63 *651:51 0.000264034
151 *648:109 *651:28 8.6229e-06
152 *649:29 *651:45 0.000155445
153 *649:33 *651:45 0.00033642
154 *649:33 *651:47 4.33002e-05
155 *649:33 *651:49 0.000158707
156 *649:33 *651:51 0.000142797
157 *649:43 *1833:A1 6.09762e-05
158 *649:43 *651:51 0.000934637
159 *649:134 *651:45 9.99931e-06
160 *649:134 *651:137 0.000135028
161 *649:134 *651:181 2.23592e-05
*RES
1 *2227:X *651:28 37.9607 
2 *651:28 *1898:A1 11.4786 
3 *651:28 *651:45 24.4643 
4 *651:45 *651:47 0.580357 
5 *651:47 *651:49 2.09821 
6 *651:49 *651:51 13.9375 
7 *651:51 *1833:A1 19.0054 
8 *651:51 *1819:A2 26.7837 
9 *651:49 *1853:A0 14.7464 
10 *651:47 *1845:A0 23.7136 
11 *651:45 *1869:A0 14.3357 
12 *2227:X *651:125 9.3 
13 *651:125 *651:137 25.25 
14 *651:137 *1841:A 14.3357 
15 *651:137 *1861:A0 23.0758 
16 *651:125 *651:181 30.3214 
17 *651:181 *651:193 49.1339 
18 *651:193 *651:209 20.8 
19 *651:209 *651:247 41.2689 
20 *651:247 *1827:A 9.3 
21 *651:209 *1907:A0 20.8 
*END

*D_NET *652 0.0410676
*CONN
*I *1861:A1 I *D sky130_fd_sc_hd__mux4_1
*I *1823:B I *D sky130_fd_sc_hd__and3b_1
*I *1908:A0 I *D sky130_fd_sc_hd__mux4_1
*I *1837:C I *D sky130_fd_sc_hd__and3b_1
*I *1897:A1 I *D sky130_fd_sc_hd__mux4_1
*I *1845:A1 I *D sky130_fd_sc_hd__mux4_1
*I *1853:A1 I *D sky130_fd_sc_hd__mux4_1
*I *1869:A1 I *D sky130_fd_sc_hd__mux4_1
*I *2228:X O *D sky130_fd_sc_hd__buf_2
*CAP
1 *1861:A1 0.000226587
2 *1823:B 0.000102265
3 *1908:A0 0.000718661
4 *1837:C 0.000241544
5 *1897:A1 0
6 *1845:A1 0.000100812
7 *1853:A1 0
8 *1869:A1 0.000156345
9 *2228:X 0.000698204
10 *652:175 0.00268128
11 *652:139 0.00278752
12 *652:127 0.00234864
13 *652:44 0.000887352
14 *652:36 0.0013974
15 *652:34 0.000954968
16 *652:18 0.00274582
17 *652:16 0.00141368
18 *1837:C *1912:A0 4.58194e-05
19 *1861:A1 *659:56 8.80532e-05
20 *1861:A1 *659:83 0.000114978
21 *1861:A1 *707:14 1.55527e-05
22 *1869:A1 *655:24 0.000140088
23 *1908:A0 *654:82 4.55068e-05
24 *1908:A0 *654:88 3.85861e-06
25 *1908:A0 *668:14 0.000766829
26 *1908:A0 *668:34 0.000102858
27 *1908:A0 *671:10 7.03408e-05
28 *1908:A0 *671:30 0.000240871
29 *1908:A0 *693:84 5.57394e-05
30 *652:16 *660:43 0.000320833
31 *652:16 *664:125 4.65158e-06
32 *652:16 *681:80 0
33 *652:16 *699:22 7.01273e-05
34 *652:18 *1863:A2 2.1479e-05
35 *652:18 *653:32 2.04745e-05
36 *652:34 *664:14 0.000146474
37 *652:34 *672:192 2.82057e-05
38 *652:36 *1848:A1 6.30931e-05
39 *652:127 *1911:A1 3.69047e-06
40 *652:127 *662:142 6.53397e-05
41 *652:127 *668:107 6.05161e-06
42 *652:127 *673:124 0.000263174
43 *652:139 *1875:A2 0.000456739
44 *652:139 *1884:A1 0.000284807
45 *652:139 *662:142 0.00109944
46 *652:139 *667:54 1.53472e-05
47 *652:175 *1985:GATE 0.00014291
48 *652:175 *1992:D 2.78637e-05
49 *652:175 *1993:GATE 5.22867e-05
50 *652:175 *2008:GATE 0.000174317
51 *652:175 *2180:A 0.000117452
52 *652:175 *654:82 0.000503936
53 *652:175 *672:100 0.000340106
54 *652:175 *672:134 0.000638702
55 *652:175 *674:80 8.05059e-05
56 *652:175 *677:57 2.14474e-05
57 *652:175 *679:49 6.43424e-05
58 *652:175 *680:46 1.44395e-05
59 *652:175 *684:46 2.09826e-05
60 *652:175 *687:70 0.000136549
61 *652:175 *687:92 3.04934e-05
62 *1799:A *1837:C 6.39808e-05
63 *1799:A *652:34 4.34543e-05
64 *1800:A *652:44 2.8066e-05
65 *1812:S0 *652:175 8.47085e-05
66 *1836:A1 *652:16 8.90828e-06
67 *1836:A1 *652:18 1.10722e-05
68 *1843:A0 *652:36 1.90936e-05
69 *1843:A1 *652:36 0.00012401
70 *1845:A0 *1845:A1 5.52302e-05
71 *1846:A1 *652:44 7.60465e-05
72 *1846:B1 *652:44 0.000305895
73 *1861:S0 *1861:A1 8.55871e-05
74 *1868:B *1869:A1 6.5652e-05
75 *1878:A0 *1908:A0 2.84109e-05
76 *1892:S0 *1823:B 0.000135028
77 *1892:S0 *652:175 0.000507861
78 *1908:S0 *1908:A0 0.000492386
79 *1955:D *652:127 9.41642e-05
80 *2027:D *652:139 5.41797e-06
81 *2038:D *652:139 5.33005e-05
82 *2038:GATE *652:139 6.57032e-05
83 *2039:D *652:175 1.34168e-05
84 *2227:A *652:16 9.58126e-05
85 *2262:A *1861:A1 0.000123479
86 *2304:A *652:175 0.000131496
87 *2396:A *652:44 3.77095e-05
88 *143:9 *1869:A1 0.000101089
89 *146:33 *652:18 0
90 *146:33 *652:36 0.000135968
91 *146:67 *652:16 7.16087e-05
92 *147:39 *652:16 0.000152112
93 *149:27 *652:16 1.03072e-05
94 *149:27 *652:18 5.25517e-05
95 *150:17 *652:16 1.4473e-05
96 *150:17 *652:18 6.53099e-05
97 *153:21 *652:16 8.07616e-06
98 *153:21 *652:18 1.55854e-05
99 *153:43 *652:127 0.000891453
100 *153:129 *1908:A0 3.41494e-05
101 *154:47 *652:18 4.75671e-06
102 *154:47 *652:34 0.000109718
103 *160:39 *1845:A1 2.85586e-05
104 *160:39 *652:36 9.15238e-05
105 *160:39 *652:44 0.000188379
106 *243:20 *652:139 2.22618e-05
107 *257:14 *1845:A1 0.000221359
108 *257:14 *652:44 6.81552e-05
109 *257:29 *652:44 8.57913e-05
110 *262:28 *1837:C 7.15521e-05
111 *409:18 *652:127 0.000322752
112 *479:46 *652:127 0.00156531
113 *480:70 *652:175 0.00015994
114 *495:20 *652:175 0.00010075
115 *505:16 *652:34 6.05161e-06
116 *535:157 *652:16 6.43118e-05
117 *561:30 *1837:C 2.63501e-05
118 *561:30 *652:34 2.14474e-05
119 *569:28 *652:127 0.000883413
120 *582:12 *652:36 0.000197207
121 *582:12 *652:44 0.00018973
122 *585:30 *652:175 0.00036038
123 *590:112 *1908:A0 0.000261433
124 *590:112 *652:175 1.66595e-05
125 *596:82 *652:127 0.000167762
126 *596:82 *652:139 0.000606806
127 *602:70 *652:175 4.15183e-05
128 *602:160 *652:34 0.000386447
129 *602:160 *652:36 0.00128146
130 *602:166 *652:36 2.21418e-05
131 *603:32 *652:175 9.96753e-05
132 *603:66 *1908:A0 0.000123126
133 *613:48 *652:175 1.84717e-05
134 *613:83 *652:175 0.000420571
135 *626:134 *652:34 0.000501553
136 *626:134 *652:36 0.000208731
137 *626:134 *652:127 0.000111243
138 *626:148 *652:36 0.000524313
139 *632:66 *652:127 0.00166033
140 *634:78 *652:16 5.42383e-05
141 *635:42 *652:127 0.000170027
142 *643:28 *1837:C 0.000137464
143 *643:110 *652:139 0.0002831
144 *644:34 *1861:A1 0.000312571
145 *651:137 *652:34 9.78144e-05
146 *651:181 *652:16 7.40526e-05
*RES
1 *2228:X *652:16 21.5362 
2 *652:16 *652:18 0.947833 
3 *652:18 *652:34 22.8162 
4 *652:34 *652:36 19.8571 
5 *652:36 *652:44 17.875 
6 *652:44 *1869:A1 22.2107 
7 *652:44 *1853:A1 9.3 
8 *652:36 *1845:A1 16.4071 
9 *652:34 *1897:A1 13.8 
10 *652:18 *1837:C 20.6068 
11 *652:18 *652:127 41.5231 
12 *652:127 *652:139 34.6607 
13 *652:139 *652:175 49.6558 
14 *652:175 *1908:A0 32.8625 
15 *652:139 *1823:B 10.6571 
16 *652:16 *1861:A1 23.2011 
*END

*D_NET *653 0.0638118
*CONN
*I *734:DIODE I *D sky130_fd_sc_hd__diode_2
*I *1909:A0 I *D sky130_fd_sc_hd__mux4_1
*I *1826:A2 I *D sky130_fd_sc_hd__o21ai_1
*I *1861:A2 I *D sky130_fd_sc_hd__mux4_1
*I *1840:A1 I *D sky130_fd_sc_hd__o21ai_1
*I *1898:A2 I *D sky130_fd_sc_hd__mux4_1
*I *1845:A2 I *D sky130_fd_sc_hd__mux4_1
*I *1869:A2 I *D sky130_fd_sc_hd__mux4_1
*I *1853:A2 I *D sky130_fd_sc_hd__mux4_1
*I *2229:X O *D sky130_fd_sc_hd__buf_2
*CAP
1 *734:DIODE 0
2 *1909:A0 0.000745175
3 *1826:A2 0.000832065
4 *1861:A2 3.61071e-05
5 *1840:A1 0.00028027
6 *1898:A2 1.60301e-05
7 *1845:A2 5.91375e-05
8 *1869:A2 3.99747e-05
9 *1853:A2 0.000142056
10 *2229:X 0.000275558
11 *653:275 0.00318235
12 *653:249 0.00323136
13 *653:219 0.00219111
14 *653:172 0.00232326
15 *653:170 0.00333623
16 *653:54 0.00121724
17 *653:38 0.00164961
18 *653:32 0.00137468
19 *653:20 0.0016778
20 *653:14 0.000867229
21 *653:12 0.0037545
22 *1826:A2 *692:64 8.80625e-05
23 *1840:A1 *1836:A0 0.000109313
24 *1861:A2 *1861:A3 3.37457e-05
25 *1861:A2 *706:24 1.1078e-05
26 *1898:A2 *656:52 9.75337e-06
27 *1909:A0 *1909:A1 0.000186281
28 *1909:A0 *704:119 2.05612e-05
29 *653:12 *1861:A3 0
30 *653:32 *1839:C_N 0.000207524
31 *653:32 *1911:A0 2.11419e-05
32 *653:32 *655:14 7.9105e-05
33 *653:32 *656:52 0.000891513
34 *653:32 *657:44 0
35 *653:54 *1869:A3 0.000151269
36 *653:54 *655:24 0.000641839
37 *653:170 *665:83 0.000691395
38 *653:170 *697:46 0.000156979
39 *653:170 *703:40 0.00113806
40 *653:219 *659:183 0
41 *653:219 *659:209 0.000187076
42 *653:219 *660:91 0.000132392
43 *653:219 *691:38 0.000318201
44 *653:249 *659:209 3.36497e-05
45 *653:249 *695:76 0.000590967
46 *653:275 *696:26 0.00164065
47 *653:275 *697:62 0.000163985
48 E1BEG[0] *653:170 0.000353577
49 E1BEG[1] *653:170 0.000349578
50 E2BEGb[6] *653:170 0.000294094
51 E2BEGb[7] *653:170 0.000248569
52 E6BEG[10] *653:249 5.88115e-05
53 E6BEG[2] *653:249 0.000214924
54 EE4BEG[10] *653:219 1.38167e-05
55 EE4BEG[3] *653:219 2.01732e-05
56 EE4BEG[9] *653:219 3.27567e-05
57 FrameData_O[10] *653:275 0.000103333
58 FrameData_O[11] *653:275 5.00194e-05
59 FrameData_O[12] *653:275 4.65519e-05
60 FrameData_O[2] *653:275 0.000199517
61 FrameData_O[4] *653:275 5.01876e-06
62 FrameData_O[6] *653:249 0.000175892
63 FrameData_O[9] *653:275 0.00031701
64 *710:DIODE *653:275 0.000188387
65 *727:DIODE *653:38 1.60795e-05
66 *743:DIODE *653:275 0.000189566
67 *1797:A *1826:A2 0.000122909
68 *1836:A1 *653:20 0.000482178
69 *1836:A1 *653:32 0.000260759
70 *1836:S *1840:A1 0.000263428
71 *1840:A2 *1840:A1 3.08382e-06
72 *1840:B1 *1840:A1 5.33005e-05
73 *1845:S1 *653:38 0.000218756
74 *1846:A2 *1845:A2 2.59355e-05
75 *1846:A2 *653:54 7.83587e-05
76 *1847:S1 *653:38 0.000267544
77 *1850:A1 *1845:A2 5.41494e-05
78 *1850:A2 *653:38 0
79 *1850:A2 *653:54 0
80 *1851:S1 *1853:A2 3.55139e-05
81 *1859:A2 *653:14 0.000290348
82 *1859:A2 *653:20 0.000277998
83 *1859:A2 *653:170 0.000210501
84 *1859:S1 *653:12 6.99044e-05
85 *1861:A0 *653:20 0.000436395
86 *1861:A0 *653:32 0.000296407
87 *1861:S0 *1840:A1 1.58163e-05
88 *1861:S1 *1861:A2 7.04987e-06
89 *1864:S1 *653:12 0.000121418
90 *1866:A1 *653:12 6.16568e-05
91 *1866:A2 *653:12 6.88458e-06
92 *1867:S0 *1853:A2 0.000119132
93 *1867:S0 *1869:A2 4.32957e-05
94 *1894:A3 *653:275 0.000296015
95 *1898:A3 *653:32 9.54798e-06
96 *1898:A3 *653:38 7.44945e-07
97 *1898:S1 *653:38 0.000122814
98 *1902:A3 *1826:A2 0.000543665
99 *1909:A2 *1909:A0 1.14548e-05
100 *1909:S0 *1909:A0 1.58163e-05
101 *2030:D *653:12 6.28248e-05
102 *2092:A *653:170 1.13883e-05
103 *2096:A *1898:A2 1.59935e-05
104 *2096:A *653:38 0.000128146
105 *2097:A *653:32 0
106 *2227:A *653:12 5.65955e-05
107 *2262:A *1840:A1 6.53397e-05
108 *2264:A *653:170 0.00038819
109 *2265:A *653:170 0.000301175
110 *2266:A *653:170 3.80537e-05
111 *2267:A *653:170 5.403e-06
112 *2298:A *653:170 0.000142974
113 *2302:A *653:170 2.63501e-05
114 *2315:A *653:170 2.19302e-05
115 *2322:A *1826:A2 0.000208563
116 *2322:A *653:172 1.83136e-05
117 *2324:A *653:219 0.000467167
118 *2329:A *653:219 0.000141244
119 *2329:A *653:249 0
120 *2396:A *653:54 0.00026373
121 *72:40 *653:219 1.59125e-05
122 *144:71 *653:170 0.000937232
123 *144:91 *1826:A2 9.83442e-05
124 *144:91 *653:172 0.00021025
125 *144:91 *653:219 4.81069e-05
126 *146:67 *653:170 0.000113877
127 *146:77 *653:249 0.000133058
128 *147:99 *653:249 0.000538997
129 *147:101 *653:275 0.000278518
130 *149:37 *653:32 6.61411e-05
131 *149:87 *653:219 3.66884e-05
132 *150:87 *1909:A0 9.41642e-05
133 *150:87 *653:275 5.33005e-05
134 *151:23 *653:170 0.000137454
135 *151:57 *653:219 0.000395478
136 *151:57 *653:249 0.000145783
137 *154:47 *1840:A1 0.000135028
138 *160:79 *653:219 1.76785e-05
139 *234:86 *653:170 3.04394e-05
140 *234:86 *653:219 7.27121e-05
141 *236:40 *653:219 9.34059e-06
142 *240:14 *1840:A1 6.53397e-05
143 *247:34 *1853:A2 2.34204e-05
144 *247:34 *1869:A2 1.21365e-05
145 *256:10 *653:38 0.000121573
146 *256:21 *653:38 0.000353587
147 *257:14 *1845:A2 4.04353e-05
148 *257:29 *653:54 7.6644e-05
149 *263:36 *1869:A2 6.98553e-06
150 *263:36 *653:54 2.87555e-06
151 *264:40 *1869:A2 1.04707e-05
152 *481:84 *653:219 1.73088e-05
153 *483:46 *653:14 0
154 *483:46 *653:20 0
155 *483:46 *653:170 0
156 *514:94 *653:170 1.30275e-05
157 *516:58 *653:219 0.000417977
158 *520:58 *1826:A2 0.000260152
159 *521:12 *653:170 0.000142974
160 *522:58 *653:170 0.000617405
161 *524:43 *653:249 0
162 *524:180 *653:275 3.08793e-05
163 *541:40 *653:275 5.1926e-05
164 *545:38 *1826:A2 0.000124821
165 *545:38 *653:219 4.08789e-05
166 *551:20 *653:275 0.00350858
167 *555:38 *1826:A2 0.000135028
168 *558:52 *653:219 3.10819e-05
169 *559:34 *653:249 0.000347313
170 *559:58 *653:219 0.000246327
171 *560:58 *653:172 6.05161e-06
172 *564:36 *653:275 0.000205667
173 *569:62 *653:170 0.000405861
174 *576:14 *653:275 5.24491e-05
175 *583:42 *653:54 7.6644e-05
176 *583:86 *653:219 7.94297e-05
177 *583:86 *653:249 0.000755728
178 *594:88 *653:249 8.83294e-05
179 *600:138 *653:219 2.97456e-05
180 *600:138 *653:249 1.74852e-05
181 *600:162 *653:249 0.000292341
182 *635:42 *653:170 0.00229783
183 *646:24 *653:170 0.00248363
184 *648:16 *653:32 0.000162056
185 *648:16 *653:38 0.000910187
186 *648:22 *653:38 0.000216685
187 *648:22 *653:54 0.00012116
188 *650:47 *653:32 1.87445e-05
189 *650:47 *653:38 4.83992e-05
190 *650:139 *653:12 0.000279536
191 *650:156 *653:12 0.000175545
192 *652:18 *653:32 2.04745e-05
*RES
1 *2229:X *653:12 24.0939 
2 *653:12 *653:14 0.551467 
3 *653:14 *653:20 1.6168 
4 *653:20 *653:32 17.5995 
5 *653:32 *653:38 18.1964 
6 *653:38 *653:54 32.8393 
7 *653:54 *1853:A2 16.8446 
8 *653:54 *1869:A2 14.7688 
9 *653:38 *1845:A2 15.3625 
10 *653:32 *1898:A2 14.1304 
11 *653:20 *1840:A1 23.8439 
12 *653:14 *1861:A2 17.9421 
13 *653:12 *653:170 49.1467 
14 *653:170 *653:172 2.17857 
15 *653:172 *1826:A2 25.9964 
16 *653:172 *653:219 48.2321 
17 *653:219 *653:249 48.5893 
18 *653:249 *653:275 39.7274 
19 *653:275 *1909:A0 18.3714 
20 *653:275 *734:DIODE 9.3 
*END

*D_NET *654 0.0173342
*CONN
*I *1960:D I *D sky130_fd_sc_hd__dlxtp_1
*I *2108:A I *D sky130_fd_sc_hd__clkbuf_1
*I *1928:D I *D sky130_fd_sc_hd__dlxtp_1
*I *1992:D I *D sky130_fd_sc_hd__dlxtp_1
*I *2024:D I *D sky130_fd_sc_hd__dlxtp_1
*I *2230:X O *D sky130_fd_sc_hd__buf_1
*CAP
1 *1960:D 0
2 *2108:A 0.000338356
3 *1928:D 3.59657e-05
4 *1992:D 0.000124294
5 *2024:D 8.67282e-05
6 *2230:X 0.00084012
7 *654:96 0.000690778
8 *654:88 0.000848489
9 *654:82 0.00185684
10 *654:41 0.0019129
11 *654:20 0.00139064
12 *1992:D *1992:GATE 1.24368e-05
13 *1992:D *680:50 0.000209385
14 *2024:D *684:35 1.90303e-05
15 *2108:A *1878:A1 3.04375e-05
16 *2108:A *675:102 6.81786e-05
17 *2108:A *698:175 6.60229e-05
18 *654:20 *684:35 1.30069e-05
19 *654:20 *684:114 1.42049e-05
20 *654:41 *680:46 5.90342e-05
21 *654:41 *684:35 0.000149381
22 *654:82 *672:100 0.000291473
23 *654:82 *672:134 9.31037e-05
24 *654:82 *677:57 3.34295e-05
25 *654:82 *677:61 0.000117955
26 *654:82 *679:49 6.43424e-05
27 *654:82 *684:35 0.000166269
28 *654:82 *684:46 9.10427e-05
29 *654:82 *694:44 0.000466675
30 *654:88 *668:14 0.000292646
31 *654:88 *668:34 0.000322266
32 *654:88 *672:100 0.000139855
33 *654:88 *674:48 7.15829e-05
34 *654:88 *674:80 2.89791e-06
35 *654:88 *698:44 0
36 *654:96 *674:48 1.58163e-05
37 *654:96 *698:44 0.000111826
38 *654:96 *698:175 0.000536105
39 D_config_C_bit3 *654:20 5.47176e-05
40 *1812:S0 *654:82 6.05161e-06
41 *1876:A0 *654:20 0.000111282
42 *1876:A1 *654:20 5.33005e-05
43 *1908:A0 *654:82 4.55068e-05
44 *1908:A0 *654:88 3.85861e-06
45 *2001:D *654:82 3.41234e-05
46 *2304:A *654:82 0.00117506
47 *154:95 *654:20 0.000157333
48 *157:57 *654:20 2.51343e-06
49 *249:34 *654:41 2.16199e-05
50 *480:70 *1992:D 5.96516e-05
51 *509:30 *1928:D 1.58163e-05
52 *509:30 *2108:A 4.08025e-05
53 *509:30 *654:96 0.000532462
54 *512:14 *654:96 9.60593e-05
55 *512:20 *654:20 3.8468e-05
56 *537:32 *654:41 0.000136682
57 *546:42 *654:88 0
58 *566:24 *2108:A 0.000221822
59 *584:48 *654:96 0.000118344
60 *584:84 *654:96 4.38243e-05
61 *585:30 *654:82 2.71935e-05
62 *587:148 *2108:A 1.72797e-05
63 *587:148 *654:82 1.11624e-05
64 *587:148 *654:88 0.000219048
65 *590:49 *654:20 1.19191e-05
66 *590:96 *654:20 4.40066e-05
67 *590:96 *654:41 1.90936e-05
68 *590:96 *654:82 0.000180683
69 *602:70 *654:82 0.000113264
70 *602:80 *654:82 0.000183006
71 *602:109 *654:20 3.90427e-05
72 *602:123 *654:20 0.000257619
73 *603:32 *1992:D 0.000175892
74 *603:66 *654:88 1.21309e-05
75 *613:40 *654:82 0.000116052
76 *613:83 *654:41 0.000153126
77 *613:83 *654:82 0.000254401
78 *613:107 *654:20 0.000165778
79 *618:50 *654:41 7.29712e-05
80 *624:58 *654:20 2.80017e-05
81 *624:58 *654:41 2.55889e-05
82 *626:34 *654:82 8.94105e-05
83 *626:70 *654:82 1.23099e-05
84 *644:149 *654:88 2.05728e-05
85 *652:175 *1992:D 2.78637e-05
86 *652:175 *654:82 0.000503936
*RES
1 *2230:X *654:20 33.0143 
2 *654:20 *2024:D 10.675 
3 *654:20 *654:41 12.9643 
4 *654:41 *1992:D 17.2107 
5 *654:41 *654:82 42.6962 
6 *654:82 *654:88 16.8214 
7 *654:88 *654:96 19.375 
8 *654:96 *1928:D 9.83571 
9 *654:96 *2108:A 25.0321 
10 *654:88 *1960:D 9.3 
*END

*D_NET *655 0.0194927
*CONN
*I *1861:A3 I *D sky130_fd_sc_hd__mux4_1
*I *1910:A0 I *D sky130_fd_sc_hd__mux4_1
*I *1897:A2 I *D sky130_fd_sc_hd__mux4_1
*I *1845:A3 I *D sky130_fd_sc_hd__mux4_1
*I *1869:A3 I *D sky130_fd_sc_hd__mux4_1
*I *1853:A3 I *D sky130_fd_sc_hd__mux4_1
*I *2231:X O *D sky130_fd_sc_hd__dlymetal6s2s_1
*CAP
1 *1861:A3 0.000951998
2 *1910:A0 0.001241
3 *1897:A2 2.0182e-05
4 *1845:A3 0.00030715
5 *1869:A3 0.000153527
6 *1853:A3 0.000186914
7 *2231:X 2.62843e-05
8 *655:24 0.000702786
9 *655:16 0.00113203
10 *655:14 0.000833703
11 *655:8 0.00204674
12 *655:6 0.00143304
13 *1853:A3 *664:51 0.000148903
14 *1861:A3 *706:24 1.60907e-05
15 *1910:A0 *1910:A1 1.97695e-05
16 *1910:A0 *1910:A3 3.16113e-05
17 *1910:A0 *706:38 1.90303e-05
18 *655:14 *657:44 2.15759e-05
19 *655:16 *1847:A2 0.000319599
20 *655:16 *1848:A2 6.95556e-05
21 *655:16 *657:44 3.40729e-05
22 *733:DIODE *1910:A0 0.000129178
23 *1843:A2 *1845:A3 6.98553e-06
24 *1843:A3 *1845:A3 6.96405e-05
25 *1844:A *655:24 2.59355e-05
26 *1846:A2 *655:24 0.000136676
27 *1850:A1 *655:24 3.96445e-05
28 *1850:A2 *1845:A3 0.000128146
29 *1853:S0 *1853:A3 7.02611e-05
30 *1859:A2 *1861:A3 0.000128164
31 *1861:A2 *1861:A3 3.37457e-05
32 *1861:S1 *1861:A3 6.98933e-05
33 *1862:A2 *1861:A3 5.39166e-06
34 *1865:A0 *1861:A3 2.30116e-06
35 *1866:A1 *1861:A3 8.79856e-06
36 *1866:A2 *1861:A3 0.000282473
37 *1869:A0 *655:24 2.59355e-05
38 *1869:A1 *655:24 0.000140088
39 *1897:S1 *1897:A2 1.59935e-05
40 *1898:S0 *655:16 2.11419e-05
41 *1910:A2 *1910:A0 8.25083e-05
42 *2097:A *655:14 0.00030945
43 *2113:A *655:24 7.56926e-05
44 *2227:A *655:8 5.0198e-05
45 *2228:A *655:6 6.84479e-05
46 *2228:A *655:8 0.000258787
47 *2229:A *655:6 0.000141734
48 *2229:A *655:8 0.0001839
49 *147:39 *655:8 9.58126e-05
50 *242:14 *1861:A3 3.69047e-06
51 *263:36 *1869:A3 4.88515e-05
52 *501:14 *655:16 0.000197713
53 *501:14 *655:24 0.000149412
54 *579:78 *655:16 0.000285961
55 *597:14 *1910:A0 0.00154526
56 *644:16 *1910:A0 1.721e-05
57 *644:34 *1910:A0 0.0013816
58 *647:133 *1861:A3 8.0321e-05
59 *648:16 *655:14 0.000139383
60 *648:16 *655:16 0.00130234
61 *648:22 *655:16 6.88527e-05
62 *648:22 *655:24 0.000149412
63 *648:109 *655:8 6.57032e-05
64 *649:33 *1853:A3 0.000150611
65 *649:134 *655:8 0.000179194
66 *650:49 *1845:A3 0.000129868
67 *651:28 *655:8 6.57032e-05
68 *651:137 *655:8 0.000164188
69 *651:137 *655:14 0.000172707
70 *653:12 *1861:A3 0
71 *653:32 *655:14 7.9105e-05
72 *653:54 *1869:A3 0.000151269
73 *653:54 *655:24 0.000641839
*RES
1 *2231:X *655:6 10.6571 
2 *655:6 *655:8 10.3929 
3 *655:8 *655:14 12.8929 
4 *655:14 *655:16 17.7321 
5 *655:16 *655:24 14.8036 
6 *655:24 *1853:A3 22.4429 
7 *655:24 *1869:A3 12.7286 
8 *655:16 *1845:A3 27.4429 
9 *655:14 *1897:A2 14.1304 
10 *655:8 *1910:A0 46.1929 
11 *655:6 *1861:A3 41.0589 
*END

*D_NET *656 0.0124081
*CONN
*I *1856:A0 I *D sky130_fd_sc_hd__mux4_1
*I *1911:A0 I *D sky130_fd_sc_hd__mux4_1
*I *1863:A0 I *D sky130_fd_sc_hd__mux4_1
*I *1871:A0 I *D sky130_fd_sc_hd__mux4_1
*I *1847:A0 I *D sky130_fd_sc_hd__mux4_1
*I *2232:X O *D sky130_fd_sc_hd__buf_1
*CAP
1 *1856:A0 0
2 *1911:A0 0.00100364
3 *1863:A0 0
4 *1871:A0 2.32277e-05
5 *1847:A0 0.000114266
6 *2232:X 0.000147597
7 *656:52 0.00189685
8 *656:30 0.00104769
9 *656:12 0.000137494
10 *656:10 0.000302075
11 *1847:A0 *657:18 5.33005e-05
12 *1847:A0 *657:20 5.33005e-05
13 *1871:A0 *657:18 4.27935e-05
14 *1911:A0 *1839:C_N 3.42647e-05
15 *1911:A0 *1875:A2 1.00733e-05
16 *1911:A0 *1911:A3 0
17 *1911:A0 *659:116 0.000247543
18 *1911:A0 *662:132 1.55252e-05
19 *1911:A0 *662:142 0.000692935
20 *1911:A0 *664:143 0.000384725
21 *1911:A0 *664:166 0.000143258
22 *1911:A0 *667:12 2.26424e-05
23 *1911:A0 *667:54 6.80986e-05
24 *1911:A0 *699:66 7.5779e-05
25 *656:10 *662:22 3.92854e-05
26 *656:10 *662:77 3.67356e-05
27 *656:30 *1856:A1 6.7033e-05
28 *656:30 *657:24 3.03664e-05
29 *656:30 *660:16 0.000214622
30 *656:30 *662:77 7.49361e-05
31 *656:52 *659:33 0.000151394
32 *656:52 *664:14 0
33 *727:DIODE *656:52 5.51929e-05
34 *1836:A1 *1911:A0 6.48447e-05
35 *1898:A0 *656:52 0.000309076
36 *1898:A1 *656:52 0.000183274
37 *1898:A2 *656:52 9.75337e-06
38 *1910:S0 *1911:A0 0.00010377
39 *2096:A *656:52 1.53439e-06
40 *2232:A *656:10 3.466e-06
41 *149:37 *1911:A0 0.000114453
42 *154:75 *1911:A0 0.000913521
43 *533:18 *1911:A0 0.000445146
44 *626:134 *1911:A0 0.00123665
45 *626:134 *656:52 0.000451916
46 *645:14 *656:10 0.000148903
47 *645:14 *656:30 0.000153663
48 *650:12 *656:52 3.06406e-05
49 *650:47 *656:52 9.64628e-05
50 *651:45 *656:52 4.17433e-05
51 *653:32 *1911:A0 2.11419e-05
52 *653:32 *656:52 0.000891513
*RES
1 *2232:X *656:10 16.6929 
2 *656:10 *656:12 4.5 
3 *656:12 *1847:A0 11.0679 
4 *656:12 *1871:A0 9.83571 
5 *656:10 *656:30 9.17857 
6 *656:30 *656:52 26.1964 
7 *656:52 *1863:A0 13.8 
8 *656:52 *1911:A0 47.7464 
9 *656:30 *1856:A0 9.3 
*END

*D_NET *657 0.0148524
*CONN
*I *1871:A1 I *D sky130_fd_sc_hd__mux4_1
*I *1847:A1 I *D sky130_fd_sc_hd__mux4_1
*I *1856:A1 I *D sky130_fd_sc_hd__mux4_1
*I *1863:A1 I *D sky130_fd_sc_hd__mux4_1
*I *1912:A0 I *D sky130_fd_sc_hd__mux4_1
*I *2233:X O *D sky130_fd_sc_hd__buf_1
*CAP
1 *1871:A1 0
2 *1847:A1 0
3 *1856:A1 7.73712e-05
4 *1863:A1 0
5 *1912:A0 0.00121125
6 *2233:X 0.00150309
7 *657:44 0.00221882
8 *657:24 0.001157
9 *657:20 9.99772e-05
10 *657:18 0.00153101
11 *1912:A0 *706:38 0.000130185
12 *657:18 *1871:A2 0.000125461
13 *657:18 *662:16 0.000101629
14 *657:44 *1847:A2 0.000228786
15 *657:44 *1847:A3 0.000195555
16 *657:44 *1863:A2 6.09057e-06
17 *657:44 *659:56 0.000749254
18 *657:44 *662:99 0.000150706
19 *657:44 *663:14 0.000167549
20 *657:44 *681:59 0.000108492
21 B_config_C_bit1 *1912:A0 0
22 *1837:A_N *1912:A0 2.59355e-05
23 *1837:C *1912:A0 4.58194e-05
24 *1847:A0 *657:18 5.33005e-05
25 *1847:A0 *657:20 5.33005e-05
26 *1871:A0 *657:18 4.27935e-05
27 *1912:S0 *1912:A0 9.97552e-05
28 *1926:D *1912:A0 0.000333271
29 *2055:D *1912:A0 0.000140608
30 *2097:A *657:44 0.000164168
31 *2220:A *657:18 1.07719e-05
32 *143:9 *1856:A1 0.00013176
33 *143:9 *657:24 0.000247778
34 *149:9 *657:18 0.000135028
35 *149:37 *657:44 0.000125369
36 *240:14 *657:44 9.25014e-06
37 *262:6 *1912:A0 5.55808e-05
38 *262:15 *1912:A0 6.57032e-05
39 *266:10 *657:18 0.000654917
40 *560:28 *657:44 0.000180348
41 *567:14 *657:18 0.000669108
42 *587:24 *1912:A0 0.000822494
43 *593:44 *1912:A0 0.000351739
44 *613:138 *1912:A0 3.33605e-05
45 *628:112 *1912:A0 0.000278064
46 *630:84 *1912:A0 1.94945e-05
47 *645:14 *657:24 0.000187466
48 *653:32 *657:44 0
49 *655:14 *657:44 2.15759e-05
50 *655:16 *657:44 3.40729e-05
51 *656:30 *1856:A1 6.7033e-05
52 *656:30 *657:24 3.03664e-05
*RES
1 *2233:X *657:18 43.1214 
2 *657:18 *657:20 0.535714 
3 *657:20 *657:24 7.66071 
4 *657:24 *657:44 44.4821 
5 *657:44 *1912:A0 43.0679 
6 *657:44 *1863:A1 9.3 
7 *657:24 *1856:A1 15.7464 
8 *657:20 *1847:A1 9.3 
9 *657:18 *1871:A1 9.3 
*END

*D_NET *658 0.0356829
*CONN
*I *1871:A2 I *D sky130_fd_sc_hd__mux4_1
*I *1847:A2 I *D sky130_fd_sc_hd__mux4_1
*I *1888:A0 I *D sky130_fd_sc_hd__mux4_1
*I *1896:A0 I *D sky130_fd_sc_hd__mux4_1
*I *1913:A0 I *D sky130_fd_sc_hd__mux4_1
*I *1863:A2 I *D sky130_fd_sc_hd__mux4_1
*I *1856:A2 I *D sky130_fd_sc_hd__mux4_1
*I *2234:X O *D sky130_fd_sc_hd__clkbuf_2
*CAP
1 *1871:A2 0.000137605
2 *1847:A2 0.000196189
3 *1888:A0 0.000179003
4 *1896:A0 2.3932e-05
5 *1913:A0 0.000961335
6 *1863:A2 0.00011137
7 *1856:A2 9.39998e-05
8 *2234:X 0.000145935
9 *658:133 0.00111289
10 *658:113 0.00270959
11 *658:93 0.00324927
12 *658:58 0.0031874
13 *658:31 0.00121597
14 *658:27 0.00154003
15 *658:12 0.00130399
16 *658:10 0.000477854
17 *1847:A2 *1847:A3 0.000211121
18 *1856:A2 *706:24 0.000122985
19 *1863:A2 *662:99 2.31784e-05
20 *1871:A2 *662:16 7.28798e-05
21 *1888:A0 *1888:A1 2.64287e-05
22 *1896:A0 *660:115 2.59355e-05
23 *1913:A0 *1913:A2 0.000127779
24 *658:10 *661:81 9.25014e-06
25 *658:12 *661:81 2.46934e-05
26 *658:12 *681:67 0.000216182
27 *658:27 *661:81 1.56445e-05
28 *658:27 *681:67 5.6761e-05
29 *658:58 *659:83 4.21517e-05
30 *658:58 *708:12 4.5894e-05
31 *658:93 *1954:GATE 4.18657e-05
32 *658:93 *659:83 0.000429253
33 *658:93 *708:12 0.000398888
34 *658:93 *708:28 5.33005e-05
35 *658:113 *672:134 0.000430213
36 *658:113 *694:44 0.000422786
37 *658:133 *668:69 0.000351856
38 *658:133 *673:116 0.000353293
39 *658:133 *675:140 0.000173804
40 *1824:A1 *658:133 0
41 *1828:B1 *658:113 7.32669e-05
42 *1849:A0 *1847:A2 1.00442e-05
43 *1871:S0 *658:10 0.000144348
44 *1871:S0 *658:12 1.08716e-05
45 *1884:S1 *658:133 0.000260069
46 *1888:A3 *1888:A0 0
47 *1888:S0 *1888:A0 1.61724e-05
48 *1888:S1 *1888:A0 5.61436e-06
49 *1898:S0 *1847:A2 2.11419e-05
50 *1898:S0 *658:27 6.60633e-06
51 *1911:S0 *658:93 2.12087e-05
52 *1913:S0 *1913:A0 2.8447e-05
53 *1950:D *658:58 4.65519e-05
54 *1954:D *658:93 1.66938e-05
55 *1982:D *658:27 2.62822e-05
56 *2016:D *658:93 0
57 *2039:D *658:113 0.000243482
58 *2041:D *658:133 0.000243673
59 *2224:A *658:27 0.000344832
60 *2234:A *658:10 5.49544e-05
61 *2235:A *658:10 2.6269e-05
62 *2239:A *658:27 3.3297e-05
63 *2262:A *1863:A2 3.50635e-05
64 *146:33 *658:27 0
65 *149:37 *658:93 1.17968e-05
66 *150:17 *1863:A2 4.71818e-05
67 *150:17 *658:31 0.000928875
68 *150:17 *658:58 4.78952e-05
69 *151:23 *1913:A0 2.51343e-06
70 *153:55 *658:113 0.000953447
71 *157:57 *658:113 0.000593595
72 *158:31 *658:113 0.00162332
73 *240:14 *1863:A2 9.54798e-06
74 *240:20 *1863:A2 7.46091e-05
75 *247:32 *658:27 6.80114e-05
76 *248:35 *658:12 6.37895e-05
77 *249:34 *658:113 0.000215961
78 *458:16 *658:10 6.5717e-05
79 *458:16 *658:12 0.000147597
80 *479:46 *658:58 0.000256807
81 *483:46 *658:58 0.00123294
82 *510:34 *658:113 2.14378e-05
83 *513:82 *1888:A0 0.000135851
84 *513:82 *658:133 0.000304051
85 *513:86 *658:133 2.99869e-05
86 *537:32 *658:113 0.000128972
87 *560:28 *658:27 2.98354e-05
88 *569:28 *658:58 2.63501e-05
89 *579:54 *658:31 0.000749062
90 *579:54 *658:58 0.00177479
91 *579:78 *658:27 0
92 *579:78 *658:31 0.000170238
93 *582:54 *658:113 4.03239e-05
94 *587:90 *658:113 2.53931e-05
95 *590:14 *658:113 0.000103013
96 *590:96 *658:113 0.000126655
97 *593:44 *658:113 5.49609e-05
98 *596:28 *658:27 0.000100081
99 *596:40 *658:58 4.75671e-06
100 *597:30 *658:93 5.49489e-05
101 *618:30 *658:93 0.000431193
102 *618:50 *658:113 2.74981e-06
103 *631:65 *1888:A0 0.000144474
104 *631:65 *658:133 0.000185255
105 *634:130 *1896:A0 2.59355e-05
106 *640:34 *658:93 0.000940659
107 *643:110 *658:133 0.000622011
108 *644:115 *658:113 0.000329376
109 *647:16 *658:27 6.14836e-06
110 *649:10 *1856:A2 7.80203e-05
111 *652:18 *1863:A2 2.1479e-05
112 *655:16 *1847:A2 0.000319599
113 *657:18 *1871:A2 0.000125461
114 *657:44 *1847:A2 0.000228786
115 *657:44 *1863:A2 6.09057e-06
*RES
1 *2234:X *658:10 16.6929 
2 *658:10 *658:12 4.98214 
3 *658:12 *1856:A2 16.1839 
4 *658:12 *658:27 6.32276 
5 *658:27 *658:31 5.3746 
6 *658:31 *1863:A2 22.4486 
7 *658:31 *658:58 11.2591 
8 *658:58 *1913:A0 25.0679 
9 *658:58 *658:93 35.1607 
10 *658:93 *658:113 47.8992 
11 *658:113 *658:133 26.8393 
12 *658:133 *1896:A0 14.3357 
13 *658:133 *1888:A0 17.425 
14 *658:27 *1847:A2 23.8484 
15 *658:10 *1871:A2 16.7196 
*END

*D_NET *659 0.0416635
*CONN
*I *1856:A3 I *D sky130_fd_sc_hd__mux4_1
*I *1914:A0 I *D sky130_fd_sc_hd__mux4_1
*I *728:DIODE I *D sky130_fd_sc_hd__diode_2
*I *1887:A0 I *D sky130_fd_sc_hd__mux4_1
*I *1895:A0 I *D sky130_fd_sc_hd__mux4_1
*I *1863:A3 I *D sky130_fd_sc_hd__mux4_1
*I *1847:A3 I *D sky130_fd_sc_hd__mux4_1
*I *1871:A3 I *D sky130_fd_sc_hd__mux4_1
*I *2235:X O *D sky130_fd_sc_hd__clkbuf_2
*CAP
1 *1856:A3 0
2 *1914:A0 0
3 *728:DIODE 5.23865e-05
4 *1887:A0 0.000283605
5 *1895:A0 0.000199309
6 *1863:A3 4.75119e-06
7 *1847:A3 0.000170542
8 *1871:A3 0
9 *2235:X 0.000198639
10 *659:227 0.00151385
11 *659:209 0.00248734
12 *659:183 0.00202775
13 *659:161 0.00208539
14 *659:116 0.00257649
15 *659:83 0.00257304
16 *659:56 0.00158579
17 *659:33 0.00106469
18 *659:25 0.000684189
19 *659:12 0.000405344
20 *728:DIODE *1914:A1 5.33005e-05
21 *728:DIODE *691:88 4.72604e-05
22 *728:DIODE *708:113 0.000121599
23 *1887:A0 *665:50 0.000300535
24 *1887:A0 *676:85 1.19021e-05
25 *1887:A0 *690:61 0.000204465
26 *1895:A0 *1895:A1 2.79421e-05
27 *659:56 *662:99 9.09348e-05
28 *659:83 *2036:D 0.000395157
29 *659:83 *662:99 1.23855e-05
30 *659:83 *687:114 0.000448859
31 *659:83 *693:22 7.49162e-06
32 *659:83 *708:12 7.83212e-05
33 *659:83 *708:28 0.000268832
34 *659:116 *667:54 0.000122173
35 *659:116 *671:111 0.000119947
36 *659:116 *676:85 6.53083e-05
37 *659:116 *690:61 6.35864e-05
38 *659:116 *692:16 0.000234858
39 *659:116 *699:66 2.12521e-05
40 *659:161 *660:91 0.000263671
41 *659:161 *665:50 9.41642e-05
42 *659:161 *691:16 0.000148566
43 *659:183 *660:91 0
44 *659:183 *695:76 0.000102403
45 *659:209 *691:38 0.000440264
46 *659:209 *695:76 0.000129336
47 *659:227 *1889:A2 2.0612e-05
48 *659:227 *1893:A1 1.36609e-05
49 *659:227 *1899:A2 4.48011e-05
50 *659:227 *691:72 0
51 *659:227 *691:88 3.28686e-05
52 *659:227 *708:113 9.94194e-06
53 E2BEG[2] *659:161 2.42516e-05
54 E2BEG[4] *659:161 0.000436795
55 E2BEG[6] *659:161 1.97695e-05
56 E2BEGb[0] *659:161 0
57 E6BEG[0] *659:209 0.000132833
58 E6BEG[1] *659:209 7.07702e-05
59 E6BEG[2] *659:209 0.000189473
60 E6BEG[6] *659:209 0.000130625
61 E6BEG[6] *659:227 4.69504e-05
62 E6BEG[8] *659:209 0.00040359
63 EE4BEG[7] *659:183 0.000157028
64 EE4BEG[9] *659:209 0.00017827
65 FrameData_O[0] *659:209 0.000183049
66 FrameData_O[2] *659:209 7.24849e-05
67 *1805:A *659:83 6.67893e-05
68 *1847:A2 *1847:A3 0.000211121
69 *1861:A1 *659:56 8.80532e-05
70 *1861:A1 *659:83 0.000114978
71 *1879:A2 *659:116 4.38942e-05
72 *1879:S1 *659:116 0.000220215
73 *1889:S0 *659:227 0
74 *1895:A3 *659:83 2.79421e-05
75 *1895:A3 *659:116 2.82498e-05
76 *1895:S0 *1895:A0 1.85689e-05
77 *1895:S0 *659:83 9.35114e-06
78 *1895:S1 *659:83 6.07232e-05
79 *1898:A0 *659:33 8.25843e-06
80 *1898:A1 *659:33 0.000219289
81 *1910:S1 *659:83 0.000169804
82 *1911:A0 *659:116 0.000247543
83 *1911:S0 *659:83 0.000194143
84 *1946:D *659:209 8.65267e-05
85 *2087:A *659:116 1.8783e-05
86 *2107:A *659:161 2.84109e-05
87 *2232:A *659:12 9.35794e-06
88 *2235:A *659:12 9.74665e-05
89 *2262:A *659:83 0.00011573
90 *2289:A *659:161 9.28047e-05
91 *2291:A *659:161 0.000137561
92 *2293:A *659:161 9.58181e-05
93 *2295:A *659:161 0.000139031
94 *2305:A *659:227 7.20217e-06
95 *2311:A *659:227 5.61411e-05
96 *2329:A *659:209 0.000108437
97 *2348:A *659:227 1.74236e-05
98 *143:59 *659:116 1.90936e-05
99 *144:145 *659:227 5.99199e-06
100 *146:77 *659:209 0.000333067
101 *147:39 *659:12 9.05838e-05
102 *147:39 *659:25 0.000377728
103 *147:75 *659:161 0.000287917
104 *147:91 *659:183 0.000473435
105 *147:99 *659:209 0.000154752
106 *147:101 *659:209 0.0001431
107 *148:81 *659:161 0.000240011
108 *149:37 *659:83 4.98055e-06
109 *149:37 *659:116 0.000371563
110 *149:63 *659:161 6.81786e-05
111 *149:87 *659:183 0.000321354
112 *149:93 *659:209 4.06087e-07
113 *149:101 *659:209 1.09267e-05
114 *150:41 *659:116 1.14338e-05
115 *151:27 *659:161 0.000241597
116 *151:57 *659:209 0.000332338
117 *160:79 *659:116 8.07616e-06
118 *234:26 *659:227 0.000487352
119 *234:44 *659:227 0.000491897
120 *234:94 *1887:A0 5.00426e-05
121 *235:45 *659:227 0.000435216
122 *235:64 *659:227 0.000494094
123 *236:40 *659:209 4.38137e-05
124 *236:91 *659:183 0.000491595
125 *240:10 *659:83 0.000265923
126 *240:14 *659:83 3.27138e-05
127 *243:42 *659:83 0.000293476
128 *247:32 *659:12 0.000160732
129 *247:32 *659:25 0.000330961
130 *479:159 *659:227 0.00046167
131 *484:50 *659:116 4.04691e-06
132 *493:18 *1847:A3 0.000263867
133 *493:18 *659:56 0.000395774
134 *514:72 *659:209 2.41438e-05
135 *514:72 *659:227 1.30413e-05
136 *516:58 *659:161 0.000147757
137 *517:60 *1887:A0 6.72197e-05
138 *524:18 *659:227 1.90936e-05
139 *524:180 *659:227 0.000328218
140 *533:18 *659:116 8.78259e-05
141 *533:52 *659:116 1.20719e-05
142 *535:52 *659:209 0.000478392
143 *535:52 *659:227 0.000512928
144 *538:66 *659:209 0.000294253
145 *542:20 *659:227 2.88391e-05
146 *555:38 *659:161 9.33698e-06
147 *559:34 *659:227 0.000211799
148 *559:58 *659:183 4.58194e-05
149 *569:28 *659:83 0.000949705
150 *579:78 *1847:A3 0.000117421
151 *585:60 *659:227 4.22135e-06
152 *594:52 *659:183 0.000294733
153 *597:30 *659:83 1.08359e-05
154 *600:138 *659:209 7.96048e-05
155 *601:30 *659:227 0.000397192
156 *642:34 *659:116 0.000352252
157 *644:16 *659:56 0.000138507
158 *644:34 *659:56 3.03458e-05
159 *644:34 *659:83 1.78353e-05
160 *646:24 *659:12 2.51989e-05
161 *649:10 *659:33 1.58163e-05
162 *649:12 *659:33 2.76633e-05
163 *649:134 *659:25 1.65337e-05
164 *651:45 *659:33 0.000221822
165 *653:219 *659:183 0
166 *653:219 *659:209 0.000187076
167 *653:249 *659:209 3.36497e-05
168 *656:52 *659:33 0.000151394
169 *657:44 *1847:A3 0.000195555
170 *657:44 *659:56 0.000749254
171 *658:58 *659:83 4.21517e-05
172 *658:93 *659:83 0.000429253
*RES
1 *2235:X *659:12 17.6393 
2 *659:12 *1871:A3 13.8 
3 *659:12 *659:25 10.0179 
4 *659:25 *659:33 12.5714 
5 *659:33 *1847:A3 20.1571 
6 *659:33 *659:56 12.875 
7 *659:56 *1863:A3 14.3357 
8 *659:56 *659:83 38.5357 
9 *659:83 *1895:A0 11.8 
10 *659:83 *659:116 42.4435 
11 *659:116 *1887:A0 24.675 
12 *659:116 *659:161 41.0179 
13 *659:161 *659:183 45.9464 
14 *659:183 *659:209 45.0536 
15 *659:209 *659:227 43.6157 
16 *659:227 *728:DIODE 10.8804 
17 *659:227 *1914:A0 9.3 
18 *659:25 *1856:A3 9.3 
*END

*D_NET *660 0.0358389
*CONN
*I *1872:A0 I *D sky130_fd_sc_hd__mux4_1
*I *1848:A0 I *D sky130_fd_sc_hd__mux4_1
*I *1855:A0 I *D sky130_fd_sc_hd__mux4_1
*I *1915:A0 I *D sky130_fd_sc_hd__mux4_1
*I *1896:A1 I *D sky130_fd_sc_hd__mux4_1
*I *1888:A1 I *D sky130_fd_sc_hd__mux4_1
*I *1864:A0 I *D sky130_fd_sc_hd__mux4_1
*I *2236:X O *D sky130_fd_sc_hd__clkbuf_2
*CAP
1 *1872:A0 0
2 *1848:A0 0.000837788
3 *1855:A0 5.94711e-05
4 *1915:A0 2.37855e-05
5 *1896:A1 0
6 *1888:A1 0.000578229
7 *1864:A0 0
8 *2236:X 0.000141923
9 *660:163 0.000869894
10 *660:150 0.000267839
11 *660:115 0.00192039
12 *660:99 0.0023073
13 *660:91 0.00252268
14 *660:59 0.00230446
15 *660:43 0.00237657
16 *660:16 0.00222878
17 *660:6 0.000893531
18 *1848:A0 *1848:A2 1.32276e-05
19 *1848:A0 *1848:A3 2.79421e-05
20 *1848:A0 *664:14 5.33527e-05
21 *1848:A0 *664:41 0.000345924
22 *1888:A1 *693:68 9.37744e-05
23 *660:6 *681:59 0.000262679
24 *660:16 *2042:GATE 0.000130064
25 *660:16 *662:77 0.000203802
26 *660:16 *681:59 0.000135028
27 *660:43 *1864:A2 6.90249e-05
28 *660:43 *2037:D 0.000172105
29 *660:43 *699:22 0.000487392
30 *660:43 *706:24 4.11059e-05
31 *660:59 *695:66 1.21637e-05
32 *660:91 *691:38 0.000243526
33 *660:99 *1915:A2 1.59935e-05
34 *660:115 *1896:A2 1.36327e-05
35 *660:115 *667:74 0.000194003
36 *660:115 *708:56 0.000140836
37 *660:163 *664:41 9.58126e-05
38 E2BEGb[4] *660:91 2.84109e-05
39 *1822:A1 *660:91 1.96263e-05
40 *1848:S1 *1848:A0 2.79421e-05
41 *1859:A3 *660:43 9.1407e-06
42 *1862:A2 *660:43 4.3116e-05
43 *1862:B1 *660:43 0
44 *1866:A1 *660:43 0
45 *1888:A0 *1888:A1 2.64287e-05
46 *1888:S1 *1888:A1 1.58163e-05
47 *1896:A0 *660:115 2.59355e-05
48 *1896:A3 *660:115 2.79421e-05
49 *1896:S0 *660:115 5.21937e-05
50 *1896:S1 *660:115 2.79421e-05
51 *1915:A1 *660:115 5.33005e-05
52 *1915:S0 *660:99 5.33005e-05
53 *1915:S1 *660:99 0.000174375
54 *2001:D *1888:A1 3.69047e-06
55 *2067:A *660:99 6.81704e-05
56 *2221:A *1848:A0 0.000119299
57 *2221:A *660:163 2.55806e-05
58 *2224:A *660:16 2.26973e-05
59 *2255:A *660:43 0.000657414
60 *2265:A *660:43 7.40526e-05
61 *72:40 *660:91 5.40901e-05
62 *72:40 *660:99 0.000120913
63 *142:31 *660:59 0.00114401
64 *142:53 *660:59 0.000904328
65 *143:9 *660:16 1.68276e-05
66 *144:27 *660:16 0.000245675
67 *144:27 *660:43 7.84841e-05
68 *144:71 *660:91 0
69 *144:91 *660:115 9.4481e-05
70 *144:121 *660:115 9.41642e-05
71 *146:67 *660:43 4.18309e-05
72 *146:77 *660:91 0.000614155
73 *147:51 *660:43 6.13163e-05
74 *148:37 *660:43 0
75 *149:63 *660:91 0.000430398
76 *149:87 *660:91 0.000987728
77 *151:23 *660:43 0.000799803
78 *151:57 *660:91 0.000246434
79 *157:87 *1888:A1 9.06949e-05
80 *234:86 *660:91 5.78061e-05
81 *236:91 *660:91 0.000125606
82 *255:12 *1848:A0 6.41309e-06
83 *479:106 *660:99 1.22751e-05
84 *479:106 *660:115 0.000144935
85 *481:50 *660:59 0.000942122
86 *481:84 *660:91 3.45371e-05
87 *502:75 *1888:A1 5.79582e-06
88 *517:28 *660:115 0.000136966
89 *521:12 *660:99 0.000175892
90 *524:142 *660:16 0.000247167
91 *535:86 *660:115 1.08359e-05
92 *559:58 *660:91 0.000342463
93 *593:102 *660:115 4.87139e-06
94 *594:52 *660:59 7.95998e-05
95 *594:52 *660:91 0.00032026
96 *596:118 *660:115 0.000306065
97 *634:130 *1888:A1 0.00013088
98 *634:130 *660:115 1.149e-05
99 *636:117 *1888:A1 0.000179037
100 *637:108 *1888:A1 0.000149235
101 *647:222 *660:59 3.41747e-05
102 *648:8 *660:16 3.17264e-05
103 *648:109 *660:16 0.00026054
104 *648:109 *660:43 8.68244e-05
105 *649:29 *1855:A0 0.000197977
106 *649:29 *660:150 0.000518892
107 *650:139 *660:43 5.11408e-05
108 *650:156 *660:43 0.000325806
109 *651:28 *660:16 0.000179485
110 *651:45 *1855:A0 0.000197977
111 *651:45 *660:150 0.000509642
112 *651:193 *660:59 0.00142316
113 *652:16 *660:43 0.000320833
114 *653:219 *660:91 0.000132392
115 *656:30 *660:16 0.000214622
116 *659:161 *660:91 0.000263671
117 *659:183 *660:91 0
*RES
1 *2236:X *660:6 11.8893 
2 *660:6 *660:16 19.0893 
3 *660:16 *1864:A0 13.8 
4 *660:16 *660:43 42.749 
5 *660:43 *660:59 42.4643 
6 *660:59 *660:91 48.8393 
7 *660:91 *660:99 12.6071 
8 *660:99 *660:115 29.25 
9 *660:115 *1888:A1 28.3357 
10 *660:115 *1896:A1 9.3 
11 *660:99 *1915:A0 9.72857 
12 *660:6 *660:150 11.3036 
13 *660:150 *1855:A0 16.3536 
14 *660:150 *660:163 5.44643 
15 *660:163 *1848:A0 21.5857 
16 *660:163 *1872:A0 9.3 
*END

*D_NET *661 0.0388924
*CONN
*I *1895:A2 I *D sky130_fd_sc_hd__mux4_1
*I *1808:A0 I *D sky130_fd_sc_hd__mux4_1
*I *1887:A2 I *D sky130_fd_sc_hd__mux4_1
*I *1864:A2 I *D sky130_fd_sc_hd__mux4_1
*I *1872:A2 I *D sky130_fd_sc_hd__mux4_1
*I *1855:A2 I *D sky130_fd_sc_hd__mux4_1
*I *1848:A2 I *D sky130_fd_sc_hd__mux4_1
*I *2237:X O *D sky130_fd_sc_hd__clkbuf_2
*CAP
1 *1895:A2 0.000363005
2 *1808:A0 8.44873e-05
3 *1887:A2 0.000172408
4 *1864:A2 7.05828e-05
5 *1872:A2 4.89409e-05
6 *1855:A2 0.000105144
7 *1848:A2 0.000917519
8 *2237:X 0.000192294
9 *661:207 0.00168072
10 *661:177 0.00328839
11 *661:132 0.00271014
12 *661:112 0.00270411
13 *661:81 0.00271194
14 *661:37 0.000351769
15 *661:16 0.00112237
16 *661:12 0.0013453
17 *1848:A2 *1848:A1 0.000161184
18 *1848:A2 *664:41 1.59935e-05
19 *1864:A2 *699:22 1.07995e-05
20 *1864:A2 *706:24 2.26973e-05
21 *1887:A2 *707:67 2.64471e-05
22 *661:81 *665:83 0.000366087
23 *661:81 *681:67 0
24 *661:112 *1967:GATE 0.000144415
25 *661:112 *676:85 1.07719e-05
26 *661:112 *676:99 0.000176426
27 *661:112 *690:61 1.92173e-05
28 *661:112 *698:121 3.20441e-05
29 *661:112 *704:44 2.63501e-05
30 *661:132 *1970:D 7.18967e-05
31 *661:132 *1971:GATE 2.79421e-05
32 *661:132 *665:50 0.000417234
33 *661:132 *671:111 0.000153645
34 *661:132 *671:113 0.000451173
35 *661:132 *686:14 2.75563e-05
36 *661:132 *690:61 0.000279218
37 *661:132 *699:66 1.65169e-05
38 *661:177 *2002:D 4.38243e-05
39 *661:177 *2002:GATE 0.000135532
40 *661:177 *662:177 0.000179444
41 *661:177 *665:50 0.000146935
42 *661:177 *667:54 0.00023897
43 *661:177 *668:93 0.000153684
44 *661:177 *686:14 3.43514e-05
45 *661:177 *690:61 1.45742e-05
46 *661:177 *693:68 5.00087e-06
47 *661:177 *701:54 5.49489e-05
48 *661:207 *662:177 1.77757e-05
49 *661:207 *665:18 7.83659e-05
50 *661:207 *672:52 0.000110532
51 *661:207 *673:116 0.000179301
52 *661:207 *677:42 0.000218404
53 *661:207 *693:68 4.45788e-06
54 *661:207 *698:44 2.63501e-05
55 *661:207 *703:40 2.33113e-05
56 *661:207 *703:60 0.000197811
57 *709:DIODE *661:132 6.39829e-05
58 *1808:A1 *1808:A0 6.094e-05
59 *1808:S0 *661:207 1.02504e-05
60 *1812:A0 *661:207 7.34491e-05
61 *1813:A0 *1808:A0 8.55871e-05
62 *1824:A2 *661:177 6.76337e-05
63 *1825:A *661:177 0.000150236
64 *1848:A0 *1848:A2 1.32276e-05
65 *1868:A *1855:A2 7.4666e-05
66 *1868:A *1872:A2 7.05143e-06
67 *1868:A *661:81 5.1588e-05
68 *1871:S0 *661:16 2.06112e-05
69 *1871:S0 *661:81 5.75015e-05
70 *1871:S1 *1872:A2 1.22507e-05
71 *1872:S1 *661:12 6.05161e-06
72 *1873:A0 *661:81 3.48235e-05
73 *1873:A1 *661:12 9.99853e-05
74 *1873:A1 *661:81 9.25014e-06
75 *1884:S0 *661:177 0.000231921
76 *1884:S0 *661:207 5.41797e-06
77 *1887:A3 *1887:A2 2.15035e-05
78 *2027:D *661:177 0.000455951
79 *2041:D *661:177 1.08524e-05
80 *2099:A *1895:A2 5.33005e-05
81 *2164:A *661:207 0.000565139
82 *2220:A *1855:A2 1.14548e-05
83 *2221:A *1872:A2 1.84689e-05
84 *2221:A *661:12 6.86041e-05
85 *2222:A *661:37 0.000108771
86 *2225:A *661:81 0
87 *2234:A *661:81 9.58181e-05
88 *2237:A *661:81 0
89 *2238:A *661:81 0
90 *2254:A *1864:A2 1.59935e-05
91 *2289:A *661:132 0.000377311
92 *2289:A *661:177 6.7848e-05
93 *2319:A *661:207 0.000149234
94 *142:23 *661:81 0.000304634
95 *143:103 *661:207 0.00150834
96 *143:109 *661:207 8.705e-06
97 *143:111 *661:207 9.10458e-06
98 *144:39 *1895:A2 8.08603e-05
99 *144:39 *661:112 0.000136676
100 *145:63 *661:177 0.000223263
101 *145:75 *661:177 1.27529e-05
102 *145:75 *661:207 0.000476204
103 *146:67 *1864:A2 9.31015e-05
104 *147:51 *661:132 3.93325e-05
105 *149:27 *1848:A2 0.00039435
106 *234:94 *1887:A2 0.000179122
107 *248:35 *1848:A2 0.000271445
108 *248:35 *661:37 2.63501e-05
109 *249:34 *661:177 0.000232467
110 *263:36 *1855:A2 6.91416e-05
111 *263:36 *1872:A2 1.01912e-05
112 *265:14 *661:81 0
113 *458:16 *661:81 0.000622024
114 *482:26 *661:112 0.00164012
115 *484:50 *661:132 1.03483e-05
116 *528:44 *661:177 5.49489e-05
117 *529:40 *661:207 0.00029542
118 *538:32 *661:177 5.33005e-05
119 *545:38 *661:132 6.28248e-05
120 *560:28 *661:81 0.000308436
121 *563:30 *1895:A2 5.09923e-05
122 *567:40 *661:112 8.69554e-05
123 *569:62 *661:177 4.65135e-05
124 *579:52 *661:207 4.99276e-05
125 *579:78 *1848:A2 6.60111e-05
126 *583:72 *661:81 0.000519303
127 *583:72 *661:112 0.00235405
128 *593:74 *661:177 0.000400455
129 *593:102 *661:207 4.11218e-05
130 *597:46 *661:177 0.000264974
131 *600:36 *1848:A2 0.000102981
132 *600:72 *661:132 0.000255566
133 *600:138 *661:207 1.2431e-05
134 *630:84 *661:177 0.000121971
135 *631:65 *661:207 6.00902e-05
136 *632:107 *661:207 0.000313435
137 *634:130 *661:177 6.09762e-05
138 *634:130 *661:207 0.00014895
139 *635:42 *1848:A2 0
140 *635:92 *661:207 0.000119204
141 *636:54 *661:132 0.000285135
142 *636:159 *661:207 0.000219289
143 *637:108 *661:207 0.000295204
144 *642:34 *661:81 4.99973e-05
145 *642:34 *661:112 0.0002601
146 *647:16 *661:81 0
147 *650:139 *1864:A2 4.65158e-06
148 *651:181 *1864:A2 1.22507e-05
149 *651:247 *661:177 3.12453e-05
150 *655:16 *1848:A2 6.95556e-05
151 *658:10 *661:81 9.25014e-06
152 *658:12 *661:81 2.46934e-05
153 *658:27 *661:81 1.56445e-05
154 *660:43 *1864:A2 6.90249e-05
*RES
1 *2237:X *661:12 17.3536 
2 *661:12 *661:16 3.68679 
3 *661:16 *1848:A2 20.4892 
4 *661:16 *661:37 3.8612 
5 *661:37 *1855:A2 16.1348 
6 *661:37 *1872:A2 14.9429 
7 *661:12 *661:81 32.0817 
8 *661:81 *1864:A2 21.3822 
9 *661:81 *661:112 20.7205 
10 *661:112 *661:132 34.4464 
11 *661:132 *1887:A2 17.3223 
12 *661:132 *661:177 48.8606 
13 *661:177 *661:207 49.0519 
14 *661:207 *1808:A0 15.5679 
15 *661:112 *1895:A2 14.9875 
*END

*D_NET *662 0.0451158
*CONN
*I *1864:A1 I *D sky130_fd_sc_hd__mux4_1
*I *1888:A2 I *D sky130_fd_sc_hd__mux4_1
*I *1809:A0 I *D sky130_fd_sc_hd__mux4_1
*I *1896:A2 I *D sky130_fd_sc_hd__mux4_1
*I *1822:A0 I *D sky130_fd_sc_hd__mux2_1
*I *1836:A0 I *D sky130_fd_sc_hd__mux2_1
*I *1872:A1 I *D sky130_fd_sc_hd__mux4_1
*I *1848:A1 I *D sky130_fd_sc_hd__mux4_1
*I *1855:A1 I *D sky130_fd_sc_hd__mux4_1
*I *2238:X O *D sky130_fd_sc_hd__buf_2
*CAP
1 *1864:A1 1.7586e-05
2 *1888:A2 3.86148e-05
3 *1809:A0 0.00110523
4 *1896:A2 8.54611e-06
5 *1822:A0 0.000149872
6 *1836:A0 0.000107947
7 *1872:A1 0
8 *1848:A1 0.00100536
9 *1855:A1 0.000111465
10 *2238:X 0.000773346
11 *662:196 0.00226463
12 *662:188 0.0012935
13 *662:177 0.00161369
14 *662:142 0.00273224
15 *662:132 0.00191661
16 *662:99 0.00143098
17 *662:77 0.00145962
18 *662:24 0.00114947
19 *662:22 0.000275019
20 *662:16 0.00197863
21 *1809:A0 *1890:A2 0.000148362
22 *1809:A0 *693:163 6.69937e-05
23 *1822:A0 *668:93 5.49544e-05
24 *662:77 *1864:A3 1.21258e-05
25 *662:77 *2042:GATE 1.37492e-05
26 *662:77 *664:103 8.65646e-05
27 *662:77 *681:80 9.63932e-06
28 *662:99 *663:14 0.000173472
29 *662:99 *664:103 0.000431307
30 *662:132 *1951:GATE 0.000136682
31 *662:132 *2036:GATE 0
32 *662:132 *667:12 0.000167072
33 *662:132 *667:23 2.26824e-05
34 *662:132 *705:10 1.21258e-05
35 *662:132 *706:38 0.000464351
36 *662:132 *708:12 3.69047e-06
37 *662:142 *667:54 0.000455682
38 *662:142 *701:54 3.92757e-05
39 *662:142 *705:49 9.25014e-06
40 *662:177 *668:93 6.50032e-05
41 *662:177 *673:116 0.000243512
42 *662:177 *689:108 0.000221246
43 *662:177 *693:68 1.21637e-05
44 *662:177 *698:68 0.000248569
45 *662:177 *701:54 1.01417e-05
46 *662:177 *708:56 1.60861e-05
47 *662:188 *673:116 2.70308e-05
48 *662:196 *677:32 0.00019109
49 *1822:S *1822:A0 3.77065e-05
50 *1824:A2 *662:177 2.90278e-05
51 *1825:A *662:177 1.437e-05
52 *1838:A1 *662:132 0.000125731
53 *1838:A2 *662:132 1.41029e-05
54 *1838:B1 *662:132 0.000170124
55 *1839:A *662:132 7.39365e-05
56 *1840:A1 *1836:A0 0.000109313
57 *1842:A2 *662:132 6.05161e-06
58 *1843:A0 *1848:A1 0
59 *1843:A1 *1855:A1 9.99853e-05
60 *1848:A2 *1848:A1 0.000161184
61 *1863:A2 *662:99 2.31784e-05
62 *1871:A2 *662:16 7.28798e-05
63 *1873:A0 *662:16 5.49489e-05
64 *1888:S1 *1888:A2 9.18129e-06
65 *1890:S0 *1809:A0 0.000198717
66 *1893:A3 *1809:A0 6.08808e-05
67 *1895:S0 *662:142 0.000175892
68 *1909:S0 *1809:A0 0.000518593
69 *1911:A0 *662:132 1.55252e-05
70 *1911:A0 *662:142 0.000692935
71 *1950:D *662:142 2.26973e-05
72 *1951:D *662:132 0.000175892
73 *2006:D *662:196 4.85049e-06
74 *2027:D *662:142 4.98055e-06
75 *2027:D *662:177 6.057e-07
76 *2038:D *662:142 0.000125731
77 *2038:D *662:177 4.30452e-05
78 *2058:CLK *662:196 0.0010575
79 *2058:D *662:196 2.06112e-05
80 *2101:A *1809:A0 0.000117913
81 *2220:A *1855:A1 3.42509e-05
82 *2254:A *1864:A1 1.04232e-05
83 *2254:A *662:99 8.25843e-06
84 *2262:A *662:99 8.6229e-06
85 *2342:A *662:196 0.000888022
86 *143:9 *1855:A1 4.69134e-05
87 *143:9 *662:22 1.18358e-05
88 *143:9 *662:24 1.94319e-05
89 *145:63 *662:177 0.000158269
90 *145:75 *662:177 0.00100099
91 *146:67 *662:77 0.000278581
92 *147:39 *662:77 7.99093e-06
93 *149:37 *662:99 0.00013208
94 *149:37 *662:132 0.000209953
95 *149:37 *662:142 0.000364431
96 *154:47 *1836:A0 5.49544e-05
97 *159:77 *662:177 0.000118748
98 *233:80 *1809:A0 2.61375e-05
99 *233:99 *1809:A0 0.000239529
100 *240:10 *662:132 0.000117903
101 *240:14 *662:99 0.000149345
102 *240:14 *662:132 0.000103095
103 *240:20 *662:99 3.83239e-06
104 *245:59 *662:177 2.01997e-05
105 *247:10 *662:77 5.44371e-05
106 *248:16 *662:77 7.72916e-05
107 *249:34 *662:177 5.96143e-05
108 *255:12 *1848:A1 4.58194e-05
109 *323:12 *1809:A0 0.00124816
110 *409:18 *662:142 0.000219869
111 *479:20 *1848:A1 0.000477173
112 *479:46 *662:142 4.09683e-05
113 *479:46 *662:177 1.26641e-05
114 *479:60 *662:177 0
115 *482:26 *662:142 0.000576851
116 *491:96 *1809:A0 0.00110787
117 *519:46 *662:196 5.20247e-05
118 *520:32 *662:196 4.21653e-05
119 *540:22 *1888:A2 3.53422e-06
120 *540:22 *662:188 5.06921e-05
121 *540:22 *662:196 0.000480732
122 *553:20 *662:196 0.00029853
123 *556:54 *662:177 0.00042649
124 *558:14 *1809:A0 0.000435649
125 *565:22 *1809:A0 0.000792023
126 *591:126 *662:132 0.000738113
127 *593:74 *662:177 1.92751e-05
128 *593:102 *1896:A2 6.98553e-06
129 *593:102 *662:177 0.000666312
130 *593:102 *662:188 0.000196691
131 *593:102 *662:196 0.000677766
132 *600:36 *1848:A1 0
133 *626:134 *662:132 0.000137909
134 *626:148 *1848:A1 6.67737e-05
135 *630:84 *662:177 5.99199e-06
136 *632:66 *662:177 0.000222862
137 *632:152 *662:196 0.000411372
138 *634:176 *662:196 3.97627e-05
139 *635:42 *1848:A1 3.12518e-05
140 *635:102 *662:196 0.000319336
141 *635:112 *1809:A0 9.57347e-05
142 *642:38 *662:142 0.000114834
143 *642:55 *662:142 0.000372241
144 *643:10 *1848:A1 9.41642e-05
145 *645:14 *662:22 7.75765e-05
146 *649:134 *662:77 0.000157763
147 *650:47 *1848:A1 2.07761e-05
148 *651:28 *662:77 7.03753e-05
149 *651:45 *1855:A1 4.30835e-05
150 *651:45 *662:22 0.000290634
151 *651:45 *662:24 2.17823e-05
152 *651:45 *662:77 0.000456227
153 *651:181 *662:77 7.40526e-05
154 *651:247 *662:177 7.41205e-06
155 *652:36 *1848:A1 6.30931e-05
156 *652:127 *662:142 6.53397e-05
157 *652:139 *662:142 0.00109944
158 *656:10 *662:22 3.92854e-05
159 *656:10 *662:77 3.67356e-05
160 *656:30 *662:77 7.49361e-05
161 *657:18 *662:16 0.000101629
162 *657:44 *662:99 0.000150706
163 *659:56 *662:99 9.09348e-05
164 *659:83 *662:99 1.23855e-05
165 *660:16 *662:77 0.000203802
166 *660:115 *1896:A2 1.36327e-05
167 *661:177 *662:177 0.000179444
168 *661:207 *662:177 1.77757e-05
*RES
1 *2238:X *662:16 23.6571 
2 *662:16 *662:22 5.44643 
3 *662:22 *662:24 0.883929 
4 *662:24 *1855:A1 16.5411 
5 *662:24 *1848:A1 24.4432 
6 *662:22 *1872:A1 13.8 
7 *662:16 *662:77 24.4821 
8 *662:77 *662:99 25.1071 
9 *662:99 *1836:A0 15.5679 
10 *662:99 *662:132 41.9464 
11 *662:132 *662:142 41.6786 
12 *662:142 *1822:A0 15.5679 
13 *662:142 *662:177 36.1603 
14 *662:177 *1896:A2 14.0366 
15 *662:177 *662:188 2.55357 
16 *662:188 *662:196 43.375 
17 *662:196 *1809:A0 49.4429 
18 *662:188 *1888:A2 14.5723 
19 *662:77 *1864:A1 9.72857 
*END

*D_NET *663 0.00640415
*CONN
*I *1839:C_N I *D sky130_fd_sc_hd__or3b_1
*I *2167:A I *D sky130_fd_sc_hd__buf_2
*I *2239:X O *D sky130_fd_sc_hd__clkbuf_1
*CAP
1 *1839:C_N 0.000229546
2 *2167:A 0.000207885
3 *2239:X 0.00100487
4 *663:14 0.0014423
5 *2167:A *664:6 1.21258e-05
6 *2167:A *664:103 5.98313e-05
7 *663:14 *664:103 5.51021e-05
8 *663:14 *681:59 0.000119268
9 *663:14 *699:22 2.59355e-05
10 *1799:A *2167:A 6.44047e-05
11 *1836:A1 *1839:C_N 6.28948e-05
12 *1838:A1 *2167:A 1.59935e-05
13 *1911:A0 *1839:C_N 3.42647e-05
14 *143:9 *663:14 0.000867649
15 *149:37 *1839:C_N 0.000563903
16 *154:75 *1839:C_N 0.00021767
17 *597:14 *663:14 0.00087195
18 *653:32 *1839:C_N 0.000207524
19 *657:44 *663:14 0.000167549
20 *662:99 *663:14 0.000173472
*RES
1 *2239:X *663:14 39.6571 
2 *663:14 *2167:A 12.7286 
3 *663:14 *1839:C_N 25.7107 
*END

*D_NET *664 0.0341723
*CONN
*I *1864:A3 I *D sky130_fd_sc_hd__mux4_1
*I *1810:A0 I *D sky130_fd_sc_hd__mux4_1
*I *1825:C_N I *D sky130_fd_sc_hd__or3b_1
*I *1887:A1 I *D sky130_fd_sc_hd__mux4_1
*I *1895:A1 I *D sky130_fd_sc_hd__mux4_1
*I *1872:A3 I *D sky130_fd_sc_hd__mux4_1
*I *1855:A3 I *D sky130_fd_sc_hd__mux4_1
*I *1829:A0 I *D sky130_fd_sc_hd__mux2_1
*I *1815:A0 I *D sky130_fd_sc_hd__mux2_1
*I *1848:A3 I *D sky130_fd_sc_hd__mux4_1
*I *2167:X O *D sky130_fd_sc_hd__buf_2
*CAP
1 *1864:A3 7.42822e-05
2 *1810:A0 0
3 *1825:C_N 0.000436034
4 *1887:A1 0.000673784
5 *1895:A1 7.65043e-05
6 *1872:A3 8.5808e-05
7 *1855:A3 0.000134332
8 *1829:A0 0.000101266
9 *1815:A0 0.000411093
10 *1848:A3 6.11289e-05
11 *2167:X 0.000132182
12 *664:166 0.00199633
13 *664:143 0.00159498
14 *664:125 0.00143966
15 *664:103 0.00175518
16 *664:51 0.00135716
17 *664:45 0.0010434
18 *664:41 0.000935118
19 *664:14 0.00158763
20 *664:6 0.00174684
21 *1825:C_N *1972:D 2.35281e-05
22 *1825:C_N *693:46 0.000358241
23 *1825:C_N *698:68 4.5888e-05
24 *1887:A1 *1875:A2 7.48984e-05
25 *664:51 *2034:GATE 0.000405122
26 *664:125 *1941:GATE 0.000189744
27 *664:125 *2035:D 5.33005e-05
28 *664:125 *676:99 0.000122591
29 *664:125 *681:80 0.00050314
30 *664:125 *681:103 0.000190805
31 *664:125 *706:24 0
32 *664:143 *1941:GATE 0.000131614
33 *664:143 *2036:D 9.25014e-06
34 *664:143 *667:54 0.000386433
35 *664:143 *687:114 0.000576191
36 *664:143 *689:24 3.04394e-05
37 *664:143 *693:22 0.000301862
38 *664:166 *667:54 0.000135532
39 *664:166 *693:46 0.000312583
40 *664:166 *699:66 3.06878e-06
41 *664:166 *708:28 7.49162e-06
42 *1799:A *664:6 6.05161e-06
43 *1799:A *664:103 3.13387e-05
44 *1810:A1 *664:125 5.33005e-05
45 *1810:A1 *664:143 9.41642e-05
46 *1810:S0 *664:125 0.00010965
47 *1810:S0 *664:143 1.98839e-05
48 *1819:A2 *1815:A0 0.000332211
49 *1819:A2 *664:51 0.000192979
50 *1819:B1 *1815:A0 0.000142768
51 *1821:A2 *1815:A0 2.33059e-05
52 *1821:B1 *1815:A0 0.000207735
53 *1845:S0 *664:14 3.17148e-05
54 *1848:A0 *1848:A3 2.79421e-05
55 *1848:A0 *664:14 5.33527e-05
56 *1848:A0 *664:41 0.000345924
57 *1848:A2 *664:41 1.59935e-05
58 *1848:S1 *664:41 4.58194e-05
59 *1851:A2 *664:51 4.94884e-05
60 *1851:S0 *664:51 0.000952548
61 *1853:A3 *664:51 0.000148903
62 *1855:S0 *1855:A3 9.58181e-05
63 *1859:A0 *664:125 8.7425e-05
64 *1864:S0 *1864:A3 5.65955e-05
65 *1864:S0 *664:125 4.92935e-05
66 *1871:S1 *1872:A3 3.97677e-05
67 *1871:S1 *664:41 5.38444e-06
68 *1872:S0 *1872:A3 5.33005e-05
69 *1875:A1 *1887:A1 2.49172e-05
70 *1875:S0 *1887:A1 6.57032e-05
71 *1875:S0 *664:166 0.000144103
72 *1879:A1 *664:166 7.29712e-05
73 *1879:S0 *664:166 0.000149414
74 *1892:S1 *1825:C_N 0.000162114
75 *1895:A0 *1895:A1 2.79421e-05
76 *1895:S0 *1895:A1 0.000178425
77 *1895:S1 *664:143 6.43196e-05
78 *1904:A0 *664:125 0.000575357
79 *1905:A0 *664:125 5.2084e-05
80 *1911:A0 *664:143 0.000384725
81 *1911:A0 *664:166 0.000143258
82 *1911:S0 *664:166 0.000215166
83 *1955:D *664:166 0.000125355
84 *2167:A *664:6 1.21258e-05
85 *2167:A *664:103 5.98313e-05
86 *2220:A *1855:A3 8.2769e-05
87 *2221:A *1872:A3 5.21937e-05
88 *2221:A *664:41 1.40034e-05
89 *2254:A *1864:A3 6.2293e-05
90 *2254:A *664:103 0.000159892
91 *143:9 *1829:A0 8.00469e-05
92 *143:9 *664:103 0.000102779
93 *143:29 *664:143 0.000237775
94 *144:27 *664:103 0.000100471
95 *144:27 *664:125 0.000255491
96 *144:39 *664:125 9.99444e-06
97 *145:63 *1825:C_N 0.000474318
98 *145:63 *664:166 3.96279e-05
99 *146:33 *664:51 0
100 *149:63 *664:166 0.000322279
101 *154:47 *664:14 0.000123605
102 *159:21 *1815:A0 2.96625e-05
103 *181:17 *1815:A0 6.19515e-05
104 *181:17 *664:51 4.43583e-05
105 *234:94 *1887:A1 0.000109367
106 *248:35 *664:45 0.000220092
107 *248:35 *664:51 2.15339e-05
108 *248:37 *664:51 0.000548971
109 *249:34 *1825:C_N 6.50032e-05
110 *255:12 *1848:A3 0
111 *255:12 *664:14 5.33005e-05
112 *255:12 *664:41 0
113 *255:39 *664:14 9.03762e-05
114 *484:18 *664:125 0.00017754
115 *485:18 *664:125 0.000519377
116 *493:18 *1829:A0 6.2169e-06
117 *533:18 *664:143 0.000188798
118 *561:30 *664:14 7.6644e-05
119 *597:30 *664:166 0.00075109
120 *626:134 *664:14 1.69115e-05
121 *642:106 *1825:C_N 9.83313e-05
122 *642:106 *664:166 9.25014e-06
123 *643:10 *664:14 0.000472929
124 *643:28 *664:14 0.000222789
125 *644:34 *664:166 0.000264747
126 *647:133 *664:125 0.000289198
127 *648:49 *1829:A0 0.000152155
128 *649:29 *664:45 0.000213838
129 *649:29 *664:51 3.10885e-05
130 *649:33 *664:51 0.000264835
131 *649:43 *664:51 0.00023068
132 *650:12 *664:14 0.000102056
133 *650:47 *664:14 0.000428074
134 *650:76 *1815:A0 0.000198761
135 *651:181 *1864:A3 2.79421e-05
136 *652:16 *664:125 4.65158e-06
137 *652:34 *664:14 0.000146474
138 *656:52 *664:14 0
139 *660:163 *664:41 9.58126e-05
140 *662:77 *1864:A3 1.21258e-05
141 *662:77 *664:103 8.65646e-05
142 *662:99 *664:103 0.000431307
143 *663:14 *664:103 5.51021e-05
*RES
1 *2167:X *664:6 10.6571 
2 *664:6 *664:14 29.5179 
3 *664:14 *1848:A3 10.675 
4 *664:14 *664:41 12.0893 
5 *664:41 *664:45 7.35714 
6 *664:45 *664:51 23.9551 
7 *664:51 *1815:A0 20.9713 
8 *664:51 *1829:A0 19.6118 
9 *664:45 *1855:A3 16.3893 
10 *664:41 *1872:A3 11.0679 
11 *664:6 *664:103 21.6964 
12 *664:103 *664:125 42.3036 
13 *664:125 *664:143 32.9643 
14 *664:143 *1895:A1 15.5679 
15 *664:143 *664:166 30.8214 
16 *664:166 *1887:A1 22.3179 
17 *664:166 *1825:C_N 24.5857 
18 *664:125 *1810:A0 9.3 
19 *664:103 *1864:A3 11.0679 
*END

*D_NET *665 0.041351
*CONN
*I *1938:D I *D sky130_fd_sc_hd__dlxtp_1
*I *2002:D I *D sky130_fd_sc_hd__dlxtp_1
*I *2118:A I *D sky130_fd_sc_hd__clkbuf_2
*I *2034:D I *D sky130_fd_sc_hd__dlxtp_1
*I *1970:D I *D sky130_fd_sc_hd__dlxtp_1
*I *2241:X O *D sky130_fd_sc_hd__clkbuf_2
*CAP
1 *1938:D 0
2 *2002:D 1.5352e-05
3 *2118:A 1.55023e-05
4 *2034:D 0.000354012
5 *1970:D 8.1565e-05
6 *2241:X 0.00230269
7 *665:83 0.00440119
8 *665:50 0.00449037
9 *665:38 0.00218269
10 *665:18 0.00409289
11 *1970:D *686:14 0.000149726
12 *2002:D *686:14 4.43299e-05
13 *665:18 *1938:GATE 8.40155e-05
14 *665:18 *1939:D 3.97677e-05
15 *665:18 *668:34 0.00038021
16 *665:18 *676:10 0.000417612
17 *665:38 *686:52 0.00133448
18 *665:38 *704:44 4.43857e-05
19 *665:50 *671:111 2.11419e-05
20 *665:50 *690:61 0.000205744
21 *665:83 *694:44 0.000333892
22 *665:83 *703:40 3.98499e-05
23 E2BEG[3] *665:83 8.69554e-05
24 E6BEG[5] *665:38 0
25 *740:DIODE *665:38 0.000168197
26 *1812:A0 *665:18 5.60201e-05
27 *1812:A2 *665:18 9.00271e-06
28 *1812:S0 *665:18 8.25843e-06
29 *1812:S1 *665:18 6.97206e-05
30 *1867:A2 *2118:A 4.50033e-05
31 *1881:A0 *665:38 4.88232e-05
32 *1887:A0 *665:50 0.000300535
33 *2030:D *665:83 0.00311763
34 *2062:A *665:18 7.20217e-06
35 *2231:A *665:83 4.73953e-05
36 *2289:A *665:50 6.05161e-06
37 *2291:A *665:83 0.000215961
38 *2312:A *665:18 3.69047e-06
39 *143:9 *2034:D 0
40 *144:27 *665:83 0
41 *145:37 *665:83 0.000126965
42 *146:33 *2034:D 0.000172715
43 *146:67 *665:83 0.00190647
44 *150:17 *2034:D 0.000466954
45 *150:17 *665:83 9.22109e-05
46 *151:57 *665:38 0
47 *160:79 *665:38 0.000420743
48 *234:44 *665:38 0.000107222
49 *235:93 *665:38 0.000107222
50 *483:46 *665:38 0.000225044
51 *483:46 *665:50 3.57329e-05
52 *483:78 *665:38 1.43819e-05
53 *514:72 *665:38 8.34927e-05
54 *514:94 *665:83 0.000786221
55 *515:40 *665:83 0.000250183
56 *517:60 *665:50 1.11756e-05
57 *529:40 *665:38 0.000615257
58 *535:86 *665:38 6.1624e-05
59 *540:22 *665:18 0.000339346
60 *545:38 *1970:D 6.09762e-05
61 *545:38 *665:83 2.66789e-06
62 *552:28 *665:38 0.000259066
63 *555:38 *665:38 4.64974e-05
64 *560:28 *665:83 0.000702624
65 *563:30 *665:38 7.04039e-05
66 *563:30 *665:50 0.000108551
67 *567:40 *665:83 4.00199e-05
68 *583:72 *665:38 0.00199652
69 *583:72 *665:83 0.00146296
70 *600:138 *665:38 0.000160526
71 *603:66 *665:18 3.66671e-06
72 *631:65 *665:18 7.66512e-05
73 *634:78 *665:83 0.000480553
74 *634:158 *665:18 2.05475e-05
75 *642:34 *665:83 0.000498776
76 *642:106 *665:38 0.000129334
77 *645:62 *665:83 0.000115223
78 *647:16 *665:83 0.00122202
79 *647:28 *665:83 0.000417456
80 *647:46 *2118:A 2.28378e-05
81 *647:63 *2034:D 9.25014e-06
82 *650:248 *665:38 0.000207921
83 *651:51 *2034:D 0.000281197
84 *653:170 *665:83 0.000691395
85 *659:161 *665:50 9.41642e-05
86 *661:81 *665:83 0.000366087
87 *661:132 *1970:D 7.18967e-05
88 *661:132 *665:50 0.000417234
89 *661:177 *2002:D 4.38243e-05
90 *661:177 *665:50 0.000146935
91 *661:207 *665:18 7.83659e-05
*RES
1 *2241:X *665:18 46.7286 
2 *665:18 *665:38 23.0674 
3 *665:38 *665:50 21.1101 
4 *665:50 *1970:D 15.8982 
5 *665:50 *665:83 33.3684 
6 *665:83 *2034:D 21.5937 
7 *665:83 *2118:A 17.7904 
8 *665:38 *2002:D 17.7904 
9 *665:18 *1938:D 9.3 
*END

*D_NET *666 0.017717
*CONN
*I *1920:GATE I *D sky130_fd_sc_hd__dlxtp_1
*I *1916:GATE I *D sky130_fd_sc_hd__dlxtp_1
*I *1918:GATE I *D sky130_fd_sc_hd__dlxtp_1
*I *1919:GATE I *D sky130_fd_sc_hd__dlxtp_1
*I *1917:GATE I *D sky130_fd_sc_hd__dlxtp_1
*I *1921:GATE I *D sky130_fd_sc_hd__dlxtp_1
*I *1922:GATE I *D sky130_fd_sc_hd__dlxtp_1
*I *1927:GATE I *D sky130_fd_sc_hd__dlxtp_1
*I *1926:GATE I *D sky130_fd_sc_hd__dlxtp_1
*I *1925:GATE I *D sky130_fd_sc_hd__dlxtp_1
*I *2168:X O *D sky130_fd_sc_hd__clkbuf_2
*CAP
1 *1920:GATE 8.007e-05
2 *1916:GATE 0.000275961
3 *1918:GATE 0
4 *1919:GATE 0.000237156
5 *1917:GATE 0.00041598
6 *1921:GATE 0
7 *1922:GATE 0
8 *1927:GATE 0.000117007
9 *1926:GATE 0
10 *1925:GATE 0
11 *2168:X 0.00169334
12 *666:151 0.00036931
13 *666:145 0.000662263
14 *666:132 0.000870157
15 *666:126 0.000635784
16 *666:85 0.000169023
17 *666:76 0.00109692
18 *666:56 0.00178353
19 *666:32 0.00207628
20 *666:32 *683:28 0.000211913
21 *666:32 *683:30 5.41794e-05
22 *666:56 *683:28 2.59355e-05
23 *666:76 *2184:A 4.26287e-05
24 *666:76 *683:10 0.00050998
25 *666:76 *683:18 9.54798e-06
26 *1916:D *1916:GATE 1.39726e-05
27 *1918:D *1919:GATE 5.33005e-05
28 *1920:D *1920:GATE 6.81704e-05
29 *1921:D *666:56 0.000128452
30 *1924:GATE *666:32 5.33005e-05
31 *1924:GATE *666:126 2.59355e-05
32 *1925:D *1927:GATE 0.000163705
33 *1925:D *666:76 1.19299e-05
34 *1925:D *666:85 0.000188071
35 *1927:D *1927:GATE 0
36 *1983:D *666:76 8.75335e-05
37 *2044:D *666:145 1.34698e-05
38 *2047:D *1919:GATE 9.58181e-05
39 *2050:D *666:56 4.00608e-05
40 *2135:A *666:32 6.05161e-06
41 *2197:A *666:145 2.05694e-05
42 *2277:A *666:56 0.000157445
43 *2385:A *1916:GATE 3.1835e-05
44 *2387:A *666:56 4.62317e-05
45 *2396:A *666:32 0.000123054
46 *153:21 *666:145 0
47 *156:27 *1919:GATE 0.000146474
48 *156:27 *666:126 0.00089416
49 *156:27 *666:132 0.000126439
50 *156:27 *666:145 0
51 *156:27 *666:151 0
52 *156:47 *666:76 2.04745e-05
53 *160:39 *666:32 6.40917e-05
54 *487:40 *1919:GATE 3.39935e-05
55 *487:40 *666:151 2.84109e-05
56 *489:10 *666:56 0.000101545
57 *490:12 *1917:GATE 4.05677e-05
58 *490:12 *666:132 3.83493e-06
59 *497:14 *666:56 0.000104974
60 *557:94 *666:32 0.000167845
61 *557:94 *666:56 0.000183503
62 *557:104 *1916:GATE 6.12657e-05
63 *568:114 *1927:GATE 2.51343e-06
64 *568:114 *666:76 0.000135202
65 *568:122 *666:76 0.000412578
66 *568:122 *666:126 0.00088491
67 *568:122 *666:132 0.000126439
68 *568:122 *666:145 1.37595e-05
69 *582:20 *666:32 0.000224341
70 *587:12 *666:32 2.22824e-05
71 *587:24 *1927:GATE 0.000175512
72 *587:24 *666:76 5.59013e-05
73 *587:24 *666:85 0.00020212
74 *591:136 *666:76 0.000294558
75 *591:136 *666:151 1.01912e-05
76 *624:130 *666:56 8.62132e-05
77 *639:52 *666:76 0
78 *639:60 *666:32 0.000263421
79 *639:60 *666:56 1.71144e-05
80 *641:8 *1919:GATE 0.000146474
*RES
1 *2168:X *666:32 49.175 
2 *666:32 *666:56 30.5357 
3 *666:56 *666:76 21.8712 
4 *666:76 *1925:GATE 13.8 
5 *666:76 *666:85 2.55357 
6 *666:85 *1926:GATE 13.8 
7 *666:85 *1927:GATE 17.0143 
8 *666:56 *1922:GATE 9.3 
9 *666:32 *1921:GATE 9.3 
10 *2168:X *666:126 25.9964 
11 *666:126 *666:132 7.91071 
12 *666:132 *1917:GATE 14.2643 
13 *666:132 *666:145 8.57143 
14 *666:145 *666:151 6.67857 
15 *666:151 *1919:GATE 23.6929 
16 *666:151 *1918:GATE 9.3 
17 *666:145 *1916:GATE 17.5321 
18 *666:126 *1920:GATE 15.1571 
*END

*D_NET *667 0.0351924
*CONN
*I *1940:GATE I *D sky130_fd_sc_hd__dlxtp_1
*I *1941:GATE I *D sky130_fd_sc_hd__dlxtp_1
*I *1932:GATE I *D sky130_fd_sc_hd__dlxtp_1
*I *1958:GATE I *D sky130_fd_sc_hd__dlxtp_1
*I *1959:GATE I *D sky130_fd_sc_hd__dlxtp_1
*I *1933:GATE I *D sky130_fd_sc_hd__dlxtp_1
*I *1946:GATE I *D sky130_fd_sc_hd__dlxtp_1
*I *1947:GATE I *D sky130_fd_sc_hd__dlxtp_1
*I *1950:GATE I *D sky130_fd_sc_hd__dlxtp_1
*I *1951:GATE I *D sky130_fd_sc_hd__dlxtp_1
*I *2169:X O *D sky130_fd_sc_hd__buf_2
*CAP
1 *1940:GATE 0
2 *1941:GATE 0.000780173
3 *1932:GATE 0
4 *1958:GATE 0.000428289
5 *1959:GATE 3.31824e-05
6 *1933:GATE 3.98048e-05
7 *1946:GATE 0.000161601
8 *1947:GATE 0
9 *1950:GATE 4.26984e-05
10 *1951:GATE 5.42173e-05
11 *2169:X 6.51109e-05
12 *667:224 0.000832016
13 *667:187 0.000668357
14 *667:176 0.000342922
15 *667:174 9.6232e-05
16 *667:172 0.00196768
17 *667:138 0.003215
18 *667:87 0.00182038
19 *667:74 0.00125324
20 *667:54 0.00211355
21 *667:23 0.00138557
22 *667:12 0.000200571
23 *667:8 0.0001922
24 *1941:GATE *1910:A3 1.58163e-05
25 *1941:GATE *1940:D 8.55871e-05
26 *1941:GATE *689:24 1.12262e-05
27 *1951:GATE *705:10 9.18429e-05
28 *1958:GATE *678:10 3.17163e-05
29 *1958:GATE *678:49 4.02317e-05
30 *1959:GATE *678:16 6.05161e-06
31 *667:8 *689:24 0.000126938
32 *667:54 *1875:A2 0.000454303
33 *667:54 *699:66 0.00012252
34 *667:54 *701:54 0.000460115
35 *667:54 *705:49 0.000200221
36 *667:54 *708:28 7.80167e-05
37 *667:74 *671:111 9.96264e-05
38 *667:74 *675:174 0.000440287
39 *667:74 *707:93 0.000336161
40 *667:138 *708:56 0
41 *667:172 *1889:A2 2.11419e-05
42 *667:172 *1893:A1 5.73777e-06
43 *667:172 *1978:GATE 0.000115618
44 *667:172 *1979:GATE 8.33274e-05
45 *667:172 *669:75 6.72288e-05
46 *667:172 *673:50 0.000217021
47 *667:172 *695:103 0.000134845
48 *667:172 *701:54 0.000511278
49 *667:172 *704:110 0.000234408
50 *667:187 *678:10 6.19181e-05
51 *667:224 *689:24 0.000119057
52 *740:DIODE *667:138 0.000648507
53 *740:DIODE *667:172 9.12859e-05
54 *1881:A0 *667:138 2.09897e-05
55 *1884:A0 *667:74 0.000109831
56 *1889:S1 *667:172 0.000308371
57 *1895:A3 *667:54 0.000443159
58 *1899:S0 *667:172 0.000147125
59 *1899:S1 *667:172 9.63204e-05
60 *1900:S1 *667:172 6.58294e-06
61 *1905:A0 *1941:GATE 0.00012401
62 *1911:A0 *667:12 2.26424e-05
63 *1911:A0 *667:54 6.80986e-05
64 *1933:D *667:176 0.000166982
65 *1946:D *1946:GATE 3.69047e-06
66 *1947:D *667:74 0.000194846
67 *1947:D *667:87 4.15328e-05
68 *1951:D *1951:GATE 2.36643e-05
69 *1958:D *1958:GATE 5.01871e-05
70 *1979:D *667:172 0.000178425
71 *2027:D *667:54 0.000349275
72 *2078:A *667:8 4.82865e-05
73 *2305:A *667:138 0.000405967
74 *2307:A *667:138 2.32275e-05
75 *2309:A *667:138 1.18554e-05
76 *2309:A *667:172 0.000294152
77 *2314:A *667:138 0.000179194
78 *2316:A *667:87 5.02105e-05
79 *2319:A *1946:GATE 1.10137e-05
80 *2345:A *667:172 0.00030616
81 *2353:A *667:172 0.00013833
82 *144:91 *667:74 2.87627e-05
83 *144:121 *667:74 6.21521e-06
84 *145:85 *667:176 0
85 *145:85 *667:187 0
86 *146:99 *667:172 0.000208803
87 *148:97 *1958:GATE 6.74861e-05
88 *148:97 *667:172 1.81922e-05
89 *148:97 *667:176 0.000102477
90 *148:97 *667:187 0.000194658
91 *150:41 *667:74 0.000995297
92 *151:77 *667:172 0.000178115
93 *159:93 *667:87 7.14469e-05
94 *159:93 *667:138 0.000915052
95 *181:44 *667:54 7.55804e-05
96 *233:80 *667:172 5.06496e-05
97 *233:122 *1959:GATE 2.95726e-05
98 *234:58 *667:138 5.47223e-05
99 *243:20 *667:54 8.55871e-05
100 *249:34 *667:54 0.000216755
101 *392:36 *667:74 0.000127353
102 *392:36 *667:87 3.36651e-05
103 *409:18 *667:54 3.12583e-05
104 *479:130 *667:138 0.000578794
105 *484:50 *667:74 5.91722e-05
106 *520:58 *1946:GATE 1.58163e-05
107 *527:10 *1941:GATE 5.33005e-05
108 *528:44 *667:87 7.14469e-05
109 *528:44 *667:138 8.6229e-06
110 *529:40 *667:74 3.8372e-05
111 *533:18 *667:12 0.000119767
112 *533:18 *667:23 0.000216813
113 *533:18 *667:54 0.000128161
114 *535:52 *667:138 6.14727e-05
115 *535:52 *667:172 5.30167e-05
116 *535:112 *667:172 0.000494628
117 *535:157 *667:74 0.000203557
118 *542:20 *667:172 0.000150737
119 *544:68 *667:138 6.57032e-05
120 *550:30 *667:87 0
121 *562:30 *667:138 3.70204e-05
122 *567:72 *667:138 0.000193674
123 *569:62 *667:54 6.05161e-06
124 *569:82 *667:138 9.9067e-05
125 *572:12 *1959:GATE 5.03772e-05
126 *584:84 *667:172 6.69932e-05
127 *588:16 *1958:GATE 6.76966e-05
128 *591:102 *667:23 0.000150774
129 *591:102 *667:54 1.1594e-05
130 *591:126 *667:23 2.14378e-05
131 *593:118 *667:172 8.0696e-05
132 *595:36 *667:172 0.000240981
133 *596:82 *667:54 0.000199911
134 *596:82 *667:74 0.000121426
135 *626:122 *667:8 1.56e-05
136 *626:122 *667:224 1.39726e-05
137 *634:54 *667:74 0.000524918
138 *634:176 *667:172 0.000333833
139 *637:114 *667:138 0.000374457
140 *645:78 *667:172 7.84437e-05
141 *651:247 *667:74 6.75178e-05
142 *652:139 *667:54 1.53472e-05
143 *659:116 *667:54 0.000122173
144 *660:115 *667:74 0.000194003
145 *661:177 *667:54 0.00023897
146 *662:132 *1951:GATE 0.000136682
147 *662:132 *667:12 0.000167072
148 *662:132 *667:23 2.26824e-05
149 *662:142 *667:54 0.000455682
150 *664:125 *1941:GATE 0.000189744
151 *664:143 *1941:GATE 0.000131614
152 *664:143 *667:54 0.000386433
153 *664:166 *667:54 0.000135532
*RES
1 *2169:X *667:8 11.0857 
2 *667:8 *667:12 6.75 
3 *667:12 *1951:GATE 15.5679 
4 *667:12 *667:23 2.85714 
5 *667:23 *1950:GATE 14.3357 
6 *667:23 *667:54 48.3929 
7 *667:54 *667:74 40.3504 
8 *667:74 *1947:GATE 9.3 
9 *667:74 *667:87 10.0893 
10 *667:87 *1946:GATE 16.1393 
11 *667:87 *667:138 49.6429 
12 *667:138 *667:172 48.3763 
13 *667:172 *667:174 3.41 
14 *667:174 *667:176 2.70536 
15 *667:176 *1933:GATE 14.3357 
16 *667:176 *667:187 4.98214 
17 *667:187 *1959:GATE 14.7464 
18 *667:187 *1958:GATE 20.55 
19 *667:174 *1932:GATE 13.8 
20 *667:8 *667:224 1.35714 
21 *667:224 *1941:GATE 29.0321 
22 *667:224 *1940:GATE 9.3 
*END

*D_NET *668 0.0324531
*CONN
*I *1929:GATE I *D sky130_fd_sc_hd__dlxtp_1
*I *1936:GATE I *D sky130_fd_sc_hd__dlxtp_1
*I *1955:GATE I *D sky130_fd_sc_hd__dlxtp_1
*I *1954:GATE I *D sky130_fd_sc_hd__dlxtp_1
*I *2169:A I *D sky130_fd_sc_hd__buf_2
*I *1956:GATE I *D sky130_fd_sc_hd__dlxtp_1
*I *1953:GATE I *D sky130_fd_sc_hd__dlxtp_1
*I *1952:GATE I *D sky130_fd_sc_hd__dlxtp_1
*I *1957:GATE I *D sky130_fd_sc_hd__dlxtp_1
*I *1937:GATE I *D sky130_fd_sc_hd__dlxtp_1
*I *2170:X O *D sky130_fd_sc_hd__buf_2
*CAP
1 *1929:GATE 1.71076e-05
2 *1936:GATE 7.61618e-05
3 *1955:GATE 0.000375404
4 *1954:GATE 2.86998e-05
5 *2169:A 2.25053e-05
6 *1956:GATE 0
7 *1953:GATE 2.23854e-05
8 *1952:GATE 0.000249343
9 *1957:GATE 0
10 *1937:GATE 0
11 *2170:X 0.000860213
12 *668:140 0.000689825
13 *668:130 0.000894467
14 *668:115 0.000702429
15 *668:109 0.000534849
16 *668:107 0.000776034
17 *668:95 0.000940256
18 *668:93 0.00129348
19 *668:69 0.00277968
20 *668:49 0.00206664
21 *668:34 0.00109218
22 *668:14 0.00156902
23 *1929:GATE *672:100 5.33005e-05
24 *1936:GATE *687:70 0
25 *1955:GATE *699:66 0.000136676
26 *2169:A *689:24 1.58163e-05
27 *668:14 *1878:A1 0.000700346
28 *668:14 *1944:GATE 0.000128706
29 *668:14 *1945:GATE 1.94945e-05
30 *668:14 *698:44 0
31 *668:69 *1984:GATE 2.79421e-05
32 *668:69 *673:116 0.000546447
33 *668:69 *675:38 0.000191142
34 *668:69 *675:130 2.13758e-05
35 *668:69 *687:92 1.3407e-05
36 *668:93 *673:124 0.00114671
37 *668:93 *701:54 0.000111731
38 *668:107 *1986:GATE 0.00020609
39 *668:107 *673:124 9.82592e-05
40 *668:109 *1986:GATE 5.74562e-05
41 *1812:A1 *668:34 0.000139187
42 *1822:A0 *668:93 5.49544e-05
43 *1822:S *668:93 3.97677e-05
44 *1824:A2 *668:93 0.000178743
45 *1828:A3 *668:93 0.000117457
46 *1878:A0 *668:14 0.000639998
47 *1880:S1 *668:95 0
48 *1908:A0 *668:14 0.000766829
49 *1908:A0 *668:34 0.000102858
50 *1910:S1 *668:115 2.42516e-05
51 *1910:S1 *668:130 9.41642e-05
52 *1937:D *668:49 3.16795e-05
53 *1954:D *1954:GATE 9.66977e-05
54 *1955:D *1955:GATE 0.000525222
55 *1955:D *668:107 8.71772e-05
56 *1956:D *668:130 4.00679e-05
57 *1957:D *668:115 9.58181e-05
58 *1957:D *668:130 9.09739e-05
59 *1984:D *668:69 1.58163e-05
60 *2000:D *668:49 0.000117242
61 *2001:D *668:49 4.57559e-05
62 *2018:D *668:93 0.000125355
63 *2023:D *668:69 0.000116921
64 *2027:D *668:93 0.000507618
65 *2038:D *668:93 9.41642e-05
66 *2041:D *668:69 0.000619054
67 *2078:A *2169:A 5.33005e-05
68 *2086:A *668:95 3.90831e-05
69 *2102:A *668:93 4.18834e-05
70 *2109:A *668:34 5.33005e-05
71 *2241:A *668:34 0.000145402
72 *2271:A *668:14 0
73 *153:43 *1952:GATE 6.43196e-05
74 *153:43 *668:140 6.61149e-05
75 *153:119 *1929:GATE 2.84109e-05
76 *153:119 *668:34 6.68696e-05
77 *153:129 *668:14 0
78 *157:87 *668:69 6.76254e-05
79 *409:18 *668:93 0.00085018
80 *409:18 *668:107 0.000335059
81 *409:18 *668:109 0.000502772
82 *479:46 *668:93 0.000281085
83 *479:60 *668:93 0.000112655
84 *502:8 *668:14 0.000307148
85 *504:18 *1952:GATE 0.000153762
86 *505:24 *668:109 0.000631863
87 *505:24 *668:115 0.000371568
88 *544:32 *668:107 1.73088e-05
89 *546:31 *668:49 0.000260799
90 *546:31 *668:69 9.24507e-05
91 *587:24 *668:140 1.21258e-05
92 *587:60 *668:93 0.000113584
93 *587:60 *668:95 0.000173256
94 *587:60 *668:107 5.41164e-05
95 *591:34 *668:14 0.000119924
96 *591:126 *668:109 0.000127441
97 *591:126 *668:115 0.000182217
98 *593:18 *1952:GATE 3.55471e-05
99 *593:18 *668:140 7.6477e-05
100 *593:44 *668:140 2.28631e-05
101 *602:34 *668:34 0.000216755
102 *602:34 *668:49 1.46231e-05
103 *602:70 *668:49 1.28569e-05
104 *602:131 *1952:GATE 0.00022129
105 *602:160 *668:140 3.19941e-05
106 *603:66 *668:34 9.65172e-05
107 *626:70 *668:49 5.95603e-05
108 *626:100 *668:93 0
109 *628:112 *668:130 2.71447e-05
110 *628:112 *668:140 0.000215704
111 *630:84 *668:69 1.81805e-05
112 *631:65 *668:69 0.000142992
113 *633:78 *668:69 0.000175892
114 *635:92 *668:69 8.99426e-05
115 *636:117 *668:69 0.000262525
116 *637:108 *668:69 8.7686e-05
117 *638:22 *1952:GATE 0.000157191
118 *638:74 *1936:GATE 3.8834e-05
119 *643:50 *668:93 0
120 *643:50 *668:95 2.19502e-05
121 *643:50 *668:107 5.56331e-05
122 *644:115 *668:34 0.000198428
123 *652:127 *668:107 6.05161e-06
124 *654:88 *668:14 0.000292646
125 *654:88 *668:34 0.000322266
126 *658:93 *1954:GATE 4.18657e-05
127 *658:133 *668:69 0.000351856
128 *661:177 *668:93 0.000153684
129 *662:177 *668:93 6.50032e-05
130 *665:18 *668:34 0.00038021
*RES
1 *2170:X *668:14 36.4071 
2 *668:14 *668:34 21.2321 
3 *668:34 *1937:GATE 9.3 
4 *668:34 *668:49 12.0179 
5 *668:49 *668:69 47.25 
6 *668:69 *668:93 49.4286 
7 *668:93 *668:95 2.55357 
8 *668:95 *668:107 17.8393 
9 *668:107 *668:109 9.83929 
10 *668:109 *668:115 10.4286 
11 *668:115 *1957:GATE 9.3 
12 *668:115 *668:130 7.48214 
13 *668:130 *668:140 16.8393 
14 *668:140 *1952:GATE 24.1929 
15 *668:140 *1953:GATE 9.72857 
16 *668:130 *1956:GATE 9.3 
17 *668:109 *2169:A 14.3357 
18 *668:107 *1954:GATE 14.7464 
19 *668:95 *1955:GATE 20.5143 
20 *668:49 *1936:GATE 15.1929 
21 *668:14 *1929:GATE 14.3357 
*END

*D_NET *669 0.0289721
*CONN
*I *1943:GATE I *D sky130_fd_sc_hd__dlxtp_1
*I *1948:GATE I *D sky130_fd_sc_hd__dlxtp_1
*I *1949:GATE I *D sky130_fd_sc_hd__dlxtp_1
*I *1944:GATE I *D sky130_fd_sc_hd__dlxtp_1
*I *1945:GATE I *D sky130_fd_sc_hd__dlxtp_1
*I *1935:GATE I *D sky130_fd_sc_hd__dlxtp_1
*I *1938:GATE I *D sky130_fd_sc_hd__dlxtp_1
*I *1939:GATE I *D sky130_fd_sc_hd__dlxtp_1
*I *1934:GATE I *D sky130_fd_sc_hd__dlxtp_1
*I *2143:A I *D sky130_fd_sc_hd__clkbuf_1
*I *2171:X O *D sky130_fd_sc_hd__buf_2
*CAP
1 *1943:GATE 0.00011774
2 *1948:GATE 0.000132826
3 *1949:GATE 0.000181279
4 *1944:GATE 0.000268834
5 *1945:GATE 5.43108e-05
6 *1935:GATE 9.0039e-05
7 *1938:GATE 0.000463784
8 *1939:GATE 6.26382e-05
9 *1934:GATE 0.000380824
10 *2143:A 0.000244662
11 *2171:X 0
12 *669:155 0.00113177
13 *669:114 0.000644108
14 *669:108 0.000815716
15 *669:96 0.00178237
16 *669:75 0.00182223
17 *669:53 0.00156534
18 *669:45 0.00163313
19 *669:23 0.0018032
20 *669:4 0.000738218
21 *1938:GATE *1939:D 2.55806e-05
22 *1939:GATE *1939:D 7.20217e-06
23 *1939:GATE *676:10 3.01692e-05
24 *1944:GATE *1878:A1 0.000195624
25 *1944:GATE *698:175 0
26 *1949:GATE *735:DIODE 0.000135028
27 *2143:A *1988:GATE 2.2351e-05
28 *669:45 *1890:A1 9.71502e-05
29 *669:45 *679:72 1.75989e-05
30 *669:45 *679:85 0.000102554
31 *669:45 *691:105 5.03772e-05
32 *669:53 *691:105 0.000167419
33 *669:75 *673:90 1.40863e-05
34 *669:75 *701:54 0.000172294
35 *669:75 *708:84 0.00057891
36 *669:96 *1999:GATE 6.06291e-05
37 *669:155 *675:64 0.00096076
38 *724:DIODE *1943:GATE 0.000110363
39 *724:DIODE *669:45 0.000499731
40 *1881:A1 *669:114 0.000261071
41 *1882:S0 *1949:GATE 0.000298483
42 *1890:S1 *669:45 0.000128146
43 *1891:S1 *2143:A 5.10822e-05
44 *1893:S0 *669:45 7.57673e-05
45 *1900:S1 *669:53 0.000123664
46 *1900:S1 *669:75 5.58875e-06
47 *1934:D *1934:GATE 9.41642e-05
48 *1949:D *1949:GATE 0.00012177
49 *1975:D *2143:A 2.22891e-05
50 *1988:D *2143:A 0.000226271
51 *2056:D *1935:GATE 9.41642e-05
52 *2056:D *669:108 0.000633744
53 *2076:A *669:53 0.000117094
54 *2163:A *1934:GATE 2.84109e-05
55 *2271:A *1945:GATE 5.7836e-06
56 *2271:A *669:155 0
57 *2339:A *1948:GATE 1.98839e-05
58 *2342:A *669:96 0.000216755
59 *145:85 *1934:GATE 7.6644e-05
60 *145:85 *669:45 5.08481e-05
61 *145:85 *669:75 0.000406792
62 *148:97 *669:45 0.000176764
63 *148:97 *669:75 4.65519e-05
64 *150:57 *1934:GATE 8.14617e-05
65 *150:69 *1934:GATE 7.83587e-05
66 *150:69 *669:45 0.000260384
67 *150:69 *669:53 6.35864e-05
68 *150:69 *669:75 0.000405806
69 *151:77 *669:75 0.000967555
70 *160:113 *1935:GATE 1.24368e-05
71 *233:8 *1935:GATE 4.08637e-05
72 *233:8 *669:108 0.00013723
73 *233:25 *669:114 2.20282e-05
74 *233:80 *669:75 2.16715e-05
75 *480:108 *1944:GATE 0.000187793
76 *482:76 *669:155 0.00016375
77 *482:105 *669:155 0.000237245
78 *491:96 *669:45 0.000467396
79 *491:102 *1943:GATE 9.60875e-05
80 *519:14 *669:45 2.14771e-05
81 *531:34 *669:53 2.22043e-05
82 *535:52 *669:75 7.8795e-05
83 *544:68 *669:114 5.58875e-06
84 *553:20 *669:108 0.000472643
85 *557:32 *1944:GATE 8.59698e-05
86 *557:147 *1948:GATE 0.000165123
87 *558:14 *669:108 0.000476589
88 *572:12 *669:53 2.30043e-05
89 *580:16 *669:45 0.000386121
90 *582:94 *1945:GATE 3.04311e-05
91 *588:16 *669:23 0.000689256
92 *592:26 *1948:GATE 0.000298483
93 *593:118 *669:45 0.000159547
94 *593:118 *669:53 0.000206722
95 *595:18 *669:45 9.25014e-06
96 *598:28 *1934:GATE 2.59355e-05
97 *599:18 *1935:GATE 8.25843e-06
98 *601:30 *669:75 2.04745e-05
99 *618:96 *669:114 0.000270436
100 *618:132 *1943:GATE 0.000118986
101 *618:132 *669:45 0.000139032
102 *625:8 *1945:GATE 4.58194e-05
103 *630:26 *2143:A 0.00013921
104 *631:18 *2143:A 0.00010326
105 *631:65 *669:155 1.88999e-05
106 *632:107 *669:155 0
107 *634:176 *669:108 0.000267871
108 *634:186 *669:45 4.62246e-05
109 *635:102 *669:75 0.000283634
110 *635:112 *669:45 5.31122e-05
111 *636:159 *1934:GATE 0.000135028
112 *636:166 *1934:GATE 5.33005e-05
113 *645:78 *669:53 8.62585e-05
114 *645:78 *669:75 1.94879e-05
115 *646:127 *1949:GATE 0
116 *665:18 *1938:GATE 8.40155e-05
117 *667:172 *669:75 6.72288e-05
118 *668:14 *1944:GATE 0.000128706
119 *668:14 *1945:GATE 1.94945e-05
*RES
1 *2171:X *669:4 9.3 
2 *669:4 *2143:A 23.8893 
3 *669:4 *669:23 11.1964 
4 *669:23 *669:45 45.7857 
5 *669:45 *669:53 8.41071 
6 *669:53 *669:75 22.4751 
7 *669:75 *1934:GATE 20.7464 
8 *669:75 *669:96 13.2321 
9 *669:96 *669:108 19.5 
10 *669:108 *669:114 12.7679 
11 *669:114 *1939:GATE 10.6929 
12 *669:114 *1938:GATE 14.675 
13 *669:108 *1935:GATE 11.0857 
14 *669:96 *669:155 8.90367 
15 *669:155 *1945:GATE 15.0232 
16 *669:155 *1944:GATE 20.3446 
17 *669:53 *1949:GATE 18.05 
18 *669:45 *1948:GATE 17.2107 
19 *669:23 *1943:GATE 16.3893 
*END

*D_NET *670 0.0106285
*CONN
*I *1930:GATE I *D sky130_fd_sc_hd__dlxtp_1
*I *1931:GATE I *D sky130_fd_sc_hd__dlxtp_1
*I *2170:A I *D sky130_fd_sc_hd__buf_2
*I *1928:GATE I *D sky130_fd_sc_hd__dlxtp_1
*I *1942:GATE I *D sky130_fd_sc_hd__dlxtp_1
*I *2171:A I *D sky130_fd_sc_hd__buf_2
*I *2172:X O *D sky130_fd_sc_hd__clkbuf_2
*CAP
1 *1930:GATE 0
2 *1931:GATE 0
3 *2170:A 0
4 *1928:GATE 0.000320806
5 *1942:GATE 3.89462e-05
6 *2171:A 2.23854e-05
7 *2172:X 0.0005647
8 *670:65 0.0011522
9 *670:59 0.00118152
10 *670:45 0.000745234
11 *670:6 0.000230921
12 *1928:GATE *675:102 0.000191836
13 *670:45 *1995:GATE 0.000128154
14 *670:45 *674:114 0.000271951
15 *670:45 *679:97 2.7764e-05
16 *670:45 *687:28 0.000106542
17 *670:65 *1878:A1 5.49489e-05
18 *670:65 *673:21 7.57673e-05
19 *670:65 *673:34 3.61898e-05
20 *670:65 *673:185 0.000530133
21 *670:65 *673:189 3.55056e-05
22 *1878:A0 *670:65 9.58181e-05
23 *1891:S0 *670:45 1.33343e-05
24 *1958:D *1942:GATE 9.33521e-05
25 *1958:D *670:6 2.59355e-05
26 *1977:D *670:65 4.00388e-05
27 *1989:D *670:65 0.00017309
28 *1994:D *670:45 0.000161618
29 *1995:D *670:45 0.000219994
30 *1995:D *670:59 0.000128292
31 *2128:A *670:65 3.26437e-05
32 *2172:A *670:45 7.83659e-05
33 *2200:A *670:6 8.86898e-05
34 *153:129 *670:65 0.000515127
35 *480:153 *670:65 8.40351e-06
36 *502:8 *1928:GATE 3.97677e-05
37 *502:8 *670:65 5.50638e-05
38 *502:105 *670:65 0.000529331
39 *512:14 *1928:GATE 0.00035903
40 *535:16 *670:65 6.35819e-05
41 *557:32 *670:65 0.000136605
42 *557:143 *670:65 5.60152e-05
43 *580:16 *670:65 0.000288557
44 *581:14 *670:65 0.000103266
45 *582:128 *670:65 6.81704e-05
46 *584:84 *1928:GATE 9.58181e-05
47 *584:84 *670:65 4.17433e-05
48 *588:16 *1942:GATE 9.94037e-05
49 *588:16 *670:6 0.000428329
50 *589:16 *670:59 0.00011795
51 *589:16 *670:65 0.000117144
52 *613:40 *670:45 0
53 *625:10 *1928:GATE 8.73486e-05
54 *627:22 *670:6 5.52302e-05
55 *629:69 *670:59 0
56 *630:26 *670:6 0.000129628
57 *630:50 *670:45 7.80851e-06
58 *630:50 *670:59 3.72078e-05
59 *630:50 *670:65 0.000299131
60 *630:66 *670:65 2.22043e-05
*RES
1 *2172:X *670:6 14.7643 
2 *670:6 *2171:A 9.72857 
3 *670:6 *1942:GATE 11.0679 
4 *2172:X *670:45 37.6036 
5 *670:45 *670:59 18.8929 
6 *670:59 *670:65 31.6071 
7 *670:65 *1928:GATE 26.1214 
8 *670:65 *2170:A 9.3 
9 *670:59 *1931:GATE 13.8 
10 *670:45 *1930:GATE 9.3 
*END

*D_NET *671 0.0250886
*CONN
*I *1960:GATE I *D sky130_fd_sc_hd__dlxtp_1
*I *1961:GATE I *D sky130_fd_sc_hd__dlxtp_1
*I *1973:GATE I *D sky130_fd_sc_hd__dlxtp_1
*I *1970:GATE I *D sky130_fd_sc_hd__dlxtp_1
*I *1971:GATE I *D sky130_fd_sc_hd__dlxtp_1
*I *1966:GATE I *D sky130_fd_sc_hd__dlxtp_1
*I *1967:GATE I *D sky130_fd_sc_hd__dlxtp_1
*I *1972:GATE I *D sky130_fd_sc_hd__dlxtp_1
*I *1963:GATE I *D sky130_fd_sc_hd__dlxtp_1
*I *1962:GATE I *D sky130_fd_sc_hd__dlxtp_1
*I *2173:X O *D sky130_fd_sc_hd__clkbuf_2
*CAP
1 *1960:GATE 9.44852e-05
2 *1961:GATE 0
3 *1973:GATE 0
4 *1970:GATE 3.04135e-05
5 *1971:GATE 3.97594e-05
6 *1966:GATE 0
7 *1967:GATE 9.79208e-05
8 *1972:GATE 3.12428e-05
9 *1963:GATE 2.37855e-05
10 *1962:GATE 0.000384275
11 *2173:X 0.000102889
12 *671:164 0.000560965
13 *671:115 0.000173563
14 *671:113 0.000398314
15 *671:111 0.00117077
16 *671:87 0.00146417
17 *671:70 0.00115224
18 *671:53 0.000925796
19 *671:30 0.0029141
20 *671:10 0.00271145
21 *1967:GATE *676:99 2.14474e-05
22 *1967:GATE *690:61 0.000193496
23 *1971:GATE *699:66 9.41642e-05
24 *1972:GATE *1972:D 1.97695e-05
25 *671:10 *1808:A3 5.33005e-05
26 *671:10 *672:52 2.18985e-05
27 *671:10 *672:100 2.59355e-05
28 *671:30 *672:134 0.000131327
29 *671:30 *687:92 0.000195941
30 *671:30 *693:84 6.08671e-05
31 *671:70 *708:28 9.25014e-06
32 *671:87 *1902:A0 0.000167884
33 *671:87 *1902:A1 1.98839e-05
34 *671:87 *1902:A2 1.65169e-05
35 *671:87 *1972:D 4.18158e-05
36 *671:87 *690:61 2.31791e-05
37 *671:111 *690:61 0.000384889
38 *671:111 *694:44 0.00027371
39 *671:113 *1971:D 8.6229e-06
40 *671:113 *676:85 0.000130011
41 *671:113 *690:61 0.000322508
42 *671:115 *1971:D 0.000107772
43 *671:115 *676:85 0.000116395
44 *671:115 *676:99 5.7248e-05
45 *671:115 *690:61 2.15383e-05
46 *671:164 *672:100 0.000219289
47 *1822:A1 *671:111 0.000257619
48 *1907:S0 *1962:GATE 4.38942e-05
49 *1907:S0 *671:53 3.63775e-05
50 *1908:A0 *671:10 7.03408e-05
51 *1908:A0 *671:30 0.000240871
52 *1963:D *671:53 8.25843e-06
53 *1963:D *671:70 2.19059e-05
54 *2040:D *671:30 0.000170661
55 *2079:A *671:113 1.94879e-05
56 *2102:A *671:111 0.000102443
57 *2263:A *1960:GATE 0.000124529
58 *2304:A *671:30 0.000349217
59 *143:59 *671:70 0.000377237
60 *143:59 *671:111 0.000379332
61 *150:41 *671:111 5.55628e-05
62 *153:129 *671:10 7.90803e-05
63 *153:129 *671:30 0.000164633
64 *154:95 *1962:GATE 2.40747e-05
65 *160:79 *671:111 3.90458e-05
66 *249:34 *671:111 0.000141101
67 *479:62 *671:70 0.000317659
68 *484:50 *671:111 0.00073449
69 *502:75 *671:10 6.05161e-06
70 *512:14 *1960:GATE 0.000124529
71 *517:60 *671:111 0.000115214
72 *528:44 *671:87 8.91726e-05
73 *528:44 *671:111 7.05143e-06
74 *529:40 *671:30 0.00210941
75 *533:52 *671:111 5.96516e-05
76 *538:32 *671:111 7.02374e-05
77 *545:38 *1970:GATE 5.33005e-05
78 *585:30 *671:30 0.000192909
79 *586:74 *1962:GATE 3.57366e-05
80 *587:90 *671:53 0.000167637
81 *590:130 *671:30 3.5724e-05
82 *596:82 *671:111 1.24368e-05
83 *597:46 *671:70 2.2628e-05
84 *618:96 *671:30 0.000431155
85 *633:78 *671:53 0.000225589
86 *634:10 *671:53 0.000303542
87 *634:130 *671:53 0.00033109
88 *635:42 *671:30 4.48011e-05
89 *635:92 *671:30 1.04707e-05
90 *636:26 *671:30 1.53472e-05
91 *636:54 *1962:GATE 0.000302657
92 *636:54 *671:53 0.000301155
93 *636:54 *671:113 2.72636e-05
94 *642:34 *671:111 2.22866e-05
95 *644:149 *671:164 0.000181051
96 *659:116 *671:111 0.000119947
97 *661:112 *1967:GATE 0.000144415
98 *661:132 *1971:GATE 2.79421e-05
99 *661:132 *671:111 0.000153645
100 *661:132 *671:113 0.000451173
101 *665:50 *671:111 2.11419e-05
102 *667:74 *671:111 9.96264e-05
*RES
1 *2173:X *671:10 16.1929 
2 *671:10 *671:30 29.3961 
3 *671:30 *1962:GATE 16.1571 
4 *671:30 *671:53 19.7143 
5 *671:53 *1963:GATE 9.72857 
6 *671:53 *671:70 17.8214 
7 *671:70 *1972:GATE 10.0321 
8 *671:70 *671:87 13.6786 
9 *671:87 *671:111 35.1757 
10 *671:111 *671:113 7.41071 
11 *671:113 *671:115 2.25 
12 *671:115 *1967:GATE 16.8893 
13 *671:115 *1966:GATE 13.8 
14 *671:113 *1971:GATE 14.7464 
15 *671:111 *1970:GATE 14.3357 
16 *671:87 *1973:GATE 13.8 
17 *671:10 *671:164 10.5893 
18 *671:164 *1961:GATE 9.3 
19 *671:164 *1960:GATE 20.675 
*END

*D_NET *672 0.0494424
*CONN
*I *1965:GATE I *D sky130_fd_sc_hd__dlxtp_1
*I *1964:GATE I *D sky130_fd_sc_hd__dlxtp_1
*I *2173:A I *D sky130_fd_sc_hd__clkbuf_2
*I *1969:GATE I *D sky130_fd_sc_hd__dlxtp_1
*I *1968:GATE I *D sky130_fd_sc_hd__dlxtp_1
*I *1982:GATE I *D sky130_fd_sc_hd__dlxtp_1
*I *1983:GATE I *D sky130_fd_sc_hd__dlxtp_1
*I *1980:GATE I *D sky130_fd_sc_hd__dlxtp_1
*I *1981:GATE I *D sky130_fd_sc_hd__dlxtp_1
*I *2174:X O *D sky130_fd_sc_hd__buf_2
*CAP
1 *1965:GATE 0.000801489
2 *1964:GATE 0.000464814
3 *2173:A 0
4 *1969:GATE 0.000165902
5 *1968:GATE 0.000115947
6 *1982:GATE 0
7 *1983:GATE 0.000231341
8 *1980:GATE 0
9 *1981:GATE 0.000196452
10 *2174:X 0
11 *672:198 0.000290185
12 *672:194 0.000435985
13 *672:192 0.000756582
14 *672:184 0.00213545
15 *672:152 0.00167958
16 *672:148 0.000890299
17 *672:134 0.00368989
18 *672:100 0.00484353
19 *672:52 0.00376862
20 *672:18 0.00340952
21 *672:4 0.00178177
22 *672:18 *698:175 4.6025e-06
23 *672:52 *1808:A3 4.95714e-05
24 *672:52 *674:48 0.000261794
25 *672:52 *679:61 0.000130073
26 *672:52 *693:84 1.18064e-05
27 *672:52 *693:117 0
28 *672:100 *677:61 0.000119332
29 *672:100 *679:49 0.000429492
30 *672:100 *693:84 0.000334376
31 *672:100 *698:44 2.55698e-05
32 *672:134 *2008:GATE 0.000169372
33 *672:134 *673:116 0
34 *672:134 *684:46 7.02772e-05
35 *672:148 *706:66 0.000937735
36 *672:152 *706:66 0.0002169
37 *672:184 *684:130 0.000257626
38 *672:184 *706:66 8.25608e-05
39 B_config_C_bit2 *672:184 6.52967e-05
40 B_config_C_bit3 *672:184 0.000111218
41 C_config_C_bit1 *672:152 0.000189256
42 D_config_C_bit2 *672:134 0.000230963
43 D_config_C_bit3 *672:134 3.60822e-05
44 *1812:A0 *672:100 0.000104976
45 *1812:S1 *672:100 0.000122548
46 *1838:C1 *672:184 2.50489e-05
47 *1842:A4 *672:184 6.057e-07
48 *1842:A4 *672:192 5.65001e-05
49 *1842:B1 *672:184 0.000149549
50 *1885:S0 *1964:GATE 6.8147e-05
51 *1897:S1 *672:192 0.000100301
52 *1897:S1 *672:194 2.78512e-05
53 *1929:GATE *672:100 5.33005e-05
54 *1961:D *672:100 0
55 *1968:D *1968:GATE 0.000218685
56 *1968:D *672:148 0
57 *1981:D *1981:GATE 1.32056e-05
58 *2000:D *672:100 2.72619e-05
59 *2039:D *672:134 4.9445e-05
60 *2193:A *672:134 1.4677e-05
61 *2205:A *672:134 0.000114338
62 *2273:A *672:184 2.2355e-05
63 *2393:A *672:184 4.00679e-05
64 *143:109 *672:52 0.000110532
65 *153:43 *672:184 1.03972e-05
66 *153:119 *672:100 6.39571e-05
67 *153:142 *672:18 2.18766e-05
68 *156:51 *672:134 0.000999585
69 *157:41 *672:148 7.43121e-06
70 *157:41 *672:184 0.000387937
71 *157:107 *672:100 0.00034188
72 *160:79 *672:134 6.80417e-05
73 *233:99 *1965:GATE 0.000177545
74 *249:34 *672:134 2.52313e-05
75 *482:40 *672:134 0.00098637
76 *482:105 *672:52 4.10759e-05
77 *491:57 *1964:GATE 6.47444e-05
78 *491:57 *672:18 0.000108043
79 *491:96 *1964:GATE 6.30454e-05
80 *502:51 *672:52 3.27526e-05
81 *502:75 *672:52 0.00040174
82 *504:18 *672:184 9.54798e-06
83 *505:16 *672:192 1.18064e-05
84 *505:24 *672:192 2.09495e-05
85 *508:14 *672:192 0.00104186
86 *513:82 *672:52 0.000173976
87 *524:14 *1964:GATE 0.000660626
88 *524:14 *672:18 0.000716334
89 *529:40 *672:52 4.80501e-05
90 *544:48 *672:100 5.45735e-05
91 *553:20 *1964:GATE 1.01912e-05
92 *557:32 *672:18 0
93 *557:94 *1981:GATE 0.000123352
94 *568:114 *1981:GATE 0.000146994
95 *568:114 *1983:GATE 0.000238582
96 *568:114 *672:192 3.08382e-06
97 *568:114 *672:194 1.21258e-05
98 *568:114 *672:198 0.000170075
99 *568:163 *1965:GATE 0.00013017
100 *568:163 *672:18 5.49544e-05
101 *568:188 *1965:GATE 0.00046904
102 *574:14 *672:18 9.80534e-05
103 *575:18 *1965:GATE 6.8445e-06
104 *579:24 *672:18 0.00043006
105 *582:128 *672:18 3.87434e-05
106 *585:30 *672:100 2.06178e-05
107 *587:90 *672:134 2.87791e-06
108 *587:148 *672:100 0.000497045
109 *590:14 *672:148 0.000355357
110 *590:130 *672:100 2.67665e-05
111 *590:170 *672:52 0.000373295
112 *591:34 *672:52 1.24365e-06
113 *591:94 *672:134 0.000581977
114 *602:80 *672:100 1.4811e-05
115 *602:160 *672:192 1.50087e-05
116 *603:32 *672:134 0.000284207
117 *613:83 *672:134 0.000209292
118 *618:30 *672:184 0.000252254
119 *618:30 *672:192 1.09182e-05
120 *618:96 *672:134 0.000245661
121 *624:116 *672:148 0.000219289
122 *626:134 *672:192 0.000291644
123 *627:104 *672:134 0.00041992
124 *631:65 *672:52 0.0002341
125 *631:112 *672:148 0.000351935
126 *632:107 *672:52 9.60635e-05
127 *632:107 *672:100 0
128 *632:152 *672:52 1.23091e-05
129 *635:92 *672:100 3.25078e-05
130 *635:92 *672:134 0.000146687
131 *635:102 *1964:GATE 2.11419e-05
132 *635:112 *1965:GATE 9.48948e-05
133 *636:117 *672:100 4.90373e-05
134 *637:108 *672:100 0
135 *638:18 *672:148 0.000937735
136 *638:18 *672:152 4.22135e-06
137 *638:22 *672:152 1.01075e-05
138 *638:22 *672:184 0.000251166
139 *639:30 *672:134 0.000114637
140 *639:52 *1981:GATE 0
141 *639:52 *672:198 0
142 *643:28 *672:184 1.78353e-05
143 *643:116 *672:100 1.52736e-05
144 *643:129 *672:100 1.21317e-05
145 *643:164 *672:52 0.000926901
146 *644:115 *672:134 0.000113957
147 *651:137 *672:192 0.000506058
148 *651:247 *672:134 1.86181e-05
149 *652:34 *672:192 2.82057e-05
150 *652:175 *672:100 0.000340106
151 *652:175 *672:134 0.000638702
152 *654:82 *672:100 0.000291473
153 *654:82 *672:134 9.31037e-05
154 *654:88 *672:100 0.000139855
155 *658:113 *672:134 0.000430213
156 *661:207 *672:52 0.000110532
157 *671:10 *672:52 2.18985e-05
158 *671:10 *672:100 2.59355e-05
159 *671:30 *672:134 0.000131327
160 *671:164 *672:100 0.000219289
*RES
1 *2174:X *672:4 9.3 
2 *672:4 *672:18 18.9229 
3 *672:18 *672:52 37.1074 
4 *672:52 *672:100 46.395 
5 *672:100 *672:134 42.9154 
6 *672:134 *672:148 34.2411 
7 *672:148 *672:152 7.35714 
8 *672:152 *672:184 46.9554 
9 *672:184 *672:192 23.4018 
10 *672:192 *672:194 1.76786 
11 *672:194 *672:198 6.75 
12 *672:198 *1981:GATE 17.9607 
13 *672:198 *1980:GATE 13.8 
14 *672:194 *1983:GATE 13.8714 
15 *672:192 *1982:GATE 9.3 
16 *672:152 *1968:GATE 15.9786 
17 *672:148 *1969:GATE 11.4786 
18 *672:52 *2173:A 9.3 
19 *672:18 *1964:GATE 18.6508 
20 *672:4 *1965:GATE 23.4071 
*END

*D_NET *673 0.0349618
*CONN
*I *1990:GATE I *D sky130_fd_sc_hd__dlxtp_1
*I *1989:GATE I *D sky130_fd_sc_hd__dlxtp_1
*I *1991:GATE I *D sky130_fd_sc_hd__dlxtp_1
*I *1978:GATE I *D sky130_fd_sc_hd__dlxtp_1
*I *1979:GATE I *D sky130_fd_sc_hd__dlxtp_1
*I *1987:GATE I *D sky130_fd_sc_hd__dlxtp_1
*I *2142:A I *D sky130_fd_sc_hd__buf_1
*I *1986:GATE I *D sky130_fd_sc_hd__dlxtp_1
*I *1977:GATE I *D sky130_fd_sc_hd__dlxtp_1
*I *1976:GATE I *D sky130_fd_sc_hd__dlxtp_1
*I *2175:X O *D sky130_fd_sc_hd__buf_2
*CAP
1 *1990:GATE 0
2 *1989:GATE 0.000186571
3 *1991:GATE 3.04135e-05
4 *1978:GATE 0.0001785
5 *1979:GATE 8.36175e-05
6 *1987:GATE 0
7 *2142:A 5.03253e-05
8 *1986:GATE 0.0001966
9 *1977:GATE 0.000177316
10 *1976:GATE 1.7586e-05
11 *2175:X 6.05613e-05
12 *673:189 0.00033045
13 *673:185 0.000446019
14 *673:143 0.000355423
15 *673:124 0.00119869
16 *673:116 0.00228216
17 *673:90 0.00429049
18 *673:50 0.00287861
19 *673:48 0.00159208
20 *673:34 0.00167001
21 *673:21 0.000279528
22 *673:6 0.000166813
23 *1986:GATE *705:49 0.000106403
24 *673:90 *688:30 3.77315e-05
25 *673:90 *701:54 0.00061988
26 *673:90 *703:40 8.98798e-06
27 *673:90 *708:84 0.000228448
28 *673:116 *675:140 2.22618e-05
29 *673:116 *675:174 1.24368e-05
30 *673:116 *693:68 0.000418083
31 *673:124 *689:108 0.000195221
32 *673:124 *705:49 0.00029319
33 *673:143 *705:49 1.07719e-05
34 FrameData_O[5] *673:90 7.57673e-05
35 *740:DIODE *673:90 0
36 *1812:A0 *673:90 0.000304981
37 *1813:A2 *673:90 4.42581e-05
38 *1823:C *673:116 8.77729e-05
39 *1824:A2 *673:116 4.06087e-07
40 *1824:C1 *673:116 0.000202173
41 *1880:S1 *2142:A 2.84109e-05
42 *1884:S1 *673:116 0.00026172
43 *1885:S1 *673:48 0.000123087
44 *1896:A3 *673:116 0.000119217
45 *1899:S1 *1979:GATE 0.000109263
46 *1899:S1 *673:90 8.75623e-05
47 *1976:D *673:6 1.98839e-05
48 *1976:D *673:21 2.23592e-05
49 *1977:D *1977:GATE 3.69047e-06
50 *1977:D *673:21 7.57673e-05
51 *1977:D *673:34 4.26825e-05
52 *1977:D *673:185 4.38243e-05
53 *1979:D *1979:GATE 5.33005e-05
54 *1986:D *1986:GATE 0.000122946
55 *1987:D *673:143 5.65955e-05
56 *1989:D *1991:GATE 5.33005e-05
57 *1998:D *673:90 8.98813e-05
58 *1999:D *673:90 0.000367144
59 *2041:D *673:116 0.000101053
60 *2081:A *673:48 5.33005e-05
61 *2124:A *1976:GATE 1.04232e-05
62 *2124:A *673:6 0.00013833
63 *2128:A *673:189 9.11048e-06
64 *2304:A *673:90 0.000141914
65 *2319:A *673:116 3.92686e-05
66 *143:103 *673:116 0.000410698
67 *145:75 *673:116 6.05161e-06
68 *150:69 *673:48 6.95916e-05
69 *151:57 *673:90 0.000287777
70 *159:45 *1986:GATE 3.1664e-05
71 *159:93 *673:90 1.10879e-05
72 *160:127 *673:48 3.57523e-05
73 *160:127 *673:90 2.5737e-05
74 *235:45 *673:90 5.52718e-05
75 *235:113 *673:116 4.34627e-05
76 *245:59 *673:116 3.49743e-05
77 *246:10 *673:116 8.95049e-05
78 *249:34 *673:116 3.92266e-05
79 *409:18 *673:124 4.71844e-05
80 *479:46 *673:124 0.000135145
81 *479:159 *1978:GATE 6.05161e-06
82 *479:159 *673:90 0.000499089
83 *480:153 *673:48 1.58918e-05
84 *480:153 *673:185 0.000177913
85 *486:74 *673:143 3.78944e-05
86 *505:24 *1986:GATE 5.31101e-05
87 *515:40 *673:90 0.000122858
88 *522:58 *673:48 0.000334724
89 *531:34 *673:90 2.66789e-06
90 *535:16 *673:6 0.00013833
91 *535:16 *673:48 0.00113189
92 *535:52 *673:90 0.000143419
93 *539:18 *673:90 9.25014e-06
94 *558:52 *673:90 0.000170027
95 *565:22 *673:90 8.35446e-05
96 *569:82 *673:90 4.06791e-05
97 *573:28 *673:48 9.09539e-05
98 *574:14 *1978:GATE 0.000105471
99 *575:18 *673:185 6.30388e-05
100 *580:16 *1989:GATE 5.67375e-05
101 *580:16 *673:185 1.48543e-05
102 *580:16 *673:189 0.000126439
103 *587:176 *673:185 0
104 *589:16 *1989:GATE 0.000121842
105 *593:74 *673:116 4.73957e-05
106 *593:74 *673:124 6.35819e-05
107 *593:102 *673:116 0.000108403
108 *593:118 *673:50 1.36259e-05
109 *593:118 *673:90 2.00751e-05
110 *595:18 *1989:GATE 2.59355e-05
111 *600:72 *673:124 0.000559306
112 *618:96 *673:90 0.000366096
113 *618:116 *673:90 0.000278489
114 *624:108 *2142:A 0.000139215
115 *628:90 *673:143 0
116 *629:69 *673:189 0
117 *630:84 *673:116 0.000135991
118 *632:107 *673:90 0
119 *633:53 *1989:GATE 9.11048e-06
120 *634:186 *673:48 0.000331771
121 *635:92 *673:90 1.5732e-05
122 *635:92 *673:116 1.24368e-05
123 *635:102 *673:48 0.000463072
124 *636:159 *673:90 0.000381065
125 *637:108 *673:90 0
126 *640:34 *1986:GATE 8.58786e-05
127 *640:34 *673:124 4.82815e-05
128 *640:45 *673:124 1.95405e-05
129 *643:110 *673:116 2.14622e-05
130 *643:110 *673:124 0.000452836
131 *645:78 *1978:GATE 0.000123153
132 *645:78 *673:50 0.000264386
133 *645:78 *673:90 0.000483081
134 *651:247 *673:116 7.86172e-05
135 *652:127 *673:124 0.000263174
136 *658:133 *673:116 0.000353293
137 *661:207 *673:116 0.000179301
138 *662:177 *673:116 0.000243512
139 *662:188 *673:116 2.70308e-05
140 *667:172 *1978:GATE 0.000115618
141 *667:172 *1979:GATE 8.33274e-05
142 *667:172 *673:50 0.000217021
143 *668:69 *673:116 0.000546447
144 *668:93 *673:124 0.00114671
145 *668:107 *1986:GATE 0.00020609
146 *668:107 *673:124 9.82592e-05
147 *668:109 *1986:GATE 5.74562e-05
148 *669:75 *673:90 1.40863e-05
149 *670:65 *673:21 7.57673e-05
150 *670:65 *673:34 3.61898e-05
151 *670:65 *673:185 0.000530133
152 *670:65 *673:189 3.55056e-05
153 *672:134 *673:116 0
*RES
1 *2175:X *673:6 11.0679 
2 *673:6 *1976:GATE 9.72857 
3 *673:6 *673:21 6.5 
4 *673:21 *1977:GATE 15.8893 
5 *673:21 *673:34 0.580357 
6 *673:34 *673:48 27.5717 
7 *673:48 *673:50 3.46429 
8 *673:50 *673:90 49.8826 
9 *673:90 *673:116 48.2119 
10 *673:116 *673:124 27.1154 
11 *673:124 *1986:GATE 19.7464 
12 *673:124 *673:143 9.16071 
13 *673:143 *2142:A 10.6571 
14 *673:143 *1987:GATE 9.3 
15 *673:50 *1979:GATE 15.9786 
16 *673:48 *1978:GATE 17.6214 
17 *673:34 *673:185 13.6696 
18 *673:185 *673:189 7.05357 
19 *673:189 *1991:GATE 14.3357 
20 *673:189 *1989:GATE 17.55 
21 *673:185 *1990:GATE 9.3 
*END

*D_NET *674 0.0263666
*CONN
*I *1975:GATE I *D sky130_fd_sc_hd__dlxtp_1
*I *1974:GATE I *D sky130_fd_sc_hd__dlxtp_1
*I *1988:GATE I *D sky130_fd_sc_hd__dlxtp_1
*I *1984:GATE I *D sky130_fd_sc_hd__dlxtp_1
*I *1985:GATE I *D sky130_fd_sc_hd__dlxtp_1
*I *2176:X O *D sky130_fd_sc_hd__dlymetal6s2s_1
*CAP
1 *1975:GATE 0
2 *1974:GATE 0.000157205
3 *1988:GATE 0.000106871
4 *1984:GATE 4.59241e-05
5 *1985:GATE 0.000255775
6 *2176:X 0.000227984
7 *674:129 0.000396371
8 *674:114 0.00114356
9 *674:80 0.00179361
10 *674:48 0.00308306
11 *674:20 0.00228093
12 *674:8 0.0017153
13 *1984:GATE *675:130 4.58194e-05
14 *1985:GATE *687:92 0.000147862
15 *674:48 *1808:A3 0.000262686
16 *674:48 *679:49 1.99921e-05
17 *674:48 *693:117 2.60996e-05
18 *674:48 *698:44 0.00021767
19 *674:48 *703:72 9.18462e-05
20 *674:80 *675:38 0.000335658
21 *674:80 *679:49 1.86816e-05
22 *674:80 *687:92 0.000113456
23 *674:114 *1995:GATE 1.86215e-05
24 *722:DIODE *1974:GATE 5.49544e-05
25 *723:DIODE *674:129 1.98839e-05
26 *726:DIODE *674:129 0.000160844
27 *1908:S1 *674:48 3.33036e-06
28 *1985:D *1985:GATE 1.58163e-05
29 *1988:D *1988:GATE 9.83442e-05
30 *1994:D *674:114 0.000206912
31 *2132:A *1985:GATE 1.42016e-05
32 *2143:A *1988:GATE 2.2351e-05
33 *2148:A *674:129 0.000127439
34 *2172:A *674:114 2.90068e-05
35 *2191:A *674:20 9.35984e-05
36 *2192:A *674:20 4.43299e-05
37 *2194:A *674:114 6.99087e-05
38 *2195:A *674:114 0.000162204
39 *2196:A *674:114 9.48025e-05
40 *2198:A *674:114 4.5534e-05
41 *2214:A *674:80 0.000317051
42 *2215:A *674:80 0.000206747
43 *2241:A *674:80 0.000129481
44 *2374:A *674:129 0.000136708
45 *2376:A *1974:GATE 9.03121e-05
46 *2376:A *1988:GATE 3.08664e-05
47 *2378:A *1974:GATE 2.90548e-05
48 *2380:A *1974:GATE 2.84109e-05
49 *2381:A *674:129 0.000225988
50 *153:79 *674:80 3.06878e-06
51 *154:99 *674:80 0.000118344
52 *156:69 *674:114 0.000274498
53 *157:107 *674:48 0.000117463
54 *157:111 *674:20 0.00149436
55 *158:71 *674:80 9.44566e-05
56 *158:97 *1974:GATE 5.85008e-05
57 *480:50 *674:80 5.56993e-05
58 *502:51 *674:48 2.82331e-05
59 *502:75 *674:48 6.55751e-05
60 *509:30 *674:80 0.000135991
61 *510:22 *674:80 0.000151545
62 *512:14 *674:20 0.000178823
63 *512:14 *674:114 0.00110902
64 *513:82 *674:48 2.34927e-05
65 *544:68 *674:48 0.000218404
66 *546:42 *674:80 1.30594e-05
67 *556:22 *1974:GATE 4.40603e-05
68 *578:14 *674:48 0.000724141
69 *578:14 *674:80 0.000217859
70 *582:94 *674:48 5.93521e-05
71 *582:94 *674:80 3.61321e-05
72 *587:148 *674:80 5.35539e-05
73 *591:34 *674:48 3.39503e-05
74 *591:48 *674:48 0.000138675
75 *591:94 *674:80 4.19007e-05
76 *602:18 *674:20 3.69047e-06
77 *602:70 *674:80 1.8087e-05
78 *602:80 *1985:GATE 1.76939e-05
79 *603:32 *674:80 3.77315e-05
80 *603:66 *674:80 5.41164e-05
81 *624:32 *674:114 0.000302395
82 *625:10 *674:20 0.000502711
83 *625:10 *674:114 0.000332229
84 *626:34 *674:80 0.000309785
85 *626:34 *674:114 4.5539e-05
86 *626:34 *674:129 0.000119618
87 *626:70 *674:80 9.27418e-05
88 *627:22 *674:114 8.31255e-05
89 *628:24 *674:114 0.000352017
90 *628:24 *674:129 5.49956e-05
91 *629:54 *674:20 0.00149083
92 *629:69 *674:114 0.000213711
93 *630:26 *1988:GATE 1.34631e-05
94 *630:26 *674:114 8.32171e-05
95 *630:26 *674:129 0.000552095
96 *636:117 *674:80 3.63775e-05
97 *637:108 *674:80 9.41642e-05
98 *638:12 *674:80 1.46231e-05
99 *638:74 *674:80 5.49489e-05
100 *643:129 *674:48 1.0033e-05
101 *643:164 *674:48 1.0033e-05
102 *644:115 *674:80 9.62902e-05
103 *644:149 *674:48 4.17542e-05
104 *652:175 *1985:GATE 0.00014291
105 *652:175 *674:80 8.05059e-05
106 *654:88 *674:48 7.15829e-05
107 *654:88 *674:80 2.89791e-06
108 *654:96 *674:48 1.58163e-05
109 *668:69 *1984:GATE 2.79421e-05
110 *670:45 *674:114 0.000271951
111 *672:52 *674:48 0.000261794
*RES
1 *2176:X *674:8 16.8 
2 *674:8 *674:20 40.8214 
3 *674:20 *674:48 49.4107 
4 *674:48 *674:80 32.868 
5 *674:80 *1985:GATE 18.2464 
6 *674:80 *1984:GATE 14.7464 
7 *674:8 *674:114 29.8214 
8 *674:114 *1988:GATE 15.9786 
9 *674:114 *674:129 14.1964 
10 *674:129 *1974:GATE 22.2107 
11 *674:129 *1975:GATE 9.3 
*END

*D_NET *675 0.0364395
*CONN
*I *2022:GATE I *D sky130_fd_sc_hd__dlxtp_1
*I *2023:GATE I *D sky130_fd_sc_hd__dlxtp_1
*I *2002:GATE I *D sky130_fd_sc_hd__dlxtp_1
*I *2003:GATE I *D sky130_fd_sc_hd__dlxtp_1
*I *2018:GATE I *D sky130_fd_sc_hd__dlxtp_1
*I *2019:GATE I *D sky130_fd_sc_hd__dlxtp_1
*I *2021:GATE I *D sky130_fd_sc_hd__dlxtp_1
*I *2020:GATE I *D sky130_fd_sc_hd__dlxtp_1
*I *1998:GATE I *D sky130_fd_sc_hd__dlxtp_1
*I *1999:GATE I *D sky130_fd_sc_hd__dlxtp_1
*I *2177:X O *D sky130_fd_sc_hd__buf_2
*CAP
1 *2022:GATE 0.000118011
2 *2023:GATE 0
3 *2002:GATE 0.0001054
4 *2003:GATE 0.000184302
5 *2018:GATE 0.000144802
6 *2019:GATE 2.74607e-05
7 *2021:GATE 0
8 *2020:GATE 0.000151727
9 *1998:GATE 0.000404355
10 *1999:GATE 0.00042437
11 *2177:X 0
12 *675:192 0.00122522
13 *675:176 0.00134529
14 *675:174 0.00219429
15 *675:140 0.00217508
16 *675:130 0.000989665
17 *675:102 0.000514608
18 *675:64 0.00200019
19 *675:56 0.00193099
20 *675:38 0.00152646
21 *675:4 0.00180725
22 *1999:GATE *677:22 0.000288218
23 *2003:GATE *676:85 2.26973e-05
24 *2003:GATE *685:49 2.09897e-05
25 *2003:GATE *690:61 7.45379e-05
26 *2003:GATE *694:44 2.63501e-05
27 *2018:GATE *1884:A1 0.000172193
28 *2020:GATE *698:175 4.02956e-05
29 *675:38 *679:49 0.000139202
30 *675:38 *687:92 2.48294e-05
31 *675:56 *687:6 4.08637e-05
32 *675:56 *687:18 9.58126e-05
33 *675:56 *687:70 2.95642e-05
34 *675:64 *693:142 0.000275981
35 *675:130 *677:61 0
36 *675:174 *692:22 0.000134778
37 *675:174 *692:64 0.000308599
38 *675:176 *692:22 0.000294067
39 *675:192 *1884:A1 0.000345212
40 *675:192 *692:22 2.06112e-05
41 *1879:A1 *675:192 0.000338053
42 *1896:S1 *2022:GATE 0.00025133
43 *1896:S1 *675:130 0.000257619
44 *1902:A3 *675:174 0.000104703
45 *1907:S0 *675:174 0.000216755
46 *1928:GATE *675:102 0.000191836
47 *1984:D *675:130 2.59355e-05
48 *1984:GATE *675:130 4.58194e-05
49 *2018:D *2018:GATE 0.000135028
50 *2022:D *2022:GATE 2.42516e-05
51 *2023:D *675:140 0.000172164
52 *2023:D *675:174 4.64714e-05
53 *2027:D *675:192 0.000175892
54 *2027:GATE *675:192 4.58194e-05
55 *2041:D *675:140 0.000136676
56 *2090:A *675:192 5.90455e-05
57 *2108:A *675:102 6.81786e-05
58 *2187:A *675:56 5.09065e-05
59 *2187:A *675:64 6.8147e-05
60 *2187:A *675:102 4.50149e-05
61 *2188:A *675:102 4.5534e-05
62 *2215:A *675:38 0.000147561
63 *2271:A *675:64 4.44156e-05
64 *2299:A *675:174 1.80275e-05
65 *2342:A *1999:GATE 0.000288794
66 *142:67 *675:38 0
67 *142:99 *675:38 6.05161e-06
68 *144:91 *675:174 9.58126e-05
69 *150:41 *675:174 2.69953e-05
70 *150:57 *675:174 5.49544e-05
71 *153:79 *675:38 0.00021574
72 *153:119 *675:38 0.000224648
73 *154:99 *675:56 0.00051808
74 *157:107 *675:38 0.000135028
75 *158:71 *675:38 5.0507e-05
76 *181:56 *675:174 7.04618e-05
77 *392:36 *675:174 8.77095e-05
78 *479:106 *675:174 4.05285e-05
79 *480:50 *675:56 5.54755e-05
80 *482:76 *675:38 1.00733e-05
81 *482:76 *675:56 0.000458972
82 *482:76 *675:64 2.54383e-06
83 *483:46 *2003:GATE 1.498e-05
84 *483:46 *675:174 9.5076e-05
85 *484:50 *675:174 0.000128639
86 *484:50 *675:176 0.000288738
87 *484:50 *675:192 2.21972e-05
88 *491:14 *675:102 2.06178e-05
89 *502:75 *675:130 0.000235949
90 *512:14 *2020:GATE 0.000361649
91 *512:14 *675:56 7.43852e-05
92 *512:14 *675:102 0.000170357
93 *513:10 *2020:GATE 1.58163e-05
94 *513:86 *675:140 0.000175512
95 *517:28 *675:174 0.000922345
96 *520:32 *1998:GATE 0.000125355
97 *533:52 *675:174 4.78369e-05
98 *535:157 *675:174 0.000402364
99 *537:32 *675:192 0.000115698
100 *538:32 *675:174 3.06353e-05
101 *544:48 *675:38 0.000435241
102 *553:20 *1998:GATE 0.000171375
103 *553:20 *675:64 4.38243e-05
104 *556:40 *675:38 6.71579e-05
105 *558:14 *1998:GATE 0.000164547
106 *558:14 *675:64 4.5539e-05
107 *563:30 *2003:GATE 2.01997e-05
108 *566:24 *1998:GATE 0.000846281
109 *569:62 *2002:GATE 0.0001283
110 *579:24 *2020:GATE 0.000112857
111 *582:94 *675:38 0.000149832
112 *582:94 *675:56 4.00679e-05
113 *582:128 *675:64 8.69554e-05
114 *584:48 *675:64 7.27952e-05
115 *584:84 *2020:GATE 0.000172681
116 *586:74 *2022:GATE 0.000163307
117 *586:74 *675:130 0.000259267
118 *587:60 *2018:GATE 8.42635e-05
119 *587:60 *2019:GATE 9.1407e-06
120 *587:60 *675:192 0.000152944
121 *593:74 *675:174 0
122 *595:36 *1998:GATE 0.000671323
123 *596:118 *675:174 2.56114e-05
124 *597:30 *675:192 0.000135028
125 *602:34 *675:38 1.58163e-05
126 *602:70 *675:38 4.14709e-05
127 *625:10 *675:56 9.89654e-05
128 *625:10 *675:102 0.000628814
129 *629:54 *675:38 0.000434851
130 *629:54 *675:56 1.74909e-05
131 *632:152 *1998:GATE 5.59013e-05
132 *632:152 *675:64 0
133 *634:54 *675:174 7.67089e-05
134 *634:176 *1998:GATE 5.41794e-05
135 *635:92 *675:130 0.000141372
136 *637:44 *2003:GATE 5.59172e-05
137 *637:108 *675:38 9.9129e-05
138 *637:108 *675:130 1.83053e-05
139 *638:74 *675:38 5.33005e-05
140 *642:106 *675:174 0.000196762
141 *644:115 *675:38 0.000108099
142 *658:133 *675:140 0.000173804
143 *661:177 *2002:GATE 0.000135532
144 *667:74 *675:174 0.000440287
145 *668:69 *675:38 0.000191142
146 *668:69 *675:130 2.13758e-05
147 *669:96 *1999:GATE 6.06291e-05
148 *669:155 *675:64 0.00096076
149 *673:116 *675:140 2.22618e-05
150 *673:116 *675:174 1.24368e-05
151 *674:80 *675:38 0.000335658
*RES
1 *2177:X *675:4 9.3 
2 *675:4 *675:38 49.2261 
3 *675:38 *675:56 24.8482 
4 *675:56 *675:64 9.89762 
5 *675:64 *1999:GATE 22.1393 
6 *675:64 *1998:GATE 35.4964 
7 *675:56 *675:102 14.4554 
8 *675:102 *2020:GATE 23.5143 
9 *675:102 *2021:GATE 9.3 
10 *675:4 *675:130 20.2143 
11 *675:130 *675:140 14.2679 
12 *675:140 *675:174 47.0527 
13 *675:174 *675:176 3.91964 
14 *675:176 *675:192 27.1696 
15 *675:192 *2019:GATE 14.3357 
16 *675:192 *2018:GATE 17.4071 
17 *675:176 *2003:GATE 21.3135 
18 *675:174 *2002:GATE 16.3893 
19 *675:140 *2023:GATE 9.3 
20 *675:130 *2022:GATE 12.8714 
*END

*D_NET *676 0.0239626
*CONN
*I *1939:D I *D sky130_fd_sc_hd__dlxtp_1
*I *1971:D I *D sky130_fd_sc_hd__dlxtp_1
*I *2119:A I *D sky130_fd_sc_hd__buf_1
*I *2035:D I *D sky130_fd_sc_hd__dlxtp_1
*I *2003:D I *D sky130_fd_sc_hd__dlxtp_1
*I *2252:X O *D sky130_fd_sc_hd__clkbuf_2
*CAP
1 *1939:D 3.91058e-05
2 *1971:D 6.36158e-05
3 *2119:A 0
4 *2035:D 8.12628e-05
5 *2003:D 0
6 *2252:X 0.000918431
7 *676:99 0.00100518
8 *676:85 0.00186718
9 *676:48 0.00178367
10 *676:40 0.00209462
11 *676:10 0.00214814
12 *2035:D *2035:GATE 5.33005e-05
13 *676:40 *708:56 0.000201294
14 *676:40 *708:84 0.000156643
15 *676:48 *1915:A3 0.0002233
16 *676:48 *686:14 0.00103916
17 *676:48 *702:30 1.08524e-05
18 *676:85 *685:30 8.6229e-06
19 *676:85 *685:49 0.000641775
20 *676:85 *690:61 0.000941913
21 *676:99 *1810:A2 5.97671e-05
22 *676:99 *1910:A3 5.29991e-05
23 *676:99 *2035:GATE 9.41642e-05
24 *676:99 *2037:D 0.000434899
25 *676:99 *2037:GATE 8.46829e-05
26 *676:99 *681:103 1.52978e-05
27 *676:99 *690:8 7.40937e-05
28 *676:99 *690:17 7.56513e-05
29 *676:99 *690:61 4.75668e-05
30 *676:99 *698:129 0.000992021
31 *676:99 *707:28 9.91086e-05
32 *1812:A0 *676:40 4.36178e-05
33 *1812:A2 *676:10 0.000137363
34 *1879:A1 *676:85 2.71621e-05
35 *1881:A1 *676:40 0.00014627
36 *1881:S1 *676:40 8.1801e-05
37 *1887:A0 *676:85 1.19021e-05
38 *1887:S0 *676:48 0.000141986
39 *1903:A2 *676:85 4.58194e-05
40 *1905:A0 *676:99 6.7603e-05
41 *1915:S0 *676:40 0.000461533
42 *1938:GATE *1939:D 2.55806e-05
43 *1939:GATE *1939:D 7.20217e-06
44 *1939:GATE *676:10 3.01692e-05
45 *1967:GATE *676:99 2.14474e-05
46 *2003:GATE *676:85 2.26973e-05
47 *2098:A *676:40 0.000147054
48 *2245:A *676:99 1.94945e-05
49 *2269:A *676:99 0.000180419
50 *2289:A *676:48 0.000803115
51 *2292:A *676:48 1.24368e-05
52 *2299:A *676:40 2.33025e-05
53 *2299:A *676:48 0.000678664
54 *2328:A *676:40 1.13265e-05
55 *2330:A *676:40 0.000187584
56 *144:39 *676:85 3.06878e-06
57 *144:121 *676:40 0.000227696
58 *147:51 *676:99 0.000125012
59 *235:113 *676:40 7.69776e-06
60 *236:116 *676:48 6.06291e-05
61 *236:116 *676:85 1.65169e-05
62 *479:106 *676:40 0.000196146
63 *479:130 *676:40 0.000213051
64 *484:18 *2035:D 4.10926e-05
65 *484:18 *676:99 2.23592e-05
66 *514:72 *676:40 0
67 *516:32 *676:40 1.15434e-05
68 *517:28 *676:40 4.73162e-05
69 *517:60 *676:48 0.000135324
70 *517:60 *676:85 6.41712e-05
71 *525:20 *676:99 0.000153054
72 *535:86 *676:40 0.00011529
73 *540:22 *676:10 0.000339346
74 *544:68 *676:10 0.000221961
75 *550:30 *676:40 9.9529e-05
76 *550:30 *676:48 0.000149051
77 *555:38 *676:48 0.00016243
78 *563:30 *676:48 1.17921e-05
79 *569:28 *2035:D 3.63775e-05
80 *578:14 *676:10 0.000674352
81 *590:112 *676:10 0.000261914
82 *596:118 *676:40 9.25014e-06
83 *597:60 *676:40 7.08351e-05
84 *603:66 *676:10 0.000327436
85 *636:54 *1971:D 0.000117919
86 *636:54 *676:99 5.7248e-05
87 *650:248 *676:40 3.34476e-05
88 *659:116 *676:85 6.53083e-05
89 *661:112 *676:85 1.07719e-05
90 *661:112 *676:99 0.000176426
91 *664:125 *2035:D 5.33005e-05
92 *664:125 *676:99 0.000122591
93 *665:18 *1939:D 3.97677e-05
94 *665:18 *676:10 0.000417612
95 *671:113 *1971:D 8.6229e-06
96 *671:113 *676:85 0.000130011
97 *671:115 *1971:D 0.000107772
98 *671:115 *676:85 0.000116395
99 *671:115 *676:99 5.7248e-05
*RES
1 *2252:X *676:10 30.1036 
2 *676:10 *676:40 43.2444 
3 *676:40 *676:48 30.1518 
4 *676:48 *2003:D 9.3 
5 *676:48 *676:85 42.3393 
6 *676:85 *676:99 35.1515 
7 *676:99 *2035:D 11.0679 
8 *676:99 *2119:A 9.3 
9 *676:85 *1971:D 15.4429 
10 *676:10 *1939:D 10.2464 
*END

*D_NET *677 0.0168721
*CONN
*I *2006:GATE I *D sky130_fd_sc_hd__dlxtp_1
*I *2013:GATE I *D sky130_fd_sc_hd__dlxtp_1
*I *2141:A I *D sky130_fd_sc_hd__buf_1
*I *2007:GATE I *D sky130_fd_sc_hd__dlxtp_1
*I *2015:GATE I *D sky130_fd_sc_hd__dlxtp_1
*I *2014:GATE I *D sky130_fd_sc_hd__dlxtp_1
*I *2001:GATE I *D sky130_fd_sc_hd__dlxtp_1
*I *2009:GATE I *D sky130_fd_sc_hd__dlxtp_1
*I *2008:GATE I *D sky130_fd_sc_hd__dlxtp_1
*I *2000:GATE I *D sky130_fd_sc_hd__dlxtp_1
*I *2178:X O *D sky130_fd_sc_hd__clkbuf_2
*CAP
1 *2006:GATE 3.8843e-05
2 *2013:GATE 0.000505664
3 *2141:A 4.98159e-05
4 *2007:GATE 0
5 *2015:GATE 0
6 *2014:GATE 0
7 *2001:GATE 0
8 *2009:GATE 0
9 *2008:GATE 0.000144021
10 *2000:GATE 5.8596e-05
11 *2178:X 5.88357e-05
12 *677:104 0.000215423
13 *677:98 0.000741569
14 *677:61 0.000517946
15 *677:57 0.000488436
16 *677:42 0.000682424
17 *677:32 0.000586826
18 *677:26 0.00030907
19 *677:22 0.00160022
20 *677:10 0.00143895
21 *677:8 9.76787e-05
22 *2008:GATE *687:92 6.57032e-05
23 *2013:GATE *679:72 0.000254584
24 *677:8 *679:72 6.05161e-06
25 *677:22 *679:72 3.10885e-05
26 *677:22 *693:142 0.000654837
27 *677:22 *708:84 0.000206532
28 *677:57 *693:84 0.000135189
29 *677:61 *693:84 0.000249493
30 *677:98 *679:72 0.000136505
31 *1808:S0 *677:22 7.83587e-05
32 *1812:S0 *677:57 9.91086e-05
33 *1812:S1 *2000:GATE 1.72303e-05
34 *1812:S1 *677:42 1.18079e-05
35 *1881:S0 *677:26 1.32056e-05
36 *1888:S0 *677:42 0.000161705
37 *1900:S0 *2013:GATE 1.32056e-05
38 *1908:A2 *677:22 4.85049e-06
39 *1999:GATE *677:22 0.000288218
40 *2000:D *2000:GATE 9.55638e-05
41 *2000:D *677:42 0.00026646
42 *2006:D *677:8 5.04841e-06
43 *2006:D *677:22 2.23987e-05
44 *2007:D *677:104 3.69047e-06
45 *2068:A *2013:GATE 7.45687e-05
46 *2074:A *677:22 6.13757e-06
47 *2164:A *677:22 0.000265385
48 *2165:A *677:22 0.000452607
49 *2307:A *677:22 0.000215455
50 *2358:A *677:22 0.000110103
51 *409:34 *677:22 0.000142437
52 *502:75 *677:61 0
53 *516:32 *677:26 8.50977e-05
54 *522:58 *2013:GATE 5.49489e-05
55 *568:188 *2013:GATE 2.93523e-05
56 *574:14 *2141:A 5.33005e-05
57 *574:14 *677:104 2.22618e-05
58 *579:52 *677:42 0.000220943
59 *590:112 *2000:GATE 6.94399e-06
60 *593:102 *677:32 0.000189436
61 *595:18 *2013:GATE 0.000261587
62 *595:18 *677:22 0.000125304
63 *595:18 *677:98 0.000144535
64 *597:60 *677:22 0.00103439
65 *599:18 *677:22 0.000565701
66 *602:70 *677:61 0.000121165
67 *602:80 *677:61 0.000217966
68 *634:158 *677:42 0.000175892
69 *635:92 *677:61 0.00022545
70 *636:26 *677:61 7.46506e-05
71 *636:159 *677:42 7.33964e-05
72 *637:108 *677:26 5.90008e-05
73 *637:114 *677:26 0.000463586
74 *652:175 *2008:GATE 0.000174317
75 *652:175 *677:57 2.14474e-05
76 *654:82 *677:57 3.34295e-05
77 *654:82 *677:61 0.000117955
78 *661:207 *677:42 0.000218404
79 *662:196 *677:32 0.00019109
80 *672:100 *677:61 0.000119332
81 *672:134 *2008:GATE 0.000169372
82 *675:130 *677:61 0
*RES
1 *2178:X *677:8 10.2643 
2 *677:8 *677:10 4.5 
3 *677:10 *677:22 47.375 
4 *677:22 *677:26 5.375 
5 *677:26 *677:32 11.5536 
6 *677:32 *677:42 10.5714 
7 *677:42 *2000:GATE 10.675 
8 *677:42 *677:57 7.28571 
9 *677:57 *677:61 14.3393 
10 *677:61 *2008:GATE 21.9071 
11 *677:61 *2009:GATE 9.3 
12 *677:57 *2001:GATE 13.8 
13 *677:32 *2014:GATE 9.3 
14 *677:26 *2015:GATE 9.3 
15 *677:10 *677:98 1.94643 
16 *677:98 *677:104 6.58929 
17 *677:104 *2007:GATE 9.3 
18 *677:104 *2141:A 10.2643 
19 *677:98 *2013:GATE 23.2107 
20 *677:8 *2006:GATE 9.83571 
*END

*D_NET *678 0.00826336
*CONN
*I *2011:GATE I *D sky130_fd_sc_hd__dlxtp_1
*I *2010:GATE I *D sky130_fd_sc_hd__dlxtp_1
*I *2004:GATE I *D sky130_fd_sc_hd__dlxtp_1
*I *2005:GATE I *D sky130_fd_sc_hd__dlxtp_1
*I *2012:GATE I *D sky130_fd_sc_hd__dlxtp_1
*I *2179:X O *D sky130_fd_sc_hd__buf_1
*CAP
1 *2011:GATE 0.000243527
2 *2010:GATE 0.000881919
3 *2004:GATE 0
4 *2005:GATE 0.000327231
5 *2012:GATE 0.000258454
6 *2179:X 0.000221826
7 *678:49 0.00140035
8 *678:20 0.000662285
9 *678:16 0.000206869
10 *678:10 0.000626995
11 *2010:GATE *1809:A2 1.59935e-05
12 *2011:GATE *1809:A2 8.51066e-05
13 *2011:GATE *1894:A0 0.000118052
14 *678:10 *687:28 6.38268e-05
15 *678:49 *1809:A2 3.59449e-05
16 *743:DIODE *2010:GATE 2.58909e-05
17 *1809:S1 *678:49 6.42242e-05
18 *1814:S1 *2012:GATE 0.000151978
19 *1886:A1 *2012:GATE 3.9718e-05
20 *1886:S1 *2005:GATE 5.52238e-05
21 *1958:GATE *678:10 3.17163e-05
22 *1958:GATE *678:49 4.02317e-05
23 *1959:GATE *678:16 6.05161e-06
24 *2010:D *2010:GATE 0.000216755
25 *2011:D *2011:GATE 1.00375e-05
26 *2065:A *2010:GATE 5.58222e-06
27 *142:117 *2011:GATE 0.000137834
28 *145:85 *678:10 8.68665e-05
29 *145:85 *678:49 0.000150601
30 *148:97 *678:49 0
31 *148:111 *2011:GATE 0.000234587
32 *148:111 *678:49 0.000235562
33 *233:122 *2005:GATE 7.17228e-05
34 *233:122 *678:16 0.000306921
35 *233:122 *678:20 8.25843e-06
36 *479:174 *2012:GATE 8.14005e-05
37 *483:102 *2011:GATE 1.04707e-05
38 *483:102 *678:49 8.6229e-06
39 *535:112 *2011:GATE 1.17746e-05
40 *535:112 *678:49 4.00595e-05
41 *572:12 *678:16 4.94446e-05
42 *576:14 *2012:GATE 0.000222014
43 *580:16 *2012:GATE 2.84026e-05
44 *618:132 *2012:GATE 0.000721111
45 *667:187 *678:10 6.19181e-05
*RES
1 *2179:X *678:10 17.8179 
2 *678:10 *678:16 7.92857 
3 *678:16 *678:20 1.26786 
4 *678:20 *2012:GATE 28.0679 
5 *678:20 *2005:GATE 14.3714 
6 *678:16 *2004:GATE 9.3 
7 *678:10 *678:49 7.71429 
8 *678:49 *2010:GATE 26.0143 
9 *678:49 *2011:GATE 20.3 
*END

*D_NET *679 0.0213999
*CONN
*I *1996:GATE I *D sky130_fd_sc_hd__dlxtp_1
*I *2179:A I *D sky130_fd_sc_hd__buf_1
*I *1994:GATE I *D sky130_fd_sc_hd__dlxtp_1
*I *1995:GATE I *D sky130_fd_sc_hd__dlxtp_1
*I *1997:GATE I *D sky130_fd_sc_hd__dlxtp_1
*I *2178:A I *D sky130_fd_sc_hd__clkbuf_2
*I *2177:A I *D sky130_fd_sc_hd__buf_2
*I *2180:X O *D sky130_fd_sc_hd__clkbuf_2
*CAP
1 *1996:GATE 0
2 *2179:A 0.000261162
3 *1994:GATE 0
4 *1995:GATE 0.000202098
5 *1997:GATE 1.63605e-05
6 *2178:A 0
7 *2177:A 3.04135e-05
8 *2180:X 0.000199996
9 *679:97 0.000951725
10 *679:91 0.00119153
11 *679:85 0.000247948
12 *679:72 0.000737307
13 *679:61 0.00140394
14 *679:49 0.0021389
15 *679:8 0.00161912
16 *2179:A *687:28 0.000471883
17 *679:8 *687:92 0
18 *679:49 *1808:A3 2.95642e-05
19 *679:61 *1808:A3 0.000119722
20 *679:61 *703:60 6.49987e-05
21 *679:72 *1890:A1 0.000125724
22 *679:72 *693:142 0.00056335
23 *679:72 *693:163 0.00052457
24 *679:97 *687:28 0.000291794
25 *1808:S1 *679:61 0.000124534
26 *1812:A0 *679:49 0.000236753
27 *1891:S0 *679:97 7.33786e-06
28 *1893:A3 *679:61 0.00010377
29 *1900:S0 *679:72 9.87648e-05
30 *1908:S1 *679:61 0.000326219
31 *1994:D *1995:GATE 3.23542e-05
32 *1994:D *679:97 4.71644e-05
33 *1995:D *1995:GATE 0
34 *2013:GATE *679:72 0.000254584
35 *2172:A *1995:GATE 3.69047e-06
36 *2304:A *679:49 0.000157201
37 *143:103 *679:49 1.93735e-05
38 *143:109 *679:49 8.1163e-05
39 *143:111 *2179:A 7.80122e-05
40 *143:111 *679:61 1.77349e-05
41 *143:111 *679:72 7.82454e-05
42 *143:111 *679:91 0.000339917
43 *153:129 *679:61 0
44 *323:12 *1997:GATE 1.83136e-05
45 *480:108 *679:61 1.09182e-05
46 *502:51 *679:61 0.000111972
47 *502:75 *679:49 0.000647146
48 *512:20 *679:8 3.04325e-05
49 *512:20 *679:49 1.69153e-05
50 *513:37 *679:61 0.001117
51 *513:82 *679:49 0.000622245
52 *513:82 *679:61 1.5929e-05
53 *519:14 *679:72 0.000142121
54 *519:14 *679:85 0.000189659
55 *546:31 *679:49 0.000146316
56 *566:24 *679:61 0.000320738
57 *580:16 *1997:GATE 5.49544e-05
58 *587:148 *679:49 0.000433311
59 *589:16 *679:91 6.57032e-05
60 *591:34 *679:49 2.30116e-06
61 *595:18 *679:72 0.000889617
62 *613:40 *679:49 1.42701e-05
63 *629:52 *679:8 0.000109871
64 *631:22 *2179:A 7.03479e-05
65 *631:22 *679:91 0.000341624
66 *634:158 *679:49 4.04292e-05
67 *636:26 *679:8 9.92257e-05
68 *636:117 *679:8 7.53168e-05
69 *636:117 *679:49 0.000507621
70 *636:159 *679:49 0.000218409
71 *637:44 *679:8 0.000155734
72 *637:108 *2177:A 5.33005e-05
73 *637:108 *679:49 0
74 *643:116 *679:49 4.43299e-05
75 *643:164 *679:61 0.000300465
76 *652:175 *679:49 6.43424e-05
77 *654:82 *679:49 6.43424e-05
78 *669:45 *679:72 1.75989e-05
79 *669:45 *679:85 0.000102554
80 *670:45 *1995:GATE 0.000128154
81 *670:45 *679:97 2.7764e-05
82 *672:52 *679:61 0.000130073
83 *672:100 *679:49 0.000429492
84 *674:48 *679:49 1.99921e-05
85 *674:80 *679:49 1.86816e-05
86 *674:114 *1995:GATE 1.86215e-05
87 *675:38 *679:49 0.000139202
88 *677:8 *679:72 6.05161e-06
89 *677:22 *679:72 3.10885e-05
90 *677:98 *679:72 0.000136505
*RES
1 *2180:X *679:8 18.175 
2 *679:8 *2177:A 14.3357 
3 *679:8 *679:49 46.5054 
4 *679:49 *679:61 34.5536 
5 *679:61 *2178:A 9.3 
6 *679:61 *679:72 25.3036 
7 *679:72 *1997:GATE 14.3357 
8 *679:72 *679:85 7.05357 
9 *679:85 *679:91 10.2321 
10 *679:91 *679:97 13.9821 
11 *679:97 *1995:GATE 21.8 
12 *679:97 *1994:GATE 9.3 
13 *679:91 *2179:A 19.4786 
14 *679:85 *1996:GATE 9.3 
*END

*D_NET *680 0.0114401
*CONN
*I *2180:A I *D sky130_fd_sc_hd__clkbuf_2
*I *1993:GATE I *D sky130_fd_sc_hd__dlxtp_1
*I *1992:GATE I *D sky130_fd_sc_hd__dlxtp_1
*I *2017:GATE I *D sky130_fd_sc_hd__dlxtp_1
*I *2016:GATE I *D sky130_fd_sc_hd__dlxtp_1
*I *2181:X O *D sky130_fd_sc_hd__dlymetal6s2s_1
*CAP
1 *2180:A 0.000832915
2 *1993:GATE 0.000183219
3 *1992:GATE 0.000133542
4 *2017:GATE 0
5 *2016:GATE 0.000106045
6 *2181:X 0.000149244
7 *680:50 0.000381832
8 *680:46 0.00206002
9 *680:10 0.000270666
10 *680:8 0.0014759
11 *2016:GATE *706:66 0.000214563
12 *2180:A *2040:GATE 0.000190579
13 *2180:A *684:46 1.42117e-05
14 *2180:A *694:76 0.000100937
15 *680:10 *706:66 0.000364792
16 *680:46 *684:35 0.000107258
17 *680:46 *684:114 0.00017737
18 *680:46 *706:66 0.000223606
19 D_config_C_bit0 *2016:GATE 2.06178e-05
20 D_config_C_bit1 *680:10 7.71218e-05
21 D_config_C_bit1 *680:46 5.34143e-05
22 D_config_C_bit2 *680:46 2.06178e-05
23 D_config_C_bit3 *680:46 9.42368e-05
24 *1876:A0 *680:46 0.000249407
25 *1880:S0 *680:10 0.00010219
26 *1992:D *1992:GATE 1.24368e-05
27 *1992:D *680:50 0.000209385
28 *1993:D *1993:GATE 9.58181e-05
29 *2181:A *680:8 0.000139637
30 *2230:A *680:46 0.000157497
31 *2279:A *680:46 6.19715e-05
32 *142:53 *680:46 8.83765e-05
33 *154:95 *1993:GATE 0.000264897
34 *154:95 *2180:A 0
35 *243:20 *680:46 0.000109576
36 *249:34 *2180:A 0.000281752
37 *249:34 *680:46 0.000197606
38 *480:70 *1993:GATE 1.00332e-05
39 *480:70 *680:50 0.000180073
40 *495:20 *2180:A 0.000137267
41 *511:26 *680:46 1.11654e-05
42 *537:32 *680:46 8.31625e-05
43 *568:88 *2016:GATE 3.24081e-05
44 *586:74 *2180:A 3.26161e-05
45 *587:60 *2016:GATE 1.25477e-05
46 *590:96 *680:46 0.00024628
47 *602:109 *2180:A 2.59355e-05
48 *603:32 *680:46 4.00349e-05
49 *613:48 *2180:A 4.4757e-05
50 *613:83 *2180:A 0.000407815
51 *613:107 *2016:GATE 1.99099e-05
52 *613:107 *680:8 2.42516e-05
53 *613:107 *680:10 4.46481e-05
54 *613:138 *2016:GATE 0
55 *624:58 *1993:GATE 6.70808e-05
56 *629:35 *2180:A 0
57 *629:52 *2180:A 0.000178666
58 *631:106 *680:46 6.02472e-05
59 *636:26 *2180:A 6.53185e-05
60 *637:44 *680:46 0.000249386
61 *652:175 *1993:GATE 5.22867e-05
62 *652:175 *2180:A 0.000117452
63 *652:175 *680:46 1.44395e-05
64 *654:41 *680:46 5.90342e-05
*RES
1 *2181:X *680:8 16.3893 
2 *680:8 *680:10 4.98214 
3 *680:10 *2016:GATE 16.6571 
4 *680:10 *2017:GATE 13.8 
5 *680:8 *680:46 24.3691 
6 *680:46 *680:50 6.67857 
7 *680:50 *1992:GATE 11.0857 
8 *680:50 *1993:GATE 23.1393 
9 *680:46 *2180:A 31.2821 
*END

*D_NET *681 0.0185673
*CONN
*I *2032:GATE I *D sky130_fd_sc_hd__dlxtp_1
*I *2034:GATE I *D sky130_fd_sc_hd__dlxtp_1
*I *2031:GATE I *D sky130_fd_sc_hd__dlxtp_1
*I *2037:GATE I *D sky130_fd_sc_hd__dlxtp_1
*I *2035:GATE I *D sky130_fd_sc_hd__dlxtp_1
*I *2036:GATE I *D sky130_fd_sc_hd__dlxtp_1
*I *2030:GATE I *D sky130_fd_sc_hd__dlxtp_1
*I *2029:GATE I *D sky130_fd_sc_hd__dlxtp_1
*I *2028:GATE I *D sky130_fd_sc_hd__dlxtp_1
*I *2033:GATE I *D sky130_fd_sc_hd__dlxtp_1
*I *2182:X O *D sky130_fd_sc_hd__clkbuf_2
*CAP
1 *2032:GATE 0
2 *2034:GATE 0.000393067
3 *2031:GATE 0
4 *2037:GATE 8.83529e-05
5 *2035:GATE 5.37657e-05
6 *2036:GATE 0.000489578
7 *2030:GATE 0
8 *2029:GATE 4.4048e-05
9 *2028:GATE 4.83467e-05
10 *2033:GATE 7.02902e-05
11 *2182:X 2.25053e-05
12 *681:103 0.000261424
13 *681:80 0.00119056
14 *681:67 0.000932122
15 *681:59 0.00113391
16 *681:44 0.00115449
17 *681:36 0.00101011
18 *681:23 0.000979978
19 *681:8 0.000711867
20 *681:6 2.25053e-05
21 *2033:GATE *683:34 8.15095e-05
22 *2036:GATE *2036:D 2.07878e-05
23 *2036:GATE *708:12 1.13883e-05
24 *681:6 *2182:A 1.58163e-05
25 *681:23 *683:34 0.000192862
26 *1805:A *2036:GATE 0.00014061
27 *1844:B *681:44 0.000103253
28 *1905:A0 *681:80 0.000327337
29 *1905:A0 *681:103 0.000226484
30 *2030:D *681:67 8.6229e-06
31 *2032:D *681:6 5.33005e-05
32 *2035:D *2035:GATE 5.33005e-05
33 *2112:A *2028:GATE 9.60939e-05
34 *2112:A *681:23 2.2351e-05
35 *2112:A *681:36 2.71447e-05
36 *2226:A *681:67 9.83388e-05
37 *2226:A *681:80 3.37376e-05
38 *2239:A *681:59 4.38942e-05
39 *2265:A *2037:GATE 0.00010975
40 *2268:A *2037:GATE 2.59355e-05
41 *143:9 *681:44 0.00014785
42 *146:67 *681:80 0.000280411
43 *147:39 *681:67 0
44 *248:16 *681:67 0.000260297
45 *248:35 *681:67 0.000193003
46 *263:10 *2034:GATE 0.000223456
47 *481:18 *2037:GATE 0.000139674
48 *484:18 *2037:GATE 1.10868e-05
49 *493:18 *681:44 0.000334608
50 *493:18 *681:59 0.000627735
51 *500:16 *681:44 0.000365674
52 *568:122 *2033:GATE 5.80379e-05
53 *569:28 *2035:GATE 6.57032e-05
54 *569:28 *2037:GATE 6.05161e-06
55 *583:42 *2029:GATE 5.33433e-05
56 *583:42 *681:23 0.000385876
57 *596:28 *2028:GATE 2.89114e-05
58 *596:28 *681:36 5.33005e-05
59 *597:12 *681:44 1.83518e-05
60 *597:12 *681:59 7.86072e-05
61 *600:36 *681:23 0.000259273
62 *634:84 *2034:GATE 0.000213716
63 *634:84 *681:36 3.14163e-05
64 *639:60 *2033:GATE 0.000194446
65 *639:60 *681:23 0.000182828
66 *644:16 *681:59 0.000715652
67 *648:109 *681:80 3.07357e-05
68 *649:43 *2034:GATE 0.000405122
69 *649:134 *681:80 0.000369328
70 *650:12 *681:80 0.000137497
71 *650:139 *681:80 7.1959e-05
72 *651:28 *681:80 0.00012265
73 *652:16 *681:80 0
74 *657:44 *681:59 0.000108492
75 *658:12 *681:67 0.000216182
76 *658:27 *681:67 5.6761e-05
77 *660:6 *681:59 0.000262679
78 *660:16 *681:59 0.000135028
79 *661:81 *681:67 0
80 *662:77 *681:80 9.63932e-06
81 *662:132 *2036:GATE 0
82 *663:14 *681:59 0.000119268
83 *664:51 *2034:GATE 0.000405122
84 *664:125 *681:80 0.00050314
85 *664:125 *681:103 0.000190805
86 *676:99 *2035:GATE 9.41642e-05
87 *676:99 *2037:GATE 8.46829e-05
88 *676:99 *681:103 1.52978e-05
*RES
1 *2182:X *681:6 9.83571 
2 *681:6 *681:8 4.5 
3 *681:8 *2033:GATE 16.3536 
4 *681:8 *681:23 18.6786 
5 *681:23 *2028:GATE 10.675 
6 *681:23 *681:36 3.73214 
7 *681:36 *681:44 14.3929 
8 *681:44 *2029:GATE 14.7464 
9 *681:44 *681:59 25.2143 
10 *681:59 *681:67 17.3571 
11 *681:67 *2030:GATE 9.3 
12 *681:67 *681:80 20.4107 
13 *681:80 *2036:GATE 21.2107 
14 *681:80 *681:103 7.66071 
15 *681:103 *2035:GATE 10.6571 
16 *681:103 *2037:GATE 12.3 
17 *681:59 *2031:GATE 9.3 
18 *681:36 *2034:GATE 28.7821 
19 *681:6 *2032:GATE 9.3 
*END

*D_NET *682 0.00461021
*CONN
*I *2048:GATE I *D sky130_fd_sc_hd__dlxtp_1
*I *2046:GATE I *D sky130_fd_sc_hd__dlxtp_1
*I *2044:GATE I *D sky130_fd_sc_hd__dlxtp_1
*I *2045:GATE I *D sky130_fd_sc_hd__dlxtp_1
*I *2047:GATE I *D sky130_fd_sc_hd__dlxtp_1
*I *2183:X O *D sky130_fd_sc_hd__buf_1
*CAP
1 *2048:GATE 0.000220327
2 *2046:GATE 2.54882e-05
3 *2044:GATE 0
4 *2045:GATE 0.000143063
5 *2047:GATE 9.55596e-05
6 *2183:X 8.20682e-05
7 *682:29 0.000761121
8 *682:14 0.00073945
9 *682:12 0.000146584
10 *682:10 0.000397659
11 *682:10 *2183:A 7.43578e-06
12 *1831:A2 *2045:GATE 0.000103958
13 *1831:A2 *682:29 5.68722e-05
14 *1831:C1 *682:29 8.41716e-05
15 *1832:A *682:29 0.000128074
16 *1832:C_N *682:29 0.000186393
17 *1833:A1 *2045:GATE 5.52302e-05
18 *2044:D *2045:GATE 5.92326e-05
19 *2045:D *2045:GATE 9.25014e-06
20 *2046:D *2046:GATE 9.71197e-05
21 *2046:D *682:29 0.000227539
22 *2048:D *2048:GATE 5.52302e-05
23 *146:33 *2045:GATE 0
24 *157:21 *2047:GATE 0
25 *157:21 *682:14 0
26 *159:21 *2047:GATE 7.50601e-05
27 *159:21 *682:10 5.10822e-05
28 *159:21 *682:12 0.00010922
29 *159:21 *682:14 2.61337e-05
30 *253:14 *682:29 0.000230482
31 *487:40 *2046:GATE 5.67624e-05
32 *487:40 *682:29 2.89967e-05
33 *579:78 *682:10 1.39841e-05
34 *579:84 *682:10 9.40167e-05
35 *579:84 *682:12 0.000209213
36 *579:84 *682:14 3.34366e-05
*RES
1 *2183:X *682:10 15.675 
2 *682:10 *682:12 2.85714 
3 *682:12 *682:14 0.732143 
4 *682:14 *2047:GATE 15.7464 
5 *682:14 *682:29 16.4464 
6 *682:29 *2045:GATE 21.8 
7 *682:29 *2044:GATE 9.3 
8 *682:12 *2046:GATE 14.7464 
9 *682:10 *2048:GATE 16.8179 
*END

*D_NET *683 0.0162622
*CONN
*I *2042:GATE I *D sky130_fd_sc_hd__dlxtp_1
*I *2043:GATE I *D sky130_fd_sc_hd__dlxtp_1
*I *2050:GATE I *D sky130_fd_sc_hd__dlxtp_1
*I *2049:GATE I *D sky130_fd_sc_hd__dlxtp_1
*I *2052:GATE I *D sky130_fd_sc_hd__dlxtp_1
*I *2051:GATE I *D sky130_fd_sc_hd__dlxtp_1
*I *2183:A I *D sky130_fd_sc_hd__buf_1
*I *2182:A I *D sky130_fd_sc_hd__clkbuf_2
*I *2184:X O *D sky130_fd_sc_hd__clkbuf_2
*CAP
1 *2042:GATE 0.00044295
2 *2043:GATE 0
3 *2050:GATE 0
4 *2049:GATE 0
5 *2052:GATE 0
6 *2051:GATE 0.000154371
7 *2183:A 0.00102922
8 *2182:A 0.000210015
9 *2184:X 0.000285102
10 *683:106 0.00125345
11 *683:34 0.00150297
12 *683:30 0.000511875
13 *683:28 0.000488609
14 *683:18 0.000706279
15 *683:10 0.00049403
16 *683:6 0.00127819
17 *683:10 *2184:A 0.000103974
18 *683:106 *2184:A 1.31516e-05
19 *1816:B *2183:A 5.33005e-05
20 *1816:C *2183:A 0.00015936
21 *1821:A2 *2183:A 1.90936e-05
22 *1821:A4 *2183:A 0.000123137
23 *1821:B1 *2183:A 1.43288e-05
24 *1923:D *683:30 6.88527e-05
25 *1923:D *683:34 0.000310051
26 *1980:D *683:6 5.21937e-05
27 *2032:D *2182:A 2.83827e-05
28 *2032:D *2183:A 1.90303e-05
29 *2033:GATE *683:34 8.15095e-05
30 *2043:D *2042:GATE 3.88764e-05
31 *2043:D *683:106 5.33005e-05
32 *2049:D *683:18 1.75642e-05
33 *2135:A *2051:GATE 4.05285e-05
34 *2387:A *683:10 0.000647671
35 *2387:A *683:18 0.000125243
36 *2387:A *683:106 0.000311036
37 *2389:A *683:106 0.000608441
38 *159:21 *2183:A 0.000522586
39 *267:14 *2183:A 4.00276e-06
40 *524:142 *2042:GATE 0.000121418
41 *557:58 *683:6 6.61173e-05
42 *568:114 *683:10 1.43864e-05
43 *568:122 *683:18 5.46313e-05
44 *568:122 *683:28 0.00033746
45 *568:122 *683:30 0.00024195
46 *568:122 *683:34 0.000756815
47 *579:78 *2183:A 9.60939e-05
48 *579:84 *2183:A 1.55475e-05
49 *582:12 *2183:A 3.93381e-05
50 *602:166 *2183:A 2.16719e-05
51 *618:12 *683:106 0.000340781
52 *626:150 *2051:GATE 1.21258e-05
53 *639:60 *683:28 4.7464e-05
54 *639:60 *683:30 4.89922e-05
55 *639:60 *683:34 8.52405e-05
56 *643:10 *683:18 3.55751e-05
57 *643:10 *683:28 0.000275123
58 *648:8 *2042:GATE 8.6229e-06
59 *648:109 *2042:GATE 0.000117693
60 *650:12 *2042:GATE 0.000143286
61 *650:12 *683:106 0.000326302
62 *650:59 *2183:A 1.24368e-05
63 *651:28 *2042:GATE 9.89536e-05
64 *660:16 *2042:GATE 0.000130064
65 *662:77 *2042:GATE 1.37492e-05
66 *666:32 *683:28 0.000211913
67 *666:32 *683:30 5.41794e-05
68 *666:56 *683:28 2.59355e-05
69 *666:76 *683:10 0.00050998
70 *666:76 *683:18 9.54798e-06
71 *681:6 *2182:A 1.58163e-05
72 *681:23 *683:34 0.000192862
73 *682:10 *2183:A 7.43578e-06
*RES
1 *2184:X *683:6 12.7107 
2 *683:6 *683:10 12.8214 
3 *683:10 *683:18 9.35714 
4 *683:18 *683:28 13.1429 
5 *683:28 *683:30 3.16071 
6 *683:30 *683:34 14.3393 
7 *683:34 *2182:A 12.1036 
8 *683:34 *2183:A 34.425 
9 *683:30 *2051:GATE 16.1393 
10 *683:28 *2052:GATE 13.8 
11 *683:18 *2049:GATE 9.3 
12 *683:10 *2050:GATE 13.8 
13 *683:6 *683:106 27.5893 
14 *683:106 *2043:GATE 9.3 
15 *683:106 *2042:GATE 34.8714 
*END

*D_NET *684 0.0228029
*CONN
*I *2054:GATE I *D sky130_fd_sc_hd__dlxtp_1
*I *2053:GATE I *D sky130_fd_sc_hd__dlxtp_1
*I *2055:GATE I *D sky130_fd_sc_hd__dlxtp_1
*I *2184:A I *D sky130_fd_sc_hd__clkbuf_2
*I *2025:GATE I *D sky130_fd_sc_hd__dlxtp_1
*I *2041:GATE I *D sky130_fd_sc_hd__dlxtp_1
*I *2040:GATE I *D sky130_fd_sc_hd__dlxtp_1
*I *2026:GATE I *D sky130_fd_sc_hd__dlxtp_1
*I *2039:GATE I *D sky130_fd_sc_hd__dlxtp_1
*I *2024:GATE I *D sky130_fd_sc_hd__dlxtp_1
*I *2185:X O *D sky130_fd_sc_hd__clkbuf_2
*CAP
1 *2054:GATE 0.000122361
2 *2053:GATE 0
3 *2055:GATE 0
4 *2184:A 0.000750116
5 *2025:GATE 3.72075e-05
6 *2041:GATE 0
7 *2040:GATE 0.000118074
8 *2026:GATE 0.000384137
9 *2039:GATE 0
10 *2024:GATE 0.000111948
11 *2185:X 0.000191645
12 *684:144 0.000932214
13 *684:136 0.000389557
14 *684:130 0.00150652
15 *684:114 0.00209055
16 *684:48 0.000603982
17 *684:46 0.000166566
18 *684:35 0.000923009
19 *684:12 0.00115958
20 *684:8 0.000566687
21 *684:6 0.00144556
22 *684:114 *1876:A2 0.000142544
23 *684:130 *689:74 4.8204e-05
24 *684:130 *706:66 0.000226136
25 B_config_C_bit2 *684:130 6.52967e-05
26 B_config_C_bit3 *684:130 0.00011294
27 C_config_C_bit0 *684:130 4.22135e-06
28 C_config_C_bit3 *684:130 2.06178e-05
29 *1880:S0 *684:114 0.000135028
30 *1925:D *684:144 0.000167746
31 *1926:D *684:144 2.28631e-05
32 *1953:D *684:130 0.000187252
33 *1980:D *2184:A 0.000122591
34 *2016:D *684:130 4.38942e-05
35 *2024:D *684:35 1.90303e-05
36 *2025:D *684:8 1.58163e-05
37 *2055:D *2184:A 8.25843e-06
38 *2138:A *2054:GATE 0.000139208
39 *2139:A *684:136 6.86693e-05
40 *2180:A *2040:GATE 0.000190579
41 *2180:A *684:46 1.42117e-05
42 *2209:A *2040:GATE 0
43 *2274:A *684:130 0.000637998
44 *2279:A *684:114 8.93791e-05
45 *2279:A *684:130 1.94135e-05
46 *2387:A *2184:A 0.000209183
47 *2389:A *2184:A 0.000481229
48 *2389:A *684:144 0.000137561
49 *2395:A *684:130 2.11419e-05
50 *153:79 *684:8 8.25843e-06
51 *153:79 *684:12 3.55471e-05
52 *157:41 *684:130 0.000872916
53 *157:57 *2025:GATE 0
54 *181:44 *684:114 0.000527335
55 *243:20 *684:114 0.000316292
56 *243:42 *684:130 1.98207e-05
57 *249:34 *684:35 0.000309457
58 *249:34 *684:46 0.000138676
59 *497:14 *684:130 0.000161855
60 *497:14 *684:136 0.000179656
61 *498:12 *684:130 0.000194584
62 *498:12 *684:136 0.000176234
63 *506:14 *684:130 7.02729e-05
64 *510:34 *684:8 5.61182e-06
65 *537:32 *684:35 8.61726e-05
66 *544:32 *684:130 1.90936e-05
67 *557:58 *2184:A 0.000226867
68 *568:88 *684:130 0.000139977
69 *568:114 *2184:A 0.000263967
70 *587:24 *2184:A 0.00010616
71 *587:60 *684:130 0.000273072
72 *590:96 *684:6 3.97677e-05
73 *590:96 *684:8 2.59355e-05
74 *590:96 *684:114 0.000189319
75 *593:18 *2054:GATE 2.42516e-05
76 *602:109 *2024:GATE 5.03795e-05
77 *602:109 *2025:GATE 0
78 *602:109 *684:12 8.34646e-05
79 *613:83 *684:46 1.721e-05
80 *613:107 *684:6 2.68253e-05
81 *613:107 *684:8 2.99653e-05
82 *616:26 *684:130 9.93326e-05
83 *618:12 *2184:A 0.00040808
84 *618:50 *684:114 0.000290553
85 *624:58 *684:35 0.000289599
86 *624:82 *684:114 4.76637e-06
87 *624:108 *684:114 0.000135028
88 *624:108 *684:130 0.000231392
89 *626:100 *684:114 0.000239005
90 *628:90 *684:130 3.32709e-05
91 *629:18 *2026:GATE 2.47753e-05
92 *629:35 *2026:GATE 4.18217e-05
93 *629:35 *2040:GATE 5.03398e-05
94 *633:78 *2040:GATE 5.33005e-05
95 *634:10 *2040:GATE 2.59355e-05
96 *639:52 *684:144 6.08432e-05
97 *643:79 *684:114 0.000117987
98 *652:175 *684:46 2.09826e-05
99 *654:20 *684:35 1.30069e-05
100 *654:20 *684:114 1.42049e-05
101 *654:41 *684:35 0.000149381
102 *654:82 *684:35 0.000166269
103 *654:82 *684:46 9.10427e-05
104 *666:76 *2184:A 4.26287e-05
105 *672:134 *684:46 7.02772e-05
106 *672:184 *684:130 0.000257626
107 *680:46 *684:35 0.000107258
108 *680:46 *684:114 0.00017737
109 *683:10 *2184:A 0.000103974
110 *683:106 *2184:A 1.31516e-05
*RES
1 *2185:X *684:6 11.4786 
2 *684:6 *684:8 3.82143 
3 *684:8 *684:12 2.80357 
4 *684:12 *2024:GATE 11.8 
5 *684:12 *684:35 28.4643 
6 *684:35 *2039:GATE 13.8 
7 *684:35 *684:46 7.05357 
8 *684:46 *684:48 1.35714 
9 *684:48 *2026:GATE 14.7107 
10 *684:48 *2040:GATE 21.3893 
11 *684:46 *2041:GATE 9.3 
12 *684:8 *2025:GATE 10.0321 
13 *684:6 *684:114 48.2143 
14 *684:114 *684:130 45.5536 
15 *684:130 *684:136 9.33929 
16 *684:136 *684:144 13.2143 
17 *684:144 *2184:A 37.0857 
18 *684:144 *2055:GATE 9.3 
19 *684:136 *2053:GATE 9.3 
20 *684:130 *2054:GATE 15.9786 
*END

*D_NET *685 0.0117477
*CONN
*I *1903:A3 I *D sky130_fd_sc_hd__mux4_1
*I *1902:A0 I *D sky130_fd_sc_hd__mux4_1
*I *1892:A0 I *D sky130_fd_sc_hd__mux4_1
*I *1911:A3 I *D sky130_fd_sc_hd__mux4_1
*I *2240:X O *D sky130_fd_sc_hd__buf_1
*CAP
1 *1903:A3 1.97425e-05
2 *1902:A0 0.000165331
3 *1892:A0 6.44561e-05
4 *1911:A3 0.000517209
5 *2240:X 0.000547273
6 *685:49 0.000999411
7 *685:30 0.00164608
8 *685:22 0.000926259
9 *1892:A0 *1892:A1 5.33005e-05
10 *1892:A0 *1892:A2 5.33005e-05
11 *1892:A0 *698:68 2.42516e-05
12 *1902:A0 *1902:A1 0.000204616
13 *1902:A0 *690:61 4.60383e-05
14 *1903:A3 *702:14 5.91074e-05
15 *1911:A3 *693:22 1.88851e-05
16 *685:22 *689:24 1.58163e-05
17 *685:22 *699:66 0.000219289
18 *685:22 *700:12 0.000158421
19 *685:22 *702:14 0.000146858
20 *685:30 *690:61 4.22135e-06
21 *685:49 *688:30 1.90936e-05
22 *685:49 *690:61 0.000279668
23 *685:49 *692:22 0.00102084
24 E1BEG[0] *685:22 0.000220943
25 *1879:A1 *685:49 7.40571e-05
26 *1879:A2 *685:49 0.000164544
27 *1902:A3 *1902:A0 5.47001e-05
28 *1902:S0 *1902:A0 1.5872e-05
29 *1903:A2 *1911:A3 1.98839e-05
30 *1911:A0 *1911:A3 0
31 *1911:A2 *1911:A3 0.000115413
32 *2003:GATE *685:49 2.09897e-05
33 *2079:A *685:30 0.000105191
34 *2091:A *685:49 0.000145609
35 *2284:A *1903:A3 6.77303e-05
36 *2284:A *685:22 0.000149105
37 *147:51 *685:22 0.000453352
38 *148:37 *685:22 0.000522237
39 *149:37 *1911:A3 3.69047e-06
40 *329:30 *685:22 5.7616e-05
41 *484:50 *685:30 2.01732e-05
42 *484:50 *685:49 6.60327e-05
43 *485:29 *1911:A3 3.97677e-05
44 *517:60 *685:49 4.26921e-05
45 *523:24 *685:22 0.000376941
46 *523:24 *685:30 0.000107157
47 *524:142 *685:30 3.59701e-05
48 *534:40 *685:49 3.9103e-05
49 *538:32 *1902:A0 6.2589e-06
50 *563:30 *685:30 9.43632e-05
51 *594:38 *685:30 0.000605903
52 *596:82 *1892:A0 1.98839e-05
53 *596:118 *1902:A0 1.81805e-05
54 *596:118 *685:49 5.66157e-05
55 *671:87 *1902:A0 0.000167884
56 *676:85 *685:30 8.6229e-06
57 *676:85 *685:49 0.000641775
*RES
1 *2240:X *685:22 39.3268 
2 *685:22 *685:30 8.15272 
3 *685:30 *1911:A3 20.5321 
4 *685:30 *685:49 20.8214 
5 *685:49 *1892:A0 15.1571 
6 *685:49 *1902:A0 18.2464 
7 *685:22 *1903:A3 14.6839 
*END

*D_NET *686 0.038506
*CONN
*I *1894:A2 I *D sky130_fd_sc_hd__mux4_1
*I *1901:A2 I *D sky130_fd_sc_hd__mux4_1
*I *1891:A2 I *D sky130_fd_sc_hd__mux4_1
*I *2242:X O *D sky130_fd_sc_hd__dlymetal6s2s_1
*CAP
1 *1894:A2 2.68095e-05
2 *1901:A2 0.000110835
3 *1891:A2 0.000666226
4 *2242:X 0.00116747
5 *686:58 0.000951513
6 *686:52 0.00673582
7 *686:14 0.00770203
8 *1891:A2 *1891:A1 9.65171e-05
9 *1891:A2 *1901:A0 0.000260621
10 *1891:A2 *1901:A1 4.2399e-06
11 *1891:A2 *694:92 0
12 *686:14 *699:66 0.000555447
13 *686:52 *1893:A1 0.00138118
14 *686:52 *696:26 0
15 *686:52 *696:30 0.000468511
16 *686:52 *703:40 0.00101019
17 *686:52 *704:110 1.30622e-05
18 *686:58 *696:30 0.000471749
19 E6BEG[3] *686:52 0.00035773
20 E6BEG[4] *686:52 1.45936e-05
21 *1811:A0 *686:52 5.2908e-05
22 *1811:A1 *686:52 0.000113877
23 *1822:A1 *686:14 7.40571e-05
24 *1891:A3 *1891:A2 3.52408e-05
25 *1891:S1 *1891:A2 9.25014e-06
26 *1894:S0 *1894:A2 1.40749e-05
27 *1901:A3 *1901:A2 7.08001e-05
28 *1901:S1 *1901:A2 0.000103041
29 *1903:S1 *686:14 6.04502e-05
30 *1970:D *686:14 0.000149726
31 *1974:D *1901:A2 3.91149e-05
32 *1974:D *686:58 0.000159158
33 *2002:D *686:14 4.43299e-05
34 *2071:A *686:14 0.000140841
35 *2146:A *1891:A2 0
36 *2149:A *1901:A2 5.41794e-05
37 *2149:A *686:58 0.00013573
38 *2289:A *686:14 0.000435718
39 *2292:A *686:14 0.000734851
40 *2299:A *686:14 2.09897e-05
41 *2303:A *686:52 9.67505e-05
42 *2328:A *686:52 0.000173523
43 *142:117 *686:52 0.000349043
44 *142:117 *686:58 0.000478691
45 *147:51 *686:14 8.54322e-05
46 *148:37 *686:14 0.000119217
47 *149:111 *686:52 0
48 *160:113 *686:52 5.11566e-05
49 *160:133 *686:58 1.90936e-05
50 *323:12 *1894:A2 1.01912e-05
51 *483:46 *686:14 0.000213048
52 *483:78 *686:52 0.00411706
53 *514:94 *686:52 5.74665e-06
54 *516:32 *686:52 0.00015285
55 *517:60 *686:14 1.91414e-05
56 *520:58 *686:52 0.000128824
57 *523:24 *686:14 0.000155116
58 *525:40 *686:14 9.66977e-05
59 *528:30 *686:52 0.000153346
60 *528:44 *686:14 3.10008e-05
61 *529:40 *686:52 0.000458349
62 *533:52 *686:14 1.43864e-05
63 *538:66 *686:52 8.92205e-05
64 *545:38 *686:14 0.000111243
65 *545:38 *686:52 4.65519e-05
66 *550:30 *686:14 0.000516169
67 *551:20 *686:52 0.000887296
68 *556:22 *1891:A2 0.000476036
69 *558:52 *686:52 0.000148219
70 *631:18 *1891:A2 1.91418e-05
71 *642:106 *686:52 0.000297379
72 *646:53 *686:52 0.000268
73 *646:88 *686:52 0.00183962
74 *661:132 *686:14 2.75563e-05
75 *661:177 *686:14 3.43514e-05
76 *665:38 *686:52 0.00133448
77 *676:48 *686:14 0.00103916
*RES
1 *2242:X *686:14 47.5232 
2 *686:14 *686:52 38.6543 
3 *686:52 *686:58 6.27588 
4 *686:58 *1891:A2 34.2732 
5 *686:58 *1901:A2 17.1973 
6 *686:52 *1894:A2 17.7234 
*END

*D_NET *687 0.0420243
*CONN
*I *1972:D I *D sky130_fd_sc_hd__dlxtp_1
*I *1940:D I *D sky130_fd_sc_hd__dlxtp_1
*I *2036:D I *D sky130_fd_sc_hd__dlxtp_1
*I *2004:D I *D sky130_fd_sc_hd__dlxtp_1
*I *2120:A I *D sky130_fd_sc_hd__clkbuf_1
*I *2263:X O *D sky130_fd_sc_hd__clkbuf_2
*CAP
1 *1972:D 0.000555077
2 *1940:D 8.57828e-05
3 *2036:D 0.000550982
4 *2004:D 0.000302972
5 *2120:A 0
6 *2263:X 4.76369e-05
7 *687:114 0.00402295
8 *687:92 0.00522967
9 *687:70 0.00237878
10 *687:28 0.00108043
11 *687:18 0.00231117
12 *687:6 0.00267173
13 *1940:D *689:24 5.21937e-05
14 *1972:D *1884:A1 1.90936e-05
15 *1972:D *693:46 0.000114003
16 *1972:D *708:28 6.54263e-05
17 *687:18 *698:175 0
18 *687:70 *698:44 0.000149437
19 *687:92 *689:108 0.000498323
20 *687:92 *698:68 2.63501e-05
21 *687:114 *693:22 1.66754e-05
22 *687:114 *694:44 0.000168197
23 *1805:A *2036:D 0.000478742
24 *1825:A *1972:D 9.41642e-05
25 *1825:B *1972:D 0.000298483
26 *1825:C_N *1972:D 2.35281e-05
27 *1828:A2 *1972:D 1.21258e-05
28 *1828:A4 *1972:D 0.000382958
29 *1891:S0 *687:28 4.53889e-05
30 *1910:S1 *2036:D 6.05161e-06
31 *1936:GATE *687:70 0
32 *1941:GATE *1940:D 8.55871e-05
33 *1950:D *687:114 2.70764e-05
34 *1961:D *687:70 0.000160036
35 *1972:GATE *1972:D 1.97695e-05
36 *1985:D *687:92 1.90936e-05
37 *1985:GATE *687:92 0.000147862
38 *1995:D *687:28 1.79654e-05
39 *2001:D *687:70 1.6683e-05
40 *2008:GATE *687:92 6.57032e-05
41 *2036:GATE *2036:D 2.07878e-05
42 *2179:A *687:28 0.000471883
43 *2198:A *687:18 0
44 *2263:A *687:70 0.000186174
45 *2345:A *687:18 4.58615e-05
46 *143:29 *2036:D 0.000263076
47 *146:99 *2004:D 2.12687e-05
48 *154:99 *687:70 0.000237147
49 *154:107 *687:18 0.00290886
50 *154:107 *687:70 2.30116e-06
51 *240:10 *2036:D 7.20217e-06
52 *243:42 *2036:D 0.000412662
53 *243:42 *687:114 0.000126591
54 *479:46 *687:114 2.71873e-05
55 *480:50 *687:18 2.21354e-05
56 *480:50 *687:70 0.000170027
57 *483:90 *2004:D 0.000127446
58 *486:18 *2036:D 4.58194e-05
59 *495:20 *1972:D 0.000135028
60 *502:75 *687:92 5.50943e-05
61 *512:14 *687:70 0.000167191
62 *512:20 *687:70 0.000223392
63 *529:40 *687:92 0.000240657
64 *546:31 *687:70 0.000323229
65 *546:42 *687:70 0.00036623
66 *561:30 *687:114 0.000717749
67 *569:28 *2036:D 2.79421e-05
68 *576:14 *2004:D 0.000191972
69 *582:54 *1972:D 2.16899e-05
70 *582:54 *687:114 0.000334669
71 *582:94 *687:6 1.85689e-05
72 *585:30 *687:92 0.000174581
73 *587:148 *687:70 8.76591e-06
74 *591:102 *687:114 5.14838e-05
75 *593:44 *687:114 0.000108136
76 *602:70 *687:70 0.000102976
77 *602:70 *687:92 3.38552e-05
78 *603:66 *687:70 6.35864e-05
79 *613:48 *687:92 0.000130136
80 *618:96 *687:92 4.99276e-05
81 *624:32 *687:18 0
82 *625:8 *687:6 0.000135028
83 *625:8 *687:18 5.33005e-05
84 *625:10 *687:18 0.00290362
85 *627:104 *687:114 0.000877195
86 *630:50 *687:28 0.000255055
87 *630:84 *687:92 0.000271989
88 *630:84 *687:114 0.0007288
89 *631:106 *687:114 0.000156268
90 *634:54 *687:114 0
91 *635:42 *687:92 0.000676159
92 *635:42 *687:114 0.000935517
93 *636:26 *687:92 0.000502807
94 *637:108 *687:92 0.000167506
95 *639:98 *687:70 0.000216755
96 *644:34 *2036:D 8.15221e-05
97 *644:149 *687:70 0.000530738
98 *651:247 *1972:D 2.63501e-05
99 *652:175 *687:70 0.000136549
100 *652:175 *687:92 3.04934e-05
101 *659:83 *2036:D 0.000395157
102 *659:83 *687:114 0.000448859
103 *664:143 *2036:D 9.25014e-06
104 *664:143 *687:114 0.000576191
105 *668:69 *687:92 1.3407e-05
106 *670:45 *687:28 0.000106542
107 *671:30 *687:92 0.000195941
108 *671:87 *1972:D 4.18158e-05
109 *674:80 *687:92 0.000113456
110 *675:38 *687:92 2.48294e-05
111 *675:56 *687:6 4.08637e-05
112 *675:56 *687:18 9.58126e-05
113 *675:56 *687:70 2.95642e-05
114 *678:10 *687:28 6.38268e-05
115 *679:8 *687:92 0
116 *679:97 *687:28 0.000291794
*RES
1 *2263:X *687:6 10.6571 
2 *687:6 *687:18 47.7255 
3 *687:18 *687:28 24.9189 
4 *687:28 *2120:A 9.3 
5 *687:28 *2004:D 23.9607 
6 *687:6 *687:70 44.1196 
7 *687:70 *687:92 31.924 
8 *687:92 *687:114 30.3088 
9 *687:114 *2036:D 47.2286 
10 *687:114 *1940:D 15.5679 
11 *687:92 *1972:D 31.4084 
*END

*D_NET *688 0.0186935
*CONN
*I *1889:A2 I *D sky130_fd_sc_hd__mux4_1
*I *1899:A2 I *D sky130_fd_sc_hd__mux4_1
*I *2243:X O *D sky130_fd_sc_hd__buf_1
*CAP
1 *1889:A2 0.000362848
2 *1899:A2 0.000100151
3 *2243:X 0.00275291
4 *688:30 0.00321591
5 *1889:A2 *695:103 3.69047e-06
6 *688:30 *1885:A2 0.0046123
7 *740:DIODE *1889:A2 1.94879e-05
8 *1998:D *1889:A2 2.53512e-06
9 *2071:A *688:30 4.35597e-05
10 *2294:A *688:30 0.000135028
11 *145:63 *688:30 0.000170436
12 *148:97 *688:30 4.32463e-05
13 *234:14 *1899:A2 9.75337e-06
14 *234:26 *1889:A2 5.37715e-05
15 *235:45 *1889:A2 2.17319e-05
16 *235:45 *1899:A2 0.000167279
17 *479:159 *1899:A2 0.000226402
18 *519:46 *688:30 0.000167762
19 *520:58 *688:30 0.000111243
20 *531:34 *688:30 0.000960715
21 *534:40 *688:30 2.21972e-05
22 *538:32 *688:30 0.00012831
23 *539:18 *1899:A2 1.59935e-05
24 *545:38 *688:30 1.47871e-05
25 *559:34 *1889:A2 0.000119938
26 *563:30 *688:30 0.00069231
27 *601:30 *1889:A2 3.79901e-06
28 *601:30 *688:30 5.69851e-06
29 *618:116 *688:30 3.90782e-06
30 *637:44 *688:30 0.000495995
31 *642:106 *688:30 0.000169708
32 *645:62 *688:30 0.00369668
33 *659:227 *1889:A2 2.0612e-05
34 *659:227 *1899:A2 4.48011e-05
35 *667:172 *1889:A2 2.11419e-05
36 *673:90 *688:30 3.77315e-05
37 *685:49 *688:30 1.90936e-05
*RES
1 *2243:X *688:30 38.5393 
2 *688:30 *1899:A2 20.5493 
3 *688:30 *1889:A2 18.419 
*END

*D_NET *689 0.0362593
*CONN
*I *1890:A0 I *D sky130_fd_sc_hd__mux4_1
*I *1900:A0 I *D sky130_fd_sc_hd__mux4_1
*I *1912:A3 I *D sky130_fd_sc_hd__mux4_1
*I *1904:A3 I *D sky130_fd_sc_hd__mux4_1
*I *2244:X O *D sky130_fd_sc_hd__clkbuf_2
*CAP
1 *1890:A0 0.000368502
2 *1900:A0 0
3 *1912:A3 0.000149631
4 *1904:A3 0.00019419
5 *2244:X 0.0016242
6 *689:114 0.000884911
7 *689:108 0.00385843
8 *689:74 0.00479581
9 *689:37 0.00160343
10 *689:24 0.00181838
11 *1912:A3 *706:38 4.82865e-05
12 *689:24 *705:6 6.94952e-05
13 *689:24 *705:10 0.000181863
14 *689:108 *694:44 8.69554e-05
15 *689:108 *698:44 0.00042322
16 *689:108 *701:54 1.5732e-05
17 *1880:A0 *689:74 8.47606e-05
18 *1880:S0 *689:74 2.51513e-05
19 *1893:S0 *1890:A0 6.43196e-05
20 *1900:S1 *689:114 6.65166e-05
21 *1904:A2 *1904:A3 4.40853e-06
22 *1904:A2 *689:24 0.00013312
23 *1904:S0 *689:74 2.79421e-05
24 *1904:S1 *689:74 6.05161e-06
25 *1913:S1 *689:24 2.77258e-05
26 *1940:D *689:24 5.21937e-05
27 *1941:GATE *689:24 1.12262e-05
28 *1991:D *1890:A0 1.24368e-05
29 *2069:A *689:24 0.000218404
30 *2078:A *689:24 3.16198e-05
31 *2169:A *689:24 1.58163e-05
32 *2240:A *689:24 0.000102676
33 *2245:A *689:24 5.49489e-05
34 *2260:A *689:24 0.000142094
35 *2279:A *689:74 0.000275684
36 *2287:A *689:24 5.52302e-05
37 *2326:A *689:108 8.69554e-05
38 *143:29 *689:24 9.96264e-05
39 *181:21 *1912:A3 0.000266473
40 *181:21 *689:74 0.000150257
41 *233:80 *689:114 0.000154285
42 *243:20 *689:74 0.000522469
43 *243:42 *689:74 7.40739e-05
44 *491:96 *689:108 0.000263533
45 *506:14 *689:74 0.000325783
46 *519:14 *1890:A0 9.58181e-05
47 *519:24 *1890:A0 0.000777482
48 *519:24 *689:114 0.000297753
49 *519:46 *689:108 0.000187964
50 *520:32 *689:108 0.000839057
51 *523:24 *689:24 5.52238e-05
52 *524:14 *689:114 0.000620405
53 *529:40 *689:108 1.47871e-05
54 *532:20 *689:24 2.59355e-05
55 *537:32 *689:108 5.33005e-05
56 *544:32 *689:74 1.01912e-05
57 *565:22 *689:108 0.00228117
58 *579:52 *689:108 1.47871e-05
59 *586:110 *689:108 0.00240726
60 *587:60 *689:74 1.17921e-05
61 *590:18 *689:74 3.69047e-06
62 *590:49 *689:74 5.40515e-05
63 *590:49 *689:108 9.41642e-05
64 *600:86 *689:108 0.000415203
65 *600:138 *689:108 0.000186752
66 *602:123 *689:74 5.28442e-06
67 *613:107 *689:74 9.34059e-06
68 *613:138 *1912:A3 9.42567e-05
69 *613:138 *689:74 0.000338257
70 *615:10 *1890:A0 0.000769649
71 *615:10 *689:114 0.000296272
72 *616:26 *689:74 2.21043e-05
73 *624:108 *689:74 0.000119709
74 *626:96 *689:74 0.00014314
75 *626:122 *1904:A3 6.65918e-06
76 *626:122 *1912:A3 0.000125468
77 *626:122 *689:24 8.68061e-06
78 *626:122 *689:74 0.000141007
79 *628:90 *1912:A3 2.79421e-05
80 *630:66 *689:108 0.000707126
81 *630:84 *689:108 0.00122296
82 *631:106 *689:108 6.13614e-05
83 *632:66 *689:108 0.00120182
84 *632:107 *689:108 0.000755005
85 *634:130 *689:108 0.000268789
86 *634:176 *689:108 0.000233048
87 *639:30 *689:74 4.51632e-05
88 *639:52 *689:74 0.000171986
89 *640:34 *689:108 0.000115446
90 *640:45 *689:108 8.83121e-05
91 *644:34 *689:24 9.96264e-05
92 *662:177 *689:108 0.000221246
93 *664:143 *689:24 3.04394e-05
94 *667:8 *689:24 0.000126938
95 *667:224 *689:24 0.000119057
96 *673:124 *689:108 0.000195221
97 *684:130 *689:74 4.8204e-05
98 *685:22 *689:24 1.58163e-05
99 *687:92 *689:108 0.000498323
*RES
1 *2244:X *689:24 44.0143 
2 *689:24 *1904:A3 12.3357 
3 *689:24 *689:37 4.5 
4 *689:37 *1912:A3 18.2107 
5 *689:37 *689:74 49.6786 
6 *689:74 *689:108 49.6027 
7 *689:108 *689:114 8.42161 
8 *689:114 *1900:A0 13.8 
9 *689:114 *1890:A0 26.1214 
*END

*D_NET *690 0.00961222
*CONN
*I *1905:A3 I *D sky130_fd_sc_hd__mux4_1
*I *1902:A1 I *D sky130_fd_sc_hd__mux4_1
*I *1892:A1 I *D sky130_fd_sc_hd__mux4_1
*I *1913:A3 I *D sky130_fd_sc_hd__mux4_1
*I *2245:X O *D sky130_fd_sc_hd__buf_1
*CAP
1 *1905:A3 0.000288224
2 *1902:A1 0.00010878
3 *1892:A1 1.71076e-05
4 *1913:A3 0
5 *2245:X 6.24338e-05
6 *690:65 0.000175538
7 *690:61 0.00159415
8 *690:17 0.00188933
9 *690:8 0.000119033
10 *1892:A1 *698:68 2.84109e-05
11 *1902:A1 *1902:A2 2.10259e-05
12 *1902:A1 *698:68 1.40664e-05
13 *690:61 *702:14 2.98081e-05
14 *690:61 *707:28 0.000100831
15 *690:65 *698:68 4.82865e-05
16 *1887:A0 *690:61 0.000204465
17 *1892:A0 *1892:A1 5.33005e-05
18 *1902:A0 *1902:A1 0.000204616
19 *1902:A0 *690:61 4.60383e-05
20 *1902:A3 *1902:A1 4.46186e-06
21 *1902:S0 *1902:A1 5.47001e-05
22 *1905:A0 *1905:A3 2.84026e-05
23 *1905:A0 *690:8 0.000146759
24 *1905:A0 *690:17 0.000139158
25 *1905:A0 *690:61 4.56437e-05
26 *1967:GATE *690:61 0.000193496
27 *2003:GATE *690:61 7.45379e-05
28 *2079:A *690:61 2.26973e-05
29 *2091:A *690:61 0
30 *2247:A *1905:A3 6.42074e-05
31 *329:30 *1905:A3 0.000147465
32 *483:46 *690:61 0.000109422
33 *484:50 *690:61 1.15478e-05
34 *485:18 *690:61 1.25553e-05
35 *517:60 *690:61 0.000342138
36 *523:24 *690:61 6.75637e-05
37 *538:32 *1902:A1 0
38 *563:30 *690:61 8.60835e-05
39 *596:118 *1902:A1 0.000174805
40 *600:72 *690:61 1.43455e-05
41 *637:44 *690:61 6.13349e-05
42 *645:62 *690:61 2.80057e-05
43 *659:116 *690:61 6.35864e-05
44 *661:112 *690:61 1.92173e-05
45 *661:132 *690:61 0.000279218
46 *661:177 *690:61 1.45742e-05
47 *665:50 *690:61 0.000205744
48 *671:87 *1902:A1 1.98839e-05
49 *671:87 *690:61 2.31791e-05
50 *671:111 *690:61 0.000384889
51 *671:113 *690:61 0.000322508
52 *671:115 *690:61 2.15383e-05
53 *676:85 *690:61 0.000941913
54 *676:99 *690:8 7.40937e-05
55 *676:99 *690:17 7.56513e-05
56 *676:99 *690:61 4.75668e-05
57 *685:30 *690:61 4.22135e-06
58 *685:49 *690:61 0.000279668
*RES
1 *2245:X *690:8 15.7464 
2 *690:8 *1913:A3 13.8 
3 *690:8 *690:17 1.94643 
4 *690:17 *690:61 46.09 
5 *690:61 *690:65 5.44643 
6 *690:65 *1892:A1 9.83571 
7 *690:65 *1902:A1 21.925 
8 *690:17 *1905:A3 18.7107 
*END

*D_NET *691 0.0317818
*CONN
*I *1906:A3 I *D sky130_fd_sc_hd__mux4_1
*I *1914:A3 I *D sky130_fd_sc_hd__mux4_1
*I *1893:A0 I *D sky130_fd_sc_hd__mux4_1
*I *1890:A1 I *D sky130_fd_sc_hd__mux4_1
*I *1900:A1 I *D sky130_fd_sc_hd__mux4_1
*I *2246:X O *D sky130_fd_sc_hd__clkbuf_2
*CAP
1 *1906:A3 0.000278451
2 *1914:A3 0
3 *1893:A0 0
4 *1890:A1 0.000591512
5 *1900:A1 0.00101852
6 *2246:X 0.000445116
7 *691:105 0.000911333
8 *691:88 0.00184497
9 *691:74 0.000617491
10 *691:72 0.00172594
11 *691:38 0.00286804
12 *691:16 0.00277019
13 *691:8 0.00168389
14 *1890:A1 *1893:A2 6.98553e-06
15 *1900:A1 *1900:A2 8.73931e-05
16 *1906:A3 *1882:A2 0.000124538
17 *1906:A3 *708:113 0.000131146
18 *691:16 *695:62 0.000831337
19 *691:16 *704:72 0.000321447
20 *691:38 *704:72 0.00108007
21 *691:72 *1899:A1 4.88175e-05
22 *691:72 *695:90 0.00014784
23 *691:72 *704:110 0.000401327
24 *691:72 *708:113 5.76217e-05
25 *691:74 *1914:A2 3.31175e-05
26 *691:74 *708:113 0.000105209
27 *691:88 *1914:A1 9.41642e-05
28 *691:88 *708:99 5.33005e-05
29 *691:88 *708:113 0.000267492
30 *691:105 *1893:A1 0.000135028
31 E2BEG[4] *691:16 2.04825e-05
32 E2BEG[5] *691:16 2.06178e-05
33 E2BEGb[2] *691:16 0.000107746
34 E2BEGb[4] *691:16 2.22043e-05
35 E6BEG[1] *691:38 6.87181e-05
36 E6BEG[2] *691:38 3.05378e-05
37 EE4BEG[10] *691:38 5.66471e-06
38 FrameData_O[11] *691:72 0.000292759
39 FrameData_O[12] *691:72 0.000189398
40 FrameData_O[1] *691:72 8.6229e-06
41 FrameData_O[3] *691:72 0.000216755
42 FrameData_O[5] *691:72 1.72244e-05
43 FrameData_O[6] *691:72 0.00011765
44 FrameData_O[8] *691:72 0.000114992
45 *728:DIODE *691:88 4.72604e-05
46 *1889:S0 *691:72 2.33184e-05
47 *1893:S1 *1890:A1 0.000114205
48 *1900:S1 *1900:A1 8.26896e-05
49 *1906:A0 *1906:A3 0.000158689
50 *2068:A *691:72 0.000200531
51 *2081:A *1900:A1 5.94943e-05
52 *2081:A *691:88 1.9021e-05
53 *2094:A *1900:A1 2.59355e-05
54 *2107:A *691:16 0.000152415
55 *2253:A *691:16 0.000115542
56 *2300:A *691:16 3.54429e-05
57 *2305:A *691:38 3.08382e-06
58 *2329:A *691:38 0.000158308
59 *2332:A *691:72 0.000193356
60 *2336:A *1906:A3 0.000191657
61 *2340:A *1906:A3 0.00014767
62 *2340:A *691:72 0
63 *2348:A *691:72 0
64 *2354:A *691:105 1.98839e-05
65 *143:111 *1890:A1 0.000127439
66 *144:71 *691:16 0.000957898
67 *147:99 *691:38 0.00127156
68 *149:87 *691:16 0.000473646
69 *149:101 *691:72 4.06087e-07
70 *151:23 *691:8 0.000596294
71 *151:57 *691:38 8.76711e-05
72 *234:86 *691:16 0.000163871
73 *481:50 *691:16 0.000218285
74 *481:84 *691:16 0.000396776
75 *516:58 *691:16 8.05427e-05
76 *516:58 *691:38 0.000379594
77 *521:12 *691:16 0.000111162
78 *524:180 *691:88 8.80543e-05
79 *532:20 *691:16 1.74766e-05
80 *535:52 *691:38 0.000446302
81 *535:52 *691:72 3.21598e-05
82 *539:40 *691:72 0.000426521
83 *558:14 *1900:A1 4.78045e-06
84 *559:34 *691:38 0.000281969
85 *559:34 *691:72 3.97677e-05
86 *560:44 *691:16 0.000300455
87 *564:36 *691:38 0.000268558
88 *572:12 *691:105 0.000322755
89 *573:28 *691:72 0
90 *583:86 *691:38 0.00026908
91 *598:28 *691:72 7.96587e-06
92 *600:138 *691:38 7.78829e-05
93 *600:162 *691:38 0.00012459
94 *637:67 *691:16 1.74766e-05
95 *645:78 *691:105 0.000506107
96 *646:88 *691:72 5.80273e-05
97 *646:127 *691:72 9.41642e-05
98 *647:185 *691:16 1.43864e-05
99 *647:222 *691:16 0.000229943
100 *653:219 *691:38 0.000318201
101 *659:161 *691:16 0.000148566
102 *659:209 *691:38 0.000440264
103 *659:227 *691:72 0
104 *659:227 *691:88 3.28686e-05
105 *660:91 *691:38 0.000243526
106 *669:45 *1890:A1 9.71502e-05
107 *669:45 *691:105 5.03772e-05
108 *669:53 *691:105 0.000167419
109 *679:72 *1890:A1 0.000125724
*RES
1 *2246:X *691:8 19.675 
2 *691:8 *691:16 43.4643 
3 *691:16 *691:38 49.8214 
4 *691:38 *691:72 47.4643 
5 *691:72 *691:74 2.17857 
6 *691:74 *691:88 9.375 
7 *691:88 *1900:A1 20.8357 
8 *691:88 *691:105 17.9821 
9 *691:105 *1890:A1 27.4964 
10 *691:105 *1893:A0 9.3 
11 *691:74 *1914:A3 9.3 
12 *691:72 *1906:A3 26.2107 
*END

*D_NET *692 0.0141604
*CONN
*I *1907:A3 I *D sky130_fd_sc_hd__mux4_1
*I *1915:A3 I *D sky130_fd_sc_hd__mux4_1
*I *1902:A2 I *D sky130_fd_sc_hd__mux4_1
*I *1892:A2 I *D sky130_fd_sc_hd__mux4_1
*I *2247:X O *D sky130_fd_sc_hd__buf_1
*CAP
1 *1907:A3 0.000135917
2 *1915:A3 0.000277952
3 *1902:A2 0.000851257
4 *1892:A2 0.000235107
5 *2247:X 0.00058721
6 *692:64 0.000868756
7 *692:37 0.0013886
8 *692:22 0.000820951
9 *692:16 0.0010906
10 *1892:A2 *698:68 9.13392e-05
11 *1915:A3 *1915:A2 1.41885e-05
12 *1915:A3 *702:41 1.90936e-05
13 *692:16 *701:28 0.000279354
14 *692:16 *707:14 2.79421e-05
15 *692:22 *694:44 0.000188532
16 *1826:A2 *692:64 8.80625e-05
17 *1877:A3 *1915:A3 0.000149832
18 *1892:A0 *1892:A2 5.33005e-05
19 *1892:A3 *1892:A2 6.67396e-05
20 *1892:S0 *1892:A2 9.44848e-05
21 *1902:A1 *1902:A2 2.10259e-05
22 *1902:A3 *1902:A2 5.96516e-05
23 *1902:S0 *1902:A2 0.000341599
24 *1907:A0 *1907:A3 3.00769e-05
25 *1907:S0 *1907:A3 1.66247e-05
26 *1907:S0 *692:64 0.000215659
27 *2299:A *1915:A3 0.000200002
28 *2322:A *692:64 8.93791e-05
29 *144:39 *692:16 0.000272665
30 *149:63 *692:16 8.93791e-05
31 *484:50 *692:16 8.27044e-05
32 *484:50 *692:22 0.000207879
33 *484:50 *692:37 0.000284172
34 *484:50 *692:64 0.000138939
35 *485:18 *692:16 0.000375077
36 *517:28 *692:64 1.88482e-05
37 *520:58 *692:64 2.35889e-05
38 *522:58 *1915:A3 0.000148954
39 *533:18 *692:16 0.000172229
40 *533:52 *692:22 4.11218e-05
41 *534:40 *692:22 7.35637e-05
42 *538:32 *692:64 0.000195562
43 *545:38 *692:16 5.49544e-05
44 *550:30 *1915:A3 0.000225431
45 *562:30 *1915:A3 0.000142686
46 *563:30 *692:16 0.000282296
47 *596:82 *1892:A2 9.41642e-05
48 *596:118 *692:22 3.17148e-05
49 *596:118 *692:37 0.000293422
50 *596:118 *692:64 0.000110848
51 *597:14 *692:16 0.000177941
52 *642:106 *692:64 6.54117e-05
53 *659:116 *692:16 0.000234858
54 *671:87 *1902:A2 1.65169e-05
55 *675:174 *692:22 0.000134778
56 *675:174 *692:64 0.000308599
57 *675:176 *692:22 0.000294067
58 *675:192 *692:22 2.06112e-05
59 *676:48 *1915:A3 0.0002233
60 *685:49 *692:22 0.00102084
*RES
1 *2247:X *692:16 39.3 
2 *692:16 *692:22 15.0536 
3 *692:22 *1892:A2 18.6973 
4 *692:22 *692:37 3.76786 
5 *692:37 *1902:A2 25.6661 
6 *692:37 *692:64 23.875 
7 *692:64 *1915:A3 31.0975 
8 *692:64 *1907:A3 11.5143 
*END

*D_NET *693 0.0336884
*CONN
*I *1890:A2 I *D sky130_fd_sc_hd__mux4_1
*I *1893:A2 I *D sky130_fd_sc_hd__mux4_1
*I *1900:A2 I *D sky130_fd_sc_hd__mux4_1
*I *1908:A3 I *D sky130_fd_sc_hd__mux4_1
*I *1808:A3 I *D sky130_fd_sc_hd__mux4_1
*I *2248:X O *D sky130_fd_sc_hd__clkbuf_2
*CAP
1 *1890:A2 0.000229377
2 *1893:A2 1.36823e-05
3 *1900:A2 0.000181574
4 *1908:A3 0
5 *1808:A3 0.000242436
6 *2248:X 0.00143519
7 *693:163 0.000685186
8 *693:142 0.00142629
9 *693:117 0.00145987
10 *693:84 0.00156654
11 *693:68 0.00186776
12 *693:46 0.00233711
13 *693:22 0.00257136
14 *1808:A3 *703:60 6.30931e-05
15 *693:22 *1905:A2 6.19148e-05
16 *693:22 *1913:A2 7.39705e-05
17 *693:22 *694:44 0.000102121
18 *693:22 *700:14 9.66498e-05
19 *693:22 *708:28 0.0003831
20 *693:46 *708:28 0.000939427
21 *693:68 *698:68 1.90936e-05
22 *693:68 *708:56 0.000474324
23 *1808:S0 *693:142 0.000113647
24 *1809:A0 *1890:A2 0.000148362
25 *1809:A0 *693:163 6.69937e-05
26 *1812:A0 *693:84 0.000110179
27 *1812:S0 *693:84 0.000176108
28 *1822:A1 *693:46 5.61436e-06
29 *1825:C_N *693:46 0.000358241
30 *1828:A2 *693:46 0
31 *1828:A4 *693:46 0
32 *1878:A0 *693:117 2.65218e-05
33 *1879:A1 *693:46 7.14469e-05
34 *1879:S0 *693:46 0.000149414
35 *1884:A0 *693:68 2.08447e-05
36 *1884:S0 *693:68 0.000243153
37 *1888:A1 *693:68 9.37744e-05
38 *1890:A1 *1893:A2 6.98553e-06
39 *1890:S0 *1890:A2 1.02504e-05
40 *1892:S1 *693:46 3.22325e-05
41 *1893:A3 *1890:A2 8.6229e-06
42 *1893:A3 *693:163 6.53397e-05
43 *1893:S0 *1890:A2 6.57032e-05
44 *1895:S1 *693:22 0.000341298
45 *1896:S0 *693:68 0.000259267
46 *1900:A1 *1900:A2 8.73931e-05
47 *1908:A0 *693:84 5.57394e-05
48 *1911:A3 *693:22 1.88851e-05
49 *1972:D *693:46 0.000114003
50 *2000:D *693:84 8.50971e-06
51 *2022:D *693:68 4.21517e-05
52 *2023:D *693:68 4.99283e-06
53 *2088:A *693:142 0.000314188
54 *2245:A *693:22 0.000781129
55 *143:29 *693:22 0.00112297
56 *143:59 *693:46 0.000251176
57 *143:103 *693:68 4.06612e-05
58 *143:109 *1808:A3 1.76304e-05
59 *143:111 *1808:A3 6.47471e-05
60 *143:111 *693:142 0.00103933
61 *143:111 *693:163 0.00051916
62 *145:63 *693:68 0.000189929
63 *149:63 *693:46 0.000322279
64 *153:129 *693:84 0.00025865
65 *153:129 *693:117 0.000122796
66 *233:99 *1890:A2 0.000119224
67 *482:76 *693:117 0.000204173
68 *482:105 *693:117 0.000127325
69 *502:51 *1808:A3 0.000221822
70 *502:51 *693:84 8.07879e-05
71 *502:51 *693:117 0.000234305
72 *502:51 *693:142 1.90442e-05
73 *502:75 *1808:A3 8.43535e-06
74 *502:75 *693:68 0.000101363
75 *513:37 *693:117 3.24765e-05
76 *513:37 *693:142 4.43299e-05
77 *513:82 *693:117 6.20441e-06
78 *529:40 *693:68 0.000314296
79 *544:48 *693:84 2.30116e-06
80 *556:54 *693:68 0.000281233
81 *558:14 *1900:A2 3.13387e-05
82 *579:52 *693:22 0.000151784
83 *586:110 *693:68 0.000211335
84 *587:148 *693:117 1.20295e-05
85 *587:176 *693:163 0.00014146
86 *590:112 *693:84 0.000131476
87 *591:34 *693:117 0.0001271
88 *596:40 *693:22 0.000247322
89 *596:82 *693:46 3.69047e-06
90 *597:30 *693:46 0.000523574
91 *597:46 *693:46 1.58163e-05
92 *597:46 *693:68 1.08691e-05
93 *630:66 *693:163 0.000310788
94 *630:84 *693:68 0.000513571
95 *631:65 *693:68 1.39148e-05
96 *634:130 *693:68 0.000268771
97 *635:92 *693:68 0.000395541
98 *636:117 *693:68 1.02937e-05
99 *636:117 *693:84 1.42165e-05
100 *637:108 *693:68 5.47047e-05
101 *637:108 *693:84 0.000208504
102 *643:110 *693:68 5.10822e-05
103 *643:116 *693:84 0
104 *643:164 *1808:A3 5.25862e-06
105 *643:164 *693:84 0
106 *647:185 *693:22 2.64807e-05
107 *659:83 *693:22 7.49162e-06
108 *661:177 *693:68 5.00087e-06
109 *661:207 *693:68 4.45788e-06
110 *662:177 *693:68 1.21637e-05
111 *664:143 *693:22 0.000301862
112 *664:166 *693:46 0.000312583
113 *671:10 *1808:A3 5.33005e-05
114 *671:30 *693:84 6.08671e-05
115 *672:52 *1808:A3 4.95714e-05
116 *672:52 *693:84 1.18064e-05
117 *672:52 *693:117 0
118 *672:100 *693:84 0.000334376
119 *673:116 *693:68 0.000418083
120 *674:48 *1808:A3 0.000262686
121 *674:48 *693:117 2.60996e-05
122 *675:64 *693:142 0.000275981
123 *677:22 *693:142 0.000654837
124 *677:57 *693:84 0.000135189
125 *677:61 *693:84 0.000249493
126 *679:49 *1808:A3 2.95642e-05
127 *679:61 *1808:A3 0.000119722
128 *679:72 *693:142 0.00056335
129 *679:72 *693:163 0.00052457
130 *687:114 *693:22 1.66754e-05
*RES
1 *2248:X *693:22 48.2761 
2 *693:22 *693:46 44.3571 
3 *693:46 *693:68 46.175 
4 *693:68 *693:84 22.3929 
5 *693:84 *1808:A3 28.9786 
6 *693:84 *693:117 12.9802 
7 *693:117 *1908:A3 13.8 
8 *693:117 *693:142 27.9958 
9 *693:142 *1900:A2 16.9295 
10 *693:142 *693:163 15.2108 
11 *693:163 *1893:A2 14.0366 
12 *693:163 *1890:A2 18.483 
*END

*D_NET *694 0.0486184
*CONN
*I *1894:A0 I *D sky130_fd_sc_hd__mux4_1
*I *1909:A3 I *D sky130_fd_sc_hd__mux4_1
*I *1809:A3 I *D sky130_fd_sc_hd__mux4_1
*I *1901:A0 I *D sky130_fd_sc_hd__mux4_1
*I *1891:A0 I *D sky130_fd_sc_hd__mux4_1
*I *2249:X O *D sky130_fd_sc_hd__clkbuf_2
*CAP
1 *1894:A0 0.000336689
2 *1909:A3 0
3 *1809:A3 0.000181635
4 *1901:A0 0.000293359
5 *1891:A0 0.000435921
6 *2249:X 0.00402404
7 *694:134 0.000228603
8 *694:130 0.000917094
9 *694:94 0.00091645
10 *694:92 0.00311571
11 *694:76 0.00622432
12 *694:44 0.00785326
13 *1891:A0 *1891:A1 6.61173e-05
14 *1894:A0 *1909:A1 0.000160375
15 *1901:A0 *1891:A1 6.35819e-05
16 *1901:A0 *1901:A1 0.000366751
17 *694:44 *1905:A2 4.88232e-05
18 *694:44 *697:46 0.00114563
19 *694:44 *704:44 0.0005585
20 *694:130 *1909:A1 0.000402955
21 *724:DIODE *694:92 0.000125593
22 *724:DIODE *694:130 2.55806e-05
23 *730:DIODE *1891:A0 0.000108447
24 *730:DIODE *694:94 0.00013128
25 *730:DIODE *694:130 1.32056e-05
26 *743:DIODE *1809:A3 9.15291e-05
27 *1809:A1 *1809:A3 5.30637e-06
28 *1891:A2 *1901:A0 0.000260621
29 *1891:A2 *694:92 0
30 *1891:S0 *1891:A0 1.32056e-05
31 *1891:S1 *694:92 0
32 *1894:A3 *1894:A0 9.71197e-05
33 *1909:A2 *1809:A3 0.000125724
34 *1909:A2 *694:134 1.02504e-05
35 *1909:S1 *1809:A3 2.28731e-05
36 *2003:GATE *694:44 2.63501e-05
37 *2011:GATE *1894:A0 0.000118052
38 *2127:A *1894:A0 6.05161e-06
39 *2146:A *694:92 9.11048e-06
40 *2146:A *694:130 5.49544e-05
41 *2180:A *694:76 0.000100937
42 *2195:A *694:92 7.9232e-05
43 *2196:A *694:92 0.000220755
44 *2203:A *1891:A0 0
45 *2207:A *1901:A0 4.1331e-06
46 *2211:A *694:76 5.93199e-05
47 *2212:A *694:76 0.000139153
48 *2246:A *694:44 0
49 *2249:A *694:44 2.59491e-05
50 *2263:A *694:76 2.53201e-05
51 *2271:A *694:76 2.93461e-05
52 *2304:A *694:44 0.000531367
53 *2304:A *694:76 0.000114637
54 *2326:A *694:44 0.000265089
55 *2376:A *1891:A0 0.000263148
56 *2376:A *1901:A0 0
57 *2378:A *1901:A0 0.000148903
58 *2379:A *1901:A0 0
59 *142:67 *694:76 0.000299741
60 *143:59 *694:44 2.18838e-05
61 *148:111 *694:134 0
62 *156:53 *694:76 0.000347111
63 *157:87 *694:76 5.33327e-05
64 *158:75 *694:76 0.000303517
65 *160:79 *694:44 0.000699788
66 *323:12 *1809:A3 9.97297e-05
67 *323:12 *694:134 3.34687e-05
68 *480:153 *694:92 0
69 *480:159 *694:92 0.000216237
70 *482:26 *694:44 0.000874913
71 *483:46 *694:44 8.91941e-06
72 *483:102 *1809:A3 5.91336e-05
73 *484:50 *694:44 0.000190589
74 *511:10 *694:76 0.000842883
75 *511:26 *694:76 3.42555e-05
76 *535:112 *1894:A0 5.24592e-05
77 *545:38 *694:44 9.51343e-06
78 *568:54 *694:76 0.000458731
79 *569:28 *694:44 0.000302068
80 *573:28 *694:92 0.000159375
81 *584:48 *694:76 7.96701e-05
82 *593:44 *694:44 0.000267988
83 *594:38 *694:44 0.000114637
84 *600:138 *694:76 7.64882e-05
85 *601:30 *694:76 0.00214813
86 *615:10 *694:92 0.00122063
87 *618:96 *694:76 6.79536e-05
88 *624:32 *694:76 0.00272248
89 *627:12 *1891:A0 0
90 *627:40 *694:76 0.00124718
91 *627:68 *694:76 0.000299217
92 *627:104 *694:76 0.000349578
93 *628:38 *694:92 1.09611e-05
94 *628:68 *694:76 0.000648624
95 *630:26 *1891:A0 0
96 *630:50 *694:92 0
97 *630:66 *694:92 0.000414643
98 *631:18 *1901:A0 6.59167e-05
99 *631:106 *694:44 0.000574863
100 *635:42 *694:76 7.19586e-05
101 *637:44 *694:44 0.000525852
102 *642:34 *694:44 8.7498e-06
103 *654:82 *694:44 0.000466675
104 *658:113 *694:44 0.000422786
105 *665:83 *694:44 0.000333892
106 *671:111 *694:44 0.00027371
107 *687:114 *694:44 0.000168197
108 *689:108 *694:44 8.69554e-05
109 *692:22 *694:44 0.000188532
110 *693:22 *694:44 0.000102121
*RES
1 *2249:X *694:44 48.9105 
2 *694:44 *694:76 49.0409 
3 *694:76 *694:92 39.8437 
4 *694:92 *694:94 2.58929 
5 *694:94 *1891:A0 25.7107 
6 *694:94 *1901:A0 26.4607 
7 *694:92 *694:130 7.67857 
8 *694:130 *694:134 5.53571 
9 *694:134 *1809:A3 18.6571 
10 *694:134 *1909:A3 13.8 
11 *694:130 *1894:A0 23.8893 
*END

*D_NET *695 0.035176
*CONN
*I *1893:A1 I *D sky130_fd_sc_hd__mux4_1
*I *1899:A0 I *D sky130_fd_sc_hd__mux4_1
*I *1889:A0 I *D sky130_fd_sc_hd__mux4_1
*I *1810:A3 I *D sky130_fd_sc_hd__mux4_1
*I *1910:A3 I *D sky130_fd_sc_hd__mux4_1
*I *2250:X O *D sky130_fd_sc_hd__clkbuf_2
*CAP
1 *1893:A1 0.00281782
2 *1899:A0 2.78216e-05
3 *1889:A0 0
4 *1810:A3 8.93674e-05
5 *1910:A3 0.000844411
6 *2250:X 0.000114649
7 *695:103 0.00326964
8 *695:90 0.000788667
9 *695:76 0.00163914
10 *695:66 0.00179711
11 *695:62 0.00122821
12 *695:16 0.00202394
13 *695:8 0.00191038
14 *1810:A3 *698:129 3.17163e-05
15 *1893:A1 *704:110 3.38755e-05
16 *1910:A3 *2037:D 8.32242e-05
17 *1910:A3 *698:129 6.057e-07
18 *695:16 *1810:A2 4.3363e-05
19 *695:16 *704:44 8.7012e-05
20 *695:62 *1903:A1 0.000436466
21 *695:76 *704:72 0.000210897
22 *695:90 *1889:A1 3.99614e-06
23 *695:103 *1889:A1 2.34059e-05
24 E6BEG[10] *695:76 2.63501e-05
25 E6BEG[10] *695:90 3.06878e-06
26 E6BEG[11] *695:76 3.01113e-05
27 E6BEG[6] *695:76 2.58826e-05
28 E6BEG[9] *695:76 0.000147561
29 EE4BEG[7] *695:76 0.000581785
30 FrameData_O[0] *695:76 0.000678384
31 FrameData_O[0] *695:90 0.000165123
32 FrameData_O[23] *1893:A1 0
33 FrameData_O[2] *695:76 1.95625e-05
34 FrameData_O[2] *695:90 9.71197e-05
35 FrameData_O[4] *695:76 0.000350119
36 FrameData_O[9] *1893:A1 0.000172883
37 *740:DIODE *1899:A0 3.69047e-06
38 *740:DIODE *695:103 7.55769e-05
39 *1889:A2 *695:103 3.69047e-06
40 *1889:A3 *695:103 2.79421e-05
41 *1889:S0 *695:90 7.6644e-05
42 *1889:S0 *695:103 4.69888e-05
43 *1899:S0 *1893:A1 0.000134678
44 *1905:A0 *1810:A3 2.82057e-05
45 *1905:A0 *1910:A3 0.000197991
46 *1910:A0 *1910:A3 3.16113e-05
47 *1910:A2 *1910:A3 0.000214832
48 *1941:GATE *1910:A3 1.58163e-05
49 *2064:A *695:16 1.34672e-05
50 *2246:A *695:8 5.49489e-05
51 *2329:A *695:76 1.44954e-05
52 *2348:A *1893:A1 8.52609e-05
53 *2348:A *695:103 3.15692e-05
54 *2354:A *1893:A1 0.000548128
55 *142:53 *695:66 6.28948e-05
56 *146:77 *695:66 1.21637e-05
57 *146:77 *695:76 0.00146021
58 *147:91 *695:66 0.00134402
59 *147:91 *695:76 6.62001e-05
60 *149:87 *695:66 0.000264187
61 *149:101 *1893:A1 4.78315e-05
62 *151:23 *695:8 0.000261794
63 *151:57 *695:76 4.05174e-06
64 *235:64 *1893:A1 1.90936e-05
65 *236:91 *695:66 9.86391e-06
66 *236:91 *695:76 0.000228393
67 *481:18 *695:16 0.000449896
68 *481:18 *695:62 8.6229e-06
69 *514:24 *695:90 0.000105471
70 *514:72 *695:90 1.19197e-05
71 *525:40 *695:16 5.97326e-05
72 *527:10 *1910:A3 2.47753e-05
73 *532:20 *695:16 0.000347584
74 *532:20 *695:62 0.000873451
75 *539:18 *1899:A0 2.84109e-05
76 *542:20 *1893:A1 2.04825e-05
77 *559:34 *695:76 0.000110889
78 *559:58 *695:76 7.1675e-05
79 *560:44 *695:62 1.41295e-05
80 *560:58 *695:66 0.00167277
81 *571:18 *1893:A1 8.65987e-06
82 *583:86 *695:76 0.000734992
83 *586:110 *1893:A1 8.74483e-05
84 *587:176 *1893:A1 2.67463e-05
85 *598:28 *695:90 4.6025e-06
86 *600:162 *695:76 0.000289376
87 *601:30 *1893:A1 0.000161847
88 *632:152 *1893:A1 0.000102681
89 *645:78 *1893:A1 0.000116649
90 *646:32 *695:76 0.000387389
91 *646:88 *1893:A1 8.69554e-05
92 *647:222 *695:66 0.000245756
93 *650:168 *695:62 0.000298483
94 *651:193 *695:62 9.72299e-05
95 *653:249 *695:76 0.000590967
96 *659:183 *695:76 0.000102403
97 *659:209 *695:76 0.000129336
98 *659:227 *1893:A1 1.36609e-05
99 *660:59 *695:66 1.21637e-05
100 *667:172 *1893:A1 5.73777e-06
101 *667:172 *695:103 0.000134845
102 *676:99 *1910:A3 5.29991e-05
103 *686:52 *1893:A1 0.00138118
104 *691:16 *695:62 0.000831337
105 *691:72 *695:90 0.00014784
106 *691:105 *1893:A1 0.000135028
*RES
1 *2250:X *695:8 16.3893 
2 *695:8 *695:16 25.2857 
3 *695:16 *1910:A3 25.9607 
4 *695:16 *1810:A3 15.6036 
5 *695:8 *695:62 29.7857 
6 *695:62 *695:66 22.5179 
7 *695:66 *695:76 48.3153 
8 *695:76 *695:90 20.8393 
9 *695:90 *1889:A0 9.3 
10 *695:90 *695:103 11 
11 *695:103 *1899:A0 14.3357 
12 *695:103 *1893:A1 40.324 
*END

*D_NET *696 0.0375623
*CONN
*I *1894:A1 I *D sky130_fd_sc_hd__mux4_1
*I *1901:A1 I *D sky130_fd_sc_hd__mux4_1
*I *1891:A1 I *D sky130_fd_sc_hd__mux4_1
*I *2251:X O *D sky130_fd_sc_hd__dlymetal6s2s_1
*CAP
1 *1894:A1 3.28296e-05
2 *1901:A1 0.000518002
3 *1891:A1 0.000884256
4 *2251:X 0.000869373
5 *696:30 0.00222964
6 *696:26 0.00566044
7 *696:16 0.0056696
8 *696:26 *697:46 0.000152005
9 *696:26 *697:62 0.0014455
10 *696:26 *704:72 0.000211534
11 *696:26 *704:110 8.94491e-05
12 E1BEG[1] *696:16 0.00034017
13 E1BEG[3] *696:16 0.000214436
14 E2BEG[0] *696:16 0.000412857
15 FrameData_O[9] *696:26 0.000519042
16 *743:DIODE *1894:A1 9.11365e-06
17 *1891:A0 *1891:A1 6.61173e-05
18 *1891:A2 *1891:A1 9.65171e-05
19 *1891:A2 *1901:A1 4.2399e-06
20 *1891:A3 *1891:A1 5.30637e-06
21 *1891:S0 *1891:A1 9.35114e-06
22 *1894:A3 *1894:A1 4.33002e-05
23 *1894:A3 *696:26 0.000190586
24 *1901:A0 *1891:A1 6.35819e-05
25 *1901:A0 *1901:A1 0.000366751
26 *1903:S0 *696:16 0.000176673
27 *2146:A *1901:A1 1.31484e-05
28 *2284:A *696:16 0.000164442
29 *2294:A *696:16 0.000149832
30 *2374:A *1901:A1 0.000225385
31 *2376:A *1901:A1 1.78353e-05
32 *2379:A *1901:A1 9.77657e-05
33 *142:53 *696:16 4.904e-05
34 *142:117 *696:30 7.21422e-05
35 *144:39 *696:16 0.000117986
36 *146:99 *696:26 0.00266546
37 *150:87 *696:26 4.29471e-05
38 *151:57 *696:26 0.000207175
39 *160:133 *696:30 0
40 *236:91 *696:26 0.000514446
41 *483:102 *696:26 0.000242262
42 *483:102 *696:30 4.32256e-05
43 *517:60 *696:16 0.000105866
44 *524:142 *696:16 0.000546927
45 *524:142 *696:26 0.000175315
46 *528:30 *696:26 0.00244317
47 *535:112 *1894:A1 2.32456e-05
48 *535:112 *696:26 7.88667e-05
49 *536:16 *696:26 0.000165771
50 *551:20 *696:26 0.000750502
51 *551:20 *696:30 0
52 *631:18 *1891:A1 0.000252438
53 *631:18 *1901:A1 0.000273851
54 *646:24 *696:26 0.0032437
55 *650:168 *696:16 3.41652e-05
56 *651:209 *696:26 0.00198378
57 *653:275 *696:26 0.00164065
58 *686:52 *696:26 0
59 *686:52 *696:30 0.000468511
60 *686:58 *696:30 0.000471749
*RES
1 *2251:X *696:16 31.1342 
2 *696:16 *696:26 31.8098 
3 *696:26 *696:30 5.4028 
4 *696:30 *1891:A1 26.0383 
5 *696:30 *1901:A1 36.2725 
6 *696:26 *1894:A1 14.6839 
*END

*D_NET *697 0.021284
*CONN
*I *1889:A1 I *D sky130_fd_sc_hd__mux4_1
*I *1899:A1 I *D sky130_fd_sc_hd__mux4_1
*I *2253:X O *D sky130_fd_sc_hd__buf_1
*CAP
1 *1889:A1 5.231e-05
2 *1899:A1 0.000269339
3 *2253:X 0.00375911
4 *697:62 0.00123725
5 *697:46 0.00467472
6 *697:46 *698:121 8.60635e-05
7 *697:46 *703:40 0.000695467
8 *697:46 *704:44 4.13404e-05
9 E1BEG[1] *697:46 1.90936e-05
10 E2BEGb[7] *697:46 0.000329376
11 EE4BEG[0] *697:46 0.000374719
12 FrameData_O[2] *697:62 0.000100551
13 FrameData_O[4] *697:62 2.79437e-05
14 FrameData_O[8] *1899:A1 7.72916e-05
15 FrameData_O[8] *697:62 9.50843e-05
16 FrameData_O[9] *697:62 9.50843e-05
17 *2249:A *697:46 1.00298e-06
18 *2284:A *697:46 1.21859e-05
19 *2302:A *697:46 0.000203562
20 *2315:A *697:46 6.40586e-05
21 *2361:A *1899:A1 0.000136676
22 *2361:A *697:62 1.26013e-05
23 *144:71 *697:46 3.36184e-05
24 *149:101 *1899:A1 2.16719e-05
25 *151:57 *697:46 0.000211525
26 *160:79 *697:46 0.000854933
27 *483:78 *697:46 0.000603854
28 *524:43 *697:62 8.55871e-05
29 *539:18 *1899:A1 0.000114553
30 *539:40 *1899:A1 9.82592e-05
31 *551:20 *697:46 0.000752849
32 *551:20 *697:62 0.00016506
33 *569:62 *697:46 1.30275e-05
34 *594:88 *697:62 0.00110928
35 *637:63 *697:46 4.82947e-05
36 *646:24 *697:46 0.00166635
37 *653:170 *697:46 0.000156979
38 *653:275 *697:62 0.000163985
39 *691:72 *1899:A1 4.88175e-05
40 *694:44 *697:46 0.00114563
41 *695:90 *1889:A1 3.99614e-06
42 *695:103 *1889:A1 2.34059e-05
43 *696:26 *697:46 0.000152005
44 *696:26 *697:62 0.0014455
*RES
1 *2253:X *697:46 49.0113 
2 *697:46 *697:62 19.7276 
3 *697:62 *1899:A1 24.1929 
4 *697:62 *1889:A1 10.5679 
*END

*D_NET *698 0.04413
*CONN
*I *2121:A I *D sky130_fd_sc_hd__clkbuf_1
*I *2005:D I *D sky130_fd_sc_hd__dlxtp_1
*I *1941:D I *D sky130_fd_sc_hd__dlxtp_1
*I *2037:D I *D sky130_fd_sc_hd__dlxtp_1
*I *1973:D I *D sky130_fd_sc_hd__dlxtp_1
*I *2271:X O *D sky130_fd_sc_hd__clkbuf_2
*CAP
1 *2121:A 0.000179539
2 *2005:D 0
3 *1941:D 0
4 *2037:D 0.000498622
5 *1973:D 0
6 *2271:X 3.27913e-05
7 *698:175 0.00443132
8 *698:129 0.000928355
9 *698:121 0.00303319
10 *698:68 0.00423489
11 *698:44 0.00371227
12 *698:8 0.00636541
13 *698:68 *708:28 4.22135e-06
14 *698:121 *704:44 0.000172539
15 *698:129 *1810:A2 3.4323e-06
16 *698:175 *1878:A1 0
17 E1BEG[0] *698:121 8.63795e-05
18 E1BEG[1] *698:121 0
19 E2BEG[2] *698:121 0.000108505
20 E2BEG[6] *698:121 5.20515e-05
21 E2BEGb[0] *698:121 1.76649e-05
22 *1810:A3 *698:129 3.17163e-05
23 *1825:C_N *698:68 4.5888e-05
24 *1862:A2 *2037:D 7.2726e-05
25 *1866:A1 *2037:D 7.79781e-06
26 *1886:S0 *2121:A 0.000353638
27 *1886:S0 *698:175 0.000133683
28 *1892:A0 *698:68 2.42516e-05
29 *1892:A1 *698:68 2.84109e-05
30 *1892:A2 *698:68 9.13392e-05
31 *1892:A3 *698:68 5.20669e-05
32 *1894:A3 *698:175 7.53159e-05
33 *1902:A1 *698:68 1.40664e-05
34 *1902:S1 *698:121 5.33005e-05
35 *1905:A0 *2037:D 0.000182963
36 *1905:A0 *698:129 0
37 *1910:A3 *2037:D 8.32242e-05
38 *1910:A3 *698:129 6.057e-07
39 *1944:GATE *698:175 0
40 *1961:D *698:44 0.000122765
41 *2020:D *698:175 6.32297e-05
42 *2020:GATE *698:175 4.02956e-05
43 *2021:D *698:175 2.06178e-05
44 *2030:D *698:121 0.000362318
45 *2059:D *698:44 2.55806e-05
46 *2107:A *698:121 2.97485e-06
47 *2108:A *698:175 6.60229e-05
48 *2191:A *698:175 6.60633e-06
49 *2242:A *698:121 2.38941e-05
50 *2243:A *698:121 0.000295729
51 *2249:A *698:121 0
52 *2251:A *698:121 5.7903e-06
53 *2269:A *2037:D 9.63908e-05
54 *2270:A *2037:D 2.51343e-06
55 *2271:A *698:8 4.82865e-05
56 *2271:A *698:44 4.30573e-05
57 *2291:A *698:121 1.61405e-05
58 *2293:A *698:121 5.87829e-05
59 *2294:A *698:121 0
60 *2300:A *698:121 0.000368548
61 *2315:A *698:121 0.000170036
62 *2345:A *698:175 0
63 *142:117 *698:175 9.43894e-06
64 *143:103 *698:44 0.000121542
65 *144:71 *698:121 4.73269e-05
66 *145:63 *698:68 1.74019e-05
67 *147:51 *698:129 0.00108011
68 *148:57 *698:121 0.000153745
69 *156:69 *698:175 0.0020607
70 *157:87 *698:44 0.000100216
71 *157:107 *698:44 0.000930296
72 *159:93 *698:175 0
73 *236:116 *698:121 2.80897e-05
74 *479:60 *698:68 0.000354926
75 *480:108 *698:175 4.2313e-05
76 *485:18 *2037:D 1.65169e-05
77 *486:18 *2037:D 9.35114e-06
78 *502:75 *698:44 0.000922167
79 *512:14 *698:44 7.48679e-06
80 *512:14 *698:175 0.000176806
81 *522:58 *698:68 2.63501e-05
82 *524:14 *698:175 0.000109422
83 *525:40 *698:121 0.000108854
84 *525:40 *698:129 3.69047e-06
85 *527:10 *2037:D 5.33005e-05
86 *527:10 *698:129 5.33005e-05
87 *529:40 *698:44 0.000678642
88 *529:40 *698:68 2.27941e-05
89 *533:52 *698:68 3.69047e-06
90 *533:52 *698:121 9.08427e-05
91 *534:40 *698:121 0.000128627
92 *535:112 *698:175 1.96771e-05
93 *557:32 *698:175 0.000169949
94 *569:62 *698:121 4.03969e-05
95 *571:18 *2121:A 8.45372e-05
96 *577:20 *698:175 1.41029e-05
97 *579:24 *698:175 0.000283661
98 *582:128 *698:175 0
99 *584:84 *698:175 0.000381481
100 *587:148 *698:44 6.20441e-06
101 *591:34 *698:175 0.000197779
102 *591:48 *698:44 4.58194e-05
103 *593:74 *698:68 1.08506e-05
104 *594:38 *698:121 0.000149105
105 *597:46 *698:68 0.0001417
106 *600:138 *698:44 0.0004276
107 *613:40 *698:175 0.00016044
108 *618:96 *698:68 0.000213246
109 *618:132 *698:175 0
110 *624:32 *698:175 9.09469e-06
111 *625:8 *698:8 9.41642e-05
112 *626:34 *698:175 1.94257e-05
113 *628:38 *698:175 0.0012524
114 *631:106 *698:68 0.000859267
115 *632:66 *698:68 0.000499567
116 *632:107 *698:44 9.70312e-05
117 *632:107 *698:68 0.000372579
118 *635:42 *698:121 0.000140924
119 *637:44 *698:121 2.66789e-06
120 *637:108 *698:44 2.82648e-06
121 *643:110 *698:44 8.83765e-05
122 *643:116 *698:44 5.51709e-05
123 *644:149 *698:44 2.28007e-05
124 *645:62 *698:121 0.000100796
125 *650:216 *698:121 0.000302413
126 *654:88 *698:44 0
127 *654:96 *698:44 0.000111826
128 *654:96 *698:175 0.000536105
129 *660:43 *2037:D 0.000172105
130 *661:112 *698:121 3.20441e-05
131 *661:207 *698:44 2.63501e-05
132 *662:177 *698:68 0.000248569
133 *668:14 *698:44 0
134 *672:18 *698:175 4.6025e-06
135 *672:100 *698:44 2.55698e-05
136 *674:48 *698:44 0.00021767
137 *676:99 *2037:D 0.000434899
138 *676:99 *698:129 0.000992021
139 *687:18 *698:175 0
140 *687:70 *698:44 0.000149437
141 *687:92 *698:68 2.63501e-05
142 *689:108 *698:44 0.00042322
143 *690:65 *698:68 4.82865e-05
144 *693:68 *698:68 1.90936e-05
145 *697:46 *698:121 8.60635e-05
*RES
1 *2271:X *698:8 14.7464 
2 *698:8 *698:44 48.0689 
3 *698:44 *698:68 32.021 
4 *698:68 *1973:D 9.3 
5 *698:68 *698:121 49.7427 
6 *698:121 *698:129 22.6868 
7 *698:129 *2037:D 39.4964 
8 *698:129 *1941:D 9.3 
9 *698:8 *698:175 45.9416 
10 *698:175 *2005:D 9.3 
11 *698:175 *2121:A 13.9429 
*END

*D_NET *699 0.0221114
*CONN
*I *1903:A1 I *D sky130_fd_sc_hd__mux4_1
*I *1875:A2 I *D sky130_fd_sc_hd__mux4_1
*I *1911:A1 I *D sky130_fd_sc_hd__mux4_1
*I *2254:X O *D sky130_fd_sc_hd__buf_1
*CAP
1 *1903:A1 0.000297929
2 *1875:A2 0.000846428
3 *1911:A1 4.11274e-05
4 *2254:X 0.00165299
5 *699:66 0.00242703
6 *699:40 0.00220817
7 *699:22 0.00202375
8 *1875:A2 *708:28 0.000438337
9 E1BEG[0] *699:66 0.000519741
10 *1836:A1 *699:22 1.92398e-05
11 *1864:A2 *699:22 1.07995e-05
12 *1866:A1 *699:22 0.000104658
13 *1875:A1 *1875:A2 4.3363e-05
14 *1879:A0 *1875:A2 4.58194e-05
15 *1879:A2 *1875:A2 5.83304e-05
16 *1879:A3 *1875:A2 2.79421e-05
17 *1887:A1 *1875:A2 7.48984e-05
18 *1895:A3 *1875:A2 4.70371e-05
19 *1903:A0 *1903:A1 0.000177545
20 *1911:A0 *1875:A2 1.00733e-05
21 *1911:A0 *699:66 7.5779e-05
22 *1911:S1 *699:66 4.82865e-05
23 *1955:D *699:66 3.63775e-05
24 *1955:GATE *699:66 0.000136676
25 *1971:GATE *699:66 9.41642e-05
26 *2248:A *699:22 0.000190645
27 *2254:A *699:22 9.72477e-05
28 *2261:A *699:22 0.000239261
29 *2262:A *699:22 0.00123117
30 *2283:A *699:66 9.41642e-05
31 *142:31 *699:22 0.00176419
32 *142:53 *1903:A1 0.000216108
33 *142:53 *699:40 0.000429522
34 *143:9 *699:22 6.35819e-05
35 *146:67 *699:22 6.95391e-05
36 *181:44 *1875:A2 0.000270173
37 *236:124 *1875:A2 2.11068e-05
38 *481:18 *699:40 0.000126712
39 *481:50 *699:40 9.93847e-05
40 *514:94 *699:66 0.000135028
41 *525:40 *699:66 4.02565e-05
42 *533:52 *1875:A2 2.16637e-05
43 *560:58 *1903:A1 0.000204068
44 *560:58 *699:40 0.000386937
45 *596:40 *699:22 0.0015391
46 *597:14 *699:22 6.54117e-05
47 *600:72 *699:66 6.84037e-05
48 *644:34 *699:66 3.03892e-05
49 *647:189 *1903:A1 0.000123471
50 *650:168 *1903:A1 7.95355e-05
51 *650:168 *699:22 1.13265e-05
52 *650:168 *699:40 0.000153774
53 *652:16 *699:22 7.01273e-05
54 *652:127 *1911:A1 3.69047e-06
55 *652:139 *1875:A2 0.000456739
56 *659:116 *699:66 2.12521e-05
57 *660:43 *699:22 0.000487392
58 *661:132 *699:66 1.65169e-05
59 *663:14 *699:22 2.59355e-05
60 *664:166 *699:66 3.06878e-06
61 *667:54 *1875:A2 0.000454303
62 *667:54 *699:66 0.00012252
63 *685:22 *699:66 0.000219289
64 *686:14 *699:66 0.000555447
65 *695:62 *1903:A1 0.000436466
*RES
1 *2254:X *699:22 47.5633 
2 *699:22 *699:40 20.7411 
3 *699:40 *699:66 41.0893 
4 *699:66 *1911:A1 9.83571 
5 *699:66 *1875:A2 45.8223 
6 *699:40 *1903:A1 22.1214 
*END

*D_NET *700 0.0264507
*CONN
*I *1905:A2 I *D sky130_fd_sc_hd__mux4_1
*I *1885:A2 I *D sky130_fd_sc_hd__mux4_1
*I *1913:A2 I *D sky130_fd_sc_hd__mux4_1
*I *2255:X O *D sky130_fd_sc_hd__buf_1
*CAP
1 *1905:A2 0.000401748
2 *1885:A2 0.00347311
3 *1913:A2 0.000464664
4 *2255:X 0.000312302
5 *700:14 0.00433756
6 *700:12 0.00111384
7 *1905:A2 *704:44 0.000150961
8 *1810:S1 *700:12 0.000125724
9 *1913:A0 *1913:A2 0.000127779
10 *1913:S0 *1913:A2 0.000248181
11 *2077:A *1905:A2 0.000114962
12 *2247:A *1905:A2 9.75337e-06
13 *2260:A *700:12 7.6232e-05
14 *2287:A *1905:A2 3.80445e-05
15 *143:29 *1913:A2 2.21972e-05
16 *145:37 *1885:A2 0.000121977
17 *147:51 *700:12 0.000189813
18 *148:37 *700:12 0.000626447
19 *151:23 *700:12 4.43142e-05
20 *151:77 *1885:A2 0.00145857
21 *160:127 *1885:A2 2.03917e-05
22 *233:62 *1885:A2 2.06178e-05
23 *486:18 *700:12 9.33978e-07
24 *515:40 *1885:A2 0.00160051
25 *517:28 *1885:A2 0.000120211
26 *531:34 *1885:A2 9.95524e-05
27 *535:26 *1885:A2 2.63501e-05
28 *535:157 *1885:A2 3.77014e-05
29 *539:18 *1885:A2 6.90819e-05
30 *552:28 *1885:A2 4.79414e-05
31 *563:30 *1885:A2 0.000982598
32 *567:40 *1885:A2 0.000316115
33 *567:72 *1885:A2 0.00141468
34 *596:118 *1885:A2 0.0010021
35 *600:72 *1885:A2 0.000378607
36 *618:116 *1885:A2 0.000365739
37 *634:78 *1885:A2 0.000622352
38 *635:92 *1885:A2 1.47779e-05
39 *642:106 *1885:A2 0.000781116
40 *644:34 *1913:A2 1.90936e-05
41 *685:22 *700:12 0.000158421
42 *688:30 *1885:A2 0.0046123
43 *693:22 *1905:A2 6.19148e-05
44 *693:22 *1913:A2 7.39705e-05
45 *693:22 *700:14 9.66498e-05
46 *694:44 *1905:A2 4.88232e-05
*RES
1 *2255:X *700:12 27.1296 
2 *700:12 *700:14 0.731633 
3 *700:14 *1913:A2 21.6183 
4 *700:14 *1885:A2 40.9065 
5 *700:12 *1905:A2 20.8508 
*END

*D_NET *701 0.0378337
*CONN
*I *1914:A2 I *D sky130_fd_sc_hd__mux4_1
*I *1906:A2 I *D sky130_fd_sc_hd__mux4_1
*I *1886:A2 I *D sky130_fd_sc_hd__mux4_1
*I *2256:X O *D sky130_fd_sc_hd__dlymetal6s2s_1
*CAP
1 *1914:A2 0.000403638
2 *1906:A2 3.61942e-05
3 *1886:A2 0.000711337
4 *2256:X 0.00219652
5 *701:81 0.000650331
6 *701:58 0.00119496
7 *701:54 0.00370206
8 *701:28 0.00562546
9 *701:28 *703:40 8.25872e-08
10 *701:54 *708:84 0.000704257
11 FrameData_O[23] *1914:A2 0.000149503
12 *1862:B1 *701:28 0.00013615
13 *1879:S0 *701:28 3.30337e-05
14 *1882:S0 *1906:A2 6.60111e-05
15 *1886:A1 *1886:A2 5.33005e-05
16 *1895:A3 *701:54 0.00026107
17 *1906:A0 *1906:A2 6.98553e-06
18 *1914:S1 *1914:A2 8.6229e-06
19 *2012:D *1886:A2 0.000510205
20 *2027:D *701:54 0.000224974
21 *2260:A *701:28 0
22 *2288:A *701:28 8.98798e-06
23 *2304:A *701:54 0.000844697
24 *2335:A *1914:A2 0.000217983
25 *2336:A *1906:A2 1.14548e-05
26 *2340:A *1914:A2 3.88675e-05
27 *143:59 *701:54 0.000110498
28 *145:37 *701:28 1.30275e-05
29 *145:63 *701:54 0.000801863
30 *146:99 *1886:A2 0.000182393
31 *149:63 *701:28 9.70065e-05
32 *150:57 *701:54 0.000111243
33 *150:69 *701:58 8.92267e-05
34 *151:77 *1886:A2 0.000442654
35 *151:77 *701:58 0.000177142
36 *159:77 *701:54 0.000453261
37 *181:56 *701:54 0.000123605
38 *243:20 *701:54 1.65169e-05
39 *249:34 *701:54 0.000103075
40 *409:34 *701:54 0.000977629
41 *479:161 *1886:A2 0.000445883
42 *479:174 *1886:A2 0.000555704
43 *483:90 *1886:A2 0.000129329
44 *484:50 *701:28 0.000221719
45 *520:32 *701:54 0.000573802
46 *524:142 *701:28 0.000452852
47 *524:180 *701:58 0.000109657
48 *524:180 *701:81 5.11642e-05
49 *535:26 *701:54 0.000664556
50 *535:112 *701:54 0.000368461
51 *558:52 *701:54 0.000603332
52 *567:40 *701:28 0.00123496
53 *571:18 *1914:A2 2.89656e-05
54 *573:28 *1914:A2 4.3936e-05
55 *573:28 *701:81 7.58688e-06
56 *576:14 *1886:A2 0.000460876
57 *579:52 *701:54 0.00198994
58 *583:72 *701:28 0.00191841
59 *586:110 *701:54 0.00197688
60 *586:110 *701:58 6.73212e-05
61 *586:110 *701:81 5.10058e-05
62 *587:176 *1914:A2 5.08269e-05
63 *587:176 *701:58 6.92786e-05
64 *587:176 *701:81 9.51343e-06
65 *592:26 *1906:A2 6.77187e-05
66 *592:26 *701:81 8.54241e-05
67 *596:82 *701:54 7.46275e-05
68 *618:96 *701:54 2.95558e-05
69 *634:54 *701:54 2.71873e-05
70 *636:54 *701:28 0.000392985
71 *637:44 *701:28 0.000653271
72 *642:34 *701:28 2.68015e-05
73 *642:106 *701:54 0.000566556
74 *647:185 *701:28 1.99406e-05
75 *661:177 *701:54 5.49489e-05
76 *662:142 *701:54 3.92757e-05
77 *662:177 *701:54 1.01417e-05
78 *667:54 *701:54 0.000460115
79 *667:172 *701:54 0.000511278
80 *668:93 *701:54 0.000111731
81 *669:75 *701:54 0.000172294
82 *673:90 *701:54 0.00061988
83 *689:108 *701:54 1.5732e-05
84 *691:74 *1914:A2 3.31175e-05
85 *692:16 *701:28 0.000279354
*RES
1 *2256:X *701:28 46.9845 
2 *701:28 *701:54 48.5816 
3 *701:54 *701:58 4.14163 
4 *701:58 *1886:A2 39.3484 
5 *701:58 *701:81 0.4794 
6 *701:81 *1906:A2 18.3305 
7 *701:81 *1914:A2 22.2787 
*END

*D_NET *702 0.0116823
*CONN
*I *1915:A2 I *D sky130_fd_sc_hd__mux4_1
*I *1877:A1 I *D sky130_fd_sc_hd__mux4_1
*I *1907:A2 I *D sky130_fd_sc_hd__mux4_1
*I *2257:X O *D sky130_fd_sc_hd__buf_1
*CAP
1 *1915:A2 0.000151501
2 *1877:A1 1.75279e-05
3 *1907:A2 1.88585e-05
4 *2257:X 0.00133691
5 *702:41 0.000248498
6 *702:30 0.000757657
7 *702:14 0.00199624
8 *702:14 *1913:A1 0.000310864
9 *702:14 *703:40 0
10 *702:14 *704:44 0
11 *702:14 *707:67 0.000995326
12 *702:30 *707:67 1.57322e-05
13 *702:30 *707:93 9.21735e-05
14 *1877:A2 *1877:A1 2.08721e-05
15 *1887:S0 *702:14 2.87398e-06
16 *1887:S0 *702:30 2.22043e-05
17 *1902:S1 *702:30 3.02668e-05
18 *1903:A3 *702:14 5.91074e-05
19 *1907:A0 *702:30 0.0001417
20 *1907:A0 *702:41 7.18158e-05
21 *1915:A3 *1915:A2 1.41885e-05
22 *1915:A3 *702:41 1.90936e-05
23 *2030:D *702:14 2.09897e-05
24 *2064:A *702:14 0.000143626
25 *2107:A *702:14 0.000172163
26 *2260:A *702:14 7.38767e-05
27 *2284:A *702:14 0.000215132
28 *2287:A *702:14 0.000589352
29 *2288:A *702:14 8.6836e-05
30 *2289:A *702:30 2.20319e-05
31 *2297:A *702:30 0.00023411
32 *2299:A *702:30 1.16418e-05
33 *2299:A *702:41 4.02996e-05
34 *151:23 *702:14 0.000280772
35 *481:88 *1877:A1 5.49489e-05
36 *483:46 *702:30 0.000113864
37 *517:60 *702:14 0.000279104
38 *534:40 *702:14 0.000351105
39 *545:38 *702:30 1.94879e-05
40 *555:38 *702:14 0.000176075
41 *555:38 *702:30 0.000437553
42 *562:30 *1877:A1 1.24368e-05
43 *562:30 *1915:A2 0.000142686
44 *563:30 *702:14 0
45 *563:30 *702:30 0.000608321
46 *583:72 *702:14 0.000131496
47 *645:62 *702:14 9.83936e-06
48 *650:216 *1915:A2 0.000199351
49 *650:216 *702:30 0.000494747
50 *650:216 *702:41 0.000178251
51 *651:209 *702:30 5.52571e-05
52 *660:99 *1915:A2 1.59935e-05
53 *676:48 *702:30 1.08524e-05
54 *685:22 *702:14 0.000146858
55 *690:61 *702:14 2.98081e-05
*RES
1 *2257:X *702:14 49.4599 
2 *702:14 *702:30 22.0618 
3 *702:30 *1907:A2 14.0366 
4 *702:30 *702:41 2.55357 
5 *702:41 *1877:A1 14.3357 
6 *702:41 *1915:A2 17.2196 
*END

*D_NET *703 0.0300416
*CONN
*I *1808:A2 I *D sky130_fd_sc_hd__mux4_1
*I *1908:A1 I *D sky130_fd_sc_hd__mux4_1
*I *1878:A1 I *D sky130_fd_sc_hd__mux4_1
*I *2258:X O *D sky130_fd_sc_hd__dlymetal6s2s_1
*CAP
1 *1808:A2 0
2 *1908:A1 0
3 *1878:A1 0.000442278
4 *2258:X 0.00467057
5 *703:72 0.000870345
6 *703:60 0.00115882
7 *703:40 0.00540132
8 E6BEG[3] *703:40 7.88932e-05
9 EE4BEG[8] *703:40 8.07616e-06
10 *740:DIODE *703:40 4.18754e-05
11 *1808:A3 *703:60 6.30931e-05
12 *1813:A0 *703:60 5.40323e-06
13 *1813:A0 *703:72 0.000123744
14 *1877:A3 *703:40 4.75671e-06
15 *1878:A0 *1878:A1 3.69047e-06
16 *1878:A0 *703:72 2.13481e-06
17 *1908:S0 *703:72 0.000380913
18 *1908:S1 *703:60 6.98553e-06
19 *1908:S1 *703:72 0.000152867
20 *1944:GATE *1878:A1 0.000195624
21 *2108:A *1878:A1 3.04375e-05
22 *2259:A *703:40 0.000221198
23 *2260:A *703:40 0.000338423
24 *72:40 *703:40 2.62977e-05
25 *143:103 *703:40 6.14836e-06
26 *143:103 *703:60 7.04401e-05
27 *144:71 *703:40 0.000612678
28 *146:67 *703:40 0.00130251
29 *153:129 *703:72 0.000332346
30 *479:130 *703:40 1.82011e-05
31 *480:108 *1878:A1 3.59225e-05
32 *483:78 *703:40 0.000543727
33 *502:8 *1878:A1 5.49489e-05
34 *502:14 *1878:A1 5.79582e-06
35 *502:105 *1878:A1 5.11396e-07
36 *516:32 *703:40 9.59079e-05
37 *522:58 *703:40 0.000353089
38 *522:58 *703:60 0.00122655
39 *529:40 *703:60 0.000143389
40 *557:32 *1878:A1 2.01732e-05
41 *562:30 *703:40 0.000282406
42 *565:22 *703:40 8.06456e-05
43 *567:72 *703:40 0.0002886
44 *569:62 *703:40 0.000756417
45 *579:52 *703:40 0.000496158
46 *584:84 *1878:A1 2.38651e-06
47 *587:148 *1878:A1 6.5177e-05
48 *596:118 *703:40 0.00018071
49 *600:138 *703:40 0.000271445
50 *632:107 *703:40 8.76591e-06
51 *632:107 *703:60 0.000867339
52 *635:92 *703:40 0.000306511
53 *642:34 *703:40 0.00197688
54 *643:164 *703:60 0.000116046
55 *646:24 *703:40 0.00123402
56 *647:185 *703:40 3.21078e-05
57 *653:170 *703:40 0.00113806
58 *661:207 *703:40 2.33113e-05
59 *661:207 *703:60 0.000197811
60 *665:83 *703:40 3.98499e-05
61 *668:14 *1878:A1 0.000700346
62 *670:65 *1878:A1 5.49489e-05
63 *673:90 *703:40 8.98798e-06
64 *674:48 *703:72 9.18462e-05
65 *679:61 *703:60 6.49987e-05
66 *686:52 *703:40 0.00101019
67 *697:46 *703:40 0.000695467
68 *698:175 *1878:A1 0
69 *701:28 *703:40 8.25872e-08
70 *702:14 *703:40 0
*RES
1 *2258:X *703:40 47.587 
2 *703:40 *703:60 18.9196 
3 *703:60 *703:72 19.5848 
4 *703:72 *1878:A1 29.6214 
5 *703:72 *1908:A1 9.3 
6 *703:60 *1808:A2 9.3 
*END

*D_NET *704 0.0375965
*CONN
*I *1809:A2 I *D sky130_fd_sc_hd__mux4_1
*I *1909:A1 I *D sky130_fd_sc_hd__mux4_1
*I *1883:A1 I *D sky130_fd_sc_hd__mux4_1
*I *2259:X O *D sky130_fd_sc_hd__dlymetal6s2s_1
*CAP
1 *1809:A2 0.00019266
2 *1909:A1 0.000316068
3 *1883:A1 0
4 *2259:X 0.00270015
5 *704:119 0.000628504
6 *704:110 0.00282851
7 *704:90 0.0040735
8 *704:72 0.0028802
9 *704:44 0.00421559
10 *704:110 *708:113 0
11 E1BEG[1] *704:44 8.88767e-05
12 E2BEGb[3] *704:44 0.000200787
13 E2BEGb[4] *704:44 2.63501e-05
14 E2BEGb[5] *704:44 0.000148471
15 E2BEGb[6] *704:44 4.13107e-06
16 EE4BEG[10] *704:72 4.22135e-06
17 EE4BEG[11] *704:72 0.000333381
18 EE4BEG[12] *704:72 0.000329376
19 EE4BEG[13] *704:72 4.65519e-05
20 EE4BEG[14] *704:72 4.65519e-05
21 EE4BEG[1] *704:72 1.94879e-05
22 FrameData_O[12] *704:110 0.000541758
23 FrameData_O[13] *704:90 0.000159342
24 FrameData_O[25] *704:110 0.000151789
25 FrameData_O[26] *704:110 0.000138164
26 FrameData_O[28] *704:110 0.000145417
27 FrameData_O[30] *704:110 0.000116148
28 FrameData_O[4] *704:90 0.000382744
29 *743:DIODE *1809:A2 1.32276e-05
30 *743:DIODE *704:110 2.06178e-05
31 *1893:A1 *704:110 3.38755e-05
32 *1894:A0 *1909:A1 0.000160375
33 *1894:A3 *704:110 2.22043e-05
34 *1905:A2 *704:44 0.000150961
35 *1905:S1 *704:44 0.000125717
36 *1909:A0 *1909:A1 0.000186281
37 *1909:A0 *704:119 2.05612e-05
38 *1909:A2 *1909:A1 2.3541e-05
39 *1909:S0 *1909:A1 5.33005e-05
40 *2010:GATE *1809:A2 1.59935e-05
41 *2011:GATE *1809:A2 8.51066e-05
42 *2068:A *704:110 1.721e-05
43 *2073:A *704:119 7.16452e-05
44 *2077:A *704:44 9.21163e-05
45 *2246:A *704:44 0
46 *2247:A *704:44 0
47 *2249:A *704:44 0.000254283
48 *2260:A *704:44 0.000128146
49 *2284:A *704:44 2.06741e-05
50 *2287:A *704:44 2.76105e-05
51 *2302:A *704:44 5.20616e-05
52 *2329:A *704:72 0.000609093
53 *2329:A *704:90 4.40545e-06
54 *2332:A *704:110 0.000238163
55 *2340:A *704:110 0.000136506
56 *144:145 *704:110 0.000359617
57 *146:99 *704:110 0.000574028
58 *149:101 *704:110 0.000264766
59 *149:111 *704:110 0
60 *150:87 *704:119 6.86792e-05
61 *160:79 *704:44 0.000521531
62 *481:84 *704:72 6.78771e-05
63 *482:26 *704:44 0.000413199
64 *514:24 *704:90 0.000436132
65 *516:58 *704:72 0.000299646
66 *524:43 *704:90 0.000404909
67 *524:67 *704:72 6.80378e-05
68 *524:67 *704:90 0.000504424
69 *524:142 *704:72 0.000207175
70 *524:180 *704:110 0.000596506
71 *532:20 *704:44 0.000180719
72 *534:40 *704:44 8.80945e-05
73 *535:112 *1809:A2 0.000208777
74 *535:112 *704:110 8.02514e-05
75 *545:72 *704:72 0.000830648
76 *555:38 *704:44 4.75671e-06
77 *559:58 *704:72 0.000263929
78 *559:58 *704:90 2.07339e-05
79 *560:58 *704:72 6.53397e-05
80 *564:36 *704:90 0.000943201
81 *567:94 *704:90 1.73191e-05
82 *569:62 *704:44 0.000101819
83 *573:28 *704:110 0
84 *583:72 *704:44 0.00168068
85 *584:84 *704:110 3.94391e-05
86 *594:88 *704:90 0.000331676
87 *594:102 *704:110 2.53295e-05
88 *632:152 *704:110 0.000673481
89 *646:127 *704:110 4.01406e-05
90 *647:185 *704:44 0
91 *661:112 *704:44 2.63501e-05
92 *665:38 *704:44 4.43857e-05
93 *667:172 *704:110 0.000234408
94 *678:49 *1809:A2 3.59449e-05
95 *686:52 *704:110 1.30622e-05
96 *691:16 *704:72 0.000321447
97 *691:38 *704:72 0.00108007
98 *691:72 *704:110 0.000401327
99 *694:44 *704:44 0.0005585
100 *694:130 *1909:A1 0.000402955
101 *695:16 *704:44 8.7012e-05
102 *695:76 *704:72 0.000210897
103 *696:26 *704:72 0.000211534
104 *696:26 *704:110 8.94491e-05
105 *697:46 *704:44 4.13404e-05
106 *698:121 *704:44 0.000172539
107 *702:14 *704:44 0
*RES
1 *2259:X *704:44 46.3181 
2 *704:44 *704:72 48.4355 
3 *704:72 *704:90 47.0357 
4 *704:90 *704:110 43.1334 
5 *704:110 *1883:A1 9.3 
6 *704:110 *704:119 2.60714 
7 *704:119 *1909:A1 17.8 
8 *704:119 *1809:A2 22.5768 
*END

*D_NET *705 0.0148803
*CONN
*I *1810:A2 I *D sky130_fd_sc_hd__mux4_1
*I *1884:A1 I *D sky130_fd_sc_hd__mux4_1
*I *1910:A1 I *D sky130_fd_sc_hd__mux4_1
*I *2260:X O *D sky130_fd_sc_hd__buf_1
*CAP
1 *1810:A2 0.000140444
2 *1884:A1 0.00103288
3 *1910:A1 0.00022537
4 *2260:X 0.000103596
5 *705:49 0.00183862
6 *705:10 0.00216769
7 *705:6 0.00138061
8 *1910:A1 *706:38 4.25569e-05
9 *1880:A2 *1884:A1 1.02504e-05
10 *1884:A0 *1884:A1 9.58181e-05
11 *1884:A3 *1884:A1 9.58181e-05
12 *1895:S0 *705:49 9.41642e-05
13 *1905:A0 *1810:A2 0.000125724
14 *1910:A0 *1910:A1 1.97695e-05
15 *1951:D *705:10 2.5868e-05
16 *1951:GATE *705:10 9.18429e-05
17 *1972:D *1884:A1 1.90936e-05
18 *1986:D *705:49 2.47753e-05
19 *1986:GATE *705:49 0.000106403
20 *2018:GATE *1884:A1 0.000172193
21 *2038:GATE *1884:A1 0.000181412
22 *2086:A *705:49 5.33005e-05
23 *157:87 *1884:A1 0.000192512
24 *159:45 *1910:A1 0.000263807
25 *159:45 *705:49 0.000378373
26 *245:10 *1884:A1 0.000145358
27 *245:16 *1884:A1 0.000339769
28 *409:18 *705:10 4.76637e-06
29 *409:18 *705:49 0.000384853
30 *523:24 *705:10 5.68713e-05
31 *537:32 *1884:A1 0.000258027
32 *582:54 *1884:A1 0.000588568
33 *587:60 *1884:A1 0.000185148
34 *634:54 *1884:A1 8.77012e-05
35 *640:34 *1884:A1 0.000766513
36 *640:34 *705:49 0.000400271
37 *640:45 *1884:A1 0.000180904
38 *643:28 *1910:A1 0.000262085
39 *643:28 *705:49 0.000441907
40 *643:110 *1884:A1 0.000146013
41 *651:247 *1884:A1 0.000235114
42 *652:139 *1884:A1 0.000284807
43 *662:132 *705:10 1.21258e-05
44 *662:142 *705:49 9.25014e-06
45 *667:54 *705:49 0.000200221
46 *673:124 *705:49 0.00029319
47 *673:143 *705:49 1.07719e-05
48 *675:192 *1884:A1 0.000345212
49 *676:99 *1810:A2 5.97671e-05
50 *689:24 *705:6 6.94952e-05
51 *689:24 *705:10 0.000181863
52 *695:16 *1810:A2 4.3363e-05
53 *698:129 *1810:A2 3.4323e-06
*RES
1 *2260:X *705:6 10.6571 
2 *705:6 *705:10 16.9464 
3 *705:10 *1910:A1 19.4786 
4 *705:10 *705:49 47.1429 
5 *705:49 *1884:A1 44.3179 
6 *705:6 *1810:A2 21.4116 
*END

*D_NET *706 0.0190916
*CONN
*I *1912:A1 I *D sky130_fd_sc_hd__mux4_1
*I *1904:A1 I *D sky130_fd_sc_hd__mux4_1
*I *1876:A2 I *D sky130_fd_sc_hd__mux4_1
*I *2261:X O *D sky130_fd_sc_hd__buf_1
*CAP
1 *1912:A1 0
2 *1904:A1 0
3 *1876:A2 0.000108112
4 *2261:X 0.00222196
5 *706:66 0.00163225
6 *706:46 0.001722
7 *706:38 0.00123881
8 *706:24 0.0032629
9 C_config_C_bit1 *706:66 6.53265e-05
10 C_config_C_bit2 *706:66 1.90936e-05
11 *1856:A2 *706:24 0.000122985
12 *1859:A0 *706:24 0
13 *1861:A0 *706:24 0
14 *1861:A2 *706:24 1.1078e-05
15 *1861:A3 *706:24 1.60907e-05
16 *1862:B1 *706:24 3.59761e-05
17 *1864:A2 *706:24 2.26973e-05
18 *1904:A0 *706:46 0.00019751
19 *1910:A0 *706:38 1.90303e-05
20 *1910:A1 *706:38 4.25569e-05
21 *1912:A0 *706:38 0.000130185
22 *1912:A2 *706:38 1.14548e-05
23 *1912:A3 *706:38 4.82865e-05
24 *1912:S0 *706:38 9.71197e-05
25 *1912:S1 *706:38 5.20669e-05
26 *2016:GATE *706:66 0.000214563
27 *2070:A *706:38 9.41642e-05
28 *2269:A *706:24 0.000168881
29 *2273:A *706:66 9.41642e-05
30 *2274:A *706:66 1.21258e-05
31 *145:37 *706:24 0.000200279
32 *147:39 *706:24 0.00084447
33 *147:51 *706:24 0.000628502
34 *153:43 *706:24 8.69554e-05
35 *157:41 *706:66 0.00059959
36 *181:17 *706:24 0.000327604
37 *483:46 *706:24 0.000210741
38 *511:26 *706:66 0.000120708
39 *568:88 *706:66 1.18554e-05
40 *593:44 *706:46 6.65294e-05
41 *600:86 *706:66 8.48807e-05
42 *618:50 *1876:A2 1.37644e-05
43 *624:82 *1876:A2 6.98553e-06
44 *626:88 *706:66 0.0004312
45 *626:134 *706:38 0.000462401
46 *628:90 *706:38 2.54558e-06
47 *638:18 *706:66 0.000121307
48 *639:52 *706:46 1.03782e-05
49 *643:79 *1876:A2 0.00018879
50 *647:133 *706:24 0
51 *649:10 *706:24 3.85959e-05
52 *649:134 *706:24 0.00024445
53 *650:139 *706:24 2.7979e-05
54 *660:43 *706:24 4.11059e-05
55 *662:132 *706:38 0.000464351
56 *664:125 *706:24 0
57 *672:148 *706:66 0.000937735
58 *672:152 *706:66 0.0002169
59 *672:184 *706:66 8.25608e-05
60 *680:10 *706:66 0.000364792
61 *680:46 *706:66 0.000223606
62 *684:114 *1876:A2 0.000142544
63 *684:130 *706:66 0.000226136
*RES
1 *2261:X *706:24 47.3194 
2 *706:24 *706:38 22.3482 
3 *706:38 *706:46 13.2143 
4 *706:46 *706:66 48.2143 
5 *706:66 *1876:A2 16.5902 
6 *706:46 *1904:A1 9.3 
7 *706:38 *1912:A1 9.3 
*END

*D_NET *707 0.0249783
*CONN
*I *1905:A1 I *D sky130_fd_sc_hd__mux4_1
*I *1881:A2 I *D sky130_fd_sc_hd__mux4_1
*I *1913:A1 I *D sky130_fd_sc_hd__mux4_1
*I *2262:X O *D sky130_fd_sc_hd__buf_1
*CAP
1 *1905:A1 4.67001e-05
2 *1881:A2 0.000748649
3 *1913:A1 0.000141279
4 *2262:X 0.000900108
5 *707:93 0.00223593
6 *707:67 0.00275237
7 *707:28 0.00179542
8 *707:14 0.00133586
9 E6BEG[3] *1881:A2 5.7836e-06
10 EE4BEG[10] *1881:A2 5.49062e-05
11 *1861:A1 *707:14 1.55527e-05
12 *1877:A3 *707:93 0.000639189
13 *1887:A2 *707:67 2.64471e-05
14 *1887:A3 *707:67 7.25493e-05
15 *1887:S0 *707:67 4.21589e-05
16 *1887:S1 *707:67 9.8232e-05
17 *1902:S1 *707:93 6.13772e-05
18 *1903:S1 *707:67 0.000141351
19 *1905:A0 *1905:A1 5.33005e-05
20 *1905:A0 *707:28 9.58181e-05
21 *1915:S1 *1881:A2 6.05161e-06
22 *2079:A *707:67 6.33204e-05
23 *2247:A *707:14 1.46148e-05
24 *2247:A *707:28 0.000173298
25 *2262:A *707:14 4.02e-05
26 *2284:A *707:67 8.51784e-05
27 *2288:A *707:67 9.58181e-05
28 *2292:A *707:67 7.21474e-05
29 *2294:A *707:67 2.06112e-05
30 *2297:A *707:93 0.00023411
31 *2302:A *707:93 0.000136028
32 *2305:A *1881:A2 9.75337e-06
33 *2315:A *707:93 9.44637e-05
34 *2316:A *1881:A2 1.21371e-05
35 *2318:A *1881:A2 4.15526e-05
36 *2321:A *1881:A2 0.000650515
37 *2321:A *707:93 0.000235241
38 *2326:A *707:93 0.000579567
39 *143:9 *707:14 0.000608796
40 *144:27 *707:14 9.34059e-06
41 *144:39 *707:14 0.0010798
42 *144:91 *707:93 0.000831631
43 *148:37 *1913:A1 4.22579e-05
44 *148:37 *707:67 0.000109298
45 *148:81 *1881:A2 9.75554e-05
46 *149:63 *707:67 3.97677e-05
47 *151:23 *1913:A1 8.43823e-05
48 *160:79 *707:93 0.000104976
49 *234:44 *1881:A2 0.000245633
50 *234:94 *707:67 2.29346e-06
51 *236:116 *707:67 1.14166e-05
52 *329:30 *1913:A1 0.000193833
53 *329:30 *707:67 0.000225013
54 *483:46 *707:93 0.000208965
55 *484:50 *707:93 8.6886e-05
56 *514:72 *1881:A2 1.59935e-05
57 *516:32 *1881:A2 0.000118065
58 *517:60 *707:67 0.000151898
59 *522:58 *707:93 4.01808e-05
60 *523:24 *707:28 0.000177545
61 *529:40 *707:93 4.65519e-05
62 *531:62 *1881:A2 9.67203e-05
63 *534:40 *707:67 0.000287617
64 *538:32 *707:93 0.000546198
65 *541:40 *1881:A2 0.000279254
66 *548:22 *1881:A2 1.98839e-05
67 *555:38 *707:67 0.00023259
68 *555:38 *707:93 2.83392e-05
69 *562:30 *1881:A2 0.00038714
70 *569:62 *1881:A2 2.26973e-05
71 *569:82 *1881:A2 3.59843e-05
72 *597:14 *707:14 0.00172123
73 *637:63 *707:28 8.08521e-05
74 *650:216 *1881:A2 6.50032e-05
75 *650:216 *707:67 0.000467561
76 *650:216 *707:93 0.000267715
77 *650:248 *1881:A2 2.30116e-06
78 *651:247 *707:93 9.94194e-05
79 *667:74 *707:93 0.000336161
80 *676:99 *707:28 9.91086e-05
81 *690:61 *707:28 0.000100831
82 *692:16 *707:14 2.79421e-05
83 *702:14 *1913:A1 0.000310864
84 *702:14 *707:67 0.000995326
85 *702:30 *707:67 1.57322e-05
86 *702:30 *707:93 9.21735e-05
*RES
1 *2262:X *707:14 44.425 
2 *707:14 *707:28 20.3393 
3 *707:28 *1913:A1 18.4071 
4 *707:28 *707:67 47.5268 
5 *707:67 *707:93 46.6574 
6 *707:93 *1881:A2 42.3714 
7 *707:14 *1905:A1 10.2464 
*END

*D_NET *708 0.0336716
*CONN
*I *1914:A1 I *D sky130_fd_sc_hd__mux4_1
*I *1882:A2 I *D sky130_fd_sc_hd__mux4_1
*I *1906:A1 I *D sky130_fd_sc_hd__mux4_1
*I *735:DIODE I *D sky130_fd_sc_hd__diode_2
*I *2264:X O *D sky130_fd_sc_hd__dlymetal6s2s_1
*CAP
1 *1914:A1 2.66427e-05
2 *1882:A2 0.000293731
3 *1906:A1 0
4 *735:DIODE 4.29478e-05
5 *2264:X 0.00146077
6 *708:113 0.00118012
7 *708:99 0.00101622
8 *708:84 0.00179176
9 *708:56 0.00272351
10 *708:28 0.00230196
11 *708:12 0.00268484
12 FrameData_O[23] *1882:A2 9.95103e-05
13 FrameData_O[24] *1882:A2 0.000500471
14 *728:DIODE *1914:A1 5.33005e-05
15 *728:DIODE *708:113 0.000121599
16 *1805:A *708:12 0.000551265
17 *1866:B2 *708:12 3.06878e-06
18 *1875:A2 *708:28 0.000438337
19 *1879:A2 *708:28 2.90068e-05
20 *1881:S1 *708:84 0.000115707
21 *1884:S1 *708:56 5.54183e-05
22 *1885:S0 *708:84 0.000141077
23 *1888:S1 *708:56 2.60336e-05
24 *1892:S1 *708:28 3.21013e-05
25 *1895:S1 *708:28 0.000221688
26 *1906:A3 *1882:A2 0.000124538
27 *1906:A3 *708:113 0.000131146
28 *1911:S0 *708:28 1.67757e-05
29 *1949:D *735:DIODE 0.000135028
30 *1949:GATE *735:DIODE 0.000135028
31 *1972:D *708:28 6.54263e-05
32 *2036:GATE *708:12 1.13883e-05
33 *2068:A *708:113 3.47641e-06
34 *2081:A *708:113 0
35 *2084:A *1882:A2 1.59935e-05
36 *2106:A *708:84 0.000122875
37 *2304:A *708:84 0.000836228
38 *2319:A *708:56 9.83438e-05
39 *2335:A *1882:A2 6.607e-06
40 *2336:A *1882:A2 0.000196877
41 *2336:A *708:113 1.28293e-05
42 *2340:A *708:113 1.30681e-05
43 *143:29 *708:28 0.000308761
44 *143:59 *708:28 8.07344e-05
45 *145:75 *708:56 8.55871e-05
46 *149:37 *708:12 0.00162039
47 *151:77 *708:84 1.4389e-05
48 *160:127 *708:84 3.79552e-05
49 *181:44 *708:28 6.44917e-05
50 *181:56 *708:28 2.23764e-05
51 *240:10 *708:12 7.55769e-05
52 *409:34 *708:84 0.000160507
53 *479:161 *708:84 0.000255429
54 *479:161 *708:99 0.000162181
55 *516:32 *708:84 0.000127108
56 *517:28 *708:84 0
57 *520:58 *708:56 8.80543e-05
58 *535:26 *708:84 3.38517e-05
59 *535:86 *708:56 0.00055379
60 *539:18 *708:84 0.000362361
61 *539:18 *708:99 0.000108924
62 *540:22 *708:56 0.000591063
63 *552:28 *708:84 0.000111922
64 *552:28 *708:99 1.44954e-05
65 *556:54 *708:56 4.97978e-05
66 *562:30 *708:56 6.05161e-06
67 *569:28 *708:12 0.000948915
68 *569:62 *708:28 6.43445e-05
69 *571:18 *1882:A2 0.000377449
70 *593:102 *708:56 0.000561435
71 *596:82 *708:28 1.0912e-05
72 *596:118 *708:56 1.65228e-05
73 *597:30 *708:28 0.000569754
74 *597:46 *708:28 0.000177489
75 *597:46 *708:56 0.000620341
76 *597:60 *708:84 1.35174e-05
77 *618:96 *708:84 2.63501e-05
78 *618:116 *708:99 2.11419e-05
79 *635:92 *708:84 0.00151897
80 *644:34 *708:28 0.000270752
81 *647:133 *708:12 0.000135757
82 *658:58 *708:12 4.5894e-05
83 *658:93 *708:12 0.000398888
84 *658:93 *708:28 5.33005e-05
85 *659:83 *708:12 7.83212e-05
86 *659:83 *708:28 0.000268832
87 *659:227 *708:113 9.94194e-06
88 *660:115 *708:56 0.000140836
89 *662:132 *708:12 3.69047e-06
90 *662:177 *708:56 1.60861e-05
91 *664:166 *708:28 7.49162e-06
92 *667:54 *708:28 7.80167e-05
93 *667:138 *708:56 0
94 *669:75 *708:84 0.00057891
95 *671:70 *708:28 9.25014e-06
96 *673:90 *708:84 0.000228448
97 *676:40 *708:56 0.000201294
98 *676:40 *708:84 0.000156643
99 *677:22 *708:84 0.000206532
100 *691:72 *708:113 5.76217e-05
101 *691:74 *708:113 0.000105209
102 *691:88 *1914:A1 9.41642e-05
103 *691:88 *708:99 5.33005e-05
104 *691:88 *708:113 0.000267492
105 *693:22 *708:28 0.0003831
106 *693:46 *708:28 0.000939427
107 *693:68 *708:56 0.000474324
108 *698:68 *708:28 4.22135e-06
109 *701:54 *708:84 0.000704257
110 *704:110 *708:113 0
*RES
1 *2264:X *708:12 46.4071 
2 *708:12 *708:28 46.6429 
3 *708:28 *708:56 47.2679 
4 *708:56 *708:84 35.0807 
5 *708:84 *735:DIODE 15.1571 
6 *708:84 *708:99 7.28571 
7 *708:99 *708:113 21.4821 
8 *708:113 *1906:A1 9.3 
9 *708:113 *1882:A2 27.5232 
10 *708:99 *1914:A1 10.2464 
*END
