*SPEF "ieee 1481-1999"
*DESIGN "S_EF_ADC12"
*DATE "08:04:13 Friday May 09, 2025"
*VENDOR "The OpenROAD Project"
*PROGRAM "OpenROAD"
*VERSION "87af90f72f3f9be1fdfa1d886f0dd8d8b8f34694"
*DESIGN_FLOW "NAME_SCOPE LOCAL" "PIN_CAP NONE"
*DIVIDER /
*DELIMITER :
*BUS_DELIMITER []
*T_UNIT 1 NS
*C_UNIT 1 PF
*R_UNIT 1 OHM
*L_UNIT 1 HENRY

*NAME_MAP
*1 CMP_top
*2 net218
*3 FrameData[0]
*4 FrameData[10]
*5 FrameData[11]
*6 FrameData[12]
*7 FrameData[13]
*8 FrameData[14]
*9 FrameData[15]
*10 FrameData[16]
*11 FrameData[17]
*12 FrameData[18]
*13 FrameData[19]
*14 FrameData[1]
*15 FrameData[20]
*16 FrameData[21]
*17 FrameData[22]
*18 FrameData[23]
*19 FrameData[24]
*20 FrameData[25]
*21 FrameData[26]
*22 FrameData[27]
*23 FrameData[28]
*24 FrameData[29]
*25 FrameData[2]
*26 FrameData[30]
*27 FrameData[31]
*28 FrameData[3]
*29 FrameData[4]
*30 FrameData[5]
*31 FrameData[6]
*32 FrameData[7]
*33 FrameData[8]
*34 FrameData[9]
*35 FrameData_O[0]
*36 FrameData_O[10]
*37 FrameData_O[11]
*38 FrameData_O[12]
*39 FrameData_O[13]
*40 FrameData_O[14]
*41 FrameData_O[15]
*42 FrameData_O[16]
*43 FrameData_O[17]
*44 FrameData_O[18]
*45 FrameData_O[19]
*46 FrameData_O[1]
*47 FrameData_O[20]
*48 FrameData_O[21]
*49 FrameData_O[22]
*50 FrameData_O[23]
*51 FrameData_O[24]
*52 FrameData_O[25]
*53 FrameData_O[26]
*54 FrameData_O[27]
*55 FrameData_O[28]
*56 FrameData_O[29]
*57 FrameData_O[2]
*58 FrameData_O[30]
*59 FrameData_O[31]
*60 FrameData_O[3]
*61 FrameData_O[4]
*62 FrameData_O[5]
*63 FrameData_O[6]
*64 FrameData_O[7]
*65 FrameData_O[8]
*66 FrameData_O[9]
*67 FrameStrobe[0]
*68 FrameStrobe[10]
*69 FrameStrobe[11]
*70 FrameStrobe[12]
*71 FrameStrobe[13]
*72 FrameStrobe[14]
*73 FrameStrobe[15]
*74 FrameStrobe[16]
*75 FrameStrobe[17]
*76 FrameStrobe[18]
*77 FrameStrobe[19]
*78 FrameStrobe[1]
*79 FrameStrobe[2]
*80 FrameStrobe[3]
*81 FrameStrobe[4]
*82 FrameStrobe[5]
*83 FrameStrobe[6]
*84 FrameStrobe[7]
*85 FrameStrobe[8]
*86 FrameStrobe[9]
*87 FrameStrobe_O[0]
*88 FrameStrobe_O[10]
*89 FrameStrobe_O[11]
*90 FrameStrobe_O[12]
*91 FrameStrobe_O[13]
*92 FrameStrobe_O[14]
*93 FrameStrobe_O[15]
*94 FrameStrobe_O[16]
*95 FrameStrobe_O[17]
*96 FrameStrobe_O[18]
*97 FrameStrobe_O[19]
*98 FrameStrobe_O[1]
*99 FrameStrobe_O[2]
*100 FrameStrobe_O[3]
*101 FrameStrobe_O[4]
*102 FrameStrobe_O[5]
*103 FrameStrobe_O[6]
*104 FrameStrobe_O[7]
*105 FrameStrobe_O[8]
*106 FrameStrobe_O[9]
*107 HOLD_top
*108 N1BEG[0]
*109 N1BEG[1]
*110 N1BEG[2]
*111 N1BEG[3]
*112 N2BEG[0]
*113 N2BEG[1]
*114 N2BEG[2]
*115 N2BEG[3]
*116 N2BEG[4]
*117 N2BEG[5]
*118 N2BEG[6]
*119 N2BEG[7]
*120 N2BEGb[0]
*121 N2BEGb[1]
*122 N2BEGb[2]
*123 N2BEGb[3]
*124 N2BEGb[4]
*125 N2BEGb[5]
*126 N2BEGb[6]
*127 N2BEGb[7]
*128 N4BEG[0]
*129 N4BEG[10]
*130 N4BEG[11]
*131 N4BEG[12]
*132 N4BEG[13]
*133 N4BEG[14]
*134 N4BEG[15]
*135 N4BEG[1]
*136 N4BEG[2]
*137 N4BEG[3]
*138 N4BEG[4]
*139 N4BEG[5]
*140 N4BEG[6]
*141 N4BEG[7]
*142 N4BEG[8]
*143 N4BEG[9]
*144 NN4BEG[0]
*145 NN4BEG[10]
*146 NN4BEG[11]
*147 NN4BEG[12]
*148 NN4BEG[13]
*149 NN4BEG[14]
*150 NN4BEG[15]
*151 NN4BEG[1]
*152 NN4BEG[2]
*153 NN4BEG[3]
*154 NN4BEG[4]
*155 NN4BEG[5]
*156 NN4BEG[6]
*157 NN4BEG[7]
*158 NN4BEG[8]
*159 NN4BEG[9]
*160 RESET_top
*161 S1END[0]
*162 S1END[1]
*163 S1END[2]
*164 S1END[3]
*165 S2END[0]
*166 S2END[1]
*167 S2END[2]
*168 S2END[3]
*169 S2END[4]
*170 S2END[5]
*171 S2END[6]
*172 S2END[7]
*173 S2MID[0]
*174 S2MID[1]
*175 S2MID[2]
*176 S2MID[3]
*177 S2MID[4]
*178 S2MID[5]
*179 S2MID[6]
*180 S2MID[7]
*181 S4END[0]
*182 S4END[10]
*183 S4END[11]
*184 S4END[12]
*185 S4END[13]
*186 S4END[14]
*187 S4END[15]
*188 S4END[1]
*189 S4END[2]
*190 S4END[3]
*191 S4END[4]
*192 S4END[5]
*193 S4END[6]
*194 S4END[7]
*195 S4END[8]
*196 S4END[9]
*197 SS4END[0]
*198 SS4END[10]
*199 SS4END[11]
*200 SS4END[12]
*201 SS4END[13]
*202 SS4END[14]
*203 SS4END[15]
*204 SS4END[1]
*205 SS4END[2]
*206 SS4END[3]
*207 SS4END[4]
*208 SS4END[5]
*209 SS4END[6]
*210 SS4END[7]
*211 SS4END[8]
*212 SS4END[9]
*213 UserCLK
*214 UserCLKo
*215 VALUE_top0
*216 VALUE_top1
*217 VALUE_top10
*218 VALUE_top11
*219 VALUE_top2
*220 VALUE_top3
*221 VALUE_top4
*222 VALUE_top5
*223 VALUE_top6
*224 VALUE_top7
*225 VALUE_top8
*226 VALUE_top9
*229 Inst_EF_ADC12\.VALID
*230 Inst_EF_ADC12\.curr_state\[0\]
*231 Inst_EF_ADC12\.curr_state\[1\]
*232 Inst_EF_ADC12\.curr_state\[2\]
*233 Inst_EF_ADC12\.curr_state\[3\]
*234 Inst_EF_ADC12\.curr_state\[5\]
*235 Inst_EF_ADC12\.next_bit\[0\]
*236 Inst_EF_ADC12\.next_bit\[10\]
*237 Inst_EF_ADC12\.next_bit\[1\]
*238 Inst_EF_ADC12\.next_bit\[2\]
*239 Inst_EF_ADC12\.next_bit\[3\]
*240 Inst_EF_ADC12\.next_bit\[4\]
*241 Inst_EF_ADC12\.next_bit\[5\]
*242 Inst_EF_ADC12\.next_bit\[6\]
*243 Inst_EF_ADC12\.next_bit\[7\]
*244 Inst_EF_ADC12\.next_bit\[8\]
*245 Inst_EF_ADC12\.next_bit\[9\]
*246 Inst_EF_ADC12\.sample_counter\[0\]
*247 Inst_EF_ADC12\.sample_counter\[1\]
*248 Inst_EF_ADC12\.sample_counter\[2\]
*249 Inst_EF_ADC12\.sample_counter\[3\]
*250 Inst_EF_ADC12\.shift_value\[0\]
*251 Inst_S_EF_ADC12_ConfigMem\.Inst_frame0_bit0\.Q
*252 Inst_S_EF_ADC12_ConfigMem\.Inst_frame0_bit1\.Q
*253 Inst_S_EF_ADC12_ConfigMem\.Inst_frame0_bit10\.Q
*254 Inst_S_EF_ADC12_ConfigMem\.Inst_frame0_bit11\.Q
*255 Inst_S_EF_ADC12_ConfigMem\.Inst_frame0_bit12\.Q
*256 Inst_S_EF_ADC12_ConfigMem\.Inst_frame0_bit13\.Q
*257 Inst_S_EF_ADC12_ConfigMem\.Inst_frame0_bit14\.Q
*258 Inst_S_EF_ADC12_ConfigMem\.Inst_frame0_bit15\.Q
*259 Inst_S_EF_ADC12_ConfigMem\.Inst_frame0_bit16\.Q
*260 Inst_S_EF_ADC12_ConfigMem\.Inst_frame0_bit17\.Q
*261 Inst_S_EF_ADC12_ConfigMem\.Inst_frame0_bit18\.Q
*262 Inst_S_EF_ADC12_ConfigMem\.Inst_frame0_bit19\.Q
*263 Inst_S_EF_ADC12_ConfigMem\.Inst_frame0_bit2\.Q
*264 Inst_S_EF_ADC12_ConfigMem\.Inst_frame0_bit20\.Q
*265 Inst_S_EF_ADC12_ConfigMem\.Inst_frame0_bit21\.Q
*266 Inst_S_EF_ADC12_ConfigMem\.Inst_frame0_bit22\.Q
*267 Inst_S_EF_ADC12_ConfigMem\.Inst_frame0_bit23\.Q
*268 Inst_S_EF_ADC12_ConfigMem\.Inst_frame0_bit24\.Q
*269 Inst_S_EF_ADC12_ConfigMem\.Inst_frame0_bit25\.Q
*270 Inst_S_EF_ADC12_ConfigMem\.Inst_frame0_bit26\.Q
*271 Inst_S_EF_ADC12_ConfigMem\.Inst_frame0_bit27\.Q
*272 Inst_S_EF_ADC12_ConfigMem\.Inst_frame0_bit28\.Q
*273 Inst_S_EF_ADC12_ConfigMem\.Inst_frame0_bit29\.Q
*274 Inst_S_EF_ADC12_ConfigMem\.Inst_frame0_bit3\.Q
*275 Inst_S_EF_ADC12_ConfigMem\.Inst_frame0_bit30\.Q
*276 Inst_S_EF_ADC12_ConfigMem\.Inst_frame0_bit31\.Q
*277 Inst_S_EF_ADC12_ConfigMem\.Inst_frame0_bit4\.Q
*278 Inst_S_EF_ADC12_ConfigMem\.Inst_frame0_bit5\.Q
*279 Inst_S_EF_ADC12_ConfigMem\.Inst_frame0_bit6\.Q
*280 Inst_S_EF_ADC12_ConfigMem\.Inst_frame0_bit7\.Q
*281 Inst_S_EF_ADC12_ConfigMem\.Inst_frame0_bit8\.Q
*282 Inst_S_EF_ADC12_ConfigMem\.Inst_frame0_bit9\.Q
*283 Inst_S_EF_ADC12_ConfigMem\.Inst_frame1_bit0\.Q
*284 Inst_S_EF_ADC12_ConfigMem\.Inst_frame1_bit1\.Q
*285 Inst_S_EF_ADC12_ConfigMem\.Inst_frame1_bit10\.Q
*286 Inst_S_EF_ADC12_ConfigMem\.Inst_frame1_bit11\.Q
*287 Inst_S_EF_ADC12_ConfigMem\.Inst_frame1_bit12\.Q
*288 Inst_S_EF_ADC12_ConfigMem\.Inst_frame1_bit13\.Q
*289 Inst_S_EF_ADC12_ConfigMem\.Inst_frame1_bit14\.Q
*290 Inst_S_EF_ADC12_ConfigMem\.Inst_frame1_bit15\.Q
*291 Inst_S_EF_ADC12_ConfigMem\.Inst_frame1_bit16\.Q
*292 Inst_S_EF_ADC12_ConfigMem\.Inst_frame1_bit17\.Q
*293 Inst_S_EF_ADC12_ConfigMem\.Inst_frame1_bit18\.Q
*294 Inst_S_EF_ADC12_ConfigMem\.Inst_frame1_bit19\.Q
*295 Inst_S_EF_ADC12_ConfigMem\.Inst_frame1_bit2\.Q
*296 Inst_S_EF_ADC12_ConfigMem\.Inst_frame1_bit20\.Q
*297 Inst_S_EF_ADC12_ConfigMem\.Inst_frame1_bit21\.Q
*298 Inst_S_EF_ADC12_ConfigMem\.Inst_frame1_bit22\.Q
*299 Inst_S_EF_ADC12_ConfigMem\.Inst_frame1_bit23\.Q
*300 Inst_S_EF_ADC12_ConfigMem\.Inst_frame1_bit24\.Q
*301 Inst_S_EF_ADC12_ConfigMem\.Inst_frame1_bit25\.Q
*302 Inst_S_EF_ADC12_ConfigMem\.Inst_frame1_bit26\.Q
*303 Inst_S_EF_ADC12_ConfigMem\.Inst_frame1_bit27\.Q
*304 Inst_S_EF_ADC12_ConfigMem\.Inst_frame1_bit28\.Q
*305 Inst_S_EF_ADC12_ConfigMem\.Inst_frame1_bit29\.Q
*306 Inst_S_EF_ADC12_ConfigMem\.Inst_frame1_bit3\.Q
*307 Inst_S_EF_ADC12_ConfigMem\.Inst_frame1_bit30\.Q
*308 Inst_S_EF_ADC12_ConfigMem\.Inst_frame1_bit31\.Q
*309 Inst_S_EF_ADC12_ConfigMem\.Inst_frame1_bit4\.Q
*310 Inst_S_EF_ADC12_ConfigMem\.Inst_frame1_bit5\.Q
*311 Inst_S_EF_ADC12_ConfigMem\.Inst_frame1_bit6\.Q
*312 Inst_S_EF_ADC12_ConfigMem\.Inst_frame1_bit7\.Q
*313 Inst_S_EF_ADC12_ConfigMem\.Inst_frame1_bit8\.Q
*314 Inst_S_EF_ADC12_ConfigMem\.Inst_frame1_bit9\.Q
*315 Inst_S_EF_ADC12_ConfigMem\.Inst_frame2_bit30\.Q
*316 Inst_S_EF_ADC12_ConfigMem\.Inst_frame2_bit31\.Q
*317 Inst_S_EF_ADC12_switch_matrix\.N1BEG0
*318 Inst_S_EF_ADC12_switch_matrix\.N1BEG1
*319 Inst_S_EF_ADC12_switch_matrix\.N1BEG2
*320 Inst_S_EF_ADC12_switch_matrix\.N1BEG3
*321 Inst_S_EF_ADC12_switch_matrix\.N2BEG0
*322 Inst_S_EF_ADC12_switch_matrix\.N2BEG1
*323 Inst_S_EF_ADC12_switch_matrix\.N2BEG2
*324 Inst_S_EF_ADC12_switch_matrix\.N2BEG3
*325 Inst_S_EF_ADC12_switch_matrix\.N2BEG4
*326 Inst_S_EF_ADC12_switch_matrix\.N2BEG5
*327 Inst_S_EF_ADC12_switch_matrix\.N2BEG6
*328 Inst_S_EF_ADC12_switch_matrix\.N2BEG7
*329 Inst_S_EF_ADC12_switch_matrix\.N2BEGb0
*330 Inst_S_EF_ADC12_switch_matrix\.N2BEGb1
*331 Inst_S_EF_ADC12_switch_matrix\.N2BEGb2
*332 Inst_S_EF_ADC12_switch_matrix\.N2BEGb3
*333 Inst_S_EF_ADC12_switch_matrix\.N2BEGb4
*334 Inst_S_EF_ADC12_switch_matrix\.N2BEGb5
*335 Inst_S_EF_ADC12_switch_matrix\.N2BEGb6
*336 Inst_S_EF_ADC12_switch_matrix\.N2BEGb7
*337 Inst_S_EF_ADC12_switch_matrix\.N4BEG0
*338 Inst_S_EF_ADC12_switch_matrix\.N4BEG1
*339 Inst_S_EF_ADC12_switch_matrix\.N4BEG10
*340 Inst_S_EF_ADC12_switch_matrix\.N4BEG11
*341 Inst_S_EF_ADC12_switch_matrix\.N4BEG12
*342 Inst_S_EF_ADC12_switch_matrix\.N4BEG13
*343 Inst_S_EF_ADC12_switch_matrix\.N4BEG14
*344 Inst_S_EF_ADC12_switch_matrix\.N4BEG15
*345 Inst_S_EF_ADC12_switch_matrix\.N4BEG2
*346 Inst_S_EF_ADC12_switch_matrix\.N4BEG3
*347 Inst_S_EF_ADC12_switch_matrix\.N4BEG4
*348 Inst_S_EF_ADC12_switch_matrix\.N4BEG5
*349 Inst_S_EF_ADC12_switch_matrix\.N4BEG6
*350 Inst_S_EF_ADC12_switch_matrix\.N4BEG7
*351 Inst_S_EF_ADC12_switch_matrix\.N4BEG8
*352 Inst_S_EF_ADC12_switch_matrix\.N4BEG9
*353 Inst_S_EF_ADC12_switch_matrix\.NN4BEG0
*354 Inst_S_EF_ADC12_switch_matrix\.NN4BEG1
*355 Inst_S_EF_ADC12_switch_matrix\.NN4BEG10
*356 Inst_S_EF_ADC12_switch_matrix\.NN4BEG11
*357 Inst_S_EF_ADC12_switch_matrix\.NN4BEG12
*358 Inst_S_EF_ADC12_switch_matrix\.NN4BEG13
*359 Inst_S_EF_ADC12_switch_matrix\.NN4BEG14
*360 Inst_S_EF_ADC12_switch_matrix\.NN4BEG15
*361 Inst_S_EF_ADC12_switch_matrix\.NN4BEG2
*362 Inst_S_EF_ADC12_switch_matrix\.NN4BEG3
*363 Inst_S_EF_ADC12_switch_matrix\.NN4BEG4
*364 Inst_S_EF_ADC12_switch_matrix\.NN4BEG5
*365 Inst_S_EF_ADC12_switch_matrix\.NN4BEG6
*366 Inst_S_EF_ADC12_switch_matrix\.NN4BEG7
*367 Inst_S_EF_ADC12_switch_matrix\.NN4BEG8
*368 Inst_S_EF_ADC12_switch_matrix\.NN4BEG9
*369 UserCLK_regs
*370 _000_
*371 _001_
*372 _002_
*373 _003_
*374 _004_
*375 _005_
*376 _006_
*377 _007_
*378 _008_
*379 _009_
*380 _010_
*381 _011_
*382 _012_
*383 _013_
*384 _014_
*385 _015_
*386 _016_
*387 _017_
*388 _018_
*389 _019_
*390 _020_
*391 _021_
*392 _022_
*393 _023_
*394 _024_
*395 _025_
*396 _026_
*397 _027_
*398 _028_
*399 _029_
*400 _030_
*401 _031_
*402 _032_
*403 _033_
*404 _034_
*405 _035_
*406 _036_
*407 _037_
*408 _038_
*409 _039_
*410 _040_
*411 _041_
*412 _042_
*413 _043_
*414 _044_
*415 _045_
*416 _046_
*417 _047_
*418 _048_
*419 _049_
*420 _050_
*421 _051_
*422 _052_
*423 _053_
*424 _054_
*425 _055_
*426 _056_
*427 _057_
*428 _058_
*429 _059_
*430 _060_
*431 _061_
*432 _062_
*433 _063_
*434 _064_
*435 _065_
*436 _066_
*437 _067_
*438 _068_
*439 _069_
*440 _070_
*441 _071_
*442 _072_
*443 _073_
*444 _074_
*445 _075_
*446 _076_
*447 _077_
*448 _078_
*449 _079_
*450 _080_
*451 _081_
*452 clknet_0_UserCLK
*453 clknet_0_UserCLK_regs
*454 clknet_1_0__leaf_UserCLK
*455 clknet_2_0__leaf_UserCLK_regs
*456 clknet_2_1__leaf_UserCLK_regs
*457 clknet_2_2__leaf_UserCLK_regs
*458 clknet_2_3__leaf_UserCLK_regs
*459 net1
*460 net10
*461 net100
*462 net101
*463 net102
*464 net103
*465 net104
*466 net105
*467 net106
*468 net107
*469 net108
*470 net109
*471 net11
*472 net110
*473 net111
*474 net112
*475 net113
*476 net114
*477 net115
*478 net116
*479 net117
*480 net118
*481 net119
*482 net12
*483 net120
*484 net121
*485 net122
*486 net123
*487 net124
*488 net125
*489 net126
*490 net127
*491 net128
*492 net129
*493 net13
*494 net130
*495 net131
*496 net132
*497 net133
*498 net134
*499 net135
*500 net136
*501 net137
*502 net138
*503 net139
*504 net14
*505 net140
*506 net141
*507 net142
*508 net143
*509 net144
*510 net145
*511 net146
*512 net147
*513 net148
*514 net149
*515 net15
*516 net150
*517 net151
*518 net152
*519 net153
*520 net154
*521 net155
*522 net156
*523 net157
*524 net158
*525 net159
*526 net16
*527 net160
*528 net161
*529 net162
*530 net163
*531 net164
*532 net165
*533 net166
*534 net167
*535 net168
*536 net169
*537 net17
*538 net170
*539 net171
*540 net172
*541 net173
*542 net174
*543 net175
*544 net176
*545 net177
*546 net178
*547 net179
*548 net18
*549 net180
*550 net181
*551 net182
*552 net183
*553 net184
*554 net185
*555 net186
*556 net187
*557 net188
*558 net189
*559 net19
*560 net190
*561 net191
*562 net192
*563 net193
*564 net194
*565 net195
*566 net196
*567 net197
*568 net198
*569 net199
*570 net2
*571 net20
*572 net200
*573 net201
*574 net202
*575 net203
*576 net204
*577 net205
*578 net206
*579 net207
*580 net208
*581 net209
*582 net21
*583 net210
*584 net211
*585 net212
*586 net213
*587 net214
*588 net215
*589 net216
*590 net217
*591 net219
*592 net22
*593 net220
*594 net221
*595 net222
*596 net223
*597 net224
*598 net225
*599 net226
*600 net227
*601 net228
*602 net229
*603 net23
*604 net230
*605 net231
*606 net232
*607 net233
*608 net234
*609 net235
*610 net236
*611 net237
*612 net24
*613 net25
*614 net26
*615 net27
*616 net28
*617 net29
*618 net3
*619 net30
*620 net31
*621 net32
*622 net33
*623 net34
*624 net35
*625 net36
*626 net37
*627 net38
*628 net39
*629 net4
*630 net40
*631 net41
*632 net42
*633 net43
*634 net44
*635 net45
*636 net46
*637 net47
*638 net48
*639 net49
*640 net5
*641 net50
*642 net51
*643 net52
*644 net53
*645 net54
*646 net55
*647 net56
*648 net57
*649 net58
*650 net59
*651 net6
*652 net60
*653 net61
*654 net62
*655 net63
*656 net64
*657 net65
*658 net66
*659 net67
*660 net68
*661 net69
*662 net7
*663 net70
*664 net71
*665 net72
*666 net73
*667 net74
*668 net75
*669 net76
*670 net77
*671 net78
*672 net79
*673 net8
*674 net80
*675 net81
*676 net82
*677 net83
*678 net84
*679 net85
*680 net86
*681 net87
*682 net88
*683 net89
*684 net9
*685 net90
*686 net91
*687 net92
*688 net93
*689 net94
*690 net95
*691 net96
*692 net97
*693 net98
*694 net99
*695 ANTENNA_1
*696 ANTENNA_2
*697 ANTENNA_3
*698 ANTENNA_4
*699 ANTENNA_5
*700 ANTENNA_6
*701 ANTENNA_7
*702 FILLER_0_105
*703 FILLER_0_151
*704 FILLER_0_195
*705 FILLER_0_200
*706 FILLER_0_203
*707 FILLER_0_206
*708 FILLER_0_209
*709 FILLER_0_212
*710 FILLER_0_215
*711 FILLER_0_218
*712 FILLER_0_221
*713 FILLER_0_234
*714 FILLER_0_237
*715 FILLER_0_240
*716 FILLER_0_243
*717 FILLER_0_246
*718 FILLER_0_249
*719 FILLER_0_253
*720 FILLER_0_256
*721 FILLER_0_259
*722 FILLER_0_262
*723 FILLER_0_265
*724 FILLER_0_268
*725 FILLER_0_27
*726 FILLER_0_271
*727 FILLER_0_274
*728 FILLER_0_277
*729 FILLER_0_281
*730 FILLER_0_284
*731 FILLER_0_287
*732 FILLER_0_29
*733 FILLER_0_290
*734 FILLER_0_293
*735 FILLER_0_296
*736 FILLER_0_299
*737 FILLER_0_302
*738 FILLER_0_305
*739 FILLER_0_309
*740 FILLER_0_312
*741 FILLER_0_315
*742 FILLER_0_318
*743 FILLER_0_321
*744 FILLER_0_324
*745 FILLER_0_327
*746 FILLER_0_330
*747 FILLER_0_334
*748 FILLER_0_337
*749 FILLER_0_34
*750 FILLER_0_37
*751 FILLER_0_44
*752 FILLER_0_57
*753 FILLER_10_124
*754 FILLER_10_127
*755 FILLER_10_13
*756 FILLER_10_130
*757 FILLER_10_133
*758 FILLER_10_141
*759 FILLER_10_173
*760 FILLER_10_176
*761 FILLER_10_179
*762 FILLER_10_182
*763 FILLER_10_185
*764 FILLER_10_188
*765 FILLER_10_191
*766 FILLER_10_194
*767 FILLER_10_197
*768 FILLER_10_201
*769 FILLER_10_204
*770 FILLER_10_217
*771 FILLER_10_232
*772 FILLER_10_235
*773 FILLER_10_238
*774 FILLER_10_241
*775 FILLER_10_244
*776 FILLER_10_247
*777 FILLER_10_268
*778 FILLER_10_271
*779 FILLER_10_285
*780 FILLER_10_288
*781 FILLER_10_291
*782 FILLER_10_309
*783 FILLER_10_312
*784 FILLER_10_316
*785 FILLER_10_319
*786 FILLER_10_322
*787 FILLER_10_325
*788 FILLER_10_328
*789 FILLER_10_331
*790 FILLER_10_334
*791 FILLER_10_50
*792 FILLER_10_53
*793 FILLER_10_56
*794 FILLER_10_59
*795 FILLER_10_82
*796 FILLER_11_100
*797 FILLER_11_103
*798 FILLER_11_128
*799 FILLER_11_13
*800 FILLER_11_131
*801 FILLER_11_134
*802 FILLER_11_137
*803 FILLER_11_184
*804 FILLER_11_187
*805 FILLER_11_190
*806 FILLER_11_193
*807 FILLER_11_196
*808 FILLER_11_211
*809 FILLER_11_229
*810 FILLER_11_232
*811 FILLER_11_235
*812 FILLER_11_238
*813 FILLER_11_241
*814 FILLER_11_244
*815 FILLER_11_247
*816 FILLER_11_250
*817 FILLER_11_253
*818 FILLER_11_256
*819 FILLER_11_259
*820 FILLER_11_262
*821 FILLER_11_265
*822 FILLER_11_268
*823 FILLER_11_271
*824 FILLER_11_274
*825 FILLER_11_277
*826 FILLER_11_284
*827 FILLER_11_287
*828 FILLER_11_290
*829 FILLER_11_293
*830 FILLER_11_296
*831 FILLER_11_299
*832 FILLER_11_302
*833 FILLER_11_305
*834 FILLER_11_308
*835 FILLER_11_311
*836 FILLER_11_315
*837 FILLER_11_318
*838 FILLER_11_321
*839 FILLER_11_324
*840 FILLER_11_327
*841 FILLER_11_330
*842 FILLER_11_333
*843 FILLER_11_337
*844 FILLER_11_41
*845 FILLER_11_44
*846 FILLER_11_47
*847 FILLER_11_50
*848 FILLER_11_53
*849 FILLER_11_57
*850 FILLER_11_60
*851 FILLER_11_76
*852 FILLER_11_79
*853 FILLER_11_82
*854 FILLER_12_100
*855 FILLER_12_117
*856 FILLER_12_13
*857 FILLER_12_130
*858 FILLER_12_16
*859 FILLER_12_189
*860 FILLER_12_19
*861 FILLER_12_192
*862 FILLER_12_195
*863 FILLER_12_197
*864 FILLER_12_200
*865 FILLER_12_203
*866 FILLER_12_206
*867 FILLER_12_209
*868 FILLER_12_212
*869 FILLER_12_22
*870 FILLER_12_224
*871 FILLER_12_227
*872 FILLER_12_237
*873 FILLER_12_240
*874 FILLER_12_243
*875 FILLER_12_246
*876 FILLER_12_249
*877 FILLER_12_25
*878 FILLER_12_263
*879 FILLER_12_266
*880 FILLER_12_269
*881 FILLER_12_272
*882 FILLER_12_296
*883 FILLER_12_299
*884 FILLER_12_302
*885 FILLER_12_305
*886 FILLER_12_309
*887 FILLER_12_312
*888 FILLER_12_315
*889 FILLER_12_318
*890 FILLER_12_321
*891 FILLER_12_324
*892 FILLER_12_327
*893 FILLER_12_330
*894 FILLER_12_333
*895 FILLER_12_336
*896 FILLER_12_36
*897 FILLER_12_41
*898 FILLER_12_44
*899 FILLER_12_79
*900 FILLER_12_85
*901 FILLER_13_12
*902 FILLER_13_136
*903 FILLER_13_149
*904 FILLER_13_15
*905 FILLER_13_166
*906 FILLER_13_18
*907 FILLER_13_181
*908 FILLER_13_206
*909 FILLER_13_219
*910 FILLER_13_270
*911 FILLER_13_273
*912 FILLER_13_277
*913 FILLER_13_284
*914 FILLER_13_287
*915 FILLER_13_290
*916 FILLER_13_293
*917 FILLER_13_296
*918 FILLER_13_299
*919 FILLER_13_302
*920 FILLER_13_305
*921 FILLER_13_308
*922 FILLER_13_311
*923 FILLER_13_314
*924 FILLER_13_317
*925 FILLER_13_320
*926 FILLER_13_323
*927 FILLER_13_326
*928 FILLER_13_329
*929 FILLER_13_332
*930 FILLER_13_335
*931 FILLER_13_337
*932 FILLER_13_42
*933 FILLER_13_81
*934 FILLER_13_94
*935 FILLER_14_134
*936 FILLER_14_157
*937 FILLER_14_168
*938 FILLER_14_17
*939 FILLER_14_20
*940 FILLER_14_212
*941 FILLER_14_251
*942 FILLER_14_268
*943 FILLER_14_306
*944 FILLER_14_309
*945 FILLER_14_312
*946 FILLER_14_315
*947 FILLER_14_318
*948 FILLER_14_321
*949 FILLER_14_324
*950 FILLER_14_327
*951 FILLER_14_330
*952 FILLER_14_333
*953 FILLER_14_336
*954 FILLER_14_50
*955 FILLER_15_13
*956 FILLER_15_141
*957 FILLER_15_16
*958 FILLER_15_164
*959 FILLER_15_19
*960 FILLER_15_278
*961 FILLER_15_29
*962 FILLER_15_305
*963 FILLER_15_313
*964 FILLER_15_316
*965 FILLER_15_319
*966 FILLER_15_322
*967 FILLER_15_325
*968 FILLER_15_328
*969 FILLER_15_331
*970 FILLER_15_337
*971 FILLER_15_57
*972 FILLER_15_94
*973 FILLER_1_113
*974 FILLER_1_122
*975 FILLER_1_127
*976 FILLER_1_166
*977 FILLER_1_169
*978 FILLER_1_19
*979 FILLER_1_196
*980 FILLER_1_199
*981 FILLER_1_204
*982 FILLER_1_207
*983 FILLER_1_210
*984 FILLER_1_213
*985 FILLER_1_216
*986 FILLER_1_22
*987 FILLER_1_225
*988 FILLER_1_239
*989 FILLER_1_25
*990 FILLER_1_252
*991 FILLER_1_266
*992 FILLER_1_269
*993 FILLER_1_272
*994 FILLER_1_275
*995 FILLER_1_278
*996 FILLER_1_281
*997 FILLER_1_309
*998 FILLER_1_312
*999 FILLER_1_315
*1000 FILLER_1_319
*1001 FILLER_1_322
*1002 FILLER_1_334
*1003 FILLER_1_337
*1004 FILLER_1_46
*1005 FILLER_2_129
*1006 FILLER_2_161
*1007 FILLER_2_183
*1008 FILLER_2_215
*1009 FILLER_2_218
*1010 FILLER_2_221
*1011 FILLER_2_224
*1012 FILLER_2_250
*1013 FILLER_2_259
*1014 FILLER_2_262
*1015 FILLER_2_265
*1016 FILLER_2_268
*1017 FILLER_2_271
*1018 FILLER_2_274
*1019 FILLER_2_277
*1020 FILLER_2_280
*1021 FILLER_2_283
*1022 FILLER_2_286
*1023 FILLER_2_289
*1024 FILLER_2_292
*1025 FILLER_2_295
*1026 FILLER_2_298
*1027 FILLER_2_301
*1028 FILLER_2_304
*1029 FILLER_2_307
*1030 FILLER_2_309
*1031 FILLER_2_312
*1032 FILLER_2_315
*1033 FILLER_2_318
*1034 FILLER_2_321
*1035 FILLER_2_324
*1036 FILLER_2_327
*1037 FILLER_2_336
*1038 FILLER_2_68
*1039 FILLER_2_83
*1040 FILLER_2_85
*1041 FILLER_3_103
*1042 FILLER_3_126
*1043 FILLER_3_13
*1044 FILLER_3_151
*1045 FILLER_3_176
*1046 FILLER_3_179
*1047 FILLER_3_182
*1048 FILLER_3_185
*1049 FILLER_3_189
*1050 FILLER_3_192
*1051 FILLER_3_195
*1052 FILLER_3_208
*1053 FILLER_3_211
*1054 FILLER_3_214
*1055 FILLER_3_217
*1056 FILLER_3_220
*1057 FILLER_3_223
*1058 FILLER_3_225
*1059 FILLER_3_228
*1060 FILLER_3_231
*1061 FILLER_3_234
*1062 FILLER_3_239
*1063 FILLER_3_254
*1064 FILLER_3_257
*1065 FILLER_3_260
*1066 FILLER_3_263
*1067 FILLER_3_266
*1068 FILLER_3_269
*1069 FILLER_3_272
*1070 FILLER_3_275
*1071 FILLER_3_278
*1072 FILLER_3_290
*1073 FILLER_3_303
*1074 FILLER_3_306
*1075 FILLER_3_309
*1076 FILLER_3_312
*1077 FILLER_3_315
*1078 FILLER_3_318
*1079 FILLER_3_321
*1080 FILLER_3_324
*1081 FILLER_3_327
*1082 FILLER_3_330
*1083 FILLER_3_333
*1084 FILLER_3_337
*1085 FILLER_3_45
*1086 FILLER_3_54
*1087 FILLER_3_73
*1088 FILLER_4_117
*1089 FILLER_4_124
*1090 FILLER_4_139
*1091 FILLER_4_157
*1092 FILLER_4_173
*1093 FILLER_4_176
*1094 FILLER_4_179
*1095 FILLER_4_182
*1096 FILLER_4_185
*1097 FILLER_4_188
*1098 FILLER_4_191
*1099 FILLER_4_197
*1100 FILLER_4_210
*1101 FILLER_4_213
*1102 FILLER_4_216
*1103 FILLER_4_219
*1104 FILLER_4_223
*1105 FILLER_4_226
*1106 FILLER_4_229
*1107 FILLER_4_232
*1108 FILLER_4_235
*1109 FILLER_4_238
*1110 FILLER_4_253
*1111 FILLER_4_256
*1112 FILLER_4_259
*1113 FILLER_4_262
*1114 FILLER_4_265
*1115 FILLER_4_268
*1116 FILLER_4_297
*1117 FILLER_4_300
*1118 FILLER_4_303
*1119 FILLER_4_306
*1120 FILLER_4_309
*1121 FILLER_4_312
*1122 FILLER_4_315
*1123 FILLER_4_318
*1124 FILLER_4_331
*1125 FILLER_4_336
*1126 FILLER_4_6
*1127 FILLER_5_127
*1128 FILLER_5_182
*1129 FILLER_5_185
*1130 FILLER_5_188
*1131 FILLER_5_191
*1132 FILLER_5_202
*1133 FILLER_5_225
*1134 FILLER_5_238
*1135 FILLER_5_241
*1136 FILLER_5_244
*1137 FILLER_5_247
*1138 FILLER_5_250
*1139 FILLER_5_253
*1140 FILLER_5_256
*1141 FILLER_5_267
*1142 FILLER_5_287
*1143 FILLER_5_290
*1144 FILLER_5_293
*1145 FILLER_5_296
*1146 FILLER_5_299
*1147 FILLER_5_302
*1148 FILLER_5_305
*1149 FILLER_5_308
*1150 FILLER_5_311
*1151 FILLER_5_327
*1152 FILLER_5_330
*1153 FILLER_5_333
*1154 FILLER_5_57
*1155 FILLER_6_105
*1156 FILLER_6_115
*1157 FILLER_6_150
*1158 FILLER_6_167
*1159 FILLER_6_170
*1160 FILLER_6_173
*1161 FILLER_6_176
*1162 FILLER_6_179
*1163 FILLER_6_182
*1164 FILLER_6_185
*1165 FILLER_6_209
*1166 FILLER_6_223
*1167 FILLER_6_226
*1168 FILLER_6_229
*1169 FILLER_6_232
*1170 FILLER_6_235
*1171 FILLER_6_238
*1172 FILLER_6_241
*1173 FILLER_6_244
*1174 FILLER_6_247
*1175 FILLER_6_253
*1176 FILLER_6_285
*1177 FILLER_6_288
*1178 FILLER_6_291
*1179 FILLER_6_321
*1180 FILLER_6_325
*1181 FILLER_6_328
*1182 FILLER_6_331
*1183 FILLER_6_53
*1184 FILLER_6_83
*1185 FILLER_7_10
*1186 FILLER_7_124
*1187 FILLER_7_166
*1188 FILLER_7_179
*1189 FILLER_7_182
*1190 FILLER_7_185
*1191 FILLER_7_188
*1192 FILLER_7_191
*1193 FILLER_7_194
*1194 FILLER_7_20
*1195 FILLER_7_210
*1196 FILLER_7_213
*1197 FILLER_7_216
*1198 FILLER_7_219
*1199 FILLER_7_222
*1200 FILLER_7_225
*1201 FILLER_7_230
*1202 FILLER_7_233
*1203 FILLER_7_236
*1204 FILLER_7_239
*1205 FILLER_7_279
*1206 FILLER_7_281
*1207 FILLER_7_284
*1208 FILLER_7_287
*1209 FILLER_7_299
*1210 FILLER_7_302
*1211 FILLER_7_305
*1212 FILLER_7_308
*1213 FILLER_7_334
*1214 FILLER_7_346
*1215 FILLER_7_47
*1216 FILLER_7_50
*1217 FILLER_8_118
*1218 FILLER_8_123
*1219 FILLER_8_13
*1220 FILLER_8_138
*1221 FILLER_8_16
*1222 FILLER_8_173
*1223 FILLER_8_176
*1224 FILLER_8_179
*1225 FILLER_8_182
*1226 FILLER_8_185
*1227 FILLER_8_188
*1228 FILLER_8_191
*1229 FILLER_8_194
*1230 FILLER_8_209
*1231 FILLER_8_215
*1232 FILLER_8_218
*1233 FILLER_8_221
*1234 FILLER_8_270
*1235 FILLER_8_273
*1236 FILLER_8_276
*1237 FILLER_8_279
*1238 FILLER_8_282
*1239 FILLER_8_285
*1240 FILLER_8_288
*1241 FILLER_8_299
*1242 FILLER_8_302
*1243 FILLER_8_305
*1244 FILLER_8_309
*1245 FILLER_8_312
*1246 FILLER_8_315
*1247 FILLER_8_318
*1248 FILLER_8_331
*1249 FILLER_8_334
*1250 FILLER_8_337
*1251 FILLER_8_46
*1252 FILLER_8_69
*1253 FILLER_8_72
*1254 FILLER_8_75
*1255 FILLER_8_78
*1256 FILLER_9_103
*1257 FILLER_9_106
*1258 FILLER_9_109
*1259 FILLER_9_116
*1260 FILLER_9_120
*1261 FILLER_9_123
*1262 FILLER_9_126
*1263 FILLER_9_129
*1264 FILLER_9_13
*1265 FILLER_9_169
*1266 FILLER_9_172
*1267 FILLER_9_175
*1268 FILLER_9_178
*1269 FILLER_9_181
*1270 FILLER_9_184
*1271 FILLER_9_187
*1272 FILLER_9_190
*1273 FILLER_9_240
*1274 FILLER_9_243
*1275 FILLER_9_273
*1276 FILLER_9_276
*1277 FILLER_9_279
*1278 FILLER_9_281
*1279 FILLER_9_284
*1280 FILLER_9_30
*1281 FILLER_9_300
*1282 FILLER_9_303
*1283 FILLER_9_306
*1284 FILLER_9_309
*1285 FILLER_9_321
*1286 FILLER_9_324
*1287 FILLER_9_327
*1288 FILLER_9_330
*1289 FILLER_9_333
*1290 FILLER_9_337
*1291 FILLER_9_44
*1292 FILLER_9_47
*1293 FILLER_9_50
*1294 FILLER_9_53
*1295 FILLER_9_57
*1296 FILLER_9_60
*1297 FILLER_9_63
*1298 FILLER_9_66
*1299 FILLER_9_71
*1300 FILLER_9_81
*1301 FILLER_9_84
*1302 FILLER_9_87
*1303 PHY_EDGE_ROW_0_Left_16
*1304 PHY_EDGE_ROW_0_Right_0
*1305 PHY_EDGE_ROW_10_Left_26
*1306 PHY_EDGE_ROW_10_Right_10
*1307 PHY_EDGE_ROW_11_Left_27
*1308 PHY_EDGE_ROW_11_Right_11
*1309 PHY_EDGE_ROW_12_Left_28
*1310 PHY_EDGE_ROW_12_Right_12
*1311 PHY_EDGE_ROW_13_Left_29
*1312 PHY_EDGE_ROW_13_Right_13
*1313 PHY_EDGE_ROW_14_Left_30
*1314 PHY_EDGE_ROW_14_Right_14
*1315 PHY_EDGE_ROW_15_Left_31
*1316 PHY_EDGE_ROW_15_Right_15
*1317 PHY_EDGE_ROW_1_Left_17
*1318 PHY_EDGE_ROW_1_Right_1
*1319 PHY_EDGE_ROW_2_Left_18
*1320 PHY_EDGE_ROW_2_Right_2
*1321 PHY_EDGE_ROW_3_Left_19
*1322 PHY_EDGE_ROW_3_Right_3
*1323 PHY_EDGE_ROW_4_Left_20
*1324 PHY_EDGE_ROW_4_Right_4
*1325 PHY_EDGE_ROW_5_Left_21
*1326 PHY_EDGE_ROW_5_Right_5
*1327 PHY_EDGE_ROW_6_Left_22
*1328 PHY_EDGE_ROW_6_Right_6
*1329 PHY_EDGE_ROW_7_Left_23
*1330 PHY_EDGE_ROW_7_Right_7
*1331 PHY_EDGE_ROW_8_Left_24
*1332 PHY_EDGE_ROW_8_Right_8
*1333 PHY_EDGE_ROW_9_Left_25
*1334 PHY_EDGE_ROW_9_Right_9
*1335 S_EF_ADC12_207
*1336 TAP_TAPCELL_ROW_0_32
*1337 TAP_TAPCELL_ROW_0_33
*1338 TAP_TAPCELL_ROW_0_34
*1339 TAP_TAPCELL_ROW_0_35
*1340 TAP_TAPCELL_ROW_0_36
*1341 TAP_TAPCELL_ROW_0_37
*1342 TAP_TAPCELL_ROW_0_38
*1343 TAP_TAPCELL_ROW_0_39
*1344 TAP_TAPCELL_ROW_0_40
*1345 TAP_TAPCELL_ROW_0_41
*1346 TAP_TAPCELL_ROW_0_42
*1347 TAP_TAPCELL_ROW_0_43
*1348 TAP_TAPCELL_ROW_10_100
*1349 TAP_TAPCELL_ROW_10_101
*1350 TAP_TAPCELL_ROW_10_102
*1351 TAP_TAPCELL_ROW_10_103
*1352 TAP_TAPCELL_ROW_10_98
*1353 TAP_TAPCELL_ROW_10_99
*1354 TAP_TAPCELL_ROW_11_104
*1355 TAP_TAPCELL_ROW_11_105
*1356 TAP_TAPCELL_ROW_11_106
*1357 TAP_TAPCELL_ROW_11_107
*1358 TAP_TAPCELL_ROW_11_108
*1359 TAP_TAPCELL_ROW_11_109
*1360 TAP_TAPCELL_ROW_12_110
*1361 TAP_TAPCELL_ROW_12_111
*1362 TAP_TAPCELL_ROW_12_112
*1363 TAP_TAPCELL_ROW_12_113
*1364 TAP_TAPCELL_ROW_12_114
*1365 TAP_TAPCELL_ROW_12_115
*1366 TAP_TAPCELL_ROW_13_116
*1367 TAP_TAPCELL_ROW_13_117
*1368 TAP_TAPCELL_ROW_13_118
*1369 TAP_TAPCELL_ROW_13_119
*1370 TAP_TAPCELL_ROW_13_120
*1371 TAP_TAPCELL_ROW_13_121
*1372 TAP_TAPCELL_ROW_14_122
*1373 TAP_TAPCELL_ROW_14_123
*1374 TAP_TAPCELL_ROW_14_124
*1375 TAP_TAPCELL_ROW_14_125
*1376 TAP_TAPCELL_ROW_14_126
*1377 TAP_TAPCELL_ROW_14_127
*1378 TAP_TAPCELL_ROW_15_128
*1379 TAP_TAPCELL_ROW_15_129
*1380 TAP_TAPCELL_ROW_15_130
*1381 TAP_TAPCELL_ROW_15_131
*1382 TAP_TAPCELL_ROW_15_132
*1383 TAP_TAPCELL_ROW_15_133
*1384 TAP_TAPCELL_ROW_15_134
*1385 TAP_TAPCELL_ROW_15_135
*1386 TAP_TAPCELL_ROW_15_136
*1387 TAP_TAPCELL_ROW_15_137
*1388 TAP_TAPCELL_ROW_15_138
*1389 TAP_TAPCELL_ROW_15_139
*1390 TAP_TAPCELL_ROW_1_44
*1391 TAP_TAPCELL_ROW_1_45
*1392 TAP_TAPCELL_ROW_1_46
*1393 TAP_TAPCELL_ROW_1_47
*1394 TAP_TAPCELL_ROW_1_48
*1395 TAP_TAPCELL_ROW_1_49
*1396 TAP_TAPCELL_ROW_2_50
*1397 TAP_TAPCELL_ROW_2_51
*1398 TAP_TAPCELL_ROW_2_52
*1399 TAP_TAPCELL_ROW_2_53
*1400 TAP_TAPCELL_ROW_2_54
*1401 TAP_TAPCELL_ROW_2_55
*1402 TAP_TAPCELL_ROW_3_56
*1403 TAP_TAPCELL_ROW_3_57
*1404 TAP_TAPCELL_ROW_3_58
*1405 TAP_TAPCELL_ROW_3_59
*1406 TAP_TAPCELL_ROW_3_60
*1407 TAP_TAPCELL_ROW_3_61
*1408 TAP_TAPCELL_ROW_4_62
*1409 TAP_TAPCELL_ROW_4_63
*1410 TAP_TAPCELL_ROW_4_64
*1411 TAP_TAPCELL_ROW_4_65
*1412 TAP_TAPCELL_ROW_4_66
*1413 TAP_TAPCELL_ROW_4_67
*1414 TAP_TAPCELL_ROW_5_68
*1415 TAP_TAPCELL_ROW_5_69
*1416 TAP_TAPCELL_ROW_5_70
*1417 TAP_TAPCELL_ROW_5_71
*1418 TAP_TAPCELL_ROW_5_72
*1419 TAP_TAPCELL_ROW_5_73
*1420 TAP_TAPCELL_ROW_6_74
*1421 TAP_TAPCELL_ROW_6_75
*1422 TAP_TAPCELL_ROW_6_76
*1423 TAP_TAPCELL_ROW_6_77
*1424 TAP_TAPCELL_ROW_6_78
*1425 TAP_TAPCELL_ROW_6_79
*1426 TAP_TAPCELL_ROW_7_80
*1427 TAP_TAPCELL_ROW_7_81
*1428 TAP_TAPCELL_ROW_7_82
*1429 TAP_TAPCELL_ROW_7_83
*1430 TAP_TAPCELL_ROW_7_84
*1431 TAP_TAPCELL_ROW_7_85
*1432 TAP_TAPCELL_ROW_8_86
*1433 TAP_TAPCELL_ROW_8_87
*1434 TAP_TAPCELL_ROW_8_88
*1435 TAP_TAPCELL_ROW_8_89
*1436 TAP_TAPCELL_ROW_8_90
*1437 TAP_TAPCELL_ROW_8_91
*1438 TAP_TAPCELL_ROW_9_92
*1439 TAP_TAPCELL_ROW_9_93
*1440 TAP_TAPCELL_ROW_9_94
*1441 TAP_TAPCELL_ROW_9_95
*1442 TAP_TAPCELL_ROW_9_96
*1443 TAP_TAPCELL_ROW_9_97
*1444 _082_
*1445 _083_
*1446 _084_
*1447 _085_
*1448 _086_
*1449 _087_
*1450 _088_
*1451 _089_
*1452 _090_
*1453 _091_
*1454 _092_
*1455 _093_
*1456 _094_
*1457 _095_
*1458 _096_
*1459 _097_
*1460 _098_
*1461 _099_
*1462 _100_
*1463 _101_
*1464 _102_
*1465 _103_
*1466 _104_
*1467 _105_
*1468 _106_
*1469 _107_
*1470 _108_
*1471 _109_
*1472 _110_
*1473 _111_
*1474 _112_
*1475 _113_
*1476 _114_
*1477 _115_
*1478 _116_
*1479 _117_
*1480 _118_
*1481 _119_
*1482 _120_
*1483 _121_
*1484 _122_
*1485 _123_
*1486 _124_
*1487 _125_
*1488 _126_
*1489 _127_
*1490 _128_
*1491 _129_
*1492 _130_
*1493 _131_
*1494 _132_
*1495 _133_
*1496 _134_
*1497 _135_
*1498 _136_
*1499 _137_
*1500 _138_
*1501 _139_
*1502 _140_
*1503 _141_
*1504 _142_
*1505 _143_
*1506 _144_
*1507 _145_
*1508 _146_
*1509 _147_
*1510 _148_
*1511 _149_
*1512 _150_
*1513 _151_
*1514 _152_
*1515 _153_
*1516 _154_
*1517 _155_
*1518 _156_
*1519 _157_
*1520 _158_
*1521 _159_
*1522 _160_
*1523 _161_
*1524 _162_
*1525 _163_
*1526 _164_
*1527 _165_
*1528 _166_
*1529 _167_
*1530 _168_
*1531 _169_
*1532 _170_
*1533 _171_
*1534 _172_
*1535 _173_
*1536 _174_
*1537 _175_
*1538 _176_
*1539 _177_
*1540 _178_
*1541 _179_
*1542 _180_
*1543 _181_
*1544 _182_
*1545 _183_
*1546 _184_
*1547 _185_
*1548 _186_
*1549 _187_
*1550 _188_
*1551 _189_
*1552 _190_
*1553 _191_
*1554 _192_
*1555 _193_
*1556 _194_
*1557 _195_
*1558 _196_
*1559 _197_
*1560 _198_
*1561 _199_
*1562 _200_
*1563 _201_
*1564 _202_
*1565 _203_
*1566 _204_
*1567 _205_
*1568 _206_
*1569 _207_
*1570 _208_
*1571 _209_
*1572 _210_
*1573 _211_
*1574 _212_
*1575 _213_
*1576 _214_
*1577 _215_
*1578 _216_
*1579 _217_
*1580 _218_
*1581 _219_
*1582 _220_
*1583 _221_
*1584 _222_
*1585 _223_
*1586 _224_
*1587 _225_
*1588 _226_
*1589 _227_
*1590 _228_
*1591 _229_
*1592 _230_
*1593 _231_
*1594 _232_
*1595 _233_
*1596 _234_
*1597 _235_
*1598 _236_
*1599 _237_
*1600 _238_
*1601 _239_
*1602 _240_
*1603 _241_
*1604 _242_
*1605 _243_
*1606 _244_
*1607 _245_
*1608 _246_
*1609 _247_
*1610 _248_
*1611 _249_
*1612 _250_
*1613 _251_
*1614 _252_
*1615 _253_
*1616 _254_
*1617 _255_
*1618 _256_
*1619 _257_
*1620 _258_
*1621 _259_
*1622 _260_
*1623 _261_
*1624 _262_
*1625 _263_
*1626 _264_
*1627 _265_
*1628 _266_
*1629 _267_
*1630 _268_
*1631 _269_
*1632 _270_
*1633 _271_
*1634 _272_
*1635 _273_
*1636 _274_
*1637 _275_
*1638 _276_
*1639 _277_
*1640 _278_
*1641 _279_
*1642 _280_
*1643 _281_
*1644 _282_
*1645 _283_
*1646 _284_
*1647 _285_
*1648 _286_
*1649 _287_
*1650 _288_
*1651 _289_
*1652 _290_
*1653 _291_
*1654 _292_
*1655 _293_
*1656 _294_
*1657 _295_
*1658 _296_
*1659 _297_
*1660 _298_
*1661 _299_
*1662 _300_
*1663 _301_
*1664 _302_
*1665 _303_
*1666 _304_
*1667 _305_
*1668 _306_
*1669 _307_
*1670 _308_
*1671 _309_
*1672 _310_
*1673 _311_
*1674 _312_
*1675 _313_
*1676 _314_
*1677 _315_
*1678 _316_
*1679 _317_
*1680 _319_
*1681 _320_
*1682 _321_
*1683 _322_
*1684 _323_
*1685 _324_
*1686 _325_
*1687 _326_
*1688 _327_
*1689 _328_
*1690 _329_
*1691 _330_
*1692 _331_
*1693 _332_
*1694 _333_
*1695 _334_
*1696 _335_
*1697 _336_
*1698 _337_
*1699 _338_
*1700 _339_
*1701 _340_
*1702 _341_
*1703 _342_
*1704 _343_
*1705 _344_
*1706 _345_
*1707 _346_
*1708 _347_
*1709 _348_
*1710 _349_
*1711 _350_
*1712 _351_
*1713 _352_
*1714 _353_
*1715 _354_
*1716 _355_
*1717 _356_
*1718 _357_
*1719 _358_
*1720 _359_
*1721 _360_
*1722 _361_
*1723 _362_
*1724 _363_
*1725 _364_
*1726 _365_
*1727 _366_
*1728 _367_
*1729 _368_
*1730 _369_
*1731 _370_
*1732 _371_
*1733 _372_
*1734 _373_
*1735 _374_
*1736 _375_
*1737 _376_
*1738 _377_
*1739 _378_
*1740 _379_
*1741 _380_
*1742 _381_
*1743 _382_
*1744 _383_
*1745 _384_
*1746 _385_
*1747 _386_
*1748 _387_
*1749 _388_
*1750 _389_
*1751 _390_
*1752 _391_
*1753 _392_
*1754 _393_
*1755 _394_
*1756 _395_
*1757 _396_
*1758 _397_
*1759 _398_
*1760 _399_
*1761 _400_
*1762 _401_
*1763 _402_
*1764 _403_
*1765 _404_
*1766 _405_
*1767 _406_
*1768 _407_
*1769 _408_
*1770 _409_
*1771 _410_
*1772 _411_
*1773 _412_
*1774 _413_
*1775 _414_
*1776 _415_
*1777 _416_
*1778 _417_
*1779 _418_
*1780 _419_
*1781 _420_
*1782 _421_
*1783 _422_
*1784 _423_
*1785 clkbuf_0_UserCLK
*1786 clkbuf_0_UserCLK_regs
*1787 clkbuf_1_0__f_UserCLK
*1788 clkbuf_2_0__f_UserCLK_regs
*1789 clkbuf_2_1__f_UserCLK_regs
*1790 clkbuf_2_2__f_UserCLK_regs
*1791 clkbuf_2_3__f_UserCLK_regs
*1792 clkbuf_regs_0_UserCLK
*1793 clkload0
*1794 fanout33
*1795 fanout34
*1796 fanout35
*1797 fanout36
*1798 fanout37
*1799 fanout38
*1800 fanout39
*1801 fanout40
*1802 fanout41
*1803 fanout42
*1804 fanout43
*1805 hold1
*1806 hold10
*1807 hold11
*1808 hold12
*1809 hold13
*1810 hold14
*1811 hold15
*1812 hold16
*1813 hold17
*1814 hold18
*1815 hold19
*1816 hold2
*1817 hold3
*1818 hold4
*1819 hold5
*1820 hold6
*1821 hold7
*1822 hold8
*1823 hold9
*1824 input1
*1825 input10
*1826 input11
*1827 input12
*1828 input13
*1829 input14
*1830 input15
*1831 input16
*1832 input17
*1833 input18
*1834 input19
*1835 input2
*1836 input20
*1837 input21
*1838 input22
*1839 input23
*1840 input24
*1841 input25
*1842 input26
*1843 input27
*1844 input28
*1845 input29
*1846 input3
*1847 input30
*1848 input31
*1849 input32
*1850 input33
*1851 input34
*1852 input35
*1853 input36
*1854 input37
*1855 input38
*1856 input39
*1857 input4
*1858 input40
*1859 input41
*1860 input42
*1861 input43
*1862 input44
*1863 input45
*1864 input46
*1865 input47
*1866 input48
*1867 input49
*1868 input5
*1869 input50
*1870 input51
*1871 input52
*1872 input53
*1873 input54
*1874 input55
*1875 input56
*1876 input57
*1877 input58
*1878 input59
*1879 input6
*1880 input60
*1881 input61
*1882 input62
*1883 input63
*1884 input64
*1885 input65
*1886 input66
*1887 input67
*1888 input68
*1889 input69
*1890 input7
*1891 input70
*1892 input71
*1893 input72
*1894 input73
*1895 input74
*1896 input75
*1897 input76
*1898 input77
*1899 input78
*1900 input79
*1901 input8
*1902 input80
*1903 input81
*1904 input82
*1905 input83
*1906 input84
*1907 input85
*1908 input86
*1909 input87
*1910 input9
*1911 output100
*1912 output101
*1913 output102
*1914 output103
*1915 output104
*1916 output105
*1917 output106
*1918 output107
*1919 output108
*1920 output109
*1921 output110
*1922 output111
*1923 output112
*1924 output113
*1925 output114
*1926 output115
*1927 output116
*1928 output117
*1929 output118
*1930 output119
*1931 output120
*1932 output121
*1933 output122
*1934 output123
*1935 output124
*1936 output125
*1937 output126
*1938 output127
*1939 output128
*1940 output129
*1941 output130
*1942 output131
*1943 output132
*1944 output133
*1945 output134
*1946 output135
*1947 output136
*1948 output137
*1949 output138
*1950 output139
*1951 output140
*1952 output141
*1953 output142
*1954 output143
*1955 output144
*1956 output145
*1957 output146
*1958 output147
*1959 output148
*1960 output149
*1961 output150
*1962 output151
*1963 output152
*1964 output153
*1965 output154
*1966 output155
*1967 output156
*1968 output157
*1969 output158
*1970 output159
*1971 output160
*1972 output161
*1973 output162
*1974 output163
*1975 output164
*1976 output165
*1977 output166
*1978 output167
*1979 output168
*1980 output169
*1981 output170
*1982 output171
*1983 output172
*1984 output173
*1985 output174
*1986 output175
*1987 output176
*1988 output177
*1989 output178
*1990 output179
*1991 output180
*1992 output181
*1993 output182
*1994 output183
*1995 output184
*1996 output185
*1997 output186
*1998 output187
*1999 output188
*2000 output189
*2001 output190
*2002 output191
*2003 output192
*2004 output193
*2005 output194
*2006 output195
*2007 output196
*2008 output197
*2009 output198
*2010 output199
*2011 output200
*2012 output201
*2013 output202
*2014 output203
*2015 output204
*2016 output205
*2017 output206
*2018 output88
*2019 output89
*2020 output90
*2021 output91
*2022 output92
*2023 output93
*2024 output94
*2025 output95
*2026 output96
*2027 output97
*2028 output98
*2029 output99

*PORTS
CMP_top I
Co O
FrameData[0] I
FrameData[10] I
FrameData[11] I
FrameData[12] I
FrameData[13] I
FrameData[14] I
FrameData[15] I
FrameData[16] I
FrameData[17] I
FrameData[18] I
FrameData[19] I
FrameData[1] I
FrameData[20] I
FrameData[21] I
FrameData[22] I
FrameData[23] I
FrameData[24] I
FrameData[25] I
FrameData[26] I
FrameData[27] I
FrameData[28] I
FrameData[29] I
FrameData[2] I
FrameData[30] I
FrameData[31] I
FrameData[3] I
FrameData[4] I
FrameData[5] I
FrameData[6] I
FrameData[7] I
FrameData[8] I
FrameData[9] I
FrameData_O[0] O
FrameData_O[10] O
FrameData_O[11] O
FrameData_O[12] O
FrameData_O[13] O
FrameData_O[14] O
FrameData_O[15] O
FrameData_O[16] O
FrameData_O[17] O
FrameData_O[18] O
FrameData_O[19] O
FrameData_O[1] O
FrameData_O[20] O
FrameData_O[21] O
FrameData_O[22] O
FrameData_O[23] O
FrameData_O[24] O
FrameData_O[25] O
FrameData_O[26] O
FrameData_O[27] O
FrameData_O[28] O
FrameData_O[29] O
FrameData_O[2] O
FrameData_O[30] O
FrameData_O[31] O
FrameData_O[3] O
FrameData_O[4] O
FrameData_O[5] O
FrameData_O[6] O
FrameData_O[7] O
FrameData_O[8] O
FrameData_O[9] O
FrameStrobe[0] I
FrameStrobe[10] I
FrameStrobe[11] I
FrameStrobe[12] I
FrameStrobe[13] I
FrameStrobe[14] I
FrameStrobe[15] I
FrameStrobe[16] I
FrameStrobe[17] I
FrameStrobe[18] I
FrameStrobe[19] I
FrameStrobe[1] I
FrameStrobe[2] I
FrameStrobe[3] I
FrameStrobe[4] I
FrameStrobe[5] I
FrameStrobe[6] I
FrameStrobe[7] I
FrameStrobe[8] I
FrameStrobe[9] I
FrameStrobe_O[0] O
FrameStrobe_O[10] O
FrameStrobe_O[11] O
FrameStrobe_O[12] O
FrameStrobe_O[13] O
FrameStrobe_O[14] O
FrameStrobe_O[15] O
FrameStrobe_O[16] O
FrameStrobe_O[17] O
FrameStrobe_O[18] O
FrameStrobe_O[19] O
FrameStrobe_O[1] O
FrameStrobe_O[2] O
FrameStrobe_O[3] O
FrameStrobe_O[4] O
FrameStrobe_O[5] O
FrameStrobe_O[6] O
FrameStrobe_O[7] O
FrameStrobe_O[8] O
FrameStrobe_O[9] O
HOLD_top O
N1BEG[0] O
N1BEG[1] O
N1BEG[2] O
N1BEG[3] O
N2BEG[0] O
N2BEG[1] O
N2BEG[2] O
N2BEG[3] O
N2BEG[4] O
N2BEG[5] O
N2BEG[6] O
N2BEG[7] O
N2BEGb[0] O
N2BEGb[1] O
N2BEGb[2] O
N2BEGb[3] O
N2BEGb[4] O
N2BEGb[5] O
N2BEGb[6] O
N2BEGb[7] O
N4BEG[0] O
N4BEG[10] O
N4BEG[11] O
N4BEG[12] O
N4BEG[13] O
N4BEG[14] O
N4BEG[15] O
N4BEG[1] O
N4BEG[2] O
N4BEG[3] O
N4BEG[4] O
N4BEG[5] O
N4BEG[6] O
N4BEG[7] O
N4BEG[8] O
N4BEG[9] O
NN4BEG[0] O
NN4BEG[10] O
NN4BEG[11] O
NN4BEG[12] O
NN4BEG[13] O
NN4BEG[14] O
NN4BEG[15] O
NN4BEG[1] O
NN4BEG[2] O
NN4BEG[3] O
NN4BEG[4] O
NN4BEG[5] O
NN4BEG[6] O
NN4BEG[7] O
NN4BEG[8] O
NN4BEG[9] O
RESET_top O
S1END[0] I
S1END[1] I
S1END[2] I
S1END[3] I
S2END[0] I
S2END[1] I
S2END[2] I
S2END[3] I
S2END[4] I
S2END[5] I
S2END[6] I
S2END[7] I
S2MID[0] I
S2MID[1] I
S2MID[2] I
S2MID[3] I
S2MID[4] I
S2MID[5] I
S2MID[6] I
S2MID[7] I
S4END[0] I
S4END[10] I
S4END[11] I
S4END[12] I
S4END[13] I
S4END[14] I
S4END[15] I
S4END[1] I
S4END[2] I
S4END[3] I
S4END[4] I
S4END[5] I
S4END[6] I
S4END[7] I
S4END[8] I
S4END[9] I
SS4END[0] I
SS4END[10] I
SS4END[11] I
SS4END[12] I
SS4END[13] I
SS4END[14] I
SS4END[15] I
SS4END[1] I
SS4END[2] I
SS4END[3] I
SS4END[4] I
SS4END[5] I
SS4END[6] I
SS4END[7] I
SS4END[8] I
SS4END[9] I
UserCLK I
UserCLKo O
VALUE_top0 O
VALUE_top1 O
VALUE_top10 O
VALUE_top11 O
VALUE_top2 O
VALUE_top3 O
VALUE_top4 O
VALUE_top5 O
VALUE_top6 O
VALUE_top7 O
VALUE_top8 O
VALUE_top9 O

*D_NET *1 0.00195885
*CONN
*P CMP_top I
*I *1824:A I *D sky130_fd_sc_hd__buf_1
*CAP
1 CMP_top 0.000794886
2 *1824:A 0
3 *1:11 0.000794886
4 *1:11 VALUE_top0 0.000231039
5 *1:11 *3:15 0
6 *1:11 *30:13 0.00010018
7 *1:11 *459:14 1.24376e-05
8 *1:11 *493:12 2.54193e-05
9 *1:11 *548:46 0
10 *1:11 *617:8 0
*RES
1 CMP_top *1:11 30.66 
2 *1:11 *1824:A 23 
*END

*D_NET *2 0.00535835
*CONN
*P Co O
*I *1335:LO O *D sky130_fd_sc_hd__conb_1
*CAP
1 Co 0.000191337
2 *1335:LO 7.78355e-05
3 *2:14 0.00103574
4 *2:8 0.000922236
5 Co NN4BEG[15] 0.00012027
6 Co *161:11 0.00012027
7 *2:8 *587:131 9.88259e-05
8 *2:14 NN4BEG[11] 0.000433184
9 *2:14 NN4BEG[5] 4.73108e-05
10 *2:14 NN4BEG[6] 3.55458e-05
11 *2:14 NN4BEG[7] 0.000376991
12 *2:14 *1649:GATE 8.64431e-05
13 *2:14 *2001:A 0.000369808
14 *2:14 *145:8 0.000135143
15 *2:14 *162:9 0.000812735
16 *2:14 *345:10 5.3595e-05
17 *2:14 *481:12 6.77187e-05
18 *2:14 *529:30 0.000125964
19 *2:14 *537:48 0.000219401
20 *2:14 *592:75 2.79972e-05
*RES
1 *1335:LO *2:8 39.0979 
2 *2:8 *2:14 36.315 
3 *2:14 Co 18.9771 
*END

*D_NET *3 0.00294994
*CONN
*P FrameData[0] I
*I *1835:A I *D sky130_fd_sc_hd__buf_1
*CAP
1 FrameData[0] 0.00105365
2 *1835:A 0
3 *3:15 0.00105365
4 *3:15 VALUE_top1 7.79774e-05
5 *3:15 *1843:A 0
6 *3:15 *14:11 0.000574542
7 *3:15 *459:14 7.38543e-05
8 *3:15 *493:12 6.89442e-05
9 *3:15 *548:46 0
10 *3:15 *578:144 1.13579e-05
11 *3:15 *579:24 0
12 *3:15 *619:26 3.59647e-05
13 *1:11 *3:15 0
*RES
1 FrameData[0] *3:15 29.7649 
2 *3:15 *1835:A 23 
*END

*D_NET *4 0.00137116
*CONN
*P FrameData[10] I
*I *1846:A I *D sky130_fd_sc_hd__buf_1
*CAP
1 FrameData[10] 0.000236526
2 *1846:A 0.000236526
3 *1846:A *1857:A 0.000378829
4 *1846:A *34:13 0.00049966
5 *1846:A *614:34 1.96186e-05
*RES
1 FrameData[10] *1846:A 49.3847 
*END

*D_NET *5 0.00163023
*CONN
*P FrameData[11] I
*I *1857:A I *D sky130_fd_sc_hd__buf_1
*CAP
1 FrameData[11] 0.000288501
2 *1857:A 0.000288501
3 *1857:A *1552:B 1.53128e-05
4 *1857:A *1554:A 4.41619e-05
5 *1857:A *1868:A 0.000389156
6 *1857:A *7:11 2.944e-05
7 *1857:A *34:13 1.31574e-05
8 *1857:A *614:34 0.000183171
9 *1846:A *1857:A 0.000378829
*RES
1 FrameData[11] *1857:A 49.9945 
*END

*D_NET *6 0.0012393
*CONN
*P FrameData[12] I
*I *1868:A I *D sky130_fd_sc_hd__buf_1
*CAP
1 FrameData[12] 0.000177693
2 *1868:A 0.000177693
3 *1868:A *7:11 0.000378698
4 *1868:A *548:30 7.76035e-05
5 *1868:A *614:34 3.84556e-05
6 *1857:A *1868:A 0.000389156
*RES
1 FrameData[12] *1868:A 48.3283 
*END

*D_NET *7 0.00186345
*CONN
*P FrameData[13] I
*I *1879:A I *D sky130_fd_sc_hd__buf_1
*CAP
1 FrameData[13] 0.000346066
2 *1879:A 0
3 *7:11 0.000346066
4 *7:11 *1890:A 0.000414321
5 *7:11 *9:11 1.46398e-05
6 *7:11 *614:34 4.77164e-06
7 *7:11 *622:139 0.000205044
8 *7:11 *640:8 7.19183e-05
9 *7:11 *662:10 2.33476e-05
10 *7:11 *662:20 2.91384e-05
11 *1857:A *7:11 2.944e-05
12 *1868:A *7:11 0.000378698
*RES
1 FrameData[13] *7:11 27.4325 
2 *7:11 *1879:A 23 
*END

*D_NET *8 0.00139068
*CONN
*P FrameData[14] I
*I *1890:A I *D sky130_fd_sc_hd__clkbuf_2
*CAP
1 FrameData[14] 0.000184429
2 *1890:A 0.000184429
3 *1890:A *9:11 0.000399797
4 *1890:A *614:34 0.000103854
5 *1890:A *640:8 0.000103854
6 *7:11 *1890:A 0.000414321
*RES
1 FrameData[14] *1890:A 48.7663 
*END

*D_NET *9 0.00217102
*CONN
*P FrameData[15] I
*I *1901:A I *D sky130_fd_sc_hd__buf_1
*CAP
1 FrameData[15] 0.000512978
2 *1901:A 0
3 *9:11 0.000512978
4 *9:11 *1825:A 3.77021e-05
5 *9:11 *1910:A 0.000406823
6 *9:11 *471:16 0
7 *9:11 *526:12 0
8 *9:11 *526:28 5.94978e-05
9 *9:11 *613:14 4.08379e-06
10 *9:11 *622:127 4.07138e-06
11 *9:11 *662:20 0.000192498
12 *9:11 *673:10 2.59524e-05
13 *1890:A *9:11 0.000399797
14 *7:11 *9:11 1.46398e-05
*RES
1 FrameData[15] *9:11 27.3379 
2 *9:11 *1901:A 23 
*END

*D_NET *10 0.00127247
*CONN
*P FrameData[16] I
*I *1910:A I *D sky130_fd_sc_hd__clkbuf_2
*CAP
1 FrameData[16] 0.000182782
2 *1910:A 0.000182782
3 *1910:A *1825:A 0.000400467
4 *1910:A *614:34 4.9808e-05
5 *1910:A *640:8 4.9808e-05
6 *9:11 *1910:A 0.000406823
*RES
1 FrameData[16] *1910:A 48.062 
*END

*D_NET *11 0.00148196
*CONN
*P FrameData[17] I
*I *1825:A I *D sky130_fd_sc_hd__buf_1
*CAP
1 FrameData[17] 0.000284037
2 *1825:A 0.000284037
3 *1825:A *1826:A 0.000385055
4 *1825:A *13:11 4.32995e-05
5 *1825:A *526:12 4.73652e-05
6 *1825:A *613:14 0
7 *1910:A *1825:A 0.000400467
8 *9:11 *1825:A 3.77021e-05
*RES
1 FrameData[17] *1825:A 48.3196 
*END

*D_NET *12 0.00126044
*CONN
*P FrameData[18] I
*I *1826:A I *D sky130_fd_sc_hd__dlymetal6s2s_1
*CAP
1 FrameData[18] 0.000171074
2 *1826:A 0.000171074
3 *1826:A *13:11 0.000378028
4 *1826:A *548:30 7.76035e-05
5 *1826:A *614:34 7.76035e-05
6 *1825:A *1826:A 0.000385055
*RES
1 FrameData[18] *1826:A 48.3283 
*END

*D_NET *13 0.00232003
*CONN
*P FrameData[19] I
*I *1827:A I *D sky130_fd_sc_hd__buf_1
*CAP
1 FrameData[19] 0.000430102
2 *1827:A 0
3 *13:11 0.000430102
4 *13:11 *1829:A 0.000388452
5 *13:11 *16:13 0.000251131
6 *13:11 *526:12 0.000330734
7 *13:11 *613:14 0
8 *13:11 *614:16 5.31385e-05
9 *13:11 *614:34 1.5037e-05
10 *1825:A *13:11 4.32995e-05
11 *1826:A *13:11 0.000378028
*RES
1 FrameData[19] *13:11 30.2496 
2 *13:11 *1827:A 23 
*END

*D_NET *14 0.00239734
*CONN
*P FrameData[1] I
*I *1828:A I *D sky130_fd_sc_hd__buf_1
*CAP
1 FrameData[1] 0.000560192
2 *1828:A 0
3 *14:11 0.000560192
4 *14:11 *1843:A 3.24701e-05
5 *14:11 *25:11 0.000466061
6 *14:11 *526:32 0.000203886
7 *14:11 *548:46 0
8 *3:15 *14:11 0.000574542
*RES
1 FrameData[1] *14:11 27.9477 
2 *14:11 *1828:A 23 
*END

*D_NET *15 0.00123787
*CONN
*P FrameData[20] I
*I *1829:A I *D sky130_fd_sc_hd__dlymetal6s2s_1
*CAP
1 FrameData[20] 0.000157756
2 *1829:A 0.000157756
3 *1829:A *16:13 0.000378698
4 *1829:A *548:30 7.76035e-05
5 *1829:A *614:34 7.76035e-05
6 *13:11 *1829:A 0.000388452
*RES
1 FrameData[20] *1829:A 48.3283 
*END

*D_NET *16 0.00215989
*CONN
*P FrameData[21] I
*I *1830:A I *D sky130_fd_sc_hd__buf_1
*CAP
1 FrameData[21] 0.000524006
2 *1830:A 0
3 *16:13 0.000524006
4 *16:13 *1831:A 0.000410933
5 *16:13 *18:13 1.31574e-05
6 *16:13 *20:11 0
7 *16:13 *482:10 5.79559e-05
8 *16:13 *613:14 0
9 *1829:A *16:13 0.000378698
10 *13:11 *16:13 0.000251131
*RES
1 FrameData[21] *16:13 28.6162 
2 *16:13 *1830:A 23 
*END

*D_NET *17 0.00136769
*CONN
*P FrameData[22] I
*I *1831:A I *D sky130_fd_sc_hd__clkbuf_2
*CAP
1 FrameData[22] 0.000184014
2 *1831:A 0.000184014
3 *1831:A *18:13 0.000401267
4 *1831:A *548:16 0.000103854
5 *1831:A *614:16 1.98982e-05
6 *1831:A *614:34 6.37057e-05
7 *16:13 *1831:A 0.000410933
*RES
1 FrameData[22] *1831:A 48.7663 
*END

*D_NET *18 0.00223387
*CONN
*P FrameData[23] I
*I *1832:A I *D sky130_fd_sc_hd__buf_1
*CAP
1 FrameData[23] 0.000471194
2 *1832:A 0
3 *18:13 0.000471194
4 *18:13 *1833:A 0.000389156
5 *18:13 *20:11 0.000225883
6 *18:13 *548:16 0.000153683
7 *18:13 *614:16 0.000108339
8 *1831:A *18:13 0.000401267
9 *16:13 *18:13 1.31574e-05
*RES
1 FrameData[23] *18:13 31.1757 
2 *18:13 *1832:A 23 
*END

*D_NET *19 0.00119095
*CONN
*P FrameData[24] I
*I *1833:A I *D sky130_fd_sc_hd__dlymetal6s2s_1
*CAP
1 FrameData[24] 0.000172682
2 *1833:A 0.000172682
3 *1833:A *20:11 0.000378829
4 *1833:A *548:16 7.76035e-05
5 *18:13 *1833:A 0.000389156
*RES
1 FrameData[24] *1833:A 48.3283 
*END

*D_NET *20 0.00177213
*CONN
*P FrameData[25] I
*I *1834:A I *D sky130_fd_sc_hd__buf_1
*CAP
1 FrameData[25] 0.000277155
2 *1834:A 0
3 *20:11 0.000277155
4 *20:11 *21:13 0.000566518
5 *20:11 *614:16 4.65943e-05
6 *1833:A *20:11 0.000378829
7 *16:13 *20:11 0
8 *18:13 *20:11 0.000225883
*RES
1 FrameData[25] *20:11 27.3466 
2 *20:11 *1834:A 23 
*END

*D_NET *21 0.00179076
*CONN
*P FrameData[26] I
*I *1836:A I *D sky130_fd_sc_hd__buf_1
*CAP
1 FrameData[26] 0.000299374
2 *1836:A 0
3 *21:13 0.000299374
4 *21:13 *22:11 0.000468172
5 *21:13 *559:12 5.56356e-05
6 *21:13 *614:16 0.000101689
7 *20:11 *21:13 0.000566518
*RES
1 FrameData[26] *21:13 27.1218 
2 *21:13 *1836:A 23 
*END

*D_NET *22 0.00214625
*CONN
*P FrameData[27] I
*I *1837:A I *D sky130_fd_sc_hd__buf_1
*CAP
1 FrameData[27] 0.00050555
2 *1837:A 0
3 *22:11 0.00050555
4 *22:11 *1838:A 0.000563107
5 *22:11 *27:11 3.36312e-06
6 *22:11 *537:8 0
7 *22:11 *613:14 7.45199e-05
8 *22:11 *614:16 2.59902e-05
9 *21:13 *22:11 0.000468172
*RES
1 FrameData[27] *22:11 27.4238 
2 *22:11 *1837:A 23 
*END

*D_NET *23 0.00226312
*CONN
*P FrameData[28] I
*I *1838:A I *D sky130_fd_sc_hd__buf_1
*CAP
1 FrameData[28] 0.000577479
2 *1838:A 0.000577479
3 *1838:A *1839:A 0.000379483
4 *1838:A *1841:A 1.10188e-05
5 *1838:A *27:11 0
6 *1838:A *515:12 7.76035e-05
7 *1838:A *613:14 7.69452e-05
8 *22:11 *1838:A 0.000563107
*RES
1 FrameData[28] *1838:A 49.2728 
*END

*D_NET *24 0.0013732
*CONN
*P FrameData[29] I
*I *1839:A I *D sky130_fd_sc_hd__dlymetal6s2s_1
*CAP
1 FrameData[29] 0.000242157
2 *1839:A 0.000242157
3 *1839:A *1841:A 0.000503614
4 *1839:A *27:11 0
5 *1839:A *537:8 5.79413e-06
6 *1838:A *1839:A 0.000379483
*RES
1 FrameData[29] *1839:A 49.7369 
*END

*D_NET *25 0.00200935
*CONN
*P FrameData[2] I
*I *1840:A I *D sky130_fd_sc_hd__buf_1
*CAP
1 FrameData[2] 0.000265078
2 *1840:A 0
3 *25:11 0.000265078
4 *25:11 *1843:A 0.000446404
5 *25:11 *30:13 0.000284941
6 *25:11 *548:46 0.000281789
7 *14:11 *25:11 0.000466061
*RES
1 FrameData[2] *25:11 28.403 
2 *25:11 *1840:A 23 
*END

*D_NET *26 0.00149059
*CONN
*P FrameData[30] I
*I *1841:A I *D sky130_fd_sc_hd__clkbuf_2
*CAP
1 FrameData[30] 0.000209983
2 *1841:A 0.000209983
3 *1841:A *27:11 0.000400597
4 *1841:A *537:8 0.000155396
5 *1838:A *1841:A 1.10188e-05
6 *1839:A *1841:A 0.000503614
*RES
1 FrameData[30] *1841:A 49.4706 
*END

*D_NET *27 0.00162356
*CONN
*P FrameData[31] I
*I *1842:A I *D sky130_fd_sc_hd__clkbuf_2
*CAP
1 FrameData[31] 0.000581739
2 *1842:A 0
3 *27:11 0.000581739
4 *27:11 *537:8 5.61207e-05
5 *27:11 *582:8 0
6 *1838:A *27:11 0
7 *1839:A *27:11 0
8 *1841:A *27:11 0.000400597
9 *22:11 *27:11 3.36312e-06
*RES
1 FrameData[31] *27:11 28.2226 
2 *27:11 *1842:A 23 
*END

*D_NET *28 0.00227623
*CONN
*P FrameData[3] I
*I *1843:A I *D sky130_fd_sc_hd__buf_1
*CAP
1 FrameData[3] 0.000584343
2 *1843:A 0.000584343
3 *1843:A *1844:A 0.000521749
4 *1843:A *526:32 1.05658e-05
5 *1843:A *606:14 6.10551e-06
6 *1843:A *612:20 9.02537e-05
7 *3:15 *1843:A 0
8 *14:11 *1843:A 3.24701e-05
9 *25:11 *1843:A 0.000446404
*RES
1 FrameData[3] *1843:A 48.7403 
*END

*D_NET *29 0.00174225
*CONN
*P FrameData[4] I
*I *1844:A I *D sky130_fd_sc_hd__clkbuf_1
*CAP
1 FrameData[4] 0.000327635
2 *1844:A 0.000327635
3 *1844:A *30:13 0.000423181
4 *1844:A *548:46 1.2472e-05
5 *1844:A *612:10 4.89546e-05
6 *1844:A *612:20 6.6326e-05
7 *1844:A *614:34 1.42921e-05
8 *1843:A *1844:A 0.000521749
*RES
1 FrameData[4] *1844:A 48.8435 
*END

*D_NET *30 0.0023724
*CONN
*P FrameData[5] I
*I *1845:A I *D sky130_fd_sc_hd__dlymetal6s2s_1
*CAP
1 FrameData[5] 0.000473228
2 *1845:A 0
3 *30:13 0.000473228
4 *30:13 *31:11 0.000472892
5 *30:13 *33:13 4.82774e-05
6 *30:13 *548:46 7.74297e-05
7 *30:13 *614:34 8.90275e-06
8 *30:13 *617:8 1.01436e-05
9 *1844:A *30:13 0.000423181
10 *1:11 *30:13 0.00010018
11 *25:11 *30:13 0.000284941
*RES
1 FrameData[5] *30:13 31.88 
2 *30:13 *1845:A 23 
*END

*D_NET *31 0.00171902
*CONN
*P FrameData[6] I
*I *1847:A I *D sky130_fd_sc_hd__dlymetal6s2s_1
*CAP
1 FrameData[6] 0.000359247
2 *1847:A 0
3 *31:11 0.000359247
4 *31:11 *1848:A 0.000378829
5 *31:11 *33:13 0.000148803
6 *30:13 *31:11 0.000472892
*RES
1 FrameData[6] *31:11 28.8497 
2 *31:11 *1847:A 23 
*END

*D_NET *32 0.00109121
*CONN
*P FrameData[7] I
*I *1848:A I *D sky130_fd_sc_hd__dlymetal6s2s_1
*CAP
1 FrameData[7] 0.00014994
2 *1848:A 0.00014994
3 *1848:A *33:13 0.000412504
4 *31:11 *1848:A 0.000378829
*RES
1 FrameData[7] *1848:A 47.624 
*END

*D_NET *33 0.00199426
*CONN
*P FrameData[8] I
*I *1849:A I *D sky130_fd_sc_hd__buf_1
*CAP
1 FrameData[8] 0.0003833
2 *1849:A 0
3 *33:13 0.0003833
4 *33:13 *34:13 0.000401397
5 *33:13 *548:46 4.7382e-05
6 *33:13 *614:34 0.000169293
7 *1848:A *33:13 0.000412504
8 *30:13 *33:13 4.82774e-05
9 *31:11 *33:13 0.000148803
*RES
1 FrameData[8] *33:13 29.9092 
2 *33:13 *1849:A 23 
*END

*D_NET *34 0.00177455
*CONN
*P FrameData[9] I
*I *1850:A I *D sky130_fd_sc_hd__buf_1
*CAP
1 FrameData[9] 0.000286723
2 *1850:A 0
3 *34:13 0.000286723
4 *34:13 *548:30 8.27951e-05
5 *34:13 *614:34 0.000204095
6 *1846:A *34:13 0.00049966
7 *1857:A *34:13 1.31574e-05
8 *33:13 *34:13 0.000401397
*RES
1 FrameData[9] *34:13 27.7963 
2 *34:13 *1850:A 23 
*END

*D_NET *35 0.00142342
*CONN
*P FrameData_O[0] O
*I *2018:X O *D sky130_fd_sc_hd__buf_2
*CAP
1 FrameData_O[0] 0.000179343
2 *2018:X 0.000388401
3 *35:12 0.000567744
4 FrameData_O[0] FrameData_O[1] 0.000255643
5 *35:12 FrameData_O[1] 0
6 *35:12 *472:22 0
7 *35:12 *489:40 3.22879e-05
*RES
1 *2018:X *35:12 44.0796 
2 *35:12 FrameData_O[0] 8.8736 
*END

*D_NET *36 0.00171981
*CONN
*P FrameData_O[10] O
*I *2019:X O *D sky130_fd_sc_hd__buf_2
*CAP
1 FrameData_O[10] 0.000433967
2 *2019:X 0.000433967
3 FrameData_O[10] FrameData_O[11] 0.000465073
4 FrameData_O[10] FrameData_O[9] 0.000386801
*RES
1 *2019:X FrameData_O[10] 48.0533 
*END

*D_NET *37 0.00229982
*CONN
*P FrameData_O[11] O
*I *2020:X O *D sky130_fd_sc_hd__buf_2
*CAP
1 FrameData_O[11] 0.000684215
2 *2020:X 0.000684215
3 FrameData_O[11] FrameData_O[12] 0.000208077
4 FrameData_O[11] FrameData_O[13] 0.000100096
5 FrameData_O[11] *461:42 2.55744e-05
6 FrameData_O[11] *464:66 0.000109352
7 FrameData_O[11] *465:10 0
8 FrameData_O[11] *469:14 2.04934e-05
9 FrameData_O[11] *509:12 2.72445e-06
10 FrameData_O[10] FrameData_O[11] 0.000465073
*RES
1 *2020:X FrameData_O[11] 49.8054 
*END

*D_NET *38 0.00130591
*CONN
*P FrameData_O[12] O
*I *2021:X O *D sky130_fd_sc_hd__buf_2
*CAP
1 FrameData_O[12] 7.42309e-05
2 *2021:X 0.000370647
3 *38:10 0.000444878
4 FrameData_O[12] FrameData_O[13] 0.000208077
5 *38:10 *65:10 0
6 *38:10 *465:10 0
7 FrameData_O[11] FrameData_O[12] 0.000208077
*RES
1 *2021:X *38:10 44.3904 
2 *38:10 FrameData_O[12] 8.70187 
*END

*D_NET *39 0.00153972
*CONN
*P FrameData_O[13] O
*I *2022:X O *D sky130_fd_sc_hd__buf_2
*CAP
1 FrameData_O[13] 0.000382001
2 *2022:X 0.000382001
3 FrameData_O[13] FrameData_O[14] 0.000386801
4 FrameData_O[13] FrameData_O[15] 5.5403e-05
5 FrameData_O[13] *469:14 2.5343e-05
6 FrameData_O[11] FrameData_O[13] 0.000100096
7 FrameData_O[12] FrameData_O[13] 0.000208077
*RES
1 *2022:X FrameData_O[13] 48.0533 
*END

*D_NET *40 0.00141074
*CONN
*P FrameData_O[14] O
*I *2023:X O *D sky130_fd_sc_hd__buf_2
*CAP
1 FrameData_O[14] 0.000324573
2 *2023:X 0.000324573
3 FrameData_O[14] FrameData_O[15] 0.000374793
4 FrameData_O[14] *469:14 0
5 FrameData_O[13] FrameData_O[14] 0.000386801
*RES
1 *2023:X FrameData_O[14] 48.4142 
*END

*D_NET *41 0.00183579
*CONN
*P FrameData_O[15] O
*I *2024:X O *D sky130_fd_sc_hd__buf_2
*CAP
1 FrameData_O[15] 0.000440426
2 *2024:X 0.000440426
3 FrameData_O[15] FrameData_O[16] 0.000211457
4 FrameData_O[15] FrameData_O[17] 0.00010311
5 FrameData_O[15] *469:14 0.00012389
6 FrameData_O[15] *586:112 8.62876e-05
7 FrameData_O[13] FrameData_O[15] 5.5403e-05
8 FrameData_O[14] FrameData_O[15] 0.000374793
*RES
1 *2024:X FrameData_O[15] 49.4619 
*END

*D_NET *42 0.00116753
*CONN
*P FrameData_O[16] O
*I *2025:X O *D sky130_fd_sc_hd__buf_2
*CAP
1 FrameData_O[16] 6.18349e-05
2 *2025:X 0.000310471
3 *42:10 0.000372306
4 FrameData_O[16] FrameData_O[17] 0.000211457
5 FrameData_O[15] FrameData_O[16] 0.000211457
*RES
1 *2025:X *42:10 42.2775 
2 *42:10 FrameData_O[16] 8.70187 
*END

*D_NET *43 0.001799
*CONN
*P FrameData_O[17] O
*I *2026:X O *D sky130_fd_sc_hd__buf_2
*CAP
1 FrameData_O[17] 0.000438662
2 *2026:X 0.000438662
3 FrameData_O[17] FrameData_O[18] 0.000386801
4 FrameData_O[17] FrameData_O[19] 4.63214e-05
5 FrameData_O[17] *469:14 0.00012641
6 FrameData_O[17] *586:112 4.75766e-05
7 FrameData_O[15] FrameData_O[17] 0.00010311
8 FrameData_O[16] FrameData_O[17] 0.000211457
*RES
1 *2026:X FrameData_O[17] 49.4619 
*END

*D_NET *44 0.00131156
*CONN
*P FrameData_O[18] O
*I *2027:X O *D sky130_fd_sc_hd__buf_2
*CAP
1 FrameData_O[18] 0.000274981
2 *2027:X 0.000274981
3 FrameData_O[18] FrameData_O[19] 0.000374793
4 FrameData_O[17] FrameData_O[18] 0.000386801
*RES
1 *2027:X FrameData_O[18] 47.7099 
*END

*D_NET *45 0.0017309
*CONN
*P FrameData_O[19] O
*I *2028:X O *D sky130_fd_sc_hd__buf_2
*CAP
1 FrameData_O[19] 0.000524453
2 *2028:X 0.000524453
3 FrameData_O[19] FrameData_O[20] 0.000211457
4 FrameData_O[19] FrameData_O[21] 4.94243e-05
5 FrameData_O[19] FrameData_O[22] 0
6 FrameData_O[19] *501:14 0
7 FrameData_O[17] FrameData_O[19] 4.63214e-05
8 FrameData_O[18] FrameData_O[19] 0.000374793
*RES
1 *2028:X FrameData_O[19] 49.4619 
*END

*D_NET *46 0.00147717
*CONN
*P FrameData_O[1] O
*I *2029:X O *D sky130_fd_sc_hd__buf_2
*CAP
1 FrameData_O[1] 0.000399577
2 *2029:X 0.000399577
3 FrameData_O[1] FrameData_O[2] 0.000383422
4 FrameData_O[1] *1926:A 6.86023e-06
5 FrameData_O[1] *76:11 0
6 FrameData_O[1] *472:22 3.20914e-05
7 FrameData_O[0] FrameData_O[1] 0.000255643
8 *35:12 FrameData_O[1] 0
*RES
1 *2029:X FrameData_O[1] 48.7663 
*END

*D_NET *47 0.00116753
*CONN
*P FrameData_O[20] O
*I *1911:X O *D sky130_fd_sc_hd__buf_2
*CAP
1 FrameData_O[20] 6.18349e-05
2 *1911:X 0.000310471
3 *47:10 0.000372306
4 FrameData_O[20] FrameData_O[21] 0.000211457
5 FrameData_O[19] FrameData_O[20] 0.000211457
*RES
1 *1911:X *47:10 42.2775 
2 *47:10 FrameData_O[20] 8.70187 
*END

*D_NET *48 0.00149233
*CONN
*P FrameData_O[21] O
*I *1912:X O *D sky130_fd_sc_hd__buf_2
*CAP
1 FrameData_O[21] 0.000424012
2 *1912:X 0.000424012
3 FrameData_O[21] FrameData_O[22] 0.000383422
4 FrameData_O[19] FrameData_O[21] 4.94243e-05
5 FrameData_O[20] FrameData_O[21] 0.000211457
*RES
1 *1912:X FrameData_O[21] 49.1184 
*END

*D_NET *49 0.00157113
*CONN
*P FrameData_O[22] O
*I *1913:X O *D sky130_fd_sc_hd__buf_2
*CAP
1 FrameData_O[22] 0.000406456
2 *1913:X 0.000406456
3 FrameData_O[22] FrameData_O[23] 0.000374793
4 FrameData_O[22] FrameData_O[26] 0
5 FrameData_O[22] *501:14 0
6 FrameData_O[19] FrameData_O[22] 0
7 FrameData_O[21] FrameData_O[22] 0.000383422
*RES
1 *1913:X FrameData_O[22] 48.0533 
*END

*D_NET *50 0.00149765
*CONN
*P FrameData_O[23] O
*I *1914:X O *D sky130_fd_sc_hd__buf_2
*CAP
1 FrameData_O[23] 0.000418923
2 *1914:X 0.000418923
3 FrameData_O[23] FrameData_O[24] 0.000258853
4 FrameData_O[23] FrameData_O[25] 2.61613e-05
5 FrameData_O[23] *51:10 0
6 FrameData_O[22] FrameData_O[23] 0.000374793
*RES
1 *1914:X FrameData_O[23] 49.1184 
*END

*D_NET *51 0.00173677
*CONN
*P FrameData_O[24] O
*I *1915:X O *D sky130_fd_sc_hd__buf_2
*CAP
1 FrameData_O[24] 9.91254e-05
2 *1915:X 0.000445464
3 *51:10 0.000544589
4 FrameData_O[24] FrameData_O[25] 0.000255643
5 *51:10 *1914:A 3.22879e-05
6 *51:10 *476:28 0.000100803
7 FrameData_O[23] FrameData_O[24] 0.000258853
8 FrameData_O[23] *51:10 0
*RES
1 *1915:X *51:10 45.5918 
2 *51:10 FrameData_O[24] 8.8736 
*END

*D_NET *52 0.00162897
*CONN
*P FrameData_O[25] O
*I *1916:X O *D sky130_fd_sc_hd__buf_2
*CAP
1 FrameData_O[25] 0.00048384
2 *1916:X 0.00048384
3 FrameData_O[25] FrameData_O[26] 0.000379489
4 FrameData_O[23] FrameData_O[25] 2.61613e-05
5 FrameData_O[24] FrameData_O[25] 0.000255643
*RES
1 *1916:X FrameData_O[25] 49.4706 
*END

*D_NET *53 0.00162038
*CONN
*P FrameData_O[26] O
*I *1917:X O *D sky130_fd_sc_hd__buf_2
*CAP
1 FrameData_O[26] 0.000433051
2 *1917:X 0.000433051
3 FrameData_O[26] FrameData_O[27] 0.000374793
4 FrameData_O[26] FrameData_O[30] 0
5 FrameData_O[26] *485:26 0
6 FrameData_O[22] FrameData_O[26] 0
7 FrameData_O[25] FrameData_O[26] 0.000379489
*RES
1 *1917:X FrameData_O[26] 48.4055 
*END

*D_NET *54 0.00149638
*CONN
*P FrameData_O[27] O
*I *1918:X O *D sky130_fd_sc_hd__buf_2
*CAP
1 FrameData_O[27] 0.000418287
2 *1918:X 0.000418287
3 FrameData_O[27] FrameData_O[28] 0.000258853
4 FrameData_O[27] FrameData_O[29] 2.61613e-05
5 FrameData_O[27] *55:10 0
6 FrameData_O[27] *483:22 0
7 FrameData_O[26] FrameData_O[27] 0.000374793
*RES
1 *1918:X FrameData_O[27] 49.1184 
*END

*D_NET *55 0.00163459
*CONN
*P FrameData_O[28] O
*I *1919:X O *D sky130_fd_sc_hd__buf_2
*CAP
1 FrameData_O[28] 9.91254e-05
2 *1919:X 0.000410831
3 *55:10 0.000509956
4 FrameData_O[28] FrameData_O[29] 0.000255643
5 *55:10 *480:28 0.00010018
6 FrameData_O[27] FrameData_O[28] 0.000258853
7 FrameData_O[27] *55:10 0
*RES
1 *1919:X *55:10 44.6389 
2 *55:10 FrameData_O[28] 8.8736 
*END

*D_NET *56 0.0015675
*CONN
*P FrameData_O[29] O
*I *1920:X O *D sky130_fd_sc_hd__buf_2
*CAP
1 FrameData_O[29] 0.000451411
2 *1920:X 0.000451411
3 FrameData_O[29] FrameData_O[30] 0.000382868
4 FrameData_O[29] *483:22 0
5 FrameData_O[27] FrameData_O[29] 2.61613e-05
6 FrameData_O[28] FrameData_O[29] 0.000255643
*RES
1 *1920:X FrameData_O[29] 49.1184 
*END

*D_NET *57 0.00158025
*CONN
*P FrameData_O[2] O
*I *1921:X O *D sky130_fd_sc_hd__buf_2
*CAP
1 FrameData_O[2] 0.000378083
2 *1921:X 0.000378083
3 FrameData_O[2] FrameData_O[3] 0.000375452
4 FrameData_O[2] *1926:A 2.26497e-05
5 FrameData_O[2] *76:11 2.47015e-05
6 FrameData_O[2] *487:18 1.78619e-05
7 FrameData_O[1] FrameData_O[2] 0.000383422
*RES
1 *1921:X FrameData_O[2] 48.0533 
*END

*D_NET *58 0.00161611
*CONN
*P FrameData_O[30] O
*I *1922:X O *D sky130_fd_sc_hd__buf_2
*CAP
1 FrameData_O[30] 0.000371805
2 *1922:X 0.000371805
3 FrameData_O[30] FrameData_O[31] 0.000464934
4 FrameData_O[30] *483:22 2.47015e-05
5 FrameData_O[26] FrameData_O[30] 0
6 FrameData_O[29] FrameData_O[30] 0.000382868
*RES
1 *1922:X FrameData_O[30] 48.0533 
*END

*D_NET *59 0.00225668
*CONN
*P FrameData_O[31] O
*I *1923:X O *D sky130_fd_sc_hd__buf_2
*CAP
1 FrameData_O[31] 0.00086347
2 *1923:X 0.00086347
3 FrameData_O[31] *478:38 0
4 FrameData_O[31] *483:22 0
5 FrameData_O[31] *485:26 6.48049e-05
6 FrameData_O[30] FrameData_O[31] 0.000464934
*RES
1 *1923:X FrameData_O[31] 49.3587 
*END

*D_NET *60 0.00136118
*CONN
*P FrameData_O[3] O
*I *1924:X O *D sky130_fd_sc_hd__buf_2
*CAP
1 FrameData_O[3] 0.000337917
2 *1924:X 0.000337917
3 FrameData_O[3] FrameData_O[4] 0.000258853
4 FrameData_O[3] FrameData_O[5] 2.28348e-05
5 FrameData_O[3] *487:18 2.82105e-05
6 FrameData_O[2] FrameData_O[3] 0.000375452
*RES
1 *1924:X FrameData_O[3] 48.062 
*END

*D_NET *61 0.00158622
*CONN
*P FrameData_O[4] O
*I *1925:X O *D sky130_fd_sc_hd__buf_2
*CAP
1 FrameData_O[4] 9.91254e-05
2 *1925:X 0.000423504
3 *61:10 0.00052263
4 FrameData_O[4] FrameData_O[5] 0.000255643
5 *61:10 *1926:A 2.64616e-05
6 FrameData_O[3] FrameData_O[4] 0.000258853
*RES
1 *1925:X *61:10 43.2304 
2 *61:10 FrameData_O[4] 8.8736 
*END

*D_NET *62 0.00131914
*CONN
*P FrameData_O[5] O
*I *1926:X O *D sky130_fd_sc_hd__buf_2
*CAP
1 FrameData_O[5] 0.000326931
2 *1926:X 0.000326931
3 FrameData_O[5] FrameData_O[6] 0.000386801
4 FrameData_O[3] FrameData_O[5] 2.28348e-05
5 FrameData_O[4] FrameData_O[5] 0.000255643
*RES
1 *1926:X FrameData_O[5] 47.7099 
*END

*D_NET *63 0.00158388
*CONN
*P FrameData_O[6] O
*I *1927:X O *D sky130_fd_sc_hd__buf_2
*CAP
1 FrameData_O[6] 0.000391065
2 *1927:X 0.000391065
3 FrameData_O[6] FrameData_O[7] 0.000375452
4 FrameData_O[6] *487:18 3.94969e-05
5 FrameData_O[5] FrameData_O[6] 0.000386801
*RES
1 *1927:X FrameData_O[6] 48.0533 
*END

*D_NET *64 0.00137579
*CONN
*P FrameData_O[7] O
*I *1928:X O *D sky130_fd_sc_hd__buf_2
*CAP
1 FrameData_O[7] 0.000359324
2 *1928:X 0.000359324
3 FrameData_O[7] FrameData_O[8] 0.000258853
4 FrameData_O[7] FrameData_O[9] 2.28348e-05
5 FrameData_O[6] FrameData_O[7] 0.000375452
*RES
1 *1928:X FrameData_O[7] 48.062 
*END

*D_NET *65 0.00149205
*CONN
*P FrameData_O[8] O
*I *1929:X O *D sky130_fd_sc_hd__buf_2
*CAP
1 FrameData_O[8] 9.30936e-05
2 *1929:X 0.000378759
3 *65:10 0.000471852
4 FrameData_O[8] FrameData_O[9] 0.000258853
5 *65:10 *1930:A 3.06338e-05
6 FrameData_O[7] FrameData_O[8] 0.000258853
7 *38:10 *65:10 0
*RES
1 *1929:X *65:10 43.2304 
2 *65:10 FrameData_O[8] 8.8736 
*END

*D_NET *66 0.00133709
*CONN
*P FrameData_O[9] O
*I *1930:X O *D sky130_fd_sc_hd__buf_2
*CAP
1 FrameData_O[9] 0.000334302
2 *1930:X 0.000334302
3 FrameData_O[10] FrameData_O[9] 0.000386801
4 FrameData_O[7] FrameData_O[9] 2.28348e-05
5 FrameData_O[8] FrameData_O[9] 0.000258853
*RES
1 *1930:X FrameData_O[9] 47.7099 
*END

*D_NET *67 0.0128572
*CONN
*P FrameStrobe[0] I
*I *1804:A I *D sky130_fd_sc_hd__clkbuf_2
*CAP
1 FrameStrobe[0] 0.000731425
2 *1804:A 0
3 *67:23 0.000782246
4 *67:15 0.0023711
5 *67:9 0.00232028
6 *67:9 *80:11 0.000753144
7 *67:9 *80:17 0.000404122
8 *67:9 *471:30 0.000154451
9 *67:9 *518:20 0.00016679
10 *67:9 *526:34 0.00156158
11 *67:9 *528:26 5.50106e-05
12 *67:9 *570:12 0.000535675
13 *67:15 *1714:A 1.88129e-05
14 *67:15 *82:15 0
15 *67:15 *83:11 0
16 *67:15 *84:7 0
17 *67:15 *265:10 0
18 *67:15 *317:10 0.00017887
19 *67:15 *491:22 0
20 *67:15 *518:20 0
21 *67:15 *560:14 8.80603e-05
22 *67:15 *578:74 0
23 *67:15 *581:136 0.000129902
24 *67:15 *613:40 0
25 *67:15 *636:10 0.000111204
26 *67:15 *661:12 0
27 *67:15 *669:34 1.19519e-05
28 *67:15 *676:16 0.000362538
29 *67:23 *1627:GATE 8.03141e-05
30 *67:23 *1706:A 5.3304e-05
31 *67:23 *1803:A 5.79559e-05
32 *67:23 *312:8 8.10876e-05
33 *67:23 *466:22 0.000356246
34 *67:23 *489:10 3.16186e-05
35 *67:23 *586:76 9.51908e-05
36 *67:23 *619:76 7.33982e-05
37 *67:23 *632:8 9.59638e-05
38 *67:23 *632:91 2.15728e-05
39 *67:23 *633:46 0.000111506
40 *67:23 *669:28 0
41 *67:23 *669:34 0
42 *67:23 *676:16 0.000952473
43 *67:23 *677:22 0.000109377
*RES
1 FrameStrobe[0] *67:9 47.5007 
2 *67:9 *67:15 41.1207 
3 *67:15 *67:23 33.3321 
4 *67:23 *1804:A 23 
*END

*D_NET *68 0.00847945
*CONN
*P FrameStrobe[10] I
*I *1722:A I *D sky130_fd_sc_hd__clkbuf_1
*CAP
1 FrameStrobe[10] 0.000348182
2 *1722:A 0.000111797
3 *68:11 0.000801515
4 *68:7 0.0010379
5 *1722:A *70:15 9.21347e-06
6 *1722:A *75:11 0.00021356
7 *1722:A *81:19 0.000118899
8 *68:7 *69:9 0
9 *68:7 *86:9 0
10 *68:7 *526:44 0.000411178
11 *68:11 *73:11 0.000911483
12 *68:11 *82:17 1.72202e-05
13 *68:11 *83:17 0.000630105
14 *68:11 *461:34 0.000836121
15 *68:11 *471:46 0.000663924
16 *68:11 *489:40 0.00236835
*RES
1 FrameStrobe[10] *68:7 21.7943 
2 *68:7 *68:11 48.9714 
3 *68:11 *1722:A 41.3143 
*END

*D_NET *69 0.0047807
*CONN
*P FrameStrobe[11] I
*I *1723:A I *D sky130_fd_sc_hd__clkbuf_1
*CAP
1 FrameStrobe[11] 0.00093405
2 *1723:A 0
3 *69:15 0.000225111
4 *69:9 0.00115916
5 *69:9 *70:9 0
6 *69:9 *81:13 0.00156349
7 *69:9 *84:11 0.000399064
8 *69:9 *472:16 0
9 *69:15 *73:17 3.70187e-05
10 *69:15 *76:11 0
11 *69:15 *81:19 0.000462809
12 *69:15 *694:26 0
13 *68:7 *69:9 0
*RES
1 FrameStrobe[11] *69:9 46.4443 
2 *69:9 *69:15 36.1314 
3 *69:15 *1723:A 23 
*END

*D_NET *70 0.00607689
*CONN
*P FrameStrobe[12] I
*I *1724:A I *D sky130_fd_sc_hd__clkbuf_1
*CAP
1 FrameStrobe[12] 0.00179722
2 *1724:A 0
3 *70:15 0.000221072
4 *70:9 0.00201829
5 *70:9 *1725:A 0
6 *70:9 *77:19 0
7 *70:9 *86:9 0.00125715
8 *70:9 *463:28 0
9 *70:9 *694:20 0.000456956
10 *70:15 *75:11 0.0001579
11 *70:15 *462:46 2.1199e-05
12 *70:15 *497:12 0.000137889
13 *1722:A *70:15 9.21347e-06
14 *69:9 *70:9 0
*RES
1 FrameStrobe[12] *70:9 43.0471 
2 *70:9 *70:15 35.075 
3 *70:15 *1724:A 23 
*END

*D_NET *71 0.00160392
*CONN
*P FrameStrobe[13] I
*I *1725:A I *D sky130_fd_sc_hd__clkbuf_1
*CAP
1 FrameStrobe[13] 0.000645264
2 *1725:A 0.000645264
3 *1725:A *1726:A 0
4 *1725:A *75:11 9.84851e-05
5 *1725:A *77:19 0
6 *1725:A *463:38 0
7 *1725:A *492:28 0.000182619
8 *1725:A *503:8 3.22879e-05
9 *70:9 *1725:A 0
*RES
1 FrameStrobe[13] *1725:A 49.0614 
*END

*D_NET *72 0.00191764
*CONN
*P FrameStrobe[14] I
*I *1726:A I *D sky130_fd_sc_hd__clkbuf_1
*CAP
1 FrameStrobe[14] 0.00059805
2 *1726:A 0.00059805
3 *1726:A *1719:A 2.12347e-06
4 *1726:A *73:11 0
5 *1726:A *75:11 0.00010018
6 *1726:A *85:17 0.000487709
7 *1726:A *463:38 0
8 *1726:A *494:32 3.13478e-05
9 *1726:A *499:12 0.00010018
10 *1725:A *1726:A 0
*RES
1 FrameStrobe[14] *1726:A 49.6829 
*END

*D_NET *73 0.00502095
*CONN
*P FrameStrobe[15] I
*I *1727:A I *D sky130_fd_sc_hd__clkbuf_1
*CAP
1 FrameStrobe[15] 0.000850961
2 *1727:A 0
3 *73:17 0.000571265
4 *73:11 0.00142223
5 *73:11 *1719:A 0
6 *73:11 *1728:A 0
7 *73:11 *86:15 0.000138718
8 *73:11 *489:40 8.71694e-05
9 *73:11 *497:8 0.000267178
10 *73:17 *699:DIODE 5.56356e-05
11 *73:17 *81:19 0.000106475
12 *73:17 *82:23 0.000194327
13 *73:17 *484:20 0
14 *73:17 *509:12 0.000378492
15 *73:17 *511:12 0
16 *1726:A *73:11 0
17 *68:11 *73:11 0.000911483
18 *69:15 *73:17 3.70187e-05
*RES
1 FrameStrobe[15] *73:11 48.4979 
2 *73:11 *73:17 27.3871 
3 *73:17 *1727:A 23 
*END

*D_NET *74 0.00134394
*CONN
*P FrameStrobe[16] I
*I *1728:A I *D sky130_fd_sc_hd__clkbuf_1
*CAP
1 FrameStrobe[16] 0.000629782
2 *1728:A 0.000629782
3 *1728:A *75:11 5.50049e-05
4 *1728:A *462:46 0
5 *1728:A *498:8 2.93747e-05
6 *73:11 *1728:A 0
*RES
1 FrameStrobe[16] *1728:A 48.585 
*END

*D_NET *75 0.00495794
*CONN
*P FrameStrobe[17] I
*I *1729:A I *D sky130_fd_sc_hd__clkbuf_1
*CAP
1 FrameStrobe[17] 0.00100348
2 *1729:A 0
3 *75:11 0.00100348
4 *75:11 *76:15 0.00177243
5 *75:11 *81:19 0.000162087
6 *75:11 *85:17 5.3304e-05
7 *75:11 *462:46 0
8 *75:11 *496:8 1.94812e-05
9 *75:11 *498:8 9.50292e-05
10 *75:11 *499:12 8.54716e-05
11 *75:11 *502:8 0.000128964
12 *75:11 *505:10 5.37348e-06
13 *75:11 *511:12 3.7122e-06
14 *1722:A *75:11 0.00021356
15 *1725:A *75:11 9.84851e-05
16 *1726:A *75:11 0.00010018
17 *1728:A *75:11 5.50049e-05
18 *70:15 *75:11 0.0001579
*RES
1 FrameStrobe[17] *75:11 44.7871 
2 *75:11 *1729:A 23 
*END

*D_NET *76 0.00622524
*CONN
*P FrameStrobe[18] I
*I *1730:A I *D sky130_fd_sc_hd__clkbuf_1
*CAP
1 FrameStrobe[18] 0.000459967
2 *1730:A 0
3 *76:15 0.00132494
4 *76:11 0.00178491
5 *76:11 *1926:A 6.99248e-05
6 *76:11 *81:19 0
7 *76:11 *472:22 7.99777e-05
8 *76:11 *694:26 0.000194532
9 *76:15 *505:10 9.8971e-06
10 *76:15 *506:10 2.45549e-06
11 *76:15 *511:12 1.95556e-05
12 *76:15 *514:8 0.000481943
13 FrameData_O[1] *76:11 0
14 FrameData_O[2] *76:11 2.47015e-05
15 *69:15 *76:11 0
16 *75:11 *76:15 0.00177243
*RES
1 FrameStrobe[18] *76:11 25.0257 
2 *76:11 *76:15 27.1979 
3 *76:15 *1730:A 23 
*END

*D_NET *77 0.00779271
*CONN
*P FrameStrobe[19] I
*I *1731:A I *D sky130_fd_sc_hd__clkbuf_1
*CAP
1 FrameStrobe[19] 0.000858263
2 *1731:A 0
3 *77:19 0.000507739
4 *77:9 0.001366
5 *77:9 *472:16 0.00250721
6 *77:9 *694:20 0.0023336
7 *77:19 *461:42 0
8 *77:19 *492:28 0.000122124
9 *77:19 *506:10 7.51453e-06
10 *77:19 *514:10 9.02595e-05
11 *1725:A *77:19 0
12 *70:9 *77:19 0
*RES
1 FrameStrobe[19] *77:9 49.6136 
2 *77:9 *77:19 37.8507 
3 *77:19 *1731:A 23 
*END

*D_NET *78 0.00366057
*CONN
*P FrameStrobe[1] I
*I *1851:A I *D sky130_fd_sc_hd__buf_1
*CAP
1 FrameStrobe[1] 0.000682748
2 *1851:A 0.000419967
3 *78:11 0.00110271
4 *1851:A *1575:C 0
5 *1851:A *1589:GATE 1.05441e-05
6 *1851:A *247:67 9.85586e-06
7 *1851:A *613:32 0
8 *1851:A *694:8 0.00016245
9 *1851:A *694:18 9.28078e-06
10 *78:11 *79:13 0.00048285
11 *78:11 *248:16 1.62061e-05
12 *78:11 *461:26 0.000313255
13 *78:11 *472:12 0.000180021
14 *78:11 *517:18 0.000270682
*RES
1 FrameStrobe[1] *78:11 44.8314 
2 *78:11 *1851:A 43.4271 
*END

*D_NET *79 0.00290913
*CONN
*P FrameStrobe[2] I
*I *1852:A I *D sky130_fd_sc_hd__buf_1
*CAP
1 FrameStrobe[2] 0.0010111
2 *1852:A 0
3 *79:13 0.0010111
4 *79:13 *1575:C 3.14377e-05
5 *79:13 *461:26 1.56665e-05
6 *79:13 *461:32 3.31683e-05
7 *79:13 *517:12 0
8 *79:13 *551:12 0
9 *79:13 *570:24 3.56562e-05
10 *79:13 *613:32 1.83667e-05
11 *79:13 *694:18 0.000269781
12 *78:11 *79:13 0.00048285
*RES
1 FrameStrobe[2] *79:13 45.66 
2 *79:13 *1852:A 38 
*END

*D_NET *80 0.015002
*CONN
*P FrameStrobe[3] I
*I *1715:A I *D sky130_fd_sc_hd__buf_1
*CAP
1 FrameStrobe[3] 0.000278235
2 *1715:A 0.000691153
3 *80:23 0.00134989
4 *80:17 0.00157205
5 *80:11 0.00119154
6 *1715:A *488:30 0.000632651
7 *80:11 *81:11 0
8 *80:11 *471:30 0.000696372
9 *80:11 *518:20 0.000127117
10 *80:17 *84:11 0.00122362
11 *80:17 *85:9 0.000442833
12 *80:17 *471:30 0.000781403
13 *80:17 *472:16 1.03836e-05
14 *80:17 *488:28 0.000200338
15 *80:17 *494:26 0.000146757
16 *80:17 *526:34 7.38999e-05
17 *80:17 *526:44 0.000446475
18 *80:17 *579:92 0.000136486
19 *80:17 *614:89 0.000183687
20 *80:23 *485:8 0.000528215
21 *80:23 *488:30 0.00219403
22 *80:23 *506:20 0.000937602
23 *67:9 *80:11 0.000753144
24 *67:9 *80:17 0.000404122
*RES
1 FrameStrobe[3] *80:11 25.9579 
2 *80:11 *80:17 49.4479 
3 *80:17 *80:23 39.94 
4 *80:23 *1715:A 36.5057 
*END

*D_NET *81 0.0101769
*CONN
*P FrameStrobe[4] I
*I *1716:A I *D sky130_fd_sc_hd__buf_1
*CAP
1 FrameStrobe[4] 6.11269e-05
2 *1716:A 0
3 *81:19 0.000416201
4 *81:13 0.0026104
5 *81:11 0.00225533
6 *81:11 *82:15 0
7 *81:13 *84:11 0
8 *81:13 *462:46 0.00119092
9 *81:13 *526:34 0.000997486
10 *81:19 *82:23 0.000194327
11 *81:19 *497:12 0
12 *81:19 *511:12 3.73876e-05
13 *1722:A *81:19 0.000118899
14 *69:9 *81:13 0.00156349
15 *69:15 *81:19 0.000462809
16 *73:17 *81:19 0.000106475
17 *75:11 *81:19 0.000162087
18 *76:11 *81:19 0
19 *80:11 *81:11 0
*RES
1 FrameStrobe[4] *81:11 16.2221 
2 *81:11 *81:13 63.0336 
3 *81:13 *81:19 42.47 
4 *81:19 *1716:A 23 
*END

*D_NET *82 0.0129395
*CONN
*P FrameStrobe[5] I
*I *1717:A I *D sky130_fd_sc_hd__buf_1
*CAP
1 FrameStrobe[5] 0.000584191
2 *1717:A 0
3 *82:23 6.37801e-05
4 *82:17 0.00232877
5 *82:15 0.00284918
6 *82:15 *83:11 0
7 *82:15 *518:20 0.000415067
8 *82:17 *347:10 0.000225399
9 *82:17 *461:34 8.10066e-05
10 *82:17 *471:46 0.00156737
11 *82:17 *489:40 0.00249358
12 *82:17 *579:80 0.000833756
13 *82:17 *579:92 0.00109149
14 *67:15 *82:15 0
15 *68:11 *82:17 1.72202e-05
16 *73:17 *82:23 0.000194327
17 *81:11 *82:15 0
18 *81:19 *82:23 0.000194327
*RES
1 FrameStrobe[5] *82:15 25.3986 
2 *82:15 *82:17 57.3164 
3 *82:17 *82:23 32.61 
4 *82:23 *1717:A 23 
*END

*D_NET *83 0.00945809
*CONN
*P FrameStrobe[6] I
*I *1718:A I *D sky130_fd_sc_hd__clkbuf_1
*CAP
1 FrameStrobe[6] 0.000915647
2 *1718:A 0
3 *83:23 0.000175098
4 *83:17 0.0020475
5 *83:11 0.00278805
6 *83:11 *84:7 0
7 *83:11 *492:22 0.000140203
8 *83:11 *694:20 0.00126709
9 *83:17 *86:9 9.28078e-06
10 *83:17 *461:34 0.00130562
11 *83:17 *471:36 0
12 *83:17 *488:28 0
13 *83:23 *1719:A 8.97506e-05
14 *83:23 *86:15 8.97506e-05
15 *67:15 *83:11 0
16 *68:11 *83:17 0.000630105
17 *82:15 *83:11 0
*RES
1 FrameStrobe[6] *83:11 48.6429 
2 *83:11 *83:17 43.855 
3 *83:17 *83:23 34.0186 
4 *83:23 *1718:A 23 
*END

*D_NET *84 0.00641544
*CONN
*P FrameStrobe[7] I
*I *1719:A I *D sky130_fd_sc_hd__clkbuf_1
*CAP
1 FrameStrobe[7] 0.000136529
2 *1719:A 0.000337507
3 *84:11 0.00122108
4 *84:7 0.0010201
5 *1719:A *494:32 0.00055834
6 *84:7 *85:9 0
7 *84:11 *85:9 0.000714473
8 *84:11 *472:16 2.31797e-05
9 *84:11 *494:26 0.000190284
10 *84:11 *526:34 0.000499389
11 *1726:A *1719:A 2.12347e-06
12 *67:15 *84:7 0
13 *69:9 *84:11 0.000399064
14 *73:11 *1719:A 0
15 *80:17 *84:11 0.00122362
16 *81:13 *84:11 0
17 *83:11 *84:7 0
18 *83:23 *1719:A 8.97506e-05
*RES
1 FrameStrobe[7] *84:7 17.2164 
2 *84:7 *84:11 49.9243 
3 *84:11 *1719:A 45.8921 
*END

*D_NET *85 0.00708918
*CONN
*P FrameStrobe[8] I
*I *1720:A I *D sky130_fd_sc_hd__clkbuf_1
*CAP
1 FrameStrobe[8] 0.000784689
2 *1720:A 0
3 *85:17 0.000266153
4 *85:9 0.00105084
5 *85:9 *86:9 0
6 *85:9 *463:28 0.000130187
7 *85:9 *471:36 9.28078e-06
8 *85:9 *472:16 0.00264956
9 *85:17 *494:32 0.000487709
10 *85:17 *499:12 1.24376e-05
11 *1726:A *85:17 0.000487709
12 *75:11 *85:17 5.3304e-05
13 *80:17 *85:9 0.000442833
14 *84:7 *85:9 0
15 *84:11 *85:9 0.000714473
*RES
1 FrameStrobe[8] *85:9 47.48 
2 *85:9 *85:17 37.4571 
3 *85:17 *1720:A 23 
*END

*D_NET *86 0.00704809
*CONN
*P FrameStrobe[9] I
*I *1721:A I *D sky130_fd_sc_hd__clkbuf_1
*CAP
1 FrameStrobe[9] 0.00122094
2 *1721:A 0
3 *86:15 0.000279188
4 *86:9 0.00150013
5 *86:9 *526:44 0
6 *86:9 *694:20 0.00255294
7 *68:7 *86:9 0
8 *70:9 *86:9 0.00125715
9 *73:11 *86:15 0.000138718
10 *83:17 *86:9 9.28078e-06
11 *83:23 *86:15 8.97506e-05
12 *85:9 *86:9 0
*RES
1 FrameStrobe[9] *86:9 47.9357 
2 *86:9 *86:15 35.4271 
3 *86:15 *1721:A 23 
*END

*D_NET *87 0.00141889
*CONN
*P FrameStrobe_O[0] O
*I *1931:X O *D sky130_fd_sc_hd__buf_2
*CAP
1 FrameStrobe_O[0] 0.000369113
2 *1931:X 0.000369113
3 FrameStrobe_O[0] FrameStrobe_O[1] 0.000139267
4 FrameStrobe_O[0] UserCLKo 0.000248392
5 FrameStrobe_O[0] *199:13 0.000262829
6 FrameStrobe_O[0] *209:21 3.01745e-05
*RES
1 *1931:X FrameStrobe_O[0] 46.5964 
*END

*D_NET *88 0.00200166
*CONN
*P FrameStrobe_O[10] O
*I *1932:X O *D sky130_fd_sc_hd__buf_2
*CAP
1 FrameStrobe_O[10] 0.000185057
2 *1932:X 0.000327547
3 *88:12 0.000512604
4 FrameStrobe_O[10] FrameStrobe_O[11] 0.000152444
5 FrameStrobe_O[10] FrameStrobe_O[9] 0.000218778
6 *88:12 FrameStrobe_O[9] 0.00012482
7 *88:12 *480:28 0.000140935
8 *88:12 *509:34 0.000159911
9 *88:12 *511:30 0.000160654
10 *88:12 *550:12 1.89075e-05
*RES
1 *1932:X *88:12 44.7425 
2 *88:12 FrameStrobe_O[10] 5.91393 
*END

*D_NET *89 0.00200771
*CONN
*P FrameStrobe_O[11] O
*I *1933:X O *D sky130_fd_sc_hd__buf_2
*CAP
1 FrameStrobe_O[11] 0.000426451
2 *1933:X 7.14664e-05
3 *89:8 0.000497917
4 FrameStrobe_O[11] FrameStrobe_O[12] 0.00015017
5 FrameStrobe_O[11] *504:40 0.000209464
6 FrameStrobe_O[11] *529:16 0
7 *89:8 FrameStrobe_O[16] 0.0002499
8 *89:8 FrameStrobe_O[17] 0.0002499
9 FrameStrobe_O[10] FrameStrobe_O[11] 0.000152444
*RES
1 *1933:X *89:8 41.3143 
2 *89:8 FrameStrobe_O[11] 39.715 
*END

*D_NET *90 0.00166355
*CONN
*P FrameStrobe_O[12] O
*I *1934:X O *D sky130_fd_sc_hd__buf_2
*CAP
1 FrameStrobe_O[12] 0.000536097
2 *1934:X 0.000536097
3 FrameStrobe_O[12] FrameStrobe_O[13] 0.000244461
4 FrameStrobe_O[12] *91:12 4.98927e-06
5 FrameStrobe_O[12] *102:12 6.10551e-06
6 FrameStrobe_O[12] *480:28 9.91024e-05
7 FrameStrobe_O[12] *495:16 8.65248e-05
8 FrameStrobe_O[12] *511:30 0
9 FrameStrobe_O[11] FrameStrobe_O[12] 0.00015017
*RES
1 *1934:X FrameStrobe_O[12] 49.4136 
*END

*D_NET *91 0.00271926
*CONN
*P FrameStrobe_O[13] O
*I *1935:X O *D sky130_fd_sc_hd__buf_2
*CAP
1 FrameStrobe_O[13] 0.000249048
2 *1935:X 0.000507934
3 *91:12 0.000756982
4 FrameStrobe_O[13] FrameStrobe_O[14] 0.000264516
5 *91:12 FrameStrobe_O[14] 0.000155135
6 *91:12 *1948:A 6.68919e-05
7 *91:12 *93:8 0.000348911
8 *91:12 *495:16 0.000120396
9 FrameStrobe_O[12] FrameStrobe_O[13] 0.000244461
10 FrameStrobe_O[12] *91:12 4.98927e-06
*RES
1 *1935:X *91:12 46.0889 
2 *91:12 FrameStrobe_O[13] 7.3225 
*END

*D_NET *92 0.00171274
*CONN
*P FrameStrobe_O[14] O
*I *1936:X O *D sky130_fd_sc_hd__buf_2
*CAP
1 FrameStrobe_O[14] 0.000400471
2 *1936:X 0.000400471
3 FrameStrobe_O[14] FrameStrobe_O[15] 0.000329268
4 FrameStrobe_O[14] *480:28 0.00010018
5 FrameStrobe_O[14] *495:16 3.47879e-05
6 FrameStrobe_O[14] *504:40 2.79167e-05
7 FrameStrobe_O[13] FrameStrobe_O[14] 0.000264516
8 *91:12 FrameStrobe_O[14] 0.000155135
*RES
1 *1936:X FrameStrobe_O[14] 49.4136 
*END

*D_NET *93 0.00248611
*CONN
*P FrameStrobe_O[15] O
*I *1937:X O *D sky130_fd_sc_hd__buf_2
*CAP
1 FrameStrobe_O[15] 0.00025736
2 *1937:X 0.000182455
3 *93:8 0.000439815
4 FrameStrobe_O[15] FrameStrobe_O[16] 0.000180866
5 FrameStrobe_O[15] *504:40 0.000300108
6 *93:8 *1948:A 0.000431557
7 *93:8 *1950:A 1.5769e-05
8 FrameStrobe_O[14] FrameStrobe_O[15] 0.000329268
9 *91:12 *93:8 0.000348911
*RES
1 *1937:X *93:8 43.3857 
2 *93:8 FrameStrobe_O[15] 8.90714 
*END

*D_NET *94 0.0019287
*CONN
*P FrameStrobe_O[16] O
*I *1938:X O *D sky130_fd_sc_hd__buf_2
*CAP
1 FrameStrobe_O[16] 0.000375313
2 *1938:X 0.000375313
3 FrameStrobe_O[16] FrameStrobe_O[17] 0.0002494
4 FrameStrobe_O[16] *480:28 0.00010018
5 FrameStrobe_O[16] *504:40 0.000397725
6 FrameStrobe_O[15] FrameStrobe_O[16] 0.000180866
7 *89:8 FrameStrobe_O[16] 0.0002499
*RES
1 *1938:X FrameStrobe_O[16] 49.4136 
*END

*D_NET *95 0.00207178
*CONN
*P FrameStrobe_O[17] O
*I *1939:X O *D sky130_fd_sc_hd__buf_2
*CAP
1 FrameStrobe_O[17] 0.000352273
2 *1939:X 0.000196067
3 *95:10 0.00054834
4 FrameStrobe_O[17] FrameStrobe_O[18] 0.000220973
5 FrameStrobe_O[17] FrameStrobe_O[19] 0
6 FrameStrobe_O[17] *481:24 0
7 FrameStrobe_O[17] *497:20 7.461e-05
8 *95:10 *480:28 0.000180218
9 *95:10 *497:20 0
10 FrameStrobe_O[16] FrameStrobe_O[17] 0.0002494
11 *89:8 FrameStrobe_O[17] 0.0002499
*RES
1 *1939:X *95:10 40.6721 
2 *95:10 FrameStrobe_O[17] 10.3157 
*END

*D_NET *96 0.00227422
*CONN
*P FrameStrobe_O[18] O
*I *1940:X O *D sky130_fd_sc_hd__buf_2
*CAP
1 FrameStrobe_O[18] 0.000303553
2 *1940:X 0.00018246
3 *96:8 0.000486013
4 FrameStrobe_O[18] FrameStrobe_O[19] 0.000218508
5 FrameStrobe_O[18] *478:28 0.000168975
6 FrameStrobe_O[18] *529:16 0
7 *96:8 *481:24 0.000348447
8 *96:8 *529:12 0.000345295
9 FrameStrobe_O[17] FrameStrobe_O[18] 0.000220973
*RES
1 *1940:X *96:8 42.7229 
2 *96:8 FrameStrobe_O[18] 39.2179 
*END

*D_NET *97 0.00209367
*CONN
*P FrameStrobe_O[19] O
*I *1941:X O *D sky130_fd_sc_hd__buf_2
*CAP
1 FrameStrobe_O[19] 0.000338003
2 *1941:X 0.000404314
3 *97:8 0.000742316
4 FrameStrobe_O[19] *481:24 0
5 *97:8 *1937:A 5.61255e-06
6 *97:8 *1941:A 2.93845e-05
7 *97:8 *1950:A 0.000308028
8 *97:8 *486:34 4.75087e-05
9 FrameStrobe_O[17] FrameStrobe_O[19] 0
10 FrameStrobe_O[18] FrameStrobe_O[19] 0.000218508
*RES
1 *1941:X *97:8 43.8621 
2 *97:8 FrameStrobe_O[19] 7.49857 
*END

*D_NET *98 0.00188663
*CONN
*P FrameStrobe_O[1] O
*I *1942:X O *D sky130_fd_sc_hd__buf_2
*CAP
1 FrameStrobe_O[1] 0.000414597
2 *1942:X 0.000414597
3 FrameStrobe_O[1] FrameStrobe_O[2] 0.000214837
4 FrameStrobe_O[1] *99:8 9.41704e-05
5 FrameStrobe_O[1] *199:13 0.000368711
6 FrameStrobe_O[1] *203:13 0.000212341
7 FrameStrobe_O[1] *495:30 2.81066e-05
8 FrameStrobe_O[0] FrameStrobe_O[1] 0.000139267
*RES
1 *1942:X FrameStrobe_O[1] 48.9579 
*END

*D_NET *99 0.00225432
*CONN
*P FrameStrobe_O[2] O
*I *1943:X O *D sky130_fd_sc_hd__buf_2
*CAP
1 FrameStrobe_O[2] 0.000313128
2 *1943:X 0.000289368
3 *99:8 0.000602495
4 FrameStrobe_O[2] FrameStrobe_O[3] 0.000170956
5 FrameStrobe_O[2] FrameStrobe_O[4] 0
6 FrameStrobe_O[2] *198:13 0.000264807
7 FrameStrobe_O[2] *202:15 6.7177e-06
8 FrameStrobe_O[2] *203:13 0.000242368
9 *99:8 *1942:A 3.07203e-05
10 *99:8 *495:30 2.47515e-05
11 FrameStrobe_O[1] FrameStrobe_O[2] 0.000214837
12 FrameStrobe_O[1] *99:8 9.41704e-05
*RES
1 *1943:X *99:8 41.48 
2 *99:8 FrameStrobe_O[2] 9.25929 
*END

*D_NET *100 0.00200499
*CONN
*P FrameStrobe_O[3] O
*I *1944:X O *D sky130_fd_sc_hd__buf_2
*CAP
1 FrameStrobe_O[3] 0.000302356
2 *1944:X 0.000130488
3 *100:10 0.000432843
4 FrameStrobe_O[3] FrameStrobe_O[4] 0.000170956
5 FrameStrobe_O[3] *504:40 0.000309952
6 FrameStrobe_O[3] *550:14 0
7 *100:10 FrameStrobe_O[6] 0.000215725
8 *100:10 FrameStrobe_O[7] 0.000216712
9 *100:10 *495:30 5.50049e-05
10 FrameStrobe_O[2] FrameStrobe_O[3] 0.000170956
*RES
1 *1944:X *100:10 41.5836 
2 *100:10 FrameStrobe_O[3] 38.1614 
*END

*D_NET *101 0.0018396
*CONN
*P FrameStrobe_O[4] O
*I *1945:X O *D sky130_fd_sc_hd__buf_2
*CAP
1 FrameStrobe_O[4] 0.000465689
2 *1945:X 0.000465689
3 FrameStrobe_O[4] FrameStrobe_O[5] 0.000301639
4 FrameStrobe_O[4] FrameStrobe_O[6] 0
5 FrameStrobe_O[4] *1898:A 2.72775e-05
6 FrameStrobe_O[4] *1943:A 2.05503e-05
7 FrameStrobe_O[4] *202:15 0.000198722
8 FrameStrobe_O[4] *480:28 5.56356e-05
9 FrameStrobe_O[4] *507:10 0.000113153
10 FrameStrobe_O[4] *691:24 2.02872e-05
11 FrameStrobe_O[2] FrameStrobe_O[4] 0
12 FrameStrobe_O[3] FrameStrobe_O[4] 0.000170956
*RES
1 *1945:X FrameStrobe_O[4] 49.4136 
*END

*D_NET *102 0.0023624
*CONN
*P FrameStrobe_O[5] O
*I *1946:X O *D sky130_fd_sc_hd__buf_2
*CAP
1 FrameStrobe_O[5] 0.000310807
2 *1946:X 0.00048157
3 *102:12 0.000792378
4 FrameStrobe_O[5] FrameStrobe_O[6] 0.000294077
5 FrameStrobe_O[5] *1943:A 2.26406e-05
6 *102:12 *476:22 0
7 *102:12 *511:30 2.33476e-05
8 *102:12 *647:22 0.000103362
9 *102:12 *679:32 2.64715e-05
10 FrameStrobe_O[12] *102:12 6.10551e-06
11 FrameStrobe_O[4] FrameStrobe_O[5] 0.000301639
*RES
1 *1946:X *102:12 47.3216 
2 *102:12 FrameStrobe_O[5] 16.7311 
*END

*D_NET *103 0.00173758
*CONN
*P FrameStrobe_O[6] O
*I *1947:X O *D sky130_fd_sc_hd__buf_2
*CAP
1 FrameStrobe_O[6] 0.000463876
2 *1947:X 0.000463876
3 FrameStrobe_O[6] FrameStrobe_O[7] 0.000222115
4 FrameStrobe_O[6] FrameStrobe_O[8] 2.1199e-05
5 FrameStrobe_O[6] *480:28 5.67058e-05
6 FrameStrobe_O[4] FrameStrobe_O[6] 0
7 FrameStrobe_O[5] FrameStrobe_O[6] 0.000294077
8 *100:10 FrameStrobe_O[6] 0.000215725
*RES
1 *1947:X FrameStrobe_O[6] 49.7036 
*END

*D_NET *104 0.00237224
*CONN
*P FrameStrobe_O[7] O
*I *1948:X O *D sky130_fd_sc_hd__buf_2
*CAP
1 FrameStrobe_O[7] 0.000300133
2 *1948:X 0.000431937
3 *104:8 0.00073207
4 FrameStrobe_O[7] FrameStrobe_O[8] 0.000335436
5 *104:8 *1944:A 2.81066e-05
6 *104:8 *1946:A 5.0155e-05
7 *104:8 *495:30 5.55752e-05
8 FrameStrobe_O[6] FrameStrobe_O[7] 0.000222115
9 *100:10 FrameStrobe_O[7] 0.000216712
*RES
1 *1948:X *104:8 43.3857 
2 *104:8 FrameStrobe_O[7] 9.25929 
*END

*D_NET *105 0.00193308
*CONN
*P FrameStrobe_O[8] O
*I *1949:X O *D sky130_fd_sc_hd__buf_2
*CAP
1 FrameStrobe_O[8] 0.000405537
2 *1949:X 0.000405537
3 FrameStrobe_O[8] FrameStrobe_O[9] 8.97317e-05
4 FrameStrobe_O[8] *480:28 9.58714e-05
5 FrameStrobe_O[8] *550:12 0.00057977
6 FrameStrobe_O[6] FrameStrobe_O[8] 2.1199e-05
7 FrameStrobe_O[7] FrameStrobe_O[8] 0.000335436
*RES
1 *1949:X FrameStrobe_O[8] 49.4136 
*END

*D_NET *106 0.00236024
*CONN
*P FrameStrobe_O[9] O
*I *1950:X O *D sky130_fd_sc_hd__buf_2
*CAP
1 FrameStrobe_O[9] 0.000198564
2 *1950:X 0.000380178
3 *106:8 0.000578743
4 FrameStrobe_O[9] *550:12 0.000379794
5 *106:8 *1948:A 3.16784e-05
6 *106:8 *495:30 0.000357953
7 FrameStrobe_O[10] FrameStrobe_O[9] 0.000218778
8 FrameStrobe_O[8] FrameStrobe_O[9] 8.97317e-05
9 *88:12 FrameStrobe_O[9] 0.00012482
*RES
1 *1950:X *106:8 43.3857 
2 *106:8 FrameStrobe_O[9] 7.49857 
*END

*D_NET *107 0.00169977
*CONN
*P HOLD_top O
*I *1951:X O *D sky130_fd_sc_hd__buf_2
*CAP
1 HOLD_top 0.000578199
2 *1951:X 0.000578199
3 HOLD_top *449:65 3.98813e-05
4 HOLD_top *493:41 7.53384e-06
5 HOLD_top *548:62 0.000439808
6 HOLD_top *580:26 0
7 HOLD_top *584:58 5.6146e-05
*RES
1 *1951:X HOLD_top 49.4136 
*END

*D_NET *108 0.00395413
*CONN
*P N1BEG[0] O
*I *1952:X O *D sky130_fd_sc_hd__buf_2
*CAP
1 N1BEG[0] 0.000346895
2 *1952:X 0.000431886
3 *108:8 0.000778781
4 N1BEG[0] N1BEG[1] 0.000161076
5 N1BEG[0] *121:12 0.000273284
6 N1BEG[0] *122:10 0.000297922
7 *108:8 *1952:A 0.000144494
8 *108:8 *1964:A 0.000136743
9 *108:8 *110:8 0.0010312
10 *108:8 *114:6 5.10686e-05
11 *108:8 *116:14 0.000202025
12 *108:8 *537:16 9.87624e-05
*RES
1 *1952:X *108:8 36.9821 
2 *108:8 N1BEG[0] 23.555 
*END

*D_NET *109 0.00321501
*CONN
*P N1BEG[1] O
*I *1953:X O *D sky130_fd_sc_hd__buf_2
*CAP
1 N1BEG[1] 0.000685088
2 *1953:X 0.000109882
3 *109:8 0.00079497
4 N1BEG[1] N1BEG[2] 0.000149488
5 N1BEG[1] *113:12 2.5858e-05
6 N1BEG[1] *121:12 3.13056e-05
7 N1BEG[1] *122:10 0.000348253
8 N1BEG[1] *123:14 0.000571518
9 N1BEG[1] *528:46 0.000155476
10 N1BEG[1] *530:22 0
11 N1BEG[1] *580:118 4.36547e-05
12 *109:8 *464:10 0.000138444
13 N1BEG[0] N1BEG[1] 0.000161076
*RES
1 *1953:X *109:8 39.5743 
2 *109:8 N1BEG[1] 15.95 
*END

*D_NET *110 0.00429029
*CONN
*P N1BEG[2] O
*I *1954:X O *D sky130_fd_sc_hd__buf_2
*CAP
1 N1BEG[2] 0.000322481
2 *1954:X 0.000537258
3 *110:8 0.000859738
4 N1BEG[2] N1BEG[3] 0.000186571
5 N1BEG[2] *117:10 0.000223784
6 N1BEG[2] *123:14 0.000317591
7 *110:8 *1966:A 8.88103e-05
8 *110:8 *116:14 2.25809e-05
9 *110:8 *122:10 5.50049e-05
10 *110:8 *124:10 1.32314e-05
11 *110:8 *537:16 0.00048256
12 N1BEG[1] N1BEG[2] 0.000149488
13 *108:8 *110:8 0.0010312
*RES
1 *1954:X *110:8 36.9821 
2 *110:8 N1BEG[2] 23.555 
*END

*D_NET *111 0.00335471
*CONN
*P N1BEG[3] O
*I *1955:X O *D sky130_fd_sc_hd__buf_2
*CAP
1 N1BEG[3] 0.000588118
2 *1955:X 0.000380302
3 *111:10 0.000968419
4 N1BEG[3] N2BEG[0] 0.000213428
5 N1BEG[3] N2BEG[6] 0.000382849
6 N1BEG[3] *117:10 7.98809e-05
7 N1BEG[3] *119:10 1.01436e-05
8 *111:10 *1957:A 5.67058e-05
9 *111:10 *120:8 0.000203334
10 *111:10 *121:12 0.000145116
11 *111:10 *531:52 0.00011649
12 *111:10 *580:118 0
13 *111:10 *682:66 2.33476e-05
14 N1BEG[2] N1BEG[3] 0.000186571
*RES
1 *1955:X *111:10 45.4571 
2 *111:10 N1BEG[3] 40.875 
*END

*D_NET *112 0.00352871
*CONN
*P N2BEG[0] O
*I *1956:X O *D sky130_fd_sc_hd__buf_2
*CAP
1 N2BEG[0] 0.000818926
2 *1956:X 0.000162752
3 *112:8 0.000981678
4 N2BEG[0] N2BEG[1] 0.000321544
5 N2BEG[0] *117:10 3.45952e-05
6 N2BEG[0] *119:10 0.000293616
7 N2BEG[0] *530:22 0.000135986
8 N2BEG[0] *535:26 0.00035861
9 *112:8 *1956:A 2.4754e-05
10 *112:8 *464:10 0.00018282
11 N1BEG[3] N2BEG[0] 0.000213428
*RES
1 *1956:X *112:8 40.5271 
2 *112:8 N2BEG[0] 15.95 
*END

*D_NET *113 0.00329364
*CONN
*P N2BEG[1] O
*I *1957:X O *D sky130_fd_sc_hd__buf_2
*CAP
1 N2BEG[1] 0.000561119
2 *1957:X 0.000275862
3 *113:12 0.000836982
4 N2BEG[1] N2BEG[2] 0.000219053
5 N2BEG[1] *124:10 0.000188415
6 N2BEG[1] *533:58 0.000112156
7 N2BEG[1] *535:26 2.45917e-05
8 N2BEG[1] *580:118 0.000298755
9 N2BEG[1] *587:73 2.80036e-05
10 *113:12 *1961:A 4.96717e-05
11 *113:12 *117:10 0.000206857
12 *113:12 *123:14 0.000144775
13 N1BEG[1] *113:12 2.5858e-05
14 N2BEG[0] N2BEG[1] 0.000321544
*RES
1 *1957:X *113:12 42.8575 
2 *113:12 N2BEG[1] 26.7108 
*END

*D_NET *114 0.00422304
*CONN
*P N2BEG[2] O
*I *1958:X O *D sky130_fd_sc_hd__buf_2
*CAP
1 N2BEG[2] 0.000292877
2 *1958:X 0.000933481
3 *114:6 0.00122636
4 N2BEG[2] N2BEG[3] 0.00011741
5 N2BEG[2] *124:10 6.56284e-05
6 N2BEG[2] *128:10 0.00030393
7 *114:6 *116:14 0.00101323
8 N2BEG[1] N2BEG[2] 0.000219053
9 *108:8 *114:6 5.10686e-05
*RES
1 *1958:X *114:6 36.0086 
2 *114:6 N2BEG[2] 22.4986 
*END

*D_NET *115 0.00430055
*CONN
*P N2BEG[3] O
*I *1959:X O *D sky130_fd_sc_hd__buf_2
*CAP
1 N2BEG[3] 0.000369706
2 *1959:X 0.000630407
3 *115:12 0.00100011
4 N2BEG[3] N2BEG[4] 8.68016e-05
5 N2BEG[3] *128:10 0.000400306
6 N2BEG[3] *504:24 0.000519922
7 N2BEG[3] *535:26 4.20226e-05
8 *115:12 *1956:A 5.60056e-05
9 *115:12 *461:12 9.84794e-05
10 *115:12 *504:24 0.000533589
11 *115:12 *522:10 0.000415968
12 *115:12 *532:18 0
13 *115:12 *535:26 3.35885e-06
14 *115:12 *618:26 2.64616e-05
15 N2BEG[2] N2BEG[3] 0.00011741
*RES
1 *1959:X *115:12 49.8175 
2 *115:12 N2BEG[3] 10.1396 
*END

*D_NET *116 0.00454597
*CONN
*P N2BEG[4] O
*I *1960:X O *D sky130_fd_sc_hd__buf_2
*CAP
1 N2BEG[4] 0.000312294
2 *1960:X 8.65009e-05
3 *116:14 0.000814419
4 *116:8 0.000588626
5 N2BEG[4] N2BEG[5] 0.000170272
6 N2BEG[4] *504:24 0.000386632
7 N2BEG[4] *540:30 0.000183792
8 *116:8 *1960:A 1.83564e-05
9 *116:8 *118:8 0
10 *116:8 *537:16 1.01436e-05
11 *116:8 *655:48 0
12 *116:14 *1964:A 0.000136743
13 *116:14 *1966:A 0.000143522
14 *116:14 *1968:A 0.000261951
15 *116:14 *128:10 1.21972e-05
16 *116:14 *540:30 9.5877e-05
17 N2BEG[3] N2BEG[4] 8.68016e-05
18 *108:8 *116:14 0.000202025
19 *110:8 *116:14 2.25809e-05
20 *114:6 *116:14 0.00101323
*RES
1 *1960:X *116:8 39.5536 
2 *116:8 *116:14 43.485 
3 *116:14 N2BEG[4] 7.85071 
*END

*D_NET *117 0.00412867
*CONN
*P N2BEG[5] O
*I *1961:X O *D sky130_fd_sc_hd__buf_2
*CAP
1 N2BEG[5] 0.000407403
2 *1961:X 0.000497361
3 *117:10 0.000904764
4 N2BEG[5] N2BEG[6] 0.000116668
5 N2BEG[5] N2BEGb[0] 0.000551542
6 N2BEG[5] *515:18 0.000551542
7 N2BEG[5] *534:38 0.000149682
8 N2BEG[5] *540:30 2.05503e-05
9 *117:10 *1961:A 3.22879e-05
10 *117:10 *119:10 0.000107816
11 *117:10 *123:14 5.05471e-05
12 *117:10 *533:58 2.31209e-05
13 N1BEG[2] *117:10 0.000223784
14 N1BEG[3] *117:10 7.98809e-05
15 N2BEG[0] *117:10 3.45952e-05
16 N2BEG[4] N2BEG[5] 0.000170272
17 *113:12 *117:10 0.000206857
*RES
1 *1961:X *117:10 46.5136 
2 *117:10 N2BEG[5] 41.7243 
*END

*D_NET *118 0.00477421
*CONN
*P N2BEG[6] O
*I *1962:X O *D sky130_fd_sc_hd__buf_2
*CAP
1 N2BEG[6] 0.000720933
2 *1962:X 0.000153564
3 *118:8 0.000874497
4 N2BEG[6] N2BEG[7] 0.000601468
5 N2BEG[6] *515:18 0.00150418
6 N2BEG[6] *534:38 0.000188329
7 *118:8 *1960:A 7.25007e-05
8 *118:8 *529:40 5.74514e-05
9 *118:8 *587:73 0.000101766
10 N1BEG[3] N2BEG[6] 0.000382849
11 N2BEG[5] N2BEG[6] 0.000116668
12 *116:8 *118:8 0
*RES
1 *1962:X *118:8 41.3143 
2 *118:8 N2BEG[6] 49.575 
*END

*D_NET *119 0.00411749
*CONN
*P N2BEG[7] O
*I *1963:X O *D sky130_fd_sc_hd__buf_2
*CAP
1 N2BEG[7] 0.000798275
2 *1963:X 0.000264278
3 *119:10 0.00106255
4 N2BEG[7] N2BEGb[0] 0.000131362
5 N2BEG[7] *138:10 0.000200755
6 N2BEG[7] *515:18 0.000349103
7 *119:10 *121:12 0.000139352
8 *119:10 *533:58 2.11157e-05
9 *119:10 *537:26 0.000137651
10 N1BEG[3] *119:10 1.01436e-05
11 N2BEG[0] *119:10 0.000293616
12 N2BEG[6] N2BEG[7] 0.000601468
13 *117:10 *119:10 0.000107816
*RES
1 *1963:X *119:10 43.945 
2 *119:10 N2BEG[7] 43.7336 
*END

*D_NET *120 0.00453279
*CONN
*P N2BEGb[0] O
*I *1964:X O *D sky130_fd_sc_hd__buf_2
*CAP
1 N2BEGb[0] 0.000745443
2 *1964:X 0.000198131
3 *120:8 0.000943574
4 N2BEGb[0] N2BEGb[1] 0.00119343
5 N2BEGb[0] N4BEG[6] 2.45549e-06
6 N2BEGb[0] *138:10 9.9437e-05
7 N2BEGb[0] *515:18 0.00025239
8 N2BEGb[0] *580:89 4.24694e-06
9 N2BEGb[0] *582:16 0
10 *120:8 *121:12 2.65035e-05
11 *120:8 *529:40 9.61282e-05
12 *120:8 *531:52 8.48085e-05
13 N2BEG[5] N2BEGb[0] 0.000551542
14 N2BEG[7] N2BEGb[0] 0.000131362
15 *111:10 *120:8 0.000203334
*RES
1 *1964:X *120:8 42.3707 
2 *120:8 N2BEGb[0] 48.5186 
*END

*D_NET *121 0.00575922
*CONN
*P N2BEGb[1] O
*I *1965:X O *D sky130_fd_sc_hd__buf_2
*CAP
1 N2BEGb[1] 0.000675448
2 *1965:X 0.000502327
3 *121:12 0.00117777
4 N2BEGb[1] N2BEGb[2] 0.00118322
5 N2BEGb[1] N4BEG[2] 2.4982e-06
6 N2BEGb[1] N4BEG[6] 2.03764e-06
7 N2BEGb[1] *551:36 1.59094e-05
8 N2BEGb[1] *580:89 9.28078e-06
9 N2BEGb[1] *582:16 5.85822e-06
10 *121:12 *1963:A 7.28762e-05
11 *121:12 *122:10 2.49733e-05
12 *121:12 *123:8 4.08051e-05
13 *121:12 *529:40 0
14 *121:12 *537:26 0.000127754
15 *121:12 *580:118 0.000109468
16 N1BEG[0] *121:12 0.000273284
17 N1BEG[1] *121:12 3.13056e-05
18 N2BEGb[0] N2BEGb[1] 0.00119343
19 *111:10 *121:12 0.000145116
20 *119:10 *121:12 0.000139352
21 *120:8 *121:12 2.65035e-05
*RES
1 *1965:X *121:12 49.4136 
2 *121:12 N2BEGb[1] 47.69 
*END

*D_NET *122 0.00498402
*CONN
*P N2BEGb[2] O
*I *1966:X O *D sky130_fd_sc_hd__buf_2
*CAP
1 N2BEGb[2] 0.000599988
2 *1966:X 0.000245588
3 *122:10 0.000845576
4 N2BEGb[2] N2BEGb[3] 4.94549e-05
5 N2BEGb[2] N4BEG[2] 0.00020138
6 N2BEGb[2] *123:14 0.00105431
7 N2BEGb[2] *551:36 6.58415e-06
8 N2BEGb[2] *580:89 5.56356e-05
9 N2BEGb[2] *582:16 1.61361e-05
10 N1BEG[0] *122:10 0.000297922
11 N1BEG[1] *122:10 0.000348253
12 N2BEGb[1] N2BEGb[2] 0.00118322
13 *110:8 *122:10 5.50049e-05
14 *121:12 *122:10 2.49733e-05
*RES
1 *1966:X *122:10 43.6964 
2 *122:10 N2BEGb[2] 47.3379 
*END

*D_NET *123 0.00604621
*CONN
*P N2BEGb[3] O
*I *1967:X O *D sky130_fd_sc_hd__buf_2
*CAP
1 N2BEGb[3] 0.000176529
2 *1967:X 0.000334592
3 *123:14 0.000984568
4 *123:8 0.00114263
5 N2BEGb[3] N2BEGb[4] 8.29054e-05
6 N2BEGb[3] N4BEG[2] 0.000178005
7 N2BEGb[3] *658:26 2.10909e-05
8 *123:8 *1963:A 0.00024261
9 *123:14 N4BEG[4] 0.000305643
10 *123:14 *534:38 8.11489e-05
11 *123:14 *580:89 4.49877e-05
12 *123:14 *582:16 0.000222507
13 N1BEG[1] *123:14 0.000571518
14 N1BEG[2] *123:14 0.000317591
15 N2BEGb[2] N2BEGb[3] 4.94549e-05
16 N2BEGb[2] *123:14 0.00105431
17 *113:12 *123:14 0.000144775
18 *117:10 *123:14 5.05471e-05
19 *121:12 *123:8 4.08051e-05
*RES
1 *1967:X *123:8 42.4329 
2 *123:8 *123:14 36.2529 
3 *123:14 N2BEGb[3] 18.9771 
*END

*D_NET *124 0.00552487
*CONN
*P N2BEGb[4] O
*I *1968:X O *D sky130_fd_sc_hd__buf_2
*CAP
1 N2BEGb[4] 0.00075017
2 *1968:X 0.000400365
3 *124:10 0.00115054
4 N2BEGb[4] N2BEGb[5] 6.11505e-05
5 N2BEGb[4] N4BEG[0] 4.93791e-05
6 N2BEGb[4] N4BEG[5] 0.000312419
7 N2BEGb[4] *520:40 0.000914652
8 N2BEGb[4] *527:34 0.000897469
9 N2BEGb[4] *587:73 0.00036197
10 N2BEGb[4] *658:26 4.51887e-05
11 *124:10 *1966:A 6.53942e-05
12 *124:10 *1968:A 6.83551e-05
13 *124:10 *128:10 1.31913e-05
14 *124:10 *535:26 8.4447e-05
15 N2BEG[1] *124:10 0.000188415
16 N2BEG[2] *124:10 6.56284e-05
17 N2BEGb[3] N2BEGb[4] 8.29054e-05
18 *110:8 *124:10 1.32314e-05
*RES
1 *1968:X *124:10 44.2661 
2 *124:10 N2BEGb[4] 37.1253 
*END

*D_NET *125 0.00405409
*CONN
*P N2BEGb[5] O
*I *1969:X O *D sky130_fd_sc_hd__buf_2
*CAP
1 N2BEGb[5] 0.000493415
2 *1969:X 0.000537645
3 *125:16 0.00103106
4 N2BEGb[5] N2BEGb[6] 0.000482123
5 N2BEGb[5] *658:26 0.00062382
6 *125:16 N2BEGb[6] 3.78813e-05
7 *125:16 *126:10 0.000214384
8 *125:16 *482:16 8.4047e-05
9 *125:16 *492:10 1.02029e-05
10 *125:16 *519:20 9.8203e-05
11 *125:16 *521:32 1.08483e-05
12 *125:16 *538:52 0.000129751
13 *125:16 *552:74 1.31343e-05
14 *125:16 *616:43 8.4047e-05
15 *125:16 *625:134 4.29458e-05
16 *125:16 *630:94 9.9437e-05
17 N2BEGb[4] N2BEGb[5] 6.11505e-05
*RES
1 *1969:X *125:16 47.5493 
2 *125:16 N2BEGb[5] 11.02 
*END

*D_NET *126 0.00383507
*CONN
*P N2BEGb[6] O
*I *1970:X O *D sky130_fd_sc_hd__buf_2
*CAP
1 N2BEGb[6] 0.000953731
2 *1970:X 0.000291209
3 *126:10 0.00124494
4 N2BEGb[6] N2BEGb[7] 7.06012e-05
5 N2BEGb[6] N4BEG[0] 0
6 N2BEGb[6] *129:16 2.35984e-05
7 N2BEGb[6] *339:10 2.34911e-05
8 N2BEGb[6] *541:8 0.000156181
9 N2BEGb[6] *556:28 0
10 N2BEGb[6] *657:22 9.09571e-05
11 N2BEGb[6] *682:66 9.1212e-05
12 *126:10 *127:10 0
13 *126:10 *616:49 5.64492e-05
14 *126:10 *621:40 4.50096e-05
15 *126:10 *630:94 5.3304e-05
16 N2BEGb[5] N2BEGb[6] 0.000482123
17 *125:16 N2BEGb[6] 3.78813e-05
18 *125:16 *126:10 0.000214384
*RES
1 *1970:X *126:10 42.7125 
2 *126:10 N2BEGb[6] 30.9593 
*END

*D_NET *127 0.00458311
*CONN
*P N2BEGb[7] O
*I *1971:X O *D sky130_fd_sc_hd__buf_2
*CAP
1 N2BEGb[7] 0.00123408
2 *1971:X 0.000463037
3 *127:10 0.00169711
4 N2BEGb[7] N4BEG[0] 0.000178629
5 N2BEGb[7] N4BEG[3] 0.000159991
6 N2BEGb[7] *529:40 2.56866e-05
7 N2BEGb[7] *587:73 0.000169754
8 N2BEGb[7] *657:22 2.50806e-05
9 N2BEGb[7] *682:66 4.51815e-05
10 *127:10 *1969:A 5.56279e-05
11 *127:10 *538:52 0
12 *127:10 *556:28 0.000458333
13 *127:10 *616:49 0
14 N2BEGb[6] N2BEGb[7] 7.06012e-05
15 *126:10 *127:10 0
*RES
1 *1971:X *127:10 45.2811 
2 *127:10 N2BEGb[7] 36.681 
*END

*D_NET *128 0.00518899
*CONN
*P N4BEG[0] O
*I *1972:X O *D sky130_fd_sc_hd__buf_2
*CAP
1 N4BEG[0] 0.00107947
2 *1972:X 0.000311873
3 *128:10 0.00139135
4 N4BEG[0] N4BEG[1] 8.46776e-05
5 N4BEG[0] *529:40 0.00116622
6 N4BEG[0] *587:73 0.000134303
7 *128:10 *1968:A 6.17437e-06
8 *128:10 *535:26 5.72853e-05
9 N2BEG[2] *128:10 0.00030393
10 N2BEG[3] *128:10 0.000400306
11 N2BEGb[4] N4BEG[0] 4.93791e-05
12 N2BEGb[6] N4BEG[0] 0
13 N2BEGb[7] N4BEG[0] 0.000178629
14 *116:14 *128:10 1.21972e-05
15 *124:10 *128:10 1.31913e-05
*RES
1 *1972:X *128:10 44.5768 
2 *128:10 N4BEG[0] 21.4712 
*END

*D_NET *129 0.00390502
*CONN
*P N4BEG[10] O
*I *1973:X O *D sky130_fd_sc_hd__buf_2
*CAP
1 N4BEG[10] 0.000459429
2 *1973:X 0.000641848
3 *129:16 0.00110128
4 N4BEG[10] N4BEG[11] 9.0024e-05
5 N4BEG[10] N4BEG[13] 0.00022109
6 N4BEG[10] N4BEG[4] 0.000308039
7 N4BEG[10] N4BEG[9] 0.00017431
8 N4BEG[10] *529:30 2.11157e-05
9 N4BEG[10] *534:38 0.000267373
10 N4BEG[10] *580:89 0.000231337
11 N4BEG[10] *655:42 0.000107676
12 *129:16 N4BEG[1] 3.39102e-05
13 *129:16 *1973:A 9.29065e-05
14 *129:16 *143:14 4.48459e-05
15 *129:16 *339:10 2.91557e-05
16 *129:16 *541:8 3.18198e-05
17 *129:16 *555:42 1.75562e-05
18 *129:16 *671:20 7.71219e-06
19 N2BEGb[6] *129:16 2.35984e-05
*RES
1 *1973:X *129:16 47.9429 
2 *129:16 N4BEG[10] 43.1743 
*END

*D_NET *130 0.00387759
*CONN
*P N4BEG[11] O
*I *1974:X O *D sky130_fd_sc_hd__buf_2
*CAP
1 N4BEG[11] 0.000779233
2 *1974:X 0.000357787
3 *130:8 0.00113702
4 N4BEG[11] N4BEG[12] 0.000111881
5 N4BEG[11] *134:14 9.97956e-06
6 N4BEG[11] *151:8 0.000118791
7 N4BEG[11] *152:8 1.79154e-05
8 N4BEG[11] *529:30 4.95487e-06
9 N4BEG[11] *534:28 0.000189408
10 N4BEG[11] *566:18 5.44149e-05
11 N4BEG[11] *583:64 0.000207552
12 N4BEG[11] *617:40 3.06963e-05
13 N4BEG[11] *639:30 0.000130211
14 N4BEG[11] *655:42 0.000156538
15 N4BEG[11] *682:58 4.89546e-05
16 *130:8 *559:48 0.000432225
17 N4BEG[10] N4BEG[11] 9.0024e-05
*RES
1 *1974:X *130:8 42.9093 
2 *130:8 N4BEG[11] 15.3286 
*END

*D_NET *131 0.00440368
*CONN
*P N4BEG[12] O
*I *1975:X O *D sky130_fd_sc_hd__buf_2
*CAP
1 N4BEG[12] 0.000922464
2 *1975:X 0.000238596
3 *131:8 0.00116106
4 N4BEG[12] N4BEG[13] 0.000206623
5 N4BEG[12] N4BEG[14] 0.000304822
6 N4BEG[12] *133:12 0.000125262
7 N4BEG[12] *162:15 0.000146814
8 N4BEG[12] *310:10 0.000130958
9 N4BEG[12] *527:34 7.57281e-06
10 N4BEG[12] *534:28 1.02029e-05
11 N4BEG[12] *549:10 2.47015e-05
12 N4BEG[12] *580:65 0.000155742
13 N4BEG[12] *587:92 0.000225193
14 *131:8 *133:12 9.84794e-05
15 *131:8 *144:12 5.3304e-05
16 *131:8 *639:12 0.000480005
17 N4BEG[11] N4BEG[12] 0.000111881
*RES
1 *1975:X *131:8 43.3857 
2 *131:8 N4BEG[12] 18.3114 
*END

*D_NET *132 0.00322526
*CONN
*P N4BEG[13] O
*I *1976:X O *D sky130_fd_sc_hd__buf_2
*CAP
1 N4BEG[13] 0.000353972
2 *1976:X 0.000386723
3 *132:10 0.000740694
4 N4BEG[13] N4BEG[14] 0.000153248
5 N4BEG[13] N4BEG[9] 7.15126e-05
6 N4BEG[13] NN4BEG[1] 1.22822e-05
7 N4BEG[13] *162:9 4.67488e-05
8 N4BEG[13] *529:30 4.66047e-05
9 N4BEG[13] *534:38 3.84903e-05
10 N4BEG[13] *582:16 5.61255e-06
11 N4BEG[13] *655:36 0.000218476
12 *132:10 N4BEG[7] 0.000226362
13 *132:10 N4BEG[8] 7.98243e-05
14 *132:10 *134:14 7.89973e-05
15 *132:10 *151:8 2.89936e-05
16 *132:10 *587:92 0.000309007
17 N4BEG[10] N4BEG[13] 0.00022109
18 N4BEG[12] N4BEG[13] 0.000206623
*RES
1 *1976:X *132:10 44.7943 
2 *132:10 N4BEG[13] 39.715 
*END

*D_NET *133 0.0032327
*CONN
*P N4BEG[14] O
*I *1977:X O *D sky130_fd_sc_hd__buf_2
*CAP
1 N4BEG[14] 0.000441094
2 *1977:X 0.0004352
3 *133:12 0.000876294
4 N4BEG[14] N4BEG[15] 0.000191807
5 N4BEG[14] *156:14 0
6 N4BEG[14] *568:54 3.45866e-05
7 *133:12 *310:10 0.000130958
8 *133:12 *549:10 2.05503e-05
9 *133:12 *568:54 0.000399631
10 *133:12 *638:14 2.07642e-05
11 N4BEG[12] N4BEG[14] 0.000304822
12 N4BEG[12] *133:12 0.000125262
13 N4BEG[13] N4BEG[14] 0.000153248
14 *131:8 *133:12 9.84794e-05
*RES
1 *1977:X *133:12 46.3789 
2 *133:12 N4BEG[14] 9.43536 
*END

*D_NET *134 0.00321243
*CONN
*P N4BEG[15] O
*I *1978:X O *D sky130_fd_sc_hd__buf_2
*CAP
1 N4BEG[15] 0.000529154
2 *1978:X 0.000226675
3 *134:14 0.00075583
4 N4BEG[15] N4BEG[8] 1.32314e-05
5 N4BEG[15] N4BEG[9] 1.56665e-05
6 N4BEG[15] NN4BEG[0] 0.000145758
7 N4BEG[15] NN4BEG[1] 0.000556758
8 N4BEG[15] NN4BEG[2] 8.71888e-05
9 N4BEG[15] *156:14 4.1023e-05
10 N4BEG[15] *527:34 0.000223698
11 *134:14 N4BEG[7] 7.04766e-05
12 *134:14 *151:8 8.10876e-05
13 *134:14 *565:28 4.67488e-05
14 *134:14 *583:64 4.24761e-05
15 *134:14 *592:34 9.5877e-05
16 N4BEG[11] *134:14 9.97956e-06
17 N4BEG[14] N4BEG[15] 0.000191807
18 *132:10 *134:14 7.89973e-05
*RES
1 *1978:X *134:14 42.4743 
2 *134:14 N4BEG[15] 43.4021 
*END

*D_NET *135 0.00396305
*CONN
*P N4BEG[1] O
*I *1979:X O *D sky130_fd_sc_hd__buf_2
*CAP
1 N4BEG[1] 0.000743017
2 *1979:X 0.000455981
3 *135:10 0.001199
4 N4BEG[1] N4BEG[2] 4.91781e-05
5 N4BEG[1] N4BEG[3] 0.000255738
6 N4BEG[1] *143:14 0.000218545
7 N4BEG[1] *277:10 4.71036e-05
8 N4BEG[1] *551:24 3.44366e-05
9 *135:10 *1593:GATE 5.39469e-05
10 *135:10 *143:14 0
11 *135:10 *277:10 0.000209516
12 *135:10 *536:20 0.000313014
13 *135:10 *556:28 2.99134e-05
14 *135:10 *616:72 0.000100993
15 *135:10 *627:55 0.000134081
16 N4BEG[0] N4BEG[1] 8.46776e-05
17 *129:16 N4BEG[1] 3.39102e-05
*RES
1 *1979:X *135:10 47.2179 
2 *135:10 N4BEG[1] 12.035 
*END

*D_NET *136 0.00478707
*CONN
*P N4BEG[2] O
*I *1980:X O *D sky130_fd_sc_hd__buf_2
*CAP
1 N4BEG[2] 0.000705543
2 *1980:X 0.000261762
3 *136:12 0.000967305
4 N4BEG[2] N4BEG[3] 4.91781e-05
5 N4BEG[2] *142:10 0.000223427
6 N4BEG[2] *504:28 8.55621e-05
7 N4BEG[2] *515:22 0.000647555
8 N4BEG[2] *555:42 3.76959e-05
9 N4BEG[2] *580:89 2.88875e-05
10 N4BEG[2] *658:16 0.000479607
11 *136:12 *1980:A 0.000399183
12 *136:12 *142:10 3.60659e-05
13 *136:12 *540:30 3.22879e-05
14 *136:12 *555:42 5.55713e-06
15 *136:12 *580:95 0.00039639
16 N2BEGb[1] N4BEG[2] 2.4982e-06
17 N2BEGb[2] N4BEG[2] 0.00020138
18 N2BEGb[3] N4BEG[2] 0.000178005
19 N4BEG[1] N4BEG[2] 4.91781e-05
*RES
1 *1980:X *136:12 44.9807 
2 *136:12 N4BEG[2] 46.6957 
*END

*D_NET *137 0.00426691
*CONN
*P N4BEG[3] O
*I *1981:X O *D sky130_fd_sc_hd__buf_2
*CAP
1 N4BEG[3] 0.0011275
2 *1981:X 0.000125762
3 *137:14 0.00125326
4 N4BEG[3] N4BEG[4] 5.24836e-05
5 N4BEG[3] *520:40 4.51815e-05
6 N4BEG[3] *533:58 0.000273714
7 N4BEG[3] *551:24 4.79458e-06
8 N4BEG[3] *583:52 0.000254783
9 N4BEG[3] *587:73 0.000422754
10 N4BEG[3] *671:20 4.81059e-05
11 *137:14 *1979:A 2.4754e-05
12 *137:14 *482:24 2.05503e-05
13 *137:14 *482:28 5.3304e-05
14 *137:14 *567:22 1.92442e-05
15 *137:14 *603:14 5.31675e-05
16 *137:14 *627:55 2.26406e-05
17 N2BEGb[7] N4BEG[3] 0.000159991
18 N4BEG[1] N4BEG[3] 0.000255738
19 N4BEG[2] N4BEG[3] 4.91781e-05
*RES
1 *1981:X *137:14 47.5179 
2 *137:14 N4BEG[3] 34.0857 
*END

*D_NET *138 0.00420618
*CONN
*P N4BEG[4] O
*I *1982:X O *D sky130_fd_sc_hd__buf_2
*CAP
1 N4BEG[4] 0.000504291
2 *1982:X 0.000296892
3 *138:10 0.000801183
4 N4BEG[4] N4BEG[5] 3.67196e-05
5 N4BEG[4] N4BEG[6] 0
6 N4BEG[4] *534:38 0.00107761
7 N4BEG[4] *542:38 1.94463e-05
8 N4BEG[4] *580:89 0.000157752
9 N4BEG[4] *587:73 0.000142217
10 *138:10 *1980:A 3.53115e-05
11 *138:10 *140:8 7.89973e-05
12 *138:10 *551:36 7.98824e-05
13 *138:10 *580:89 9.52056e-06
14 N2BEG[7] *138:10 0.000200755
15 N2BEGb[0] *138:10 9.9437e-05
16 N4BEG[10] N4BEG[4] 0.000308039
17 N4BEG[3] N4BEG[4] 5.24836e-05
18 *123:14 N4BEG[4] 0.000305643
*RES
1 *1982:X *138:10 43.5929 
2 *138:10 N4BEG[4] 45.6807 
*END

*D_NET *139 0.00402938
*CONN
*P N4BEG[5] O
*I *1983:X O *D sky130_fd_sc_hd__buf_2
*CAP
1 N4BEG[5] 0.00121912
2 *1983:X 9.40603e-05
3 *139:12 0.00131318
4 N4BEG[5] N4BEG[6] 3.67196e-05
5 N4BEG[5] *529:40 3.11236e-05
6 N4BEG[5] *542:38 8.90275e-06
7 N4BEG[5] *587:73 0.000684625
8 *139:12 *488:14 0.000113353
9 *139:12 *533:58 8.76318e-05
10 *139:12 *555:42 2.32298e-05
11 *139:12 *658:26 6.82841e-05
12 N2BEGb[4] N4BEG[5] 0.000312419
13 N4BEG[4] N4BEG[5] 3.67196e-05
*RES
1 *1983:X *139:12 47.2102 
2 *139:12 N4BEG[5] 28.0359 
*END

*D_NET *140 0.00446024
*CONN
*P N4BEG[6] O
*I *1984:X O *D sky130_fd_sc_hd__buf_2
*CAP
1 N4BEG[6] 0.00132437
2 *1984:X 5.70518e-05
3 *140:8 0.00138142
4 N4BEG[6] N4BEG[7] 0.000188132
5 N4BEG[6] *542:38 4.38237e-05
6 N4BEG[6] *549:26 3.33082e-05
7 N4BEG[6] *549:34 0.00106597
8 N4BEG[6] *551:36 4.05745e-05
9 N4BEG[6] *580:77 0.000126391
10 *140:8 *551:36 7.89883e-05
11 N2BEGb[0] N4BEG[6] 2.45549e-06
12 N2BEGb[1] N4BEG[6] 2.03764e-06
13 N4BEG[4] N4BEG[6] 0
14 N4BEG[5] N4BEG[6] 3.67196e-05
15 *138:10 *140:8 7.89973e-05
*RES
1 *1984:X *140:8 39.2014 
2 *140:8 N4BEG[6] 49.9271 
*END

*D_NET *141 0.00300713
*CONN
*P N4BEG[7] O
*I *1985:X O *D sky130_fd_sc_hd__buf_2
*CAP
1 N4BEG[7] 0.000809601
2 *1985:X 4.00127e-05
3 *141:8 0.000849614
4 N4BEG[7] N4BEG[8] 0.000137804
5 N4BEG[7] *549:26 4.60157e-05
6 N4BEG[7] *565:28 0.00047277
7 N4BEG[7] *580:77 2.66004e-05
8 N4BEG[7] *583:64 3.97709e-05
9 N4BEG[7] *617:28 2.30472e-05
10 N4BEG[7] *639:30 4.46398e-05
11 *141:8 *625:103 3.22879e-05
12 N4BEG[6] N4BEG[7] 0.000188132
13 *132:10 N4BEG[7] 0.000226362
14 *134:14 N4BEG[7] 7.04766e-05
*RES
1 *1985:X *141:8 38.6214 
2 *141:8 N4BEG[7] 15.95 
*END

*D_NET *142 0.00445761
*CONN
*P N4BEG[8] O
*I *1986:X O *D sky130_fd_sc_hd__buf_2
*CAP
1 N4BEG[8] 0.000678689
2 *1986:X 0.000188578
3 *142:10 0.000867267
4 N4BEG[8] N4BEG[9] 0.000670798
5 N4BEG[8] *151:8 9.28078e-06
6 N4BEG[8] *549:34 0.000105913
7 N4BEG[8] *551:36 0.000864487
8 N4BEG[8] *580:89 0.000368732
9 *142:10 *549:34 0.000176117
10 *142:10 *555:42 1.75562e-05
11 *142:10 *580:89 1.98354e-05
12 N4BEG[15] N4BEG[8] 1.32314e-05
13 N4BEG[2] *142:10 0.000223427
14 N4BEG[7] N4BEG[8] 0.000137804
15 *132:10 N4BEG[8] 7.98243e-05
16 *136:12 *142:10 3.60659e-05
*RES
1 *1986:X *142:10 42.1636 
2 *142:10 N4BEG[8] 48.8707 
*END

*D_NET *143 0.00371159
*CONN
*P N4BEG[9] O
*I *1987:X O *D sky130_fd_sc_hd__buf_2
*CAP
1 N4BEG[9] 0.000451135
2 *1987:X 0.000435452
3 *143:14 0.000886587
4 N4BEG[9] NN4BEG[1] 5.50106e-05
5 N4BEG[9] *529:30 9.16592e-05
6 N4BEG[9] *580:89 0.000303724
7 *143:14 *277:10 0.000149682
8 *143:14 *537:38 0.000100061
9 *143:14 *541:8 0
10 *143:14 *592:34 2.04458e-05
11 *143:14 *671:20 2.2154e-05
12 N4BEG[10] N4BEG[9] 0.00017431
13 N4BEG[13] N4BEG[9] 7.15126e-05
14 N4BEG[15] N4BEG[9] 1.56665e-05
15 N4BEG[1] *143:14 0.000218545
16 N4BEG[8] N4BEG[9] 0.000670798
17 *129:16 *143:14 4.48459e-05
18 *135:10 *143:14 0
*RES
1 *1987:X *143:14 46.12 
2 *143:14 N4BEG[9] 41.8486 
*END

*D_NET *144 0.00328289
*CONN
*P NN4BEG[0] O
*I *1988:X O *D sky130_fd_sc_hd__buf_2
*CAP
1 NN4BEG[0] 0.000333124
2 *1988:X 0.000482751
3 *144:12 0.000815875
4 NN4BEG[0] NN4BEG[1] 0.000246704
5 NN4BEG[0] *156:14 0.0002237
6 NN4BEG[0] *655:36 5.55534e-05
7 *144:12 *156:14 8.06176e-05
8 *144:12 *262:10 6.60136e-06
9 *144:12 *318:8 0.000266131
10 *144:12 *537:38 2.05503e-05
11 *144:12 *572:64 2.39291e-05
12 *144:12 *587:115 6.6663e-06
13 *144:12 *592:58 0.000401943
14 *144:12 *655:36 3.39102e-05
15 *144:12 *682:42 8.57757e-05
16 N4BEG[15] NN4BEG[0] 0.000145758
17 *131:8 *144:12 5.3304e-05
*RES
1 *1988:X *144:12 47.8393 
2 *144:12 NN4BEG[0] 8.265 
*END

*D_NET *145 0.00202376
*CONN
*P NN4BEG[10] O
*I *1989:X O *D sky130_fd_sc_hd__buf_2
*CAP
1 NN4BEG[10] 0.000422136
2 *1989:X 7.14108e-05
3 *145:8 0.000493547
4 NN4BEG[10] NN4BEG[11] 0.000126585
5 NN4BEG[10] NN4BEG[9] 0.000171495
6 NN4BEG[10] *161:19 1.40183e-05
7 NN4BEG[10] *163:19 1.09111e-05
8 NN4BEG[10] *527:24 2.46906e-05
9 NN4BEG[10] *527:34 0.000307974
10 NN4BEG[10] *529:30 0.000181712
11 *145:8 NN4BEG[5] 6.41413e-05
12 *2:14 *145:8 0.000135143
*RES
1 *1989:X *145:8 39.9057 
2 *145:8 NN4BEG[10] 39.6943 
*END

*D_NET *146 0.00321354
*CONN
*P NN4BEG[11] O
*I *1990:X O *D sky130_fd_sc_hd__buf_2
*CAP
1 NN4BEG[11] 0.000513795
2 *1990:X 0.00012934
3 *146:8 0.000643134
4 NN4BEG[11] NN4BEG[12] 0.000128541
5 NN4BEG[11] *162:9 9.00069e-05
6 NN4BEG[11] *163:11 0.000642321
7 NN4BEG[11] *529:30 6.52873e-05
8 NN4BEG[11] *583:96 3.84903e-05
9 *146:8 *173:11 9.23705e-06
10 *146:8 *229:37 1.92797e-05
11 *146:8 *478:12 0.00020657
12 *146:8 *583:110 0.000167773
13 NN4BEG[10] NN4BEG[11] 0.000126585
14 *2:14 NN4BEG[11] 0.000433184
*RES
1 *1990:X *146:8 41.3143 
2 *146:8 NN4BEG[11] 43.05 
*END

*D_NET *147 0.00228253
*CONN
*P NN4BEG[12] O
*I *1991:X O *D sky130_fd_sc_hd__buf_2
*CAP
1 NN4BEG[12] 0.000612353
2 *1991:X 0.000612353
3 NN4BEG[12] NN4BEG[13] 6.34677e-05
4 NN4BEG[12] *1989:A 0.000271435
5 NN4BEG[12] *163:19 0.000203428
6 NN4BEG[12] *658:12 0.000390949
7 NN4BEG[11] NN4BEG[12] 0.000128541
*RES
1 *1991:X NN4BEG[12] 49.455 
*END

*D_NET *148 0.00285644
*CONN
*P NN4BEG[13] O
*I *1992:X O *D sky130_fd_sc_hd__buf_2
*CAP
1 NN4BEG[13] 0.000343057
2 *1992:X 0.000242241
3 *148:8 0.000585298
4 NN4BEG[13] NN4BEG[14] 0.000357899
5 NN4BEG[13] *161:11 4.21378e-05
6 NN4BEG[13] *229:45 0.000243979
7 NN4BEG[13] *527:24 0.000355975
8 NN4BEG[13] *658:12 0.000292116
9 *148:8 NN4BEG[15] 0
10 *148:8 *229:45 0
11 *148:8 *564:20 2.92728e-05
12 *148:8 *582:30 0.000300995
13 NN4BEG[12] NN4BEG[13] 6.34677e-05
*RES
1 *1992:X *148:8 42.3707 
2 *148:8 NN4BEG[13] 40.0464 
*END

*D_NET *149 0.00226641
*CONN
*P NN4BEG[14] O
*I *1993:X O *D sky130_fd_sc_hd__buf_2
*CAP
1 NN4BEG[14] 0.000384282
2 *1993:X 6.53816e-05
3 *149:8 0.000449663
4 NN4BEG[14] NN4BEG[15] 0.000167448
5 NN4BEG[14] *161:11 0.000270667
6 NN4BEG[14] *229:45 0.000218438
7 NN4BEG[14] *527:24 4.05745e-05
8 NN4BEG[14] *529:30 4.21062e-05
9 *149:8 *229:37 0.000134975
10 *149:8 *582:30 0.000134975
11 NN4BEG[13] NN4BEG[14] 0.000357899
*RES
1 *1993:X *149:8 39.9057 
2 *149:8 NN4BEG[14] 39.6943 
*END

*D_NET *150 0.00178249
*CONN
*P NN4BEG[15] O
*I *1994:X O *D sky130_fd_sc_hd__buf_2
*CAP
1 NN4BEG[15] 0.000624046
2 *1994:X 0.000624046
3 NN4BEG[15] *229:45 5.54304e-05
4 NN4BEG[15] *664:22 0.000191255
5 Co NN4BEG[15] 0.00012027
6 NN4BEG[14] NN4BEG[15] 0.000167448
7 *148:8 NN4BEG[15] 0
*RES
1 *1994:X NN4BEG[15] 48.3157 
*END

*D_NET *151 0.00318082
*CONN
*P NN4BEG[1] O
*I *1995:X O *D sky130_fd_sc_hd__buf_2
*CAP
1 NN4BEG[1] 0.000434447
2 *1995:X 0.000129187
3 *151:8 0.000563634
4 NN4BEG[1] NN4BEG[2] 0.000158133
5 NN4BEG[1] *527:34 8.93501e-05
6 NN4BEG[1] *529:30 0.0006428
7 NN4BEG[1] *655:36 5.43589e-05
8 N4BEG[11] *151:8 0.000118791
9 N4BEG[13] NN4BEG[1] 1.22822e-05
10 N4BEG[15] NN4BEG[1] 0.000556758
11 N4BEG[8] *151:8 9.28078e-06
12 N4BEG[9] NN4BEG[1] 5.50106e-05
13 NN4BEG[0] NN4BEG[1] 0.000246704
14 *132:10 *151:8 2.89936e-05
15 *134:14 *151:8 8.10876e-05
*RES
1 *1995:X *151:8 40.2579 
2 *151:8 NN4BEG[1] 43.63 
*END

*D_NET *152 0.00280587
*CONN
*P NN4BEG[2] O
*I *1996:X O *D sky130_fd_sc_hd__buf_2
*CAP
1 NN4BEG[2] 0.000770317
2 *1996:X 7.5004e-05
3 *152:8 0.000845321
4 NN4BEG[2] NN4BEG[3] 0.0002149
5 NN4BEG[2] *527:34 0.000477016
6 NN4BEG[2] *655:36 0.000129459
7 *152:8 *534:28 3.062e-05
8 N4BEG[11] *152:8 1.79154e-05
9 N4BEG[15] NN4BEG[2] 8.71888e-05
10 NN4BEG[1] NN4BEG[2] 0.000158133
*RES
1 *1996:X *152:8 39.2014 
2 *152:8 NN4BEG[2] 43.7336 
*END

*D_NET *153 0.00271815
*CONN
*P NN4BEG[3] O
*I *1997:X O *D sky130_fd_sc_hd__buf_2
*CAP
1 NN4BEG[3] 0.000560189
2 *1997:X 0.00011987
3 *153:8 0.000680059
4 NN4BEG[3] NN4BEG[4] 0.000113171
5 NN4BEG[3] *1520:A1 0.000283773
6 NN4BEG[3] *155:10 7.89973e-05
7 NN4BEG[3] *262:10 0.000153577
8 NN4BEG[3] *572:64 9.57227e-05
9 NN4BEG[3] *574:52 3.93904e-06
10 NN4BEG[3] *583:96 0.000285039
11 NN4BEG[3] *655:36 2.02028e-05
12 NN4BEG[3] *682:42 1.09111e-05
13 NN4BEG[3] *690:24 1.15883e-05
14 *153:8 *1754:A 2.44078e-05
15 *153:8 *567:22 5.56279e-05
16 *153:8 *573:22 6.17437e-06
17 NN4BEG[2] NN4BEG[3] 0.0002149
*RES
1 *1997:X *153:8 39.5743 
2 *153:8 NN4BEG[3] 13.1329 
*END

*D_NET *154 0.00248723
*CONN
*P NN4BEG[4] O
*I *1998:X O *D sky130_fd_sc_hd__buf_2
*CAP
1 NN4BEG[4] 0.000294708
2 *1998:X 0.000460483
3 *154:8 0.000755191
4 NN4BEG[4] NN4BEG[5] 0.000248905
5 NN4BEG[4] *1520:A1 2.05503e-05
6 NN4BEG[4] *583:96 0.000292154
7 *154:8 *156:14 1.05235e-05
8 *154:8 *572:64 2.1801e-05
9 *154:8 *592:34 4.57742e-05
10 *154:8 *655:28 0.000223973
11 NN4BEG[3] NN4BEG[4] 0.000113171
*RES
1 *1998:X *154:8 43.8621 
2 *154:8 NN4BEG[4] 7.49857 
*END

*D_NET *155 0.00372516
*CONN
*P NN4BEG[5] O
*I *1999:X O *D sky130_fd_sc_hd__buf_2
*CAP
1 NN4BEG[5] 0.000771526
2 *1999:X 0.000417459
3 *155:10 0.00118898
4 NN4BEG[5] NN4BEG[6] 0.000149999
5 NN4BEG[5] *1520:A1 5.34094e-05
6 NN4BEG[5] *1520:S 1.21972e-05
7 NN4BEG[5] *2001:A 0.000224308
8 NN4BEG[5] *574:52 0.000147239
9 NN4BEG[5] *592:75 9.28078e-06
10 NN4BEG[5] *690:24 2.12347e-06
11 *155:10 *368:8 2.61014e-05
12 *155:10 *559:48 0.00021677
13 *155:10 *573:22 3.06297e-05
14 *155:10 *574:52 3.57828e-05
15 NN4BEG[3] *155:10 7.89973e-05
16 NN4BEG[4] NN4BEG[5] 0.000248905
17 *2:14 NN4BEG[5] 4.73108e-05
18 *145:8 NN4BEG[5] 6.41413e-05
*RES
1 *1999:X *155:10 43.4893 
2 *155:10 NN4BEG[5] 45.1836 
*END

*D_NET *156 0.0027721
*CONN
*P NN4BEG[6] O
*I *2000:X O *D sky130_fd_sc_hd__buf_2
*CAP
1 NN4BEG[6] 0.00039032
2 *2000:X 0.000334112
3 *156:14 0.000724432
4 NN4BEG[6] NN4BEG[7] 0.000133701
5 NN4BEG[6] *162:9 0.000267527
6 NN4BEG[6] *529:30 0.000198928
7 NN4BEG[6] *655:36 0.000135037
8 *156:14 *568:54 9.1288e-06
9 *156:14 *592:58 3.7506e-05
10 N4BEG[14] *156:14 0
11 N4BEG[15] *156:14 4.1023e-05
12 NN4BEG[0] *156:14 0.0002237
13 NN4BEG[5] NN4BEG[6] 0.000149999
14 *2:14 NN4BEG[6] 3.55458e-05
15 *144:12 *156:14 8.06176e-05
16 *154:8 *156:14 1.05235e-05
*RES
1 *2000:X *156:14 44.1107 
2 *156:14 NN4BEG[6] 40.1914 
*END

*D_NET *157 0.00268418
*CONN
*P NN4BEG[7] O
*I *2001:X O *D sky130_fd_sc_hd__buf_2
*CAP
1 NN4BEG[7] 0.000395706
2 *2001:X 0.000391043
3 *157:8 0.000786749
4 NN4BEG[7] NN4BEG[8] 0.000280116
5 NN4BEG[7] NN4BEG[9] 0
6 NN4BEG[7] *345:10 1.01436e-05
7 *157:8 *2001:A 2.43944e-05
8 *157:8 *158:8 0.00026025
9 *157:8 *572:64 1.94693e-05
10 *157:8 *655:28 5.61255e-06
11 NN4BEG[6] NN4BEG[7] 0.000133701
12 *2:14 NN4BEG[7] 0.000376991
*RES
1 *2001:X *157:8 42.9093 
2 *157:8 NN4BEG[7] 9.25929 
*END

*D_NET *158 0.0024014
*CONN
*P NN4BEG[8] O
*I *2002:X O *D sky130_fd_sc_hd__buf_2
*CAP
1 NN4BEG[8] 0.000474401
2 *2002:X 0.000142183
3 *158:8 0.000616584
4 NN4BEG[8] NN4BEG[9] 0.000267204
5 *158:8 *2001:A 0.000157938
6 *158:8 *345:10 5.56356e-05
7 *158:8 *655:28 0.000147092
8 NN4BEG[7] NN4BEG[8] 0.000280116
9 *157:8 *158:8 0.00026025
*RES
1 *2002:X *158:8 41.9564 
2 *158:8 NN4BEG[8] 8.90714 
*END

*D_NET *159 0.00173114
*CONN
*P NN4BEG[9] O
*I *2003:X O *D sky130_fd_sc_hd__buf_2
*CAP
1 NN4BEG[9] 0.000624277
2 *2003:X 0.000624277
3 NN4BEG[9] *161:19 0
4 NN4BEG[9] *345:10 3.3746e-05
5 NN4BEG[9] *682:34 1.01436e-05
6 NN4BEG[10] NN4BEG[9] 0.000171495
7 NN4BEG[7] NN4BEG[9] 0
8 NN4BEG[8] NN4BEG[9] 0.000267204
*RES
1 *2003:X NN4BEG[9] 49.0821 
*END

*D_NET *160 0.00140131
*CONN
*P RESET_top O
*I *2004:X O *D sky130_fd_sc_hd__buf_2
*CAP
1 RESET_top 0.000565416
2 *2004:X 0.000565416
3 RESET_top *391:8 0.000146822
4 RESET_top *449:78 4.7568e-05
5 RESET_top *462:40 7.6085e-05
6 RESET_top *471:20 0
*RES
1 *2004:X RESET_top 46.2857 
*END

*D_NET *161 0.00477988
*CONN
*P S1END[0] I
*I *1853:A I *D sky130_fd_sc_hd__buf_1
*CAP
1 S1END[0] 0.000472386
2 *1853:A 0
3 *161:19 0.00073239
4 *161:11 0.00120478
5 *161:11 *162:9 8.83457e-05
6 *161:11 *527:24 5.06994e-05
7 *161:11 *529:30 0.000517108
8 *161:11 *582:30 0.00017301
9 *161:19 *2003:A 0
10 *161:19 *163:19 0.000760062
11 *161:19 *272:10 9.89529e-06
12 *161:19 *360:12 1.05441e-05
13 *161:19 *543:30 0.000146822
14 *161:19 *575:12 0
15 *161:19 *587:131 1.59071e-05
16 *161:19 *592:90 3.02865e-05
17 *161:19 *628:76 1.81712e-05
18 *161:19 *639:12 0.000102389
19 *161:19 *682:34 0
20 Co *161:11 0.00012027
21 NN4BEG[10] *161:19 1.40183e-05
22 NN4BEG[13] *161:11 4.21378e-05
23 NN4BEG[14] *161:11 0.000270667
24 NN4BEG[9] *161:19 0
*RES
1 S1END[0] *161:11 41.2479 
2 *161:11 *161:19 28.9614 
3 *161:19 *1853:A 23 
*END

*D_NET *162 0.00584311
*CONN
*P S1END[1] I
*I *1854:A I *D sky130_fd_sc_hd__buf_1
*CAP
1 S1END[1] 0.000847166
2 *1854:A 0
3 *162:15 0.000229747
4 *162:9 0.00107691
5 *162:9 *163:11 8.33616e-05
6 *162:9 *229:37 8.42746e-05
7 *162:9 *529:30 7.43025e-06
8 *162:9 *582:16 0.000326691
9 *162:9 *582:30 5.79489e-05
10 *162:9 *583:96 0.00123377
11 *162:9 *655:36 8.7769e-05
12 *162:15 *527:34 2.26406e-05
13 *162:15 *534:28 0.000319214
14 *162:15 *587:92 1.40087e-05
15 N4BEG[12] *162:15 0.000146814
16 N4BEG[13] *162:9 4.67488e-05
17 NN4BEG[11] *162:9 9.00069e-05
18 NN4BEG[6] *162:9 0.000267527
19 *2:14 *162:9 0.000812735
20 *161:11 *162:9 8.83457e-05
*RES
1 S1END[1] *162:9 39.7329 
2 *162:9 *162:15 34.7229 
3 *162:15 *1854:A 23 
*END

*D_NET *163 0.00523169
*CONN
*P S1END[2] I
*I *1855:A I *D sky130_fd_sc_hd__clkbuf_1
*CAP
1 S1END[2] 0.00039517
2 *1855:A 0
3 *163:19 0.000556653
4 *163:11 0.000951823
5 *163:11 *164:13 5.76409e-05
6 *163:11 *173:11 0
7 *163:11 *229:37 0.000157952
8 *163:11 *529:30 0.000644027
9 *163:11 *583:110 0.000106992
10 *163:19 *272:10 1.48145e-05
11 *163:19 *543:30 1.83327e-05
12 *163:19 *558:42 0.000534892
13 *163:19 *587:131 5.84246e-05
14 *163:19 *639:12 1.75562e-05
15 *163:19 *658:12 1.73244e-05
16 NN4BEG[10] *163:19 1.09111e-05
17 NN4BEG[11] *163:11 0.000642321
18 NN4BEG[12] *163:19 0.000203428
19 *161:19 *163:19 0.000760062
20 *162:9 *163:11 8.33616e-05
*RES
1 S1END[2] *163:11 41.9729 
2 *163:11 *163:19 28.2364 
3 *163:19 *1855:A 23 
*END

*D_NET *164 0.00596485
*CONN
*P S1END[3] I
*I *1856:A I *D sky130_fd_sc_hd__clkbuf_1
*CAP
1 S1END[3] 0.000742761
2 *1856:A 0.000547658
3 *164:13 0.00129042
4 *1856:A *175:19 5.11935e-06
5 *1856:A *299:8 0.000149532
6 *1856:A *528:18 0.000343958
7 *1856:A *533:38 0.000343579
8 *1856:A *539:10 5.54393e-05
9 *1856:A *587:164 5.81505e-05
10 *1856:A *630:42 3.24136e-05
11 *1856:A *643:24 0
12 *1856:A *644:10 4.75292e-05
13 *164:13 *1859:A 0
14 *164:13 *1860:A 0.000427548
15 *164:13 *173:11 5.53335e-05
16 *164:13 *175:11 0.000643719
17 *164:13 *175:19 1.50073e-05
18 *164:13 *504:28 0.00013961
19 *164:13 *515:22 0.000896758
20 *164:13 *569:12 1.91026e-05
21 *164:13 *587:164 9.31932e-05
22 *164:13 *644:10 3.7473e-07
23 *163:11 *164:13 5.76409e-05
*RES
1 S1END[3] *164:13 49.7304 
2 *164:13 *1856:A 48.8025 
*END

*D_NET *165 0.00222834
*CONN
*P S2END[0] I
*I *1858:A I *D sky130_fd_sc_hd__clkbuf_1
*CAP
1 S2END[0] 0.00051762
2 *1858:A 0
3 *165:15 0.00051762
4 *165:15 *1859:A 9.20244e-06
5 *165:15 *176:11 3.11196e-05
6 *165:15 *177:13 0.000390335
7 *165:15 *178:9 0.000561045
8 *165:15 *180:15 9.20244e-06
9 *165:15 *470:22 0.000178191
10 *165:15 *664:22 1.40087e-05
*RES
1 S2END[0] *165:15 40.0049 
2 *165:15 *1858:A 23 
*END

*D_NET *166 0.00186014
*CONN
*P S2END[1] I
*I *1859:A I *D sky130_fd_sc_hd__clkbuf_1
*CAP
1 S2END[1] 0.000688459
2 *1859:A 0.000688459
3 *1859:A *1860:A 4.05189e-05
4 *1859:A *173:11 4.9662e-05
5 *1859:A *173:17 5.88461e-05
6 *1859:A *180:15 0.000247102
7 *1859:A *583:110 2.45831e-05
8 *1859:A *643:10 5.3304e-05
9 *164:13 *1859:A 0
10 *165:15 *1859:A 9.20244e-06
*RES
1 S2END[1] *1859:A 49.4964 
*END

*D_NET *167 0.00189999
*CONN
*P S2END[2] I
*I *1860:A I *D sky130_fd_sc_hd__clkbuf_1
*CAP
1 S2END[2] 0.000407042
2 *1860:A 0.000407042
3 *1860:A *1861:A 0.000198727
4 *1860:A *175:19 0.000405009
5 *1860:A *643:10 1.41077e-05
6 *1859:A *1860:A 4.05189e-05
7 *164:13 *1860:A 0.000427548
*RES
1 S2END[2] *1860:A 47.9221 
*END

*D_NET *168 0.00181598
*CONN
*P S2END[3] I
*I *1861:A I *D sky130_fd_sc_hd__buf_1
*CAP
1 S2END[3] 0.000424389
2 *1861:A 0.000424389
3 *1861:A *169:13 0.000243462
4 *1861:A *175:19 0.000405009
5 *1861:A *587:164 7.65141e-05
6 *1861:A *643:10 4.34876e-05
7 *1860:A *1861:A 0.000198727
*RES
1 S2END[3] *1861:A 48.6886 
*END

*D_NET *169 0.00211819
*CONN
*P S2END[4] I
*I *1862:A I *D sky130_fd_sc_hd__clkbuf_1
*CAP
1 S2END[4] 0.000514244
2 *1862:A 0
3 *169:13 0.000514244
4 *169:13 *1773:A 0.00014196
5 *169:13 *170:11 0.000578363
6 *169:13 *175:19 4.99125e-06
7 *169:13 *550:26 6.02684e-06
8 *169:13 *569:12 5.61255e-06
9 *169:13 *587:164 1.32314e-05
10 *169:13 *645:10 5.61579e-05
11 *169:13 *648:18 3.98929e-05
12 *1861:A *169:13 0.000243462
*RES
1 S2END[4] *169:13 28.3607 
2 *169:13 *1862:A 23 
*END

*D_NET *170 0.002444
*CONN
*P S2END[5] I
*I *1863:A I *D sky130_fd_sc_hd__buf_1
*CAP
1 S2END[5] 0.000693138
2 *1863:A 0
3 *170:11 0.000693138
4 *170:11 *171:13 8.76341e-05
5 *170:11 *189:11 1.94812e-05
6 *170:11 *550:26 0.000356036
7 *170:11 *648:18 1.62112e-05
8 *169:13 *170:11 0.000578363
*RES
1 S2END[5] *170:11 28.6093 
2 *170:11 *1863:A 23 
*END

*D_NET *171 0.00296926
*CONN
*P S2END[6] I
*I *1864:A I *D sky130_fd_sc_hd__buf_1
*CAP
1 S2END[6] 0.000504027
2 *1864:A 0
3 *171:13 0.000504027
4 *171:13 *172:19 4.15114e-05
5 *171:13 *181:13 0.000712234
6 *171:13 *190:15 6.69637e-06
7 *171:13 *191:15 0.000121685
8 *171:13 *504:34 0.00060551
9 *171:13 *515:26 0.000234886
10 *171:13 *550:14 1.47112e-05
11 *171:13 *550:26 0.000136338
12 *170:11 *171:13 8.76341e-05
*RES
1 S2END[6] *171:13 45.1629 
2 *171:13 *1864:A 38 
*END

*D_NET *172 0.0029889
*CONN
*P S2END[7] I
*I *1865:A I *D sky130_fd_sc_hd__buf_1
*CAP
1 S2END[7] 0.000848946
2 *1865:A 0
3 *172:19 0.000848946
4 *172:19 *181:13 0.000138915
5 *172:19 *188:17 0.00025395
6 *172:19 *190:15 4.07955e-05
7 *172:19 *515:26 0.000353575
8 *172:19 *646:8 0.000135901
9 *172:19 *648:18 0
10 *172:19 *659:16 0.00016096
11 *172:19 *667:10 5.95625e-06
12 *172:19 *671:20 0.000159445
13 *171:13 *172:19 4.15114e-05
*RES
1 S2END[7] *172:19 45.0265 
2 *172:19 *1865:A 23 
*END

*D_NET *173 0.00541686
*CONN
*P S2MID[0] I
*I *1866:A I *D sky130_fd_sc_hd__clkbuf_1
*CAP
1 S2MID[0] 0.000864044
2 *1866:A 0
3 *173:17 0.000682474
4 *173:11 0.00154652
5 *173:11 *1993:A 5.61255e-06
6 *173:11 *174:13 0.00010696
7 *173:11 *177:13 0.000130727
8 *173:11 *180:15 4.93223e-05
9 *173:11 *478:12 0.000204471
10 *173:11 *583:110 1.93817e-05
11 *173:11 *664:22 0.000306382
12 *173:17 *1463:A1 5.08636e-05
13 *173:17 *269:14 0.000317515
14 *173:17 *528:18 1.50482e-05
15 *173:17 *561:22 7.70383e-05
16 *173:17 *569:30 0.000310358
17 *173:17 *583:110 0.000326048
18 *173:17 *630:42 9.33656e-05
19 *173:17 *677:30 0.000137651
20 *1859:A *173:11 4.9662e-05
21 *1859:A *173:17 5.88461e-05
22 *146:8 *173:11 9.23705e-06
23 *163:11 *173:11 0
24 *164:13 *173:11 5.53335e-05
*RES
1 S2MID[0] *173:11 44.3136 
2 *173:11 *173:17 28.6921 
3 *173:17 *1866:A 23 
*END

*D_NET *174 0.00466119
*CONN
*P S2MID[1] I
*I *1867:A I *D sky130_fd_sc_hd__buf_1
*CAP
1 S2MID[1] 0.00126833
2 *1867:A 0
3 *174:13 0.00126833
4 *174:13 *1703:A 6.47837e-05
5 *174:13 *175:11 6.59222e-05
6 *174:13 *176:11 0.000712961
7 *174:13 *179:13 0.000320441
8 *174:13 *229:71 8.49387e-06
9 *174:13 *416:8 7.89973e-05
10 *174:13 *420:14 2.4917e-05
11 *174:13 *476:12 2.26406e-05
12 *174:13 *537:75 2.39961e-05
13 *174:13 *559:76 0
14 *174:13 *626:105 0.000181047
15 *174:13 *632:40 1.58785e-05
16 *174:13 *650:16 9.67842e-05
17 *174:13 *656:20 0.000129853
18 *174:13 *657:8 2.70783e-05
19 *174:13 *668:30 6.82841e-05
20 *174:13 *677:46 5.64582e-05
21 *174:13 *682:22 2.05503e-05
22 *174:13 *692:30 9.84794e-05
23 *173:11 *174:13 0.00010696
*RES
1 S2MID[1] *174:13 40.4579 
2 *174:13 *1867:A 23 
*END

*D_NET *175 0.00537453
*CONN
*P S2MID[2] I
*I *1869:A I *D sky130_fd_sc_hd__clkbuf_1
*CAP
1 S2MID[2] 0.000358747
2 *1869:A 0
3 *175:19 0.000771227
4 *175:11 0.00112997
5 *175:11 *176:11 6.36391e-05
6 *175:11 *504:28 0.000391478
7 *175:11 *504:34 0
8 *175:11 *515:22 4.05745e-05
9 *175:19 *1751:A 5.50049e-05
10 *175:19 *229:85 3.12775e-05
11 *175:19 *533:38 0.000129006
12 *175:19 *587:164 0.000251759
13 *175:19 *643:24 0.000560313
14 *175:19 *686:28 4.67488e-05
15 *1856:A *175:19 5.11935e-06
16 *1860:A *175:19 0.000405009
17 *1861:A *175:19 0.000405009
18 *164:13 *175:11 0.000643719
19 *164:13 *175:19 1.50073e-05
20 *169:13 *175:19 4.99125e-06
21 *174:13 *175:11 6.59222e-05
*RES
1 S2MID[2] *175:11 40.1086 
2 *175:11 *175:19 31.53 
3 *175:19 *1869:A 23 
*END

*D_NET *176 0.00463145
*CONN
*P S2MID[3] I
*I *1870:A I *D sky130_fd_sc_hd__buf_1
*CAP
1 S2MID[3] 0.000907613
2 *1870:A 0
3 *176:11 0.000907613
4 *176:11 *1612:D 0.000139357
5 *176:11 *177:13 0.000174521
6 *176:11 *559:48 0.000257103
7 *176:11 *559:76 0.00030373
8 *176:11 *563:36 4.32486e-05
9 *176:11 *569:30 0.000777986
10 *176:11 *656:20 9.9437e-05
11 *176:11 *664:22 0.000178722
12 *176:11 *682:22 3.44001e-05
13 *165:15 *176:11 3.11196e-05
14 *174:13 *176:11 0.000712961
15 *175:11 *176:11 6.36391e-05
*RES
1 S2MID[3] *176:11 37.7029 
2 *176:11 *1870:A 23 
*END

*D_NET *177 0.00275635
*CONN
*P S2MID[4] I
*I *1871:A I *D sky130_fd_sc_hd__buf_1
*CAP
1 S2MID[4] 0.000644907
2 *1871:A 0
3 *177:13 0.000644907
4 *177:13 *178:9 5.6421e-06
5 *177:13 *179:13 4.05733e-05
6 *177:13 *478:12 1.60389e-05
7 *177:13 *527:24 0.000164455
8 *177:13 *529:30 0.000161542
9 *177:13 *560:32 0.000226625
10 *177:13 *657:8 0.000156081
11 *165:15 *177:13 0.000390335
12 *173:11 *177:13 0.000130727
13 *176:11 *177:13 0.000174521
*RES
1 S2MID[4] *177:13 44.9971 
2 *177:13 *1871:A 38 
*END

*D_NET *178 0.00243688
*CONN
*P S2MID[5] I
*I *1872:A I *D sky130_fd_sc_hd__buf_1
*CAP
1 S2MID[5] 0.000534203
2 *1872:A 0
3 *178:9 0.000534203
4 *178:9 *179:13 0.000109925
5 *178:9 *180:15 0.000301187
6 *178:9 *536:8 5.50106e-05
7 *178:9 *561:30 9.67842e-05
8 *178:9 *563:36 7.0699e-05
9 *178:9 *583:110 9.89529e-06
10 *178:9 *642:8 0.00015083
11 *178:9 *664:22 7.45306e-06
12 *165:15 *178:9 0.000561045
13 *177:13 *178:9 5.6421e-06
*RES
1 S2MID[5] *178:9 27.47 
2 *178:9 *1872:A 23 
*END

*D_NET *179 0.00203638
*CONN
*P S2MID[6] I
*I *1873:A I *D sky130_fd_sc_hd__buf_1
*CAP
1 S2MID[6] 0.000633855
2 *1873:A 0
3 *179:13 0.000633855
4 *179:13 *180:15 0.000109925
5 *179:13 *478:18 0.000110332
6 *179:13 *504:28 7.74743e-05
7 *174:13 *179:13 0.000320441
8 *177:13 *179:13 4.05733e-05
9 *178:9 *179:13 0.000109925
*RES
1 S2MID[6] *179:13 42.3043 
2 *179:13 *1873:A 38 
*END

*D_NET *180 0.00233946
*CONN
*P S2MID[7] I
*I *1874:A I *D sky130_fd_sc_hd__clkbuf_1
*CAP
1 S2MID[7] 0.000768874
2 *1874:A 0
3 *180:15 0.000768874
4 *180:15 *1993:A 2.34279e-05
5 *180:15 *583:110 6.15475e-05
6 *1859:A *180:15 0.000247102
7 *165:15 *180:15 9.20244e-06
8 *173:11 *180:15 4.93223e-05
9 *178:9 *180:15 0.000301187
10 *179:13 *180:15 0.000109925
*RES
1 S2MID[7] *180:15 27.3457 
2 *180:15 *1874:A 23 
*END

*D_NET *181 0.00261817
*CONN
*P S4END[0] I
*I *1875:A I *D sky130_fd_sc_hd__buf_1
*CAP
1 S4END[0] 0.000519306
2 *1875:A 1.78462e-05
3 *181:13 0.000537153
4 *1875:A *189:11 0.000102389
5 *1875:A *191:15 0.000100069
6 *181:13 *188:17 0.000136573
7 *181:13 *191:15 4.24694e-06
8 *181:13 *192:13 5.56279e-05
9 *181:13 *193:13 0.00016816
10 *181:13 *504:34 2.02872e-05
11 *181:13 *550:14 0.000105362
12 *171:13 *181:13 0.000712234
13 *172:19 *181:13 0.000138915
*RES
1 S4END[0] *181:13 43.7336 
2 *181:13 *1875:A 39.0979 
*END

*D_NET *182 0.00260889
*CONN
*P S4END[10] I
*I *1876:A I *D sky130_fd_sc_hd__clkbuf_1
*CAP
1 S4END[10] 0.000535429
2 *1876:A 0
3 *182:13 0.000535429
4 *182:13 *183:13 0.000505569
5 *182:13 *187:13 4.95487e-06
6 *182:13 *196:19 8.43148e-05
7 *182:13 *197:13 0.000102363
8 *182:13 *550:14 0.000566554
9 *182:13 *571:22 0.000274276
*RES
1 S4END[10] *182:13 44.6864 
2 *182:13 *1876:A 38 
*END

*D_NET *183 0.00244643
*CONN
*P S4END[11] I
*I *1877:A I *D sky130_fd_sc_hd__clkbuf_1
*CAP
1 S4END[11] 0.000674866
2 *1877:A 3.08867e-05
3 *183:13 0.000705753
4 *1877:A *184:17 7.88926e-05
5 *1877:A *664:10 8.1796e-05
6 *183:13 *184:17 5.45924e-05
7 *183:13 *197:13 1.09111e-05
8 *183:13 *204:17 5.50049e-05
9 *183:13 *205:15 0.000107522
10 *183:13 *470:30 0
11 *183:13 *527:20 0.000110769
12 *183:13 *550:14 2.98648e-05
13 *182:13 *183:13 0.000505569
*RES
1 S4END[11] *183:13 44.6864 
2 *183:13 *1877:A 39.5743 
*END

*D_NET *184 0.0025139
*CONN
*P S4END[12] I
*I *1878:A I *D sky130_fd_sc_hd__clkbuf_1
*CAP
1 S4END[12] 0.00100102
2 *1878:A 0
3 *184:17 0.00100102
4 *184:17 *1880:A 0
5 *184:17 *185:15 0.000163266
6 *184:17 *195:13 5.29637e-05
7 *184:17 *196:19 9.6831e-05
8 *184:17 *663:14 2.02517e-05
9 *184:17 *664:10 4.50569e-05
10 *1877:A *184:17 7.88926e-05
11 *183:13 *184:17 5.45924e-05
*RES
1 S4END[12] *184:17 31.0743 
2 *184:17 *1878:A 23 
*END

*D_NET *185 0.00378625
*CONN
*P S4END[13] I
*I *1880:A I *D sky130_fd_sc_hd__clkbuf_1
*CAP
1 S4END[13] 0.000617958
2 *1880:A 4.00489e-05
3 *185:15 0.000658007
4 *1880:A *542:26 3.74084e-05
5 *1880:A *663:14 5.50106e-05
6 *185:15 *186:13 0.00014451
7 *185:15 *187:13 0.000594104
8 *185:15 *195:13 0.00010851
9 *185:15 *209:21 0.000225877
10 *185:15 *504:34 0.000765399
11 *185:15 *542:26 0.000315952
12 *185:15 *663:14 2.73782e-05
13 *185:15 *666:16 3.28227e-05
14 *184:17 *1880:A 0
15 *184:17 *185:15 0.000163266
*RES
1 S4END[13] *185:15 48.0421 
2 *185:15 *1880:A 39.1186 
*END

*D_NET *186 0.00345129
*CONN
*P S4END[14] I
*I *1881:A I *D sky130_fd_sc_hd__clkbuf_1
*CAP
1 S4END[14] 0.000624837
2 *1881:A 0
3 *186:13 0.000624837
4 *186:13 *187:13 0.000153412
5 *186:13 *195:13 6.17437e-06
6 *186:13 *197:13 0.000630661
7 *186:13 *205:15 0.000468897
8 *186:13 *209:21 6.28976e-05
9 *186:13 *210:13 0.000159651
10 *186:13 *211:9 0.000361114
11 *186:13 *550:14 0.000177291
12 *186:13 *663:14 3.70094e-05
13 *185:15 *186:13 0.00014451
*RES
1 S4END[14] *186:13 47.545 
2 *186:13 *1881:A 38 
*END

*D_NET *187 0.0036824
*CONN
*P S4END[15] I
*I *1882:A I *D sky130_fd_sc_hd__clkbuf_1
*CAP
1 S4END[15] 0.000651591
2 *1882:A 0
3 *187:13 0.000651591
4 *187:13 *195:13 3.41998e-06
5 *187:13 *197:13 0.000874971
6 *187:13 *205:15 0.000313315
7 *187:13 *212:15 0.000313315
8 *187:13 *504:34 0.000121723
9 *182:13 *187:13 4.95487e-06
10 *185:15 *187:13 0.000594104
11 *186:13 *187:13 0.000153412
*RES
1 S4END[15] *187:13 48.0214 
2 *187:13 *1882:A 38 
*END

*D_NET *188 0.0026755
*CONN
*P S4END[1] I
*I *1883:A I *D sky130_fd_sc_hd__buf_1
*CAP
1 S4END[1] 0.000707155
2 *1883:A 0
3 *188:17 0.000707155
4 *188:17 *189:11 0.000387481
5 *188:17 *190:15 0.000142636
6 *188:17 *466:10 3.60392e-05
7 *188:17 *646:8 0.000124075
8 *188:17 *648:18 0
9 *188:17 *659:32 2.64672e-05
10 *188:17 *678:26 0.000153964
11 *172:19 *188:17 0.00025395
12 *181:13 *188:17 0.000136573
*RES
1 S4END[1] *188:17 30.9086 
2 *188:17 *1883:A 23 
*END

*D_NET *189 0.00250626
*CONN
*P S4END[2] I
*I *1884:A I *D sky130_fd_sc_hd__clkbuf_1
*CAP
1 S4END[2] 0.000578851
2 *1884:A 0
3 *189:11 0.000578851
4 *189:11 *190:15 0.000233374
5 *189:11 *191:15 0.000130155
6 *189:11 *647:10 0.000359813
7 *189:11 *648:18 9.55825e-05
8 *189:11 *668:8 2.02872e-05
9 *1875:A *189:11 0.000102389
10 *170:11 *189:11 1.94812e-05
11 *188:17 *189:11 0.000387481
*RES
1 S4END[2] *189:11 29.9143 
2 *189:11 *1884:A 23 
*END

*D_NET *190 0.00235031
*CONN
*P S4END[3] I
*I *1885:A I *D sky130_fd_sc_hd__clkbuf_1
*CAP
1 S4END[3] 0.000658365
2 *1885:A 0
3 *190:15 0.000658365
4 *190:15 *191:15 0.000331594
5 *190:15 *193:13 0
6 *190:15 *646:8 3.34818e-06
7 *190:15 *659:16 6.92184e-05
8 *190:15 *667:10 2.05503e-05
9 *190:15 *678:26 0.000185368
10 *171:13 *190:15 6.69637e-06
11 *172:19 *190:15 4.07955e-05
12 *188:17 *190:15 0.000142636
13 *189:11 *190:15 0.000233374
*RES
1 S4END[3] *190:15 29.3343 
2 *190:15 *1885:A 23 
*END

*D_NET *191 0.00207252
*CONN
*P S4END[4] I
*I *1886:A I *D sky130_fd_sc_hd__clkbuf_1
*CAP
1 S4END[4] 0.000571686
2 *1886:A 0
3 *191:15 0.000571686
4 *191:15 *192:13 0.000127327
5 *191:15 *194:15 0.00010018
6 *191:15 *659:16 1.38939e-05
7 *1875:A *191:15 0.000100069
8 *171:13 *191:15 0.000121685
9 *181:13 *191:15 4.24694e-06
10 *189:11 *191:15 0.000130155
11 *190:15 *191:15 0.000331594
*RES
1 S4END[4] *191:15 28.0707 
2 *191:15 *1886:A 23 
*END

*D_NET *192 0.00234528
*CONN
*P S4END[5] I
*I *1887:A I *D sky130_fd_sc_hd__clkbuf_1
*CAP
1 S4END[5] 0.0005218
2 *1887:A 7.16338e-05
3 *192:13 0.000593434
4 *1887:A *194:15 2.18506e-05
5 *1887:A *196:19 0.000145238
6 *1887:A *664:10 6.17437e-06
7 *1887:A *671:12 3.16784e-05
8 *192:13 *193:13 0.000120747
9 *192:13 *194:15 5.57211e-05
10 *192:13 *195:13 0.00010851
11 *192:13 *196:19 0.000299233
12 *192:13 *504:34 6.66198e-05
13 *192:13 *550:14 0.000119682
14 *181:13 *192:13 5.56279e-05
15 *191:15 *192:13 0.000127327
*RES
1 S4END[5] *192:13 42.3043 
2 *192:13 *1887:A 40.0507 
*END

*D_NET *193 0.00229693
*CONN
*P S4END[6] I
*I *1888:A I *D sky130_fd_sc_hd__clkbuf_1
*CAP
1 S4END[6] 0.000700107
2 *1888:A 0
3 *193:13 0.000700107
4 *193:13 *194:15 0.000297802
5 *193:13 *647:10 0.000143013
6 *193:13 *659:16 0
7 *193:13 *668:16 1.6662e-05
8 *193:13 *669:12 9.91024e-05
9 *193:13 *678:26 5.12254e-05
10 *181:13 *193:13 0.00016816
11 *190:15 *193:13 0
12 *192:13 *193:13 0.000120747
*RES
1 S4END[6] *193:13 28.7129 
2 *193:13 *1888:A 23 
*END

*D_NET *194 0.00230962
*CONN
*P S4END[7] I
*I *1889:A I *D sky130_fd_sc_hd__clkbuf_1
*CAP
1 S4END[7] 0.000732118
2 *1889:A 0
3 *194:15 0.000732118
4 *194:15 *195:13 0.000131336
5 *194:15 *196:19 0.00023849
6 *1887:A *194:15 2.18506e-05
7 *191:15 *194:15 0.00010018
8 *192:13 *194:15 5.57211e-05
9 *193:13 *194:15 0.000297802
*RES
1 S4END[7] *194:15 29.0236 
2 *194:15 *1889:A 23 
*END

*D_NET *195 0.0021694
*CONN
*P S4END[8] I
*I *1891:A I *D sky130_fd_sc_hd__buf_1
*CAP
1 S4END[8] 0.000611053
2 *1891:A 0
3 *195:13 0.000611053
4 *195:13 *196:19 0.000116499
5 *195:13 *504:34 0.000233906
6 *195:13 *520:20 7.47981e-05
7 *195:13 *540:20 1.14351e-05
8 *195:13 *550:14 9.97475e-05
9 *184:17 *195:13 5.29637e-05
10 *185:15 *195:13 0.00010851
11 *186:13 *195:13 6.17437e-06
12 *187:13 *195:13 3.41998e-06
13 *192:13 *195:13 0.00010851
14 *194:15 *195:13 0.000131336
*RES
1 S4END[8] *195:13 44.21 
2 *195:13 *1891:A 38 
*END

*D_NET *196 0.00262915
*CONN
*P S4END[9] I
*I *1892:A I *D sky130_fd_sc_hd__clkbuf_1
*CAP
1 S4END[9] 0.000619793
2 *1892:A 0
3 *196:19 0.000619793
4 *196:19 *664:10 0.000408953
5 *1887:A *196:19 0.000145238
6 *182:13 *196:19 8.43148e-05
7 *184:17 *196:19 9.6831e-05
8 *192:13 *196:19 0.000299233
9 *194:15 *196:19 0.00023849
10 *195:13 *196:19 0.000116499
*RES
1 S4END[9] *196:19 31.4471 
2 *196:19 *1892:A 23 
*END

*D_NET *197 0.00385477
*CONN
*P SS4END[0] I
*I *1893:A I *D sky130_fd_sc_hd__buf_1
*CAP
1 SS4END[0] 0.000707697
2 *1893:A 0
3 *197:13 0.000707697
4 *197:13 *198:13 0.000164282
5 *197:13 *199:13 3.70094e-05
6 *197:13 *204:17 0.00033535
7 *197:13 *205:15 4.05745e-05
8 *197:13 *207:15 0.000134533
9 *197:13 *212:15 1.78655e-05
10 *197:13 *504:34 3.65917e-05
11 *197:13 *550:14 5.42593e-05
12 *182:13 *197:13 0.000102363
13 *183:13 *197:13 1.09111e-05
14 *186:13 *197:13 0.000630661
15 *187:13 *197:13 0.000874971
*RES
1 SS4END[0] *197:13 48.4979 
2 *197:13 *1893:A 38 
*END

*D_NET *198 0.00441386
*CONN
*P SS4END[10] I
*I *1894:A I *D sky130_fd_sc_hd__clkbuf_1
*CAP
1 SS4END[10] 0.000668564
2 *1894:A 0.000182775
3 *198:13 0.000851339
4 *1894:A *1898:A 2.31202e-05
5 *1894:A *200:15 9.91895e-05
6 *1894:A *203:13 6.81707e-05
7 *1894:A *679:20 5.3304e-05
8 *1894:A *680:16 6.53382e-05
9 *198:13 *1898:A 0.000162237
10 *198:13 *199:13 0.000118558
11 *198:13 *202:15 0.000551942
12 *198:13 *203:13 0.000328262
13 *198:13 *210:13 0.000175903
14 *198:13 *212:15 0.000296672
15 *198:13 *478:26 5.50049e-05
16 *198:13 *478:28 0.000231949
17 *198:13 *504:34 5.24457e-05
18 FrameStrobe_O[2] *198:13 0.000264807
19 *197:13 *198:13 0.000164282
*RES
1 SS4END[10] *198:13 49.4818 
2 *198:13 *1894:A 42.1946 
*END

*D_NET *199 0.00308728
*CONN
*P SS4END[11] I
*I *1895:A I *D sky130_fd_sc_hd__clkbuf_1
*CAP
1 SS4END[11] 0.000670009
2 *1895:A 0
3 *199:13 0.000670009
4 *199:13 UserCLKo 9.78542e-06
5 *199:13 *200:15 4.15114e-05
6 *199:13 *203:13 8.08773e-05
7 *199:13 *204:17 0.000211254
8 *199:13 *209:21 2.0835e-05
9 *199:13 *504:34 0.000296758
10 *199:13 *550:14 0.000133526
11 *199:13 *689:12 0.000157379
12 *199:13 *690:16 8.22421e-06
13 FrameStrobe_O[0] *199:13 0.000262829
14 FrameStrobe_O[1] *199:13 0.000368711
15 *197:13 *199:13 3.70094e-05
16 *198:13 *199:13 0.000118558
*RES
1 SS4END[11] *199:13 47.8557 
2 *199:13 *1895:A 38 
*END

*D_NET *200 0.0037235
*CONN
*P SS4END[12] I
*I *1896:A I *D sky130_fd_sc_hd__buf_1
*CAP
1 SS4END[12] 0.000800372
2 *1896:A 0
3 *200:15 0.000800372
4 *200:15 *1907:A 5.3304e-05
5 *200:15 *201:17 0.00037134
6 *200:15 *204:17 0.000258687
7 *200:15 *206:13 1.12487e-05
8 *200:15 *210:13 0.000428748
9 *200:15 *212:15 6.08617e-05
10 *200:15 *508:26 0.000267119
11 *200:15 *677:10 9.20311e-06
12 *200:15 *678:12 5.61255e-06
13 *200:15 *679:20 7.9338e-05
14 *200:15 *680:16 4.59164e-05
15 *200:15 *693:6 0.000390679
16 *1894:A *200:15 9.91895e-05
17 *199:13 *200:15 4.15114e-05
*RES
1 SS4END[12] *200:15 35.2793 
2 *200:15 *1896:A 23 
*END

*D_NET *201 0.00370702
*CONN
*P SS4END[13] I
*I *1897:A I *D sky130_fd_sc_hd__buf_1
*CAP
1 SS4END[13] 0.000962168
2 *1897:A 0
3 *201:17 0.000962168
4 *201:17 UserCLKo 0.000578853
5 *201:17 *2005:A 5.67058e-05
6 *201:17 *202:15 0.00019594
7 *201:17 *203:13 0
8 *201:17 *470:30 5.50106e-05
9 *201:17 *542:16 4.40293e-05
10 *201:17 *680:16 0.000421778
11 *201:17 *680:26 1.05887e-05
12 *201:17 *687:14 2.05503e-05
13 *201:17 *687:26 2.78893e-05
14 *200:15 *201:17 0.00037134
*RES
1 SS4END[13] *201:17 35.59 
2 *201:17 *1897:A 23 
*END

*D_NET *202 0.00402189
*CONN
*P SS4END[14] I
*I *1898:A I *D sky130_fd_sc_hd__buf_1
*CAP
1 SS4END[14] 0.000556311
2 *1898:A 0.000363901
3 *202:15 0.000920213
4 *1898:A *1899:A 5.50049e-05
5 *1898:A *203:13 3.21458e-05
6 *1898:A *507:10 0.000298706
7 *1898:A *628:162 8.49387e-06
8 *1898:A *689:20 5.67058e-05
9 *202:15 *203:13 0.000193474
10 *202:15 *478:28 2.98648e-05
11 *202:15 *504:34 0.000242629
12 *202:15 *504:40 9.84794e-05
13 FrameStrobe_O[2] *202:15 6.7177e-06
14 FrameStrobe_O[4] *1898:A 2.72775e-05
15 FrameStrobe_O[4] *202:15 0.000198722
16 *1894:A *1898:A 2.31202e-05
17 *198:13 *1898:A 0.000162237
18 *198:13 *202:15 0.000551942
19 *201:17 *202:15 0.00019594
*RES
1 SS4END[14] *202:15 45.1318 
2 *202:15 *1898:A 44.5768 
*END

*D_NET *203 0.00358411
*CONN
*P SS4END[15] I
*I *1899:A I *D sky130_fd_sc_hd__buf_1
*CAP
1 SS4END[15] 0.000677264
2 *1899:A 8.72808e-05
3 *203:13 0.000764545
4 *1899:A *507:10 5.67058e-05
5 *1899:A *683:18 0.000140259
6 *1899:A *689:20 9.61128e-05
7 *203:13 UserCLKo 0.000215972
8 *203:13 *478:28 0.000305425
9 *203:13 *689:12 2.78989e-05
10 FrameStrobe_O[1] *203:13 0.000212341
11 FrameStrobe_O[2] *203:13 0.000242368
12 *1894:A *203:13 6.81707e-05
13 *1898:A *1899:A 5.50049e-05
14 *1898:A *203:13 3.21458e-05
15 *198:13 *203:13 0.000328262
16 *199:13 *203:13 8.08773e-05
17 *201:17 *203:13 0
18 *202:15 *203:13 0.000193474
*RES
1 SS4END[15] *203:13 47.11 
2 *203:13 *1899:A 41.0243 
*END

*D_NET *204 0.003205
*CONN
*P SS4END[1] I
*I *1900:A I *D sky130_fd_sc_hd__clkbuf_1
*CAP
1 SS4END[1] 0.000822979
2 *1900:A 0
3 *204:17 0.000822979
4 *204:17 *205:15 4.61432e-05
5 *204:17 *206:13 0.000236241
6 *204:17 *527:14 0.00040268
7 *204:17 *550:14 1.36806e-05
8 *183:13 *204:17 5.50049e-05
9 *197:13 *204:17 0.00033535
10 *199:13 *204:17 0.000211254
11 *200:15 *204:17 0.000258687
*RES
1 SS4END[1] *204:17 49.2643 
2 *204:17 *1900:A 38 
*END

*D_NET *205 0.00391816
*CONN
*P SS4END[2] I
*I *1902:A I *D sky130_fd_sc_hd__buf_1
*CAP
1 SS4END[2] 0.00064488
2 *1902:A 4.29765e-05
3 *205:15 0.000687856
4 *1902:A *212:15 5.50049e-05
5 *1902:A *678:12 1.76557e-05
6 *1902:A *688:8 2.93845e-05
7 *205:15 *206:13 6.44576e-05
8 *205:15 *207:15 9.19684e-06
9 *205:15 *211:9 0.000612295
10 *205:15 *212:15 0.000144395
11 *205:15 *527:20 8.20653e-05
12 *205:15 *550:14 0.000551542
13 *183:13 *205:15 0.000107522
14 *186:13 *205:15 0.000468897
15 *187:13 *205:15 0.000313315
16 *197:13 *205:15 4.05745e-05
17 *204:17 *205:15 4.61432e-05
*RES
1 SS4END[2] *205:15 48.4771 
2 *205:15 *1902:A 39.0979 
*END

*D_NET *206 0.00384705
*CONN
*P SS4END[3] I
*I *1903:A I *D sky130_fd_sc_hd__clkbuf_1
*CAP
1 SS4END[3] 0.000644788
2 *1903:A 7.59661e-05
3 *206:13 0.000720754
4 *1903:A *208:11 6.70361e-05
5 *1903:A *542:26 6.99492e-05
6 *206:13 *207:15 7.27047e-05
7 *206:13 *210:13 0.00058962
8 *206:13 *478:26 0.000166774
9 *206:13 *504:34 0.000707167
10 *206:13 *527:20 0.000222969
11 *206:13 *529:24 0.000197372
12 *200:15 *206:13 1.12487e-05
13 *204:17 *206:13 0.000236241
14 *205:15 *206:13 6.44576e-05
*RES
1 SS4END[3] *206:13 46.5921 
2 *206:13 *1903:A 39.5743 
*END

*D_NET *207 0.00379974
*CONN
*P SS4END[4] I
*I *1904:A I *D sky130_fd_sc_hd__clkbuf_1
*CAP
1 SS4END[4] 0.00101514
2 *1904:A 4.72053e-05
3 *207:15 0.00106234
4 *1904:A *212:15 9.75779e-05
5 *1904:A *688:8 7.53384e-06
6 *207:15 *208:11 5.86634e-05
7 *207:15 *210:13 0
8 *207:15 *212:15 0.000330799
9 *207:15 *470:30 0.000334525
10 *207:15 *478:26 0.00028094
11 *207:15 *527:20 6.7177e-06
12 *207:15 *529:24 0.000272346
13 *207:15 *677:10 6.95156e-05
14 *197:13 *207:15 0.000134533
15 *205:15 *207:15 9.19684e-06
16 *206:13 *207:15 7.27047e-05
*RES
1 SS4END[4] *207:15 48.0007 
2 *207:15 *1904:A 39.0979 
*END

*D_NET *208 0.00336061
*CONN
*P SS4END[5] I
*I *1905:A I *D sky130_fd_sc_hd__clkbuf_1
*CAP
1 SS4END[5] 0.00106597
2 *1905:A 0
3 *208:11 0.00106597
4 *208:11 *209:21 0.000115304
5 *208:11 *470:30 0.00041066
6 *208:11 *542:26 0.000396789
7 *208:11 *663:14 0.000180218
8 *1903:A *208:11 6.70361e-05
9 *207:15 *208:11 5.86634e-05
*RES
1 SS4END[5] *208:11 32.545 
2 *208:11 *1905:A 23 
*END

*D_NET *209 0.00347772
*CONN
*P SS4END[6] I
*I *1906:A I *D sky130_fd_sc_hd__clkbuf_1
*CAP
1 SS4END[6] 0.00100939
2 *1906:A 0
3 *209:21 0.00100939
4 *209:21 UserCLKo 7.38547e-05
5 *209:21 *210:13 0.000244052
6 *209:21 *476:22 0
7 *209:21 *508:26 0.000341483
8 *209:21 *542:26 1.91952e-05
9 *209:21 *689:12 1.21972e-05
10 *209:21 *690:16 0.000313074
11 FrameStrobe_O[0] *209:21 3.01745e-05
12 *185:15 *209:21 0.000225877
13 *186:13 *209:21 6.28976e-05
14 *199:13 *209:21 2.0835e-05
15 *208:11 *209:21 0.000115304
*RES
1 SS4END[6] *209:21 42.509 
2 *209:21 *1906:A 23 
*END

*D_NET *210 0.00357613
*CONN
*P SS4END[7] I
*I *1907:A I *D sky130_fd_sc_hd__clkbuf_1
*CAP
1 SS4END[7] 0.000651864
2 *1907:A 5.00774e-05
3 *210:13 0.000701941
4 *1907:A *212:15 9.41704e-05
5 *210:13 *211:9 0.000102846
6 *210:13 *478:26 0.000234147
7 *210:13 *504:34 2.02872e-05
8 *210:13 *677:10 6.95156e-05
9 *186:13 *210:13 0.000159651
10 *198:13 *210:13 0.000175903
11 *200:15 *1907:A 5.3304e-05
12 *200:15 *210:13 0.000428748
13 *206:13 *210:13 0.00058962
14 *207:15 *210:13 0
15 *209:21 *210:13 0.000244052
*RES
1 SS4END[7] *210:13 46.4264 
2 *210:13 *1907:A 39.0979 
*END

*D_NET *211 0.00353848
*CONN
*P SS4END[8] I
*I *1908:A I *D sky130_fd_sc_hd__clkbuf_1
*CAP
1 SS4END[8] 0.000632285
2 *1908:A 0
3 *211:9 0.000632285
4 *211:9 *212:15 9.45401e-05
5 *211:9 *663:14 1.35518e-05
6 *211:9 *663:32 0.000363589
7 *211:9 *670:16 0.000349818
8 *211:9 *677:10 0
9 *211:9 *683:18 0.000325695
10 *211:9 *686:8 5.04651e-05
11 *186:13 *211:9 0.000361114
12 *205:15 *211:9 0.000612295
13 *210:13 *211:9 0.000102846
*RES
1 SS4END[8] *211:9 32.7936 
2 *211:9 *1908:A 23 
*END

*D_NET *212 0.00312596
*CONN
*P SS4END[9] I
*I *1909:A I *D sky130_fd_sc_hd__clkbuf_1
*CAP
1 SS4END[9] 0.000693002
2 *1909:A 0
3 *212:15 0.000693002
4 *212:15 *678:12 0.000222476
5 *212:15 *688:8 1.22822e-05
6 *1902:A *212:15 5.50049e-05
7 *1904:A *212:15 9.75779e-05
8 *1907:A *212:15 9.41704e-05
9 *187:13 *212:15 0.000313315
10 *197:13 *212:15 1.78655e-05
11 *198:13 *212:15 0.000296672
12 *200:15 *212:15 6.08617e-05
13 *205:15 *212:15 0.000144395
14 *207:15 *212:15 0.000330799
15 *211:9 *212:15 9.45401e-05
*RES
1 SS4END[9] *212:15 32.1929 
2 *212:15 *1909:A 23 
*END

*D_NET *213 0.0156801
*CONN
*P UserCLK I
*I *1785:A I *D sky130_fd_sc_hd__clkbuf_16
*I *1792:A I *D sky130_fd_sc_hd__clkbuf_16
*CAP
1 UserCLK 0.00186636
2 *1785:A 0
3 *1792:A 0
4 *213:32 0.00177518
5 *213:13 0.00219384
6 *213:9 0.00228503
7 *213:9 *449:55 0
8 *213:9 *449:57 0.000531112
9 *213:9 *449:65 0.000357631
10 *213:9 *471:20 0
11 *213:9 *472:12 0.000201049
12 *213:9 *517:18 0.000111933
13 *213:9 *579:16 0.000238653
14 *213:13 VALUE_top9 8.62783e-05
15 *213:13 *459:26 0.000769434
16 *213:13 *494:26 2.66183e-05
17 *213:13 *617:28 0.000620431
18 *213:32 *241:23 9.86551e-06
19 *213:32 *459:26 0.000381422
20 *213:32 *471:16 0.000763973
21 *213:32 *538:42 0.000189831
22 *213:32 *586:12 0.000690321
23 *213:32 *586:45 0.0022103
24 *213:32 *617:28 0.000370878
*RES
1 UserCLK *213:9 42.5707 
2 *213:9 *213:13 26.0614 
3 *213:13 *1792:A 38 
4 *213:13 *213:32 42.4758 
5 *213:32 *1785:A 23 
*END

*D_NET *214 0.0030786
*CONN
*P UserCLKo O
*I *2005:X O *D sky130_fd_sc_hd__buf_1
*CAP
1 UserCLKo 0.000663296
2 *2005:X 4.5791e-05
3 *214:8 0.000709087
4 UserCLKo *687:26 0.0004533
5 UserCLKo *689:12 4.15283e-06
6 UserCLKo *690:16 2.11157e-05
7 *214:8 *663:32 5.50049e-05
8 FrameStrobe_O[0] UserCLKo 0.000248392
9 *199:13 UserCLKo 9.78542e-06
10 *201:17 UserCLKo 0.000578853
11 *203:13 UserCLKo 0.000215972
12 *209:21 UserCLKo 7.38547e-05
*RES
1 *2005:X *214:8 38.6214 
2 *214:8 UserCLKo 15.95 
*END

*D_NET *215 0.00125935
*CONN
*P VALUE_top0 O
*I *2006:X O *D sky130_fd_sc_hd__buf_2
*CAP
1 VALUE_top0 0.000413892
2 *2006:X 0.000413892
3 VALUE_top0 VALUE_top1 0
4 VALUE_top0 *526:32 0
5 VALUE_top0 *548:46 0.000200525
6 *1:11 VALUE_top0 0.000231039
*RES
1 *2006:X VALUE_top0 46.6171 
*END

*D_NET *216 0.000982056
*CONN
*P VALUE_top1 O
*I *2007:X O *D sky130_fd_sc_hd__buf_2
*CAP
1 VALUE_top1 0.000392989
2 *2007:X 0.000392989
3 VALUE_top1 VALUE_top2 0
4 VALUE_top1 *459:14 0.0001181
5 VALUE_top1 *518:26 0
6 VALUE_top1 *526:32 0
7 VALUE_top1 *570:8 0
8 VALUE_top1 *579:24 0
9 VALUE_top0 VALUE_top1 0
10 *3:15 VALUE_top1 7.79774e-05
*RES
1 *2007:X VALUE_top1 45.3329 
*END

*D_NET *217 0.00144615
*CONN
*P VALUE_top10 O
*I *2008:X O *D sky130_fd_sc_hd__buf_2
*CAP
1 VALUE_top10 0.000566362
2 *2008:X 0.000566362
3 VALUE_top10 VALUE_top9 0
4 VALUE_top10 *437:10 0.000139352
5 VALUE_top10 *472:8 4.13298e-05
6 VALUE_top10 *579:14 0.000132749
*RES
1 *2008:X VALUE_top10 47.6114 
*END

*D_NET *218 0.000880913
*CONN
*P VALUE_top11 O
*I *2009:X O *D sky130_fd_sc_hd__buf_2
*CAP
1 VALUE_top11 0.000432643
2 *2009:X 0.000432643
3 VALUE_top11 *517:18 0
4 VALUE_top11 *548:46 1.56261e-05
5 VALUE_top11 *579:14 0
*RES
1 *2009:X VALUE_top11 44.09 
*END

*D_NET *219 0.00102267
*CONN
*P VALUE_top2 O
*I *2010:X O *D sky130_fd_sc_hd__buf_2
*CAP
1 VALUE_top2 0.000360701
2 *2010:X 0.000360701
3 VALUE_top2 VALUE_top3 0
4 VALUE_top2 *463:18 0.000108003
5 VALUE_top2 *493:12 8.97286e-06
6 VALUE_top2 *518:26 0.000162207
7 VALUE_top2 *528:32 2.20861e-05
8 VALUE_top1 VALUE_top2 0
*RES
1 *2010:X VALUE_top2 45.1879 
*END

*D_NET *220 0.000985815
*CONN
*P VALUE_top3 O
*I *2011:X O *D sky130_fd_sc_hd__buf_2
*CAP
1 VALUE_top3 0.000479289
2 *2011:X 0.000479289
3 VALUE_top3 VALUE_top4 0
4 VALUE_top3 *462:18 2.7237e-05
5 VALUE_top3 *528:32 0
6 VALUE_top3 *583:26 0
7 VALUE_top2 VALUE_top3 0
*RES
1 *2011:X VALUE_top3 45.1879 
*END

*D_NET *221 0.000819648
*CONN
*P VALUE_top4 O
*I *2012:X O *D sky130_fd_sc_hd__buf_2
*CAP
1 VALUE_top4 0.000378523
2 *2012:X 0.000378523
3 VALUE_top4 VALUE_top5 0
4 VALUE_top4 *462:18 5.24583e-05
5 VALUE_top4 *584:28 1.01436e-05
6 VALUE_top3 VALUE_top4 0
*RES
1 *2012:X VALUE_top4 44.09 
*END

*D_NET *222 0.00126504
*CONN
*P VALUE_top5 O
*I *2013:X O *D sky130_fd_sc_hd__buf_2
*CAP
1 VALUE_top5 0.000578128
2 *2013:X 0.000578128
3 VALUE_top5 VALUE_top6 0
4 VALUE_top5 *461:16 0
5 VALUE_top5 *462:18 0
6 VALUE_top5 *493:12 5.14746e-06
7 VALUE_top5 *587:32 0.000103637
8 VALUE_top4 VALUE_top5 0
*RES
1 *2013:X VALUE_top5 46.6171 
*END

*D_NET *223 0.00157199
*CONN
*P VALUE_top6 O
*I *2014:X O *D sky130_fd_sc_hd__buf_2
*CAP
1 VALUE_top6 0.000678237
2 *2014:X 0.000678237
3 VALUE_top6 VALUE_top7 0
4 VALUE_top6 *224:8 0
5 VALUE_top6 *225:10 2.54046e-05
6 VALUE_top6 *455:75 6.51763e-05
7 VALUE_top6 *461:16 0
8 VALUE_top6 *578:138 0
9 VALUE_top6 *589:28 0.00010018
10 VALUE_top6 *600:32 0
11 VALUE_top6 *622:72 2.4754e-05
12 VALUE_top5 VALUE_top6 0
*RES
1 *2014:X VALUE_top6 49.0407 
*END

*D_NET *224 0.00244273
*CONN
*P VALUE_top7 O
*I *2015:X O *D sky130_fd_sc_hd__buf_2
*CAP
1 VALUE_top7 0.000302685
2 *2015:X 0.000182323
3 *224:8 0.000485008
4 VALUE_top7 VALUE_top8 0
5 VALUE_top7 *459:22 0.000619707
6 VALUE_top7 *570:12 0.000621402
7 *224:8 *461:16 0.000231605
8 VALUE_top6 VALUE_top7 0
9 VALUE_top6 *224:8 0
*RES
1 *2015:X *224:8 41.3143 
2 *224:8 VALUE_top7 39.7357 
*END

*D_NET *225 0.00278523
*CONN
*P VALUE_top8 O
*I *2016:X O *D sky130_fd_sc_hd__buf_2
*CAP
1 VALUE_top8 0.000865214
2 *2016:X 0.000182746
3 *225:10 0.00104796
4 VALUE_top8 *578:144 0.000231776
5 VALUE_top8 *579:16 0.000293796
6 VALUE_top8 *583:20 1.96198e-05
7 *225:10 *600:32 6.12496e-06
8 *225:10 *622:72 0.000112587
9 VALUE_top6 *225:10 2.54046e-05
10 VALUE_top7 VALUE_top8 0
*RES
1 *2016:X *225:10 40.7757 
2 *225:10 VALUE_top8 43.2779 
*END

*D_NET *226 0.00133486
*CONN
*P VALUE_top9 O
*I *2017:X O *D sky130_fd_sc_hd__buf_2
*CAP
1 VALUE_top9 0.000441302
2 *2017:X 0.000441302
3 VALUE_top9 *437:10 5.3304e-05
4 VALUE_top9 *459:26 4.34181e-05
5 VALUE_top9 *494:26 0.000269258
6 VALUE_top10 VALUE_top9 0
7 *213:13 VALUE_top9 8.62783e-05
*RES
1 *2017:X VALUE_top9 46.6586 
*END

*D_NET *229 0.0346388
*CONN
*I *1514:A1 I *D sky130_fd_sc_hd__mux2_1
*I *1459:A1 I *D sky130_fd_sc_hd__mux2_1
*I *1517:A1 I *D sky130_fd_sc_hd__mux2_1
*I *1515:A1 I *D sky130_fd_sc_hd__mux2_1
*I *1461:A1 I *D sky130_fd_sc_hd__mux2_1
*I *1462:A1 I *D sky130_fd_sc_hd__mux2_1
*I *1516:A1 I *D sky130_fd_sc_hd__mux2_1
*I *1460:A1 I *D sky130_fd_sc_hd__mux2_1
*I *1814:A I *D sky130_fd_sc_hd__dlygate4sd3_1
*I *1585:Q O *D sky130_fd_sc_hd__dfxtp_2
*CAP
1 *1514:A1 0
2 *1459:A1 0.00014442
3 *1517:A1 0.000100424
4 *1515:A1 0.000267932
5 *1461:A1 0
6 *1462:A1 0
7 *1516:A1 0
8 *1460:A1 0
9 *1814:A 0
10 *1585:Q 0.000285393
11 *229:160 0.00072125
12 *229:150 0.00197547
13 *229:131 0.00182821
14 *229:122 0.000371574
15 *229:109 0.000600501
16 *229:101 0.000865561
17 *229:93 0.00057132
18 *229:85 0.00116091
19 *229:71 0.00152803
20 *229:54 0.000711843
21 *229:45 0.000421342
22 *229:37 0.00156369
23 *229:33 0.00226333
24 *229:14 0.00113965
25 *229:8 0.000364042
26 *1459:A1 *470:36 0.000178517
27 *1515:A1 *1487:A2 5.50049e-05
28 *1515:A1 *1645:D 5.79413e-06
29 *1515:A1 *548:76 3.9307e-05
30 *1515:A1 *588:105 3.87473e-05
31 *1515:A1 *590:137 5.3304e-05
32 *1515:A1 *680:26 0.000257056
33 *1515:A1 *685:20 0.000267942
34 *1515:A1 *687:26 7.97457e-05
35 *1517:A1 *1517:S 5.79559e-05
36 *1517:A1 *684:42 0.000275932
37 *229:8 *1791:A 2.86532e-05
38 *229:8 *328:14 2.64544e-05
39 *229:8 *433:10 6.3704e-06
40 *229:8 *458:61 3.16908e-05
41 *229:8 *531:46 1.65299e-05
42 *229:8 *574:52 9.9437e-05
43 *229:14 *1743:A 0.000141215
44 *229:14 *589:106 1.41129e-05
45 *229:14 *604:20 0.000182081
46 *229:33 *1450:A 1.60333e-05
47 *229:33 *1491:A1 0.000489773
48 *229:33 *1516:A0 5.56279e-05
49 *229:33 *270:42 2.26497e-05
50 *229:33 *272:20 6.82228e-06
51 *229:33 *358:10 1.1103e-06
52 *229:33 *409:10 0.000137658
53 *229:33 *458:10 1.74874e-06
54 *229:33 *572:50 0
55 *229:33 *578:89 5.43589e-05
56 *229:33 *585:106 5.86368e-05
57 *229:33 *585:122 0
58 *229:33 *589:106 9.41704e-05
59 *229:33 *604:20 4.34559e-05
60 *229:33 *650:32 1.85475e-05
61 *229:33 *673:26 0
62 *229:33 *681:24 1.35514e-05
63 *229:37 *1489:S1 4.52972e-05
64 *229:37 *1516:A0 0.000245833
65 *229:37 *267:8 4.12916e-05
66 *229:37 *478:12 2.80623e-05
67 *229:37 *547:42 0.000108674
68 *229:37 *559:61 0.00017127
69 *229:37 *560:32 0
70 *229:37 *562:10 2.61501e-05
71 *229:37 *582:30 0.000159582
72 *229:37 *583:110 5.90541e-05
73 *229:37 *650:47 5.10946e-06
74 *229:37 *682:34 6.14523e-05
75 *229:37 *686:32 0.000248892
76 *229:37 *692:38 7.7501e-06
77 *229:45 *504:28 0.000434426
78 *229:45 *582:16 0.000350079
79 *229:45 *583:96 4.05745e-05
80 *229:45 *658:12 7.16984e-05
81 *229:54 *1516:A0 5.50106e-05
82 *229:54 *409:10 2.4754e-05
83 *229:71 *409:10 2.32004e-05
84 *229:71 *420:14 0.000146605
85 *229:71 *421:10 4.6318e-06
86 *229:71 *560:32 9.17884e-05
87 *229:71 *632:40 6.82416e-05
88 *229:71 *656:20 0
89 *229:71 *677:30 2.02872e-05
90 *229:71 *677:46 0.000315249
91 *229:71 *692:30 0.000178517
92 *229:85 *1463:A0 0.000179311
93 *229:85 *1463:A1 9.67842e-05
94 *229:85 *1751:A 0.000141954
95 *229:85 *466:22 0.000164318
96 *229:85 *561:22 0.000153756
97 *229:85 *632:20 0.000518759
98 *229:85 *653:8 0.000174154
99 *229:85 *681:24 0.00015083
100 *229:85 *686:28 0.000249679
101 *229:93 *1801:A 0.000135037
102 *229:93 *558:28 0.000108721
103 *229:93 *625:32 2.97422e-05
104 *229:93 *630:14 0.000153188
105 *229:93 *632:78 0.000128559
106 *229:93 *672:14 8.30566e-06
107 *229:93 *677:30 0.000476238
108 *229:101 *558:28 0.000547643
109 *229:101 *643:24 0.000520305
110 *229:101 *669:24 0.000164847
111 *229:109 *632:91 0.000111952
112 *229:109 *661:12 0.000263265
113 *229:109 *677:22 5.3304e-05
114 *229:122 *466:22 0.000127885
115 *229:122 *520:20 0.000107263
116 *229:122 *540:10 9.28078e-06
117 *229:122 *660:22 0.000271835
118 *229:122 *661:12 3.81083e-05
119 *229:122 *677:22 9.41704e-05
120 *229:131 *558:28 0.00121134
121 *229:131 *643:24 0.00123451
122 *229:150 *2005:A 0.000182832
123 *229:150 *466:38 0.000116687
124 *229:150 *470:30 1.22822e-05
125 *229:150 *470:36 0.00108318
126 *229:150 *680:16 0
127 *229:150 *680:26 0.000100401
128 *229:150 *681:10 1.05441e-05
129 *229:150 *687:26 0.000109859
130 *229:160 *701:DIODE 7.70737e-05
131 *229:160 *413:8 5.00353e-05
132 *229:160 *498:20 0.000777174
133 *229:160 *503:10 3.07529e-05
134 *229:160 *514:10 0.000669947
135 *229:160 *654:34 5.05059e-05
136 NN4BEG[13] *229:45 0.000243979
137 NN4BEG[14] *229:45 0.000218438
138 NN4BEG[15] *229:45 5.54304e-05
139 *146:8 *229:37 1.92797e-05
140 *148:8 *229:45 0
141 *149:8 *229:37 0.000134975
142 *162:9 *229:37 8.42746e-05
143 *163:11 *229:37 0.000157952
144 *174:13 *229:71 8.49387e-06
145 *175:19 *229:85 3.12775e-05
*RES
1 *1585:Q *229:8 42.3707 
2 *229:8 *229:14 17.5479 
3 *229:14 *1814:A 23 
4 *229:14 *229:33 46.1364 
5 *229:33 *229:37 35.9214 
6 *229:37 *229:45 40.6886 
7 *229:45 *1460:A1 38 
8 *229:33 *229:54 1.09786 
9 *229:54 *1516:A1 23 
10 *229:54 *229:71 40.7714 
11 *229:71 *229:85 49.7407 
12 *229:85 *229:93 37.6436 
13 *229:93 *229:101 26.4345 
14 *229:101 *229:109 27.4639 
15 *229:109 *1462:A1 23 
16 *229:109 *229:122 36.8771 
17 *229:122 *1461:A1 23 
18 *229:101 *229:131 10.3744 
19 *229:131 *1515:A1 45.2811 
20 *229:131 *229:150 33.9018 
21 *229:150 *229:160 47.11 
22 *229:160 *1517:A1 26.0036 
23 *229:150 *1459:A1 25.0507 
24 *229:71 *1514:A1 23 
*END

*D_NET *230 0.00123202
*CONN
*I *1808:A I *D sky130_fd_sc_hd__dlygate4sd3_1
*I *1820:A I *D sky130_fd_sc_hd__dlygate4sd3_1
*I *1581:Q O *D sky130_fd_sc_hd__dfxtp_1
*CAP
1 *1808:A 0.000120556
2 *1820:A 0.000136625
3 *1581:Q 9.86299e-05
4 *230:8 0.000355811
5 *1808:A *415:107 0
6 *1808:A *460:46 0.00019143
7 *1808:A *543:20 0.000185434
8 *1808:A *650:47 0
9 *1820:A *370:8 0
10 *230:8 *589:120 0.000143535
*RES
1 *1581:Q *230:8 39.5743 
2 *230:8 *1820:A 39.9057 
3 *230:8 *1808:A 41.2521 
*END

*D_NET *231 0.0029222
*CONN
*I *1805:A I *D sky130_fd_sc_hd__dlygate4sd3_1
*I *1796:A I *D sky130_fd_sc_hd__clkbuf_2
*I *1582:Q O *D sky130_fd_sc_hd__dfxtp_1
*CAP
1 *1805:A 0.000214436
2 *1796:A 0.000115795
3 *1582:Q 0.000133965
4 *231:10 0.000330232
5 *231:8 0.000133965
6 *1796:A *1546:B 8.79613e-05
7 *1796:A *1786:A 5.56279e-05
8 *1796:A *395:6 0.000180224
9 *1796:A *624:6 0.000273273
10 *1796:A *624:140 0.000125213
11 *1805:A *1561:A 1.41129e-05
12 *1805:A *395:6 0.00053711
13 *1805:A *453:37 5.56356e-05
14 *1805:A *624:140 0.000464582
15 *231:8 *1669:CLK 0.000144515
16 *231:8 *551:20 5.55466e-05
*RES
1 *1582:Q *231:8 40.2579 
2 *231:8 *231:10 15 
3 *231:10 *1796:A 27.4329 
4 *231:10 *1805:A 29.3386 
*END

*D_NET *232 0.0143248
*CONN
*I *1513:A_N I *D sky130_fd_sc_hd__nand2b_1
*I *1507:B I *D sky130_fd_sc_hd__and2b_1
*I *1572:B1_N I *D sky130_fd_sc_hd__a21boi_1
*I *1536:A1 I *D sky130_fd_sc_hd__o21a_1
*I *1539:B I *D sky130_fd_sc_hd__nor2_1
*I *1512:A I *D sky130_fd_sc_hd__or2_1
*I *1506:A I *D sky130_fd_sc_hd__and3_1
*I *1571:B I *D sky130_fd_sc_hd__and2b_1
*I *1576:A I *D sky130_fd_sc_hd__and3_1
*I *1579:A I *D sky130_fd_sc_hd__and3_1
*I *1583:Q O *D sky130_fd_sc_hd__dfxtp_1
*CAP
1 *1513:A_N 0.000233422
2 *1507:B 1.7287e-05
3 *1572:B1_N 0
4 *1536:A1 3.63092e-05
5 *1539:B 0
6 *1512:A 0
7 *1506:A 0.000162759
8 *1571:B 0
9 *1576:A 0.000155923
10 *1579:A 2.37191e-05
11 *1583:Q 0
12 *232:111 0.000292893
13 *232:93 0.000454942
14 *232:83 0.000759826
15 *232:67 0.000162759
16 *232:65 0.000576751
17 *232:34 0.000410403
18 *232:26 0.000420738
19 *232:24 0.000671706
20 *232:20 0.00109402
21 *232:10 0.000902842
22 *232:4 0.000491402
23 *1506:A *1447:A 5.50049e-05
24 *1506:A *1506:C 6.04112e-05
25 *1506:A *1512:B 2.18506e-05
26 *1506:A *372:10 0.000137651
27 *1506:A *430:36 2.06822e-05
28 *1506:A *453:37 6.99492e-05
29 *1507:B *1508:A1 2.4754e-05
30 *1507:B *1508:A2 5.67058e-05
31 *1507:B *430:36 9.84851e-05
32 *1513:A_N *1513:B 9.26916e-05
33 *1513:A_N *517:8 2.18506e-05
34 *1513:A_N *581:108 0.000347315
35 *1513:A_N *594:10 2.93845e-05
36 *1536:A1 *578:16 2.64616e-05
37 *1576:A *391:8 0
38 *1576:A *407:26 2.58303e-05
39 *1576:A *451:18 0.000117452
40 *1579:A *407:26 5.50049e-05
41 *232:10 *415:107 1.87365e-05
42 *232:10 *581:108 7.03537e-05
43 *232:10 *615:18 3.64467e-05
44 *232:20 *407:10 0.000287701
45 *232:20 *407:16 0.000561342
46 *232:20 *415:107 3.87221e-06
47 *232:20 *448:18 0.000180224
48 *232:20 *457:8 1.03955e-05
49 *232:20 *552:24 6.53382e-05
50 *232:20 *577:24 0.000392317
51 *232:20 *615:18 0.000377562
52 *232:24 *1455:A1 0.000181125
53 *232:24 *1455:S 5.50049e-05
54 *232:24 *1790:A 8.97481e-05
55 *232:24 *457:8 5.3793e-05
56 *232:24 *577:24 0.000565806
57 *232:26 *392:10 1.33927e-05
58 *232:26 *457:50 6.49599e-05
59 *232:26 *578:16 1.47563e-05
60 *232:26 *584:58 0.000238064
61 *232:26 *675:42 1.36144e-05
62 *232:34 *392:10 3.31532e-05
63 *232:34 *449:65 6.07611e-06
64 *232:34 *548:62 0
65 *232:34 *576:10 0
66 *232:34 *584:58 0.000135709
67 *232:65 *1500:B 9.59291e-05
68 *232:65 *576:10 5.25285e-05
69 *232:65 *578:16 3.9129e-05
70 *232:65 *586:45 4.56255e-05
71 *232:83 *1447:A 0.000341032
72 *232:83 *1500:B 5.82673e-06
73 *232:83 *234:25 5.79413e-06
74 *232:83 *406:10 3.93904e-06
75 *232:83 *458:61 0.000179354
76 *232:83 *578:16 1.09111e-05
77 *232:83 *586:45 0.000207422
78 *232:93 *425:18 5.56279e-05
79 *232:93 *425:47 0.000396951
80 *232:93 *436:10 0.00037764
81 *232:93 *578:16 7.59794e-05
82 *232:93 *589:106 5.56279e-05
83 *232:93 *595:8 0.0001262
84 *232:93 *622:10 2.31765e-05
85 *232:111 *1572:A1 3.9062e-05
86 *232:111 *246:37 2.94103e-05
87 *232:111 *471:20 0.000449432
88 *232:111 *552:34 5.95172e-05
89 *232:111 *619:26 5.00156e-05
*RES
1 *1583:Q *232:4 23 
2 *232:4 *232:10 18.6043 
3 *232:10 *232:20 29.79 
4 *232:20 *232:24 21.3386 
5 *232:24 *232:26 4.01857 
6 *232:26 *232:34 18.7286 
7 *232:34 *1579:A 23.6214 
8 *232:34 *1576:A 26.045 
9 *232:26 *1571:B 38 
10 *232:24 *232:65 5.48929 
11 *232:65 *232:67 15 
12 *232:67 *1506:A 26.48 
13 *232:67 *1512:A 23 
14 *232:65 *232:83 21.1314 
15 *232:83 *232:93 40.3571 
16 *232:93 *1539:B 23 
17 *232:83 *1536:A1 23.6214 
18 *232:20 *232:111 36.4836 
19 *232:111 *1572:B1_N 23 
20 *232:10 *1507:B 39.0979 
21 *232:4 *1513:A_N 29.2557 
*END

*D_NET *233 0.00184995
*CONN
*I *1513:B I *D sky130_fd_sc_hd__nand2b_1
*I *1817:A I *D sky130_fd_sc_hd__dlygate4sd3_1
*I *1584:Q O *D sky130_fd_sc_hd__dfxtp_1
*CAP
1 *1513:B 0.000162697
2 *1817:A 0
3 *1584:Q 0.000400997
4 *233:10 0.000563694
5 *1513:B *517:8 9.8612e-05
6 *1513:B *581:108 2.32654e-05
7 *1513:B *675:42 2.2324e-05
8 *233:10 *538:18 7.68979e-05
9 *233:10 *615:22 0.000401322
10 *233:10 *675:42 7.44586e-06
11 *1513:A_N *1513:B 9.26916e-05
*RES
1 *1584:Q *233:10 44.3386 
2 *233:10 *1817:A 38 
3 *233:10 *1513:B 41.568 
*END

*D_NET *234 0.00177176
*CONN
*I *1816:A I *D sky130_fd_sc_hd__dlygate4sd3_1
*I *1512:B I *D sky130_fd_sc_hd__or2_1
*I *1586:Q O *D sky130_fd_sc_hd__dfxtp_1
*CAP
1 *1816:A 0
2 *1512:B 9.65343e-05
3 *1586:Q 0.000110322
4 *234:25 0.000149346
5 *234:10 0.000356202
6 *1512:B *1447:A 0.000136743
7 *1512:B *430:36 0.000175903
8 *234:10 *1447:A 4.34745e-05
9 *234:10 *372:10 7.81982e-05
10 *234:10 *430:36 0.000262826
11 *234:25 *406:10 0.000172221
12 *234:25 *586:45 0.000162344
13 *1506:A *1512:B 2.18506e-05
14 *232:83 *234:25 5.79413e-06
*RES
1 *1586:Q *234:10 26.6457 
2 *234:10 *1512:B 25.5479 
3 *234:10 *234:25 32.61 
4 *234:25 *1816:A 23 
*END

*D_NET *235 0.00421771
*CONN
*I *1823:A I *D sky130_fd_sc_hd__dlygate4sd3_1
*I *1498:A I *D sky130_fd_sc_hd__or4b_1
*I *1670:Q O *D sky130_fd_sc_hd__dfxtp_1
*CAP
1 *1823:A 0.000470575
2 *1498:A 0.000303469
3 *1670:Q 0.000175137
4 *235:8 0.000949182
5 *1498:A *1547:A1 5.3304e-05
6 *1498:A *1656:D 3.7122e-06
7 *1498:A *237:18 0.000137651
8 *1498:A *422:10 0.00048718
9 *1498:A *623:113 4.43142e-05
10 *1498:A *623:130 7.73655e-05
11 *1823:A *1669:CLK 0.00015465
12 *1823:A *395:12 2.41083e-05
13 *1823:A *600:8 4.05745e-05
14 *1823:A *600:14 9.66726e-05
15 *1823:A *608:8 0.000596022
16 *1823:A *624:140 7.72343e-05
17 *235:8 *1654:CLK 0.000175459
18 *235:8 *1669:CLK 4.89731e-05
19 *235:8 *600:14 0.000269511
20 *235:8 *608:24 3.26202e-05
*RES
1 *1670:Q *235:8 42.0186 
2 *235:8 *1498:A 45.9543 
3 *235:8 *1823:A 48.0257 
*END

*D_NET *236 0.00555676
*CONN
*I *1818:A I *D sky130_fd_sc_hd__dlygate4sd3_1
*I *1496:D I *D sky130_fd_sc_hd__or4_1
*I *1653:Q O *D sky130_fd_sc_hd__dfxtp_1
*CAP
1 *1818:A 0.000351158
2 *1496:D 0
3 *1653:Q 0
4 *236:26 0.000567619
5 *236:18 0.00117923
6 *236:4 0.000962766
7 *1818:A *1499:A 0.000100061
8 *1818:A *1653:CLK 0.000137368
9 *1818:A *1653:D 0.000248811
10 *1818:A *425:6 0.000215288
11 *1818:A *581:49 0.00022143
12 *236:18 *1499:A 1.59071e-05
13 *236:18 *1499:C 1.83408e-05
14 *236:18 *1678:D 4.57742e-05
15 *236:18 *245:25 2.02872e-05
16 *236:18 *425:6 0.000102389
17 *236:18 *552:60 0.000253794
18 *236:18 *555:32 5.41385e-05
19 *236:18 *555:42 0.000109064
20 *236:18 *581:49 3.91715e-05
21 *236:18 *589:18 1.01436e-05
22 *236:18 *622:40 0.000270953
23 *236:18 *622:46 1.59094e-05
24 *236:26 *1496:A 3.22465e-05
25 *236:26 *238:12 0.00012556
26 *236:26 *243:12 0
27 *236:26 *244:21 0.000111474
28 *236:26 *422:10 2.93431e-05
29 *236:26 *622:40 8.4447e-05
30 *236:26 *624:106 0.000234092
*RES
1 *1653:Q *236:4 23 
2 *236:4 *236:18 42.2214 
3 *236:18 *236:26 39.57 
4 *236:26 *1496:D 23 
5 *236:4 *1818:A 32.57 
*END

*D_NET *237 0.00656614
*CONN
*I *1812:A I *D sky130_fd_sc_hd__dlygate4sd3_1
*I *1498:B I *D sky130_fd_sc_hd__or4b_1
*I *1671:Q O *D sky130_fd_sc_hd__dfxtp_1
*CAP
1 *1812:A 0
2 *1498:B 0
3 *1671:Q 0
4 *237:39 0.000952895
5 *237:26 0.000106554
6 *237:18 0.00106346
7 *237:4 0.0019098
8 *237:18 *1671:CLK 7.51453e-06
9 *237:18 *1671:D 0
10 *237:18 *378:12 2.8159e-05
11 *237:18 *393:29 5.6848e-05
12 *237:18 *394:12 0.000157134
13 *237:18 *437:10 1.31042e-05
14 *237:18 *455:81 0
15 *237:18 *584:58 0.000135037
16 *237:18 *600:14 0.000113727
17 *237:18 *617:20 2.18506e-05
18 *237:18 *623:113 7.15126e-05
19 *237:26 *1498:D_N 8.04828e-05
20 *237:26 *393:29 7.83925e-05
21 *237:26 *422:10 5.3304e-05
22 *237:39 *580:26 0.000536953
23 *237:39 *581:34 0.000238177
24 *237:39 *584:58 0.000803584
25 *1498:A *237:18 0.000137651
*RES
1 *1671:Q *237:4 23 
2 *237:4 *237:18 44.355 
3 *237:18 *237:26 31.8229 
4 *237:26 *1498:B 23 
5 *237:4 *237:39 46.7371 
6 *237:39 *1812:A 23 
*END

*D_NET *238 0.00292645
*CONN
*I *1498:C I *D sky130_fd_sc_hd__or4b_1
*I *1813:A I *D sky130_fd_sc_hd__dlygate4sd3_1
*I *1672:Q O *D sky130_fd_sc_hd__dfxtp_1
*CAP
1 *1498:C 0
2 *1813:A 0
3 *1672:Q 0
4 *238:25 0.000354542
5 *238:12 0.000211453
6 *238:4 0.000565995
7 *238:12 *244:21 0.000127791
8 *238:12 *400:14 0.000344591
9 *238:12 *423:18 0.000344591
10 *238:25 *1496:A 0.000262113
11 *238:25 *1498:D_N 0.000214714
12 *238:25 *250:8 4.73997e-05
13 *238:25 *624:14 0.000314473
14 *238:25 *624:22 1.32314e-05
15 *236:26 *238:12 0.00012556
*RES
1 *1672:Q *238:4 23 
2 *238:4 *238:12 35.8621 
3 *238:12 *1813:A 23 
4 *238:4 *238:25 37.1464 
5 *238:25 *1498:C 23 
*END

*D_NET *239 0.00282489
*CONN
*I *1497:A I *D sky130_fd_sc_hd__or4_1
*I *1811:A I *D sky130_fd_sc_hd__dlygate4sd3_1
*I *1673:Q O *D sky130_fd_sc_hd__dfxtp_1
*CAP
1 *1497:A 0.000106806
2 *1811:A 0.000297535
3 *1673:Q 0.000546819
4 *239:8 0.000951159
5 *1497:A *1497:D 3.18597e-05
6 *1497:A *241:23 3.41998e-06
7 *1497:A *400:32 0.000157059
8 *1811:A *1497:D 2.96045e-05
9 *1811:A *1810:A 4.5882e-05
10 *1811:A *400:32 0.000105431
11 *1811:A *462:10 0
12 *1811:A *607:8 0.000230604
13 *1811:A *607:14 0
14 *1811:A *622:183 0
15 *239:8 *1673:CLK 0.000181064
16 *239:8 *621:10 0.000137651
*RES
1 *1673:Q *239:8 45.2914 
2 *239:8 *1811:A 44.5457 
3 *239:8 *1497:A 40.2579 
*END

*D_NET *240 0.00375079
*CONN
*I *1806:A I *D sky130_fd_sc_hd__dlygate4sd3_1
*I *1497:B I *D sky130_fd_sc_hd__or4_1
*I *1674:Q O *D sky130_fd_sc_hd__dfxtp_1
*CAP
1 *1806:A 0.000123084
2 *1497:B 0
3 *1674:Q 0.000179813
4 *240:14 0.00091833
5 *240:8 0.00122123
6 *1806:A *397:10 1.12487e-05
7 *1806:A *526:32 1.06693e-05
8 *1806:A *606:14 3.33934e-05
9 *1806:A *616:10 0.000205064
10 *1806:A *624:61 9.28945e-05
11 *240:8 *1674:D 4.5051e-05
12 *240:8 *397:10 0.000140927
13 *240:14 *1553:B1 0.000431551
14 *240:14 *1784:A 1.59094e-05
15 *240:14 *397:10 9.58963e-05
16 *240:14 *577:10 1.14452e-05
17 *240:14 *616:10 0.000214286
*RES
1 *1674:Q *240:8 40.5271 
2 *240:8 *240:14 28.5886 
3 *240:14 *1497:B 23 
4 *240:8 *1806:A 41.6664 
*END

*D_NET *241 0.00265522
*CONN
*I *1497:C I *D sky130_fd_sc_hd__or4_1
*I *1809:A I *D sky130_fd_sc_hd__dlygate4sd3_1
*I *1675:Q O *D sky130_fd_sc_hd__dfxtp_1
*CAP
1 *1497:C 0
2 *1809:A 0.000113044
3 *1675:Q 0
4 *241:23 0.000814298
5 *241:4 0.000927342
6 *1809:A *623:53 4.67488e-05
7 *241:23 *1497:D 1.05441e-05
8 *241:23 *1553:B1 3.22879e-05
9 *241:23 *385:10 2.96323e-05
10 *241:23 *400:32 7.69915e-05
11 *241:23 *452:10 0.000146277
12 *241:23 *456:60 0
13 *241:23 *585:26 2.93845e-05
14 *241:23 *586:12 4.02909e-05
15 *241:23 *622:119 0
16 *241:23 *623:53 0.000375091
17 *1497:A *241:23 3.41998e-06
18 *213:32 *241:23 9.86551e-06
*RES
1 *1675:Q *241:4 23 
2 *241:4 *1809:A 24.9471 
3 *241:4 *241:23 43.5471 
4 *241:23 *1497:C 23 
*END

*D_NET *242 0.00190429
*CONN
*I *1497:D I *D sky130_fd_sc_hd__or4_1
*I *1810:A I *D sky130_fd_sc_hd__dlygate4sd3_1
*I *1676:Q O *D sky130_fd_sc_hd__dfxtp_1
*CAP
1 *1497:D 0.000255816
2 *1810:A 8.64923e-05
3 *1676:Q 0.000354857
4 *242:8 0.000697165
5 *1497:D *1551:B 4.98399e-06
6 *1497:D *622:119 5.82202e-05
7 *1810:A *1551:B 3.31683e-05
8 *1810:A *462:10 0
9 *242:8 *1673:CLK 0.00015544
10 *242:8 *622:102 0.000140259
11 *1497:A *1497:D 3.18597e-05
12 *1811:A *1497:D 2.96045e-05
13 *1811:A *1810:A 4.5882e-05
14 *241:23 *1497:D 1.05441e-05
*RES
1 *1676:Q *242:8 42.9093 
2 *242:8 *1810:A 39.9057 
3 *242:8 *1497:D 42.0186 
*END

*D_NET *243 0.00234752
*CONN
*I *1821:A I *D sky130_fd_sc_hd__dlygate4sd3_1
*I *1496:A I *D sky130_fd_sc_hd__or4_1
*I *1677:Q O *D sky130_fd_sc_hd__dfxtp_1
*CAP
1 *1821:A 0
2 *1496:A 0.000669332
3 *1677:Q 0.000161293
4 *243:12 0.000830625
5 *1496:A *1496:C 1.94693e-05
6 *1496:A *1498:D_N 0.000165329
7 *1496:A *250:8 5.59456e-05
8 *1496:A *393:29 0
9 *1496:A *422:10 1.49746e-05
10 *1496:A *435:12 1.00493e-05
11 *1496:A *623:113 2.76611e-06
12 *1496:A *624:106 0
13 *243:12 *250:8 0.000123372
14 *236:26 *1496:A 3.22465e-05
15 *236:26 *243:12 0
16 *238:25 *1496:A 0.000262113
*RES
1 *1677:Q *243:12 40.6721 
2 *243:12 *1496:A 49.165 
3 *243:12 *1821:A 38 
*END

*D_NET *244 0.00249988
*CONN
*I *1496:B I *D sky130_fd_sc_hd__or4_1
*I *1822:A I *D sky130_fd_sc_hd__dlygate4sd3_1
*I *1678:Q O *D sky130_fd_sc_hd__dfxtp_1
*CAP
1 *1496:B 0
2 *1822:A 0.000103275
3 *1678:Q 0
4 *244:21 0.000565223
5 *244:4 0.000668498
6 *1822:A *589:18 3.82058e-06
7 *244:21 *1496:C 0.000595759
8 *244:21 *589:18 1.70542e-05
9 *244:21 *616:22 3.3746e-05
10 *244:21 *622:40 3.19892e-06
11 *244:21 *624:106 0.000162823
12 *244:21 *634:22 0.000107218
13 *236:26 *244:21 0.000111474
14 *238:12 *244:21 0.000127791
*RES
1 *1678:Q *244:4 23 
2 *244:4 *1822:A 24.4707 
3 *244:4 *244:21 41.7036 
4 *244:21 *1496:B 23 
*END

*D_NET *245 0.00703493
*CONN
*I *1496:C I *D sky130_fd_sc_hd__or4_1
*I *1807:A I *D sky130_fd_sc_hd__dlygate4sd3_1
*I *1679:Q O *D sky130_fd_sc_hd__dfxtp_1
*CAP
1 *1496:C 0.000438363
2 *1807:A 0.000301226
3 *1679:Q 0
4 *245:25 0.00148551
5 *245:6 0.00134837
6 *1496:C *1788:A 2.36971e-05
7 *1496:C *1789:A 1.48425e-05
8 *1496:C *422:10 9.67842e-05
9 *1496:C *435:12 6.17437e-06
10 *1496:C *609:14 0.000332452
11 *1496:C *616:22 0.000143802
12 *1496:C *624:106 1.85275e-05
13 *1807:A *1568:A1 0.000157811
14 *1807:A *538:42 9.28078e-06
15 *1807:A *551:24 5.48652e-05
16 *1807:A *556:28 1.09921e-05
17 *1807:A *590:41 0.00022976
18 *1807:A *659:40 0.00031686
19 *245:25 *538:42 8.03289e-05
20 *245:25 *551:24 0.000271814
21 *245:25 *622:40 0.00096097
22 *245:25 *622:46 2.80924e-06
23 *245:25 *634:22 9.41704e-05
24 *1496:A *1496:C 1.94693e-05
25 *236:18 *245:25 2.02872e-05
26 *244:21 *1496:C 0.000595759
*RES
1 *1679:Q *245:6 38 
2 *245:6 *1807:A 45.105 
3 *245:6 *245:25 46.5507 
4 *245:25 *1496:C 48.3986 
*END

*D_NET *246 0.0104935
*CONN
*I *1575:A I *D sky130_fd_sc_hd__nand3_1
*I *1573:A1 I *D sky130_fd_sc_hd__o21a_1
*I *1574:A1 I *D sky130_fd_sc_hd__a21o_1
*I *1571:A_N I *D sky130_fd_sc_hd__and2b_1
*I *1572:A1 I *D sky130_fd_sc_hd__a21boi_1
*I *1501:A I *D sky130_fd_sc_hd__xnor2_1
*I *1665:Q O *D sky130_fd_sc_hd__dfxtp_1
*CAP
1 *1575:A 2.52233e-05
2 *1573:A1 0
3 *1574:A1 0
4 *1571:A_N 0.000321164
5 *1572:A1 0.000173715
6 *1501:A 0
7 *1665:Q 0
8 *246:66 0.000242172
9 *246:37 0.00119092
10 *246:25 0.000797806
11 *246:14 0.000908226
12 *246:4 0.0010234
13 *1571:A_N *1668:D 8.6426e-05
14 *1571:A_N *389:6 0.000133504
15 *1571:A_N *578:8 2.72257e-05
16 *1571:A_N *579:62 0.000864968
17 *1572:A1 *247:10 2.19476e-05
18 *1572:A1 *391:8 5.67058e-05
19 *1572:A1 *407:26 0.000232256
20 *1572:A1 *619:26 0.000108499
21 *1575:A *579:80 5.50106e-05
22 *246:14 *1573:A2 0.000226306
23 *246:14 *315:22 0.00030542
24 *246:14 *428:10 0.000123149
25 *246:14 *449:10 8.30566e-06
26 *246:14 *517:12 0
27 *246:14 *570:24 1.52032e-05
28 *246:14 *570:35 0
29 *246:14 *577:36 2.18506e-05
30 *246:14 *579:62 0.000158146
31 *246:14 *585:149 0.000149532
32 *246:14 *611:10 0.000299384
33 *246:14 *612:20 3.94582e-05
34 *246:14 *675:42 0.000184733
35 *246:25 *249:41 0.000106316
36 *246:25 *428:10 0.000226295
37 *246:25 *577:36 1.03836e-05
38 *246:37 *1574:A2 9.02668e-05
39 *246:37 *1578:A 0.000106468
40 *246:37 *248:58 8.81675e-05
41 *246:37 *407:26 0.000173369
42 *246:37 *552:34 6.17791e-05
43 *246:37 *584:90 0.000589577
44 *246:37 *614:34 0.000795225
45 *246:37 *675:42 0.000100483
46 *246:66 *1573:A2 0.000265682
47 *246:66 *579:80 1.03836e-05
48 *232:111 *1572:A1 3.9062e-05
49 *232:111 *246:37 2.94103e-05
*RES
1 *1665:Q *246:4 23 
2 *246:4 *246:14 46.1364 
3 *246:14 *1501:A 23 
4 *246:14 *246:25 3.52143 
5 *246:25 *246:37 38.1737 
6 *246:37 *1572:A1 42.2879 
7 *246:37 *1571:A_N 47.6736 
8 *246:25 *1574:A1 23 
9 *246:4 *246:66 3.85286 
10 *246:66 *1573:A1 23 
11 *246:66 *1575:A 23.6214 
*END

*D_NET *247 0.00708322
*CONN
*I *1574:A2 I *D sky130_fd_sc_hd__a21o_1
*I *1575:B I *D sky130_fd_sc_hd__nand3_1
*I *1815:A I *D sky130_fd_sc_hd__dlygate4sd3_1
*I *1504:A I *D sky130_fd_sc_hd__xnor2_1
*I *1572:A2 I *D sky130_fd_sc_hd__a21boi_1
*I *1666:Q O *D sky130_fd_sc_hd__dfxtp_1
*CAP
1 *1574:A2 0.000346438
2 *1575:B 0
3 *1815:A 0
4 *1504:A 3.41758e-05
5 *1572:A2 0
6 *1666:Q 0
7 *247:67 0.000618954
8 *247:48 0.000795433
9 *247:42 0.00071018
10 *247:29 0.000635803
11 *247:10 0.00015215
12 *247:4 0.000566514
13 *1504:A *248:58 1.82525e-05
14 *1504:A *615:18 6.10551e-06
15 *1574:A2 *248:58 3.41998e-06
16 *1574:A2 *249:41 7.71219e-06
17 *1574:A2 *316:20 4.30894e-05
18 *1574:A2 *449:34 0
19 *1574:A2 *568:22 0
20 *247:10 *407:26 0.000128291
21 *247:10 *448:18 0
22 *247:10 *457:65 0
23 *247:29 *1666:D 8.90284e-05
24 *247:29 *248:37 0.000105268
25 *247:29 *249:12 2.33419e-05
26 *247:29 *389:6 0.000230496
27 *247:29 *579:62 0.000503533
28 *247:29 *615:18 0
29 *247:42 *248:58 4.25892e-06
30 *247:48 *248:37 4.05668e-05
31 *247:48 *316:20 0.000194763
32 *247:48 *579:62 9.75779e-05
33 *247:67 *1575:C 4.77164e-06
34 *247:67 *283:20 9.84794e-05
35 *247:67 *316:20 0
36 *247:67 *389:18 0
37 *247:67 *492:22 0.000305087
38 *247:67 *517:12 0.000215886
39 *247:67 *555:24 0.000849508
40 *247:67 *579:62 0.000128723
41 *247:67 *613:32 3.34818e-06
42 *1572:A1 *247:10 2.19476e-05
43 *1851:A *247:67 9.85586e-06
44 *246:37 *1574:A2 9.02668e-05
*RES
1 *1666:Q *247:4 23 
2 *247:4 *247:10 32.61 
3 *247:10 *1572:A2 23 
4 *247:4 *247:29 26.0096 
5 *247:29 *1504:A 38.9425 
6 *247:29 *247:42 2.05071 
7 *247:42 *247:48 18.8839 
8 *247:48 *1815:A 23 
9 *247:48 *247:67 37.6352 
10 *247:67 *1575:B 38 
11 *247:42 *1574:A2 42.7332 
*END

*D_NET *248 0.00710367
*CONN
*I *1574:B1 I *D sky130_fd_sc_hd__a21o_1
*I *1502:A I *D sky130_fd_sc_hd__xnor2_1
*I *1575:C I *D sky130_fd_sc_hd__nand3_1
*I *1667:Q O *D sky130_fd_sc_hd__dfxtp_1
*CAP
1 *1574:B1 0
2 *1502:A 0
3 *1575:C 0.000200027
4 *1667:Q 2.77218e-05
5 *248:58 0.000419227
6 *248:37 0.000847349
7 *248:16 0.000665731
8 *248:8 0.000921548
9 *1575:C *461:32 0
10 *1575:C *613:32 1.14452e-05
11 *1575:C *694:18 1.23661e-05
12 *248:8 *1665:CLK 2.64616e-05
13 *248:8 *390:8 5.3304e-05
14 *248:16 *389:18 0.000108109
15 *248:16 *457:80 6.10809e-05
16 *248:16 *472:12 0.00121671
17 *248:16 *517:12 0
18 *248:16 *528:22 0
19 *248:16 *551:14 0.0012201
20 *248:37 *1666:D 9.23705e-06
21 *248:37 *316:20 0.0001641
22 *248:37 *389:18 0.000107218
23 *248:37 *429:8 0.000162926
24 *248:37 *457:80 0.000149768
25 *248:58 *249:41 5.50049e-05
26 *248:58 *316:20 0.000226295
27 *248:58 *407:10 9.62215e-05
28 *248:58 *428:10 2.93747e-05
29 *1504:A *248:58 1.82525e-05
30 *1574:A2 *248:58 3.41998e-06
31 *1851:A *1575:C 0
32 *78:11 *248:16 1.62061e-05
33 *79:13 *1575:C 3.14377e-05
34 *246:37 *248:58 8.81675e-05
35 *247:29 *248:37 0.000105268
36 *247:42 *248:58 4.25892e-06
37 *247:48 *248:37 4.05668e-05
38 *247:67 *1575:C 4.77164e-06
*RES
1 *1667:Q *248:8 38.6214 
2 *248:8 *248:16 47.5036 
3 *248:16 *1575:C 40.9621 
4 *248:8 *248:37 23.0371 
5 *248:37 *1502:A 23 
6 *248:37 *248:58 38.3271 
7 *248:58 *1574:B1 23 
*END

*D_NET *249 0.00406909
*CONN
*I *1448:A I *D sky130_fd_sc_hd__inv_2
*I *1503:A I *D sky130_fd_sc_hd__xnor2_1
*I *1668:Q O *D sky130_fd_sc_hd__dfxtp_1
*CAP
1 *1448:A 0
2 *1503:A 2.30005e-05
3 *1668:Q 0.000498655
4 *249:41 0.000474374
5 *249:18 0.000776726
6 *249:12 0.000778006
7 *1503:A *577:36 1.37022e-05
8 *249:12 *1578:A 0.000199803
9 *249:12 *1586:CLK 0
10 *249:12 *389:6 1.21972e-05
11 *249:12 *407:26 0.000196735
12 *249:12 *448:18 0
13 *249:12 *577:24 0
14 *249:12 *579:62 2.64616e-05
15 *249:12 *584:78 2.74365e-05
16 *249:12 *631:69 1.74874e-06
17 *249:18 *1503:B 3.91701e-05
18 *249:18 *1578:A 5.40337e-05
19 *249:18 *449:44 2.93335e-05
20 *249:18 *577:36 7.44161e-06
21 *249:41 *428:10 0.000113051
22 *249:41 *448:10 6.70361e-05
23 *249:41 *568:22 0.000194619
24 *249:41 *577:36 0.000339766
25 *249:41 *594:10 3.41998e-06
26 *1574:A2 *249:41 7.71219e-06
27 *246:25 *249:41 0.000106316
28 *247:29 *249:12 2.33419e-05
29 *248:58 *249:41 5.50049e-05
*RES
1 *1668:Q *249:12 45.9543 
2 *249:12 *249:18 19.1066 
3 *249:18 *1503:A 23.9166 
4 *249:18 *249:41 40.1655 
5 *249:41 *1448:A 23 
*END

*D_NET *250 0.00217617
*CONN
*I *1819:A I *D sky130_fd_sc_hd__dlygate4sd3_1
*I *1498:D_N I *D sky130_fd_sc_hd__or4b_1
*I *1669:Q O *D sky130_fd_sc_hd__dfxtp_1
*CAP
1 *1819:A 2.79004e-05
2 *1498:D_N 0.000248983
3 *1669:Q 0.000267069
4 *250:8 0.000543952
5 *1498:D_N *393:29 8.11659e-05
6 *1498:D_N *422:10 6.59159e-05
7 *1498:D_N *623:113 2.05664e-05
8 *1819:A *624:14 5.50106e-05
9 *250:8 *393:29 0.000108098
10 *250:8 *552:60 7.02639e-05
11 *1496:A *1498:D_N 0.000165329
12 *1496:A *250:8 5.59456e-05
13 *237:26 *1498:D_N 8.04828e-05
14 *238:25 *1498:D_N 0.000214714
15 *238:25 *250:8 4.73997e-05
16 *243:12 *250:8 0.000123372
*RES
1 *1669:Q *250:8 42.7229 
2 *250:8 *1498:D_N 44.3386 
3 *250:8 *1819:A 38.6214 
*END

*D_NET *251 0.000897076
*CONN
*I *1456:S I *D sky130_fd_sc_hd__mux2_1
*I *1621:Q O *D sky130_fd_sc_hd__dlxtp_1
*CAP
1 *1456:S 0
2 *1621:Q 8.23339e-05
3 *251:8 8.23339e-05
4 *251:8 *1456:A1 0.000313249
5 *251:8 *315:10 2.4754e-05
6 *251:8 *585:149 0.000394405
*RES
1 *1621:Q *251:8 27.4536 
2 *251:8 *1456:S 23 
*END

*D_NET *252 0.000431742
*CONN
*I *1455:S I *D sky130_fd_sc_hd__mux2_1
*I *1622:Q O *D sky130_fd_sc_hd__dlxtp_1
*CAP
1 *1455:S 1.11754e-05
2 *1622:Q 0.000119348
3 *252:8 0.000130523
4 *1455:S *1790:A 5.73309e-05
5 *252:8 *451:18 0
6 *252:8 *576:10 5.83599e-05
7 *232:24 *1455:S 5.50049e-05
*RES
1 *1622:Q *252:8 39.9057 
2 *252:8 *1455:S 38.6214 
*END

*D_NET *253 0.00126088
*CONN
*I *1529:S I *D sky130_fd_sc_hd__mux2_1
*I *1631:Q O *D sky130_fd_sc_hd__dlxtp_1
*CAP
1 *1529:S 1.25102e-05
2 *1631:Q 0.000429799
3 *253:10 0.000442309
4 *1529:S *504:24 5.50049e-05
5 *1529:S *585:75 3.22879e-05
6 *253:10 *461:12 8.30566e-06
7 *253:10 *504:24 0.000103653
8 *253:10 *519:20 4.55775e-05
9 *253:10 *588:41 1.19831e-05
10 *253:10 *618:33 3.7122e-06
11 *253:10 *618:48 4.01634e-05
12 *253:10 *630:138 7.55717e-05
*RES
1 *1631:Q *253:10 43.8621 
2 *253:10 *1529:S 38.6214 
*END

*D_NET *254 0.000656761
*CONN
*I *1528:S I *D sky130_fd_sc_hd__mux2_1
*I *1632:Q O *D sky130_fd_sc_hd__dlxtp_1
*CAP
1 *1528:S 0.000150145
2 *1632:Q 0.000150145
3 *1528:S *354:10 1.73399e-05
4 *1528:S *537:26 0.000309746
5 *1528:S *580:118 2.93845e-05
*RES
1 *1632:Q *1528:S 49.9771 
*END

*D_NET *255 0.000422311
*CONN
*I *1527:S I *D sky130_fd_sc_hd__mux2_1
*I *1633:Q O *D sky130_fd_sc_hd__dlxtp_1
*CAP
1 *1527:S 7.00449e-05
2 *1633:Q 5.20262e-05
3 *255:8 0.000122071
4 *1527:S *1770:A 0
5 *1527:S *590:41 3.40195e-05
6 *255:8 *462:10 0
7 *255:8 *587:46 5.56306e-05
8 *255:8 *681:34 8.85189e-05
*RES
1 *1633:Q *255:8 39.5536 
2 *255:8 *1527:S 39.4707 
*END

*D_NET *256 0.00125259
*CONN
*I *1526:S I *D sky130_fd_sc_hd__mux2_1
*I *1634:Q O *D sky130_fd_sc_hd__dlxtp_1
*CAP
1 *1526:S 0.000114704
2 *1634:Q 0.000105148
3 *256:8 0.000219852
4 *1526:S *504:24 0.000438474
5 *1526:S *585:75 0.000241703
6 *256:8 *362:10 8.25811e-05
7 *256:8 *462:10 3.98731e-05
8 *256:8 *681:34 1.02561e-05
*RES
1 *1634:Q *256:8 39.9057 
2 *256:8 *1526:S 42.9093 
*END

*D_NET *257 0.000483169
*CONN
*I *1525:S I *D sky130_fd_sc_hd__mux2_1
*I *1635:Q O *D sky130_fd_sc_hd__dlxtp_1
*CAP
1 *1525:S 0
2 *1635:Q 0.000161352
3 *257:10 0.000161352
4 *257:10 *2021:A 5.12254e-05
5 *257:10 *498:14 4.23714e-05
6 *257:10 *679:36 6.6869e-05
*RES
1 *1635:Q *257:10 41.0036 
2 *257:10 *1525:S 38 
*END

*D_NET *258 0.00180015
*CONN
*I *1524:S I *D sky130_fd_sc_hd__mux2_1
*I *1636:Q O *D sky130_fd_sc_hd__dlxtp_1
*CAP
1 *1524:S 0
2 *1636:Q 0.000490821
3 *258:10 0.000490821
4 *258:10 *625:63 2.17492e-05
5 *258:10 *630:26 0.000300203
6 *258:10 *643:24 0.000322098
7 *258:10 *673:43 0.000127807
8 *258:10 *678:26 4.66474e-05
*RES
1 *1636:Q *258:10 46.2029 
2 *258:10 *1524:S 38 
*END

*D_NET *259 0.00147605
*CONN
*I *1523:S I *D sky130_fd_sc_hd__mux2_1
*I *1637:Q O *D sky130_fd_sc_hd__dlxtp_1
*CAP
1 *1523:S 0.000308619
2 *1637:Q 4.90023e-05
3 *259:8 0.000357621
4 *1523:S *1472:S 1.94693e-05
5 *1523:S *365:10 3.12831e-05
6 *1523:S *693:22 0.000485979
7 *259:8 *1472:A1 0.000113153
8 *259:8 *511:16 0.000110922
*RES
1 *1637:Q *259:8 39.5536 
2 *259:8 *1523:S 45.1879 
*END

*D_NET *260 0.000263854
*CONN
*I *1522:S I *D sky130_fd_sc_hd__mux2_1
*I *1638:Q O *D sky130_fd_sc_hd__dlxtp_1
*CAP
1 *1522:S 9.11304e-05
2 *1638:Q 9.11304e-05
3 *1522:S *460:46 5.3304e-05
4 *1522:S *585:128 2.82893e-05
*RES
1 *1638:Q *1522:S 47.595 
*END

*D_NET *261 0.000789915
*CONN
*I *1521:S I *D sky130_fd_sc_hd__mux2_1
*I *1639:Q O *D sky130_fd_sc_hd__dlxtp_1
*CAP
1 *1521:S 0
2 *1639:Q 0.000207344
3 *261:10 0.000207344
4 *261:10 *699:DIODE 0.000135037
5 *261:10 *500:8 0.000161814
6 *261:10 *503:10 7.8377e-05
*RES
1 *1639:Q *261:10 41.8321 
2 *261:10 *1521:S 38 
*END

*D_NET *262 0.00123029
*CONN
*I *1520:S I *D sky130_fd_sc_hd__mux2_1
*I *1640:Q O *D sky130_fd_sc_hd__dlxtp_1
*CAP
1 *1520:S 0.000132985
2 *1640:Q 0.000182512
3 *262:10 0.000315497
4 *1520:S *1520:A1 9.41704e-05
5 *1520:S *682:42 0.000110533
6 *262:10 *368:8 7.89973e-05
7 *262:10 *567:22 9.65021e-05
8 *262:10 *587:115 4.67137e-05
9 NN4BEG[3] *262:10 0.000153577
10 NN4BEG[5] *1520:S 1.21972e-05
11 *144:12 *262:10 6.60136e-06
*RES
1 *1640:Q *262:10 41.3557 
2 *262:10 *1520:S 40.5271 
*END

*D_NET *263 0.000911149
*CONN
*I *1454:S I *D sky130_fd_sc_hd__mux2_1
*I *1623:Q O *D sky130_fd_sc_hd__dlxtp_1
*CAP
1 *1454:S 0
2 *1623:Q 0.000279304
3 *263:10 0.000279304
4 *263:10 *484:10 8.4047e-05
5 *263:10 *518:20 0.000131847
6 *263:10 *619:42 1.85275e-05
7 *263:10 *631:26 0.00011812
*RES
1 *1623:Q *263:10 42.4329 
2 *263:10 *1454:S 38 
*END

*D_NET *264 0.00182574
*CONN
*I *1519:S I *D sky130_fd_sc_hd__mux2_1
*I *1641:Q O *D sky130_fd_sc_hd__dlxtp_1
*CAP
1 *1519:S 0.00019248
2 *1641:Q 0.000272212
3 *264:14 0.000464692
4 *1519:S *497:20 1.5769e-05
5 *1519:S *579:115 0.000310647
6 *1519:S *579:144 2.93845e-05
7 *264:14 *470:54 4.42623e-05
8 *264:14 *486:28 1.55187e-05
9 *264:14 *502:10 0.000242996
10 *264:14 *625:222 0.000237781
*RES
1 *1641:Q *264:14 43.5307 
2 *264:14 *1519:S 42.4536 
*END

*D_NET *265 0.0010174
*CONN
*I *1518:S I *D sky130_fd_sc_hd__mux2_1
*I *1642:Q O *D sky130_fd_sc_hd__dlxtp_1
*CAP
1 *1518:S 0
2 *1642:Q 0.000299898
3 *265:10 0.000299898
4 *265:10 *491:22 0.00016216
5 *265:10 *652:20 0.000249342
6 *265:10 *652:28 6.09861e-06
7 *67:15 *265:10 0
*RES
1 *1642:Q *265:10 43.2614 
2 *265:10 *1518:S 38 
*END

*D_NET *266 0.000759948
*CONN
*I *1517:S I *D sky130_fd_sc_hd__mux2_1
*I *1643:Q O *D sky130_fd_sc_hd__dlxtp_1
*CAP
1 *1517:S 7.72785e-05
2 *1643:Q 8.05064e-05
3 *266:8 0.000157785
4 *1517:S *1517:A0 5.3304e-05
5 *1517:S *684:42 1.56542e-05
6 *266:8 *485:18 0.000157682
7 *266:8 *628:120 0.000159781
8 *1517:A1 *1517:S 5.79559e-05
*RES
1 *1643:Q *266:8 40.2579 
2 *266:8 *1517:S 39.5743 
*END

*D_NET *267 0.000974011
*CONN
*I *1516:S I *D sky130_fd_sc_hd__mux2_1
*I *1644:Q O *D sky130_fd_sc_hd__dlxtp_1
*CAP
1 *1516:S 0
2 *1644:Q 0.000240453
3 *267:8 0.000240453
4 *267:8 *1489:S1 0.000127134
5 *267:8 *271:28 9.28078e-06
6 *267:8 *419:24 0.000315399
7 *229:37 *267:8 4.12916e-05
*RES
1 *1644:Q *267:8 42.7229 
2 *267:8 *1516:S 38 
*END

*D_NET *268 0.00120004
*CONN
*I *1515:S I *D sky130_fd_sc_hd__mux2_1
*I *1645:Q O *D sky130_fd_sc_hd__dlxtp_1
*CAP
1 *1515:S 0
2 *1645:Q 0.000333411
3 *268:10 0.000333411
4 *268:10 *335:8 0
5 *268:10 *538:10 0
6 *268:10 *579:107 0
7 *268:10 *631:170 0.000183733
8 *268:10 *632:112 0
9 *268:10 *687:26 0.000349487
*RES
1 *1645:Q *268:10 44.7736 
2 *268:10 *1515:S 38 
*END

*D_NET *269 0.00218905
*CONN
*I *1514:S I *D sky130_fd_sc_hd__mux2_1
*I *1646:Q O *D sky130_fd_sc_hd__dlxtp_1
*CAP
1 *1514:S 0
2 *1646:Q 0.000633559
3 *269:14 0.000633559
4 *269:14 *1463:A1 6.69637e-06
5 *269:14 *1612:D 9.03816e-05
6 *269:14 *537:75 5.50049e-05
7 *269:14 *561:22 0.000340054
8 *269:14 *569:30 1.47064e-05
9 *269:14 *682:22 9.75779e-05
10 *173:17 *269:14 0.000317515
*RES
1 *1646:Q *269:14 49.1029 
2 *269:14 *1514:S 38 
*END

*D_NET *270 0.0123206
*CONN
*I *1492:S I *D sky130_fd_sc_hd__mux2_1
*I *1489:S0 I *D sky130_fd_sc_hd__mux4_1
*I *1491:A2 I *D sky130_fd_sc_hd__o21ba_1
*I *1490:B I *D sky130_fd_sc_hd__nand2b_1
*I *1647:Q O *D sky130_fd_sc_hd__dlxtp_1
*CAP
1 *1492:S 0
2 *1489:S0 0.000221343
3 *1491:A2 0
4 *1490:B 0
5 *1647:Q 0.000188987
6 *270:49 0.000296714
7 *270:42 0.000359785
8 *270:30 0.00168099
9 *270:16 0.00174033
10 *270:8 0.000683482
11 *1489:S0 *1489:A1 2.17548e-05
12 *1489:S0 *272:20 5.95625e-06
13 *1489:S0 *420:6 0.000187692
14 *1489:S0 *543:30 0.000169172
15 *1489:S0 *648:38 0.000187692
16 *1489:S0 *650:32 2.41841e-05
17 *270:8 *1595:GATE 0.000132912
18 *270:8 *563:30 0.000112538
19 *270:8 *633:16 8.48124e-05
20 *270:8 *668:16 8.04817e-05
21 *270:8 *672:14 3.48671e-05
22 *270:8 *692:26 1.83235e-05
23 *270:16 *1492:A1 1.14452e-05
24 *270:16 *297:14 8.04828e-05
25 *270:16 *638:30 0.000515869
26 *270:16 *675:26 1.34727e-05
27 *270:30 *1765:A 0.000295279
28 *270:30 *292:18 9.4798e-06
29 *270:30 *297:14 7.06542e-05
30 *270:30 *342:12 8.30566e-06
31 *270:30 *468:18 5.36891e-05
32 *270:30 *515:48 2.05503e-05
33 *270:30 *538:18 0.00108915
34 *270:30 *543:30 6.56284e-05
35 *270:30 *585:122 8.11046e-05
36 *270:30 *650:47 5.56078e-05
37 *270:30 *673:26 0.00151396
38 *270:30 *675:26 6.69637e-06
39 *270:30 *680:26 5.1924e-05
40 *270:30 *681:24 0.000903846
41 *270:30 *684:18 9.59978e-05
42 *270:42 *1491:A1 1.28818e-05
43 *270:42 *544:30 0.00047525
44 *270:42 *585:106 7.34249e-05
45 *270:42 *638:14 6.39489e-06
46 *270:42 *680:26 1.29348e-05
47 *270:42 *683:26 0.000480713
48 *270:49 *272:20 2.75733e-06
49 *270:49 *543:30 5.8447e-05
50 *229:33 *270:42 2.26497e-05
*RES
1 *1647:Q *270:8 42.0186 
2 *270:8 *270:16 37.0636 
3 *270:16 *270:30 26.2749 
4 *270:30 *270:42 33.1761 
5 *270:42 *1490:B 23 
6 *270:30 *270:49 1.02536 
7 *270:49 *1491:A2 38 
8 *270:49 *1489:S0 43.2821 
9 *270:16 *1492:S 38 
*END

*D_NET *271 0.0100138
*CONN
*I *1493:B2 I *D sky130_fd_sc_hd__a221o_1
*I *1491:B1_N I *D sky130_fd_sc_hd__o21ba_1
*I *1489:S1 I *D sky130_fd_sc_hd__mux4_1
*I *1648:Q O *D sky130_fd_sc_hd__dlxtp_1
*CAP
1 *1493:B2 3.77123e-06
2 *1491:B1_N 0.000314961
3 *1489:S1 9.34497e-05
4 *1648:Q 0.000419748
5 *271:45 0.000977087
6 *271:28 0.00158417
7 *271:16 0.00125211
8 *1489:S1 *547:42 2.05503e-05
9 *1491:B1_N *1491:A1 0.00014251
10 *1491:B1_N *272:20 1.1122e-05
11 *1491:B1_N *417:8 0
12 *1491:B1_N *418:8 0.000108106
13 *1491:B1_N *418:20 2.00313e-05
14 *1491:B1_N *534:22 0
15 *1491:B1_N *585:106 0
16 *1491:B1_N *638:20 2.00313e-05
17 *1491:B1_N *650:32 0.000140814
18 *1493:B2 *1469:A0 1.4006e-05
19 *1493:B2 *419:32 1.28818e-05
20 *271:16 *290:8 2.05503e-05
21 *271:16 *326:10 0.000141215
22 *271:16 *630:26 0.000431787
23 *271:16 *648:18 2.05503e-05
24 *271:28 *547:42 4.77667e-05
25 *271:28 *560:32 0.000297826
26 *271:28 *582:30 0.00143749
27 *271:28 *617:53 0.00144481
28 *271:28 *682:34 3.83407e-05
29 *271:45 *272:10 0.000112695
30 *271:45 *272:20 9.28078e-06
31 *271:45 *360:12 7.89973e-05
32 *271:45 *419:24 0.000474769
33 *271:45 *543:30 0.000135037
34 *271:45 *587:131 5.61255e-06
35 *229:37 *1489:S1 4.52972e-05
36 *267:8 *1489:S1 0.000127134
37 *267:8 *271:28 9.28078e-06
*RES
1 *1648:Q *271:16 45.7989 
2 *271:16 *271:28 24.9455 
3 *271:28 *1489:S1 39.9057 
4 *271:28 *271:45 39.1971 
5 *271:45 *1491:B1_N 44.613 
6 *271:45 *1493:B2 38.1502 
*END

*D_NET *272 0.00254532
*CONN
*I *1493:C1 I *D sky130_fd_sc_hd__a221o_1
*I *1450:A I *D sky130_fd_sc_hd__inv_1
*I *1649:Q O *D sky130_fd_sc_hd__dlxtp_1
*CAP
1 *1493:C1 0
2 *1450:A 1.66889e-05
3 *1649:Q 0.000338902
4 *272:20 0.00028621
5 *272:10 0.000608423
6 *1450:A *1491:A1 5.12055e-06
7 *1450:A *358:10 4.81753e-06
8 *272:10 *358:10 0.000171244
9 *272:10 *360:12 1.98354e-05
10 *272:10 *537:52 5.56279e-05
11 *272:10 *558:42 6.92184e-05
12 *272:10 *559:48 2.18286e-05
13 *272:10 *564:10 3.33763e-05
14 *272:20 *358:10 0.000381654
15 *272:20 *418:8 5.00353e-05
16 *272:20 *543:30 1.02219e-05
17 *272:20 *638:20 9.28078e-06
18 *272:20 *650:32 0.000265749
19 *272:20 *650:47 7.71219e-06
20 *1489:S0 *272:20 5.95625e-06
21 *1491:B1_N *272:20 1.1122e-05
22 *161:19 *272:10 9.89529e-06
23 *163:19 *272:10 1.48145e-05
24 *229:33 *1450:A 1.60333e-05
25 *229:33 *272:20 6.82228e-06
26 *270:49 *272:20 2.75733e-06
27 *271:45 *272:10 0.000112695
28 *271:45 *272:20 9.28078e-06
*RES
1 *1649:Q *272:10 43.8207 
2 *272:10 *272:20 36.4629 
3 *272:20 *1450:A 38.4764 
4 *272:10 *1493:C1 38 
*END

*D_NET *273 0.0072629
*CONN
*I *1486:S I *D sky130_fd_sc_hd__mux2_1
*I *1484:B I *D sky130_fd_sc_hd__nand2b_1
*I *1483:S0 I *D sky130_fd_sc_hd__mux4_1
*I *1485:A2 I *D sky130_fd_sc_hd__o21ba_1
*I *1650:Q O *D sky130_fd_sc_hd__dlxtp_1
*CAP
1 *1486:S 0.00032774
2 *1484:B 7.32732e-05
3 *1483:S0 0
4 *1485:A2 0
5 *1650:Q 0.000465118
6 *273:34 0.000341154
7 *273:24 0.000741431
8 *273:14 0.000908969
9 *273:12 0.000763159
10 *273:10 0.000465118
11 *1484:B *475:16 1.28019e-05
12 *1484:B *645:34 1.10532e-05
13 *1484:B *652:36 7.01246e-05
14 *1486:S *468:18 0.000115662
15 *1486:S *500:8 2.33476e-05
16 *1486:S *509:30 2.64616e-05
17 *1486:S *572:34 8.8898e-05
18 *1486:S *652:54 2.93747e-05
19 *1486:S *654:34 4.40119e-05
20 *1486:S *691:28 2.11066e-05
21 *273:10 *485:18 0
22 *273:10 *514:10 0.000561543
23 *273:10 *632:146 3.41998e-06
24 *273:10 *632:150 1.75737e-05
25 *273:14 *468:18 8.37399e-05
26 *273:14 *561:22 6.77129e-05
27 *273:14 *654:34 0.000160359
28 *273:24 *275:27 5.50049e-05
29 *273:24 *414:10 2.05503e-05
30 *273:24 *561:22 0.000649029
31 *273:24 *654:34 0.000172991
32 *273:24 *662:20 7.57281e-06
33 *273:34 *275:27 0.00027672
34 *273:34 *474:6 0.000221084
35 *273:34 *490:28 5.64492e-05
36 *273:34 *649:30 5.3304e-05
37 *273:34 *669:34 0.000272687
38 *273:34 *688:14 5.43589e-05
*RES
1 *1650:Q *273:10 46.6896 
2 *273:10 *273:12 8 
3 *273:12 *273:14 1.17227 
4 *273:14 *273:24 25.2006 
5 *273:24 *273:34 37.3329 
6 *273:34 *1485:A2 23 
7 *273:24 *1483:S0 23 
8 *273:14 *1484:B 47.45 
9 *273:12 *1486:S 47.8572 
*END

*D_NET *274 0.000894675
*CONN
*I *1453:S I *D sky130_fd_sc_hd__mux2_1
*I *1624:Q O *D sky130_fd_sc_hd__dlxtp_1
*CAP
1 *1453:S 8.83024e-05
2 *1624:Q 0.000123257
3 *274:8 0.00021156
4 *1453:S *1453:A1 5.3304e-05
5 *1453:S *578:55 1.24376e-05
6 *1453:S *581:108 3.12775e-05
7 *274:8 *1591:GATE 0.000180002
8 *274:8 *586:51 3.39102e-05
9 *274:8 *586:66 0.000160624
*RES
1 *1624:Q *274:8 40.61 
2 *274:8 *1453:S 39.595 
*END

*D_NET *275 0.00528586
*CONN
*I *1487:B2 I *D sky130_fd_sc_hd__a221o_1
*I *1483:S1 I *D sky130_fd_sc_hd__mux4_1
*I *1485:B1_N I *D sky130_fd_sc_hd__o21ba_1
*I *1651:Q O *D sky130_fd_sc_hd__dlxtp_1
*CAP
1 *1487:B2 0
2 *1483:S1 0
3 *1485:B1_N 0
4 *1651:Q 0.000283016
5 *275:42 0.000239954
6 *275:27 0.000580118
7 *275:16 0.000801502
8 *275:12 0.000744353
9 *275:12 *628:108 0.000230604
10 *275:16 *490:28 1.76693e-05
11 *275:16 *548:68 0.00063994
12 *275:16 *577:44 0
13 *275:16 *614:76 1.53559e-05
14 *275:16 *688:14 0.000355322
15 *275:27 *410:10 5.41385e-05
16 *275:27 *649:30 0.000213055
17 *275:27 *652:36 0.000123275
18 *275:27 *669:34 0.000137651
19 *275:27 *685:37 2.50451e-05
20 *275:42 *1487:B1 2.85479e-05
21 *275:42 *1487:C1 0.000234707
22 *275:42 *410:10 8.56254e-05
23 *275:42 *475:16 8.81977e-05
24 *275:42 *652:36 5.6061e-05
25 *273:24 *275:27 5.50049e-05
26 *273:34 *275:27 0.00027672
*RES
1 *1651:Q *275:12 42.1739 
2 *275:12 *275:16 24.8289 
3 *275:16 *1485:B1_N 23 
4 *275:16 *275:27 8.41 
5 *275:27 *1483:S1 23 
6 *275:27 *275:42 35.3443 
7 *275:42 *1487:B2 23 
*END

*D_NET *276 0.0042589
*CONN
*I *1487:C1 I *D sky130_fd_sc_hd__a221o_1
*I *1449:A I *D sky130_fd_sc_hd__inv_2
*I *1652:Q O *D sky130_fd_sc_hd__dlxtp_1
*CAP
1 *1487:C1 0.000477786
2 *1449:A 0
3 *1652:Q 0.000530214
4 *276:10 0.001008
5 *1487:C1 *1487:B1 5.71958e-05
6 *1487:C1 *475:16 5.16989e-05
7 *1487:C1 *526:54 1.05441e-05
8 *1487:C1 *590:137 0.000140259
9 *1487:C1 *632:112 0.000587618
10 *1487:C1 *687:36 0.000172737
11 *276:10 *491:34 0.000657536
12 *276:10 *526:54 0.000161817
13 *276:10 *632:112 3.54739e-05
14 *276:10 *632:124 0.000133316
15 *275:42 *1487:C1 0.000234707
*RES
1 *1652:Q *276:10 47.5493 
2 *276:10 *1449:A 38 
3 *276:10 *1487:C1 48.6679 
*END

*D_NET *277 0.00108781
*CONN
*I *1452:S I *D sky130_fd_sc_hd__mux2_1
*I *1625:Q O *D sky130_fd_sc_hd__dlxtp_1
*CAP
1 *1452:S 0
2 *1625:Q 0.00025207
3 *277:10 0.00025207
4 *277:10 *556:28 0.000136027
5 *277:10 *559:30 4.13457e-05
6 N4BEG[1] *277:10 4.71036e-05
7 *135:10 *277:10 0.000209516
8 *143:14 *277:10 0.000149682
*RES
1 *1625:Q *277:10 43.3443 
2 *277:10 *1452:S 38 
*END

*D_NET *278 0.000551664
*CONN
*I *1451:S I *D sky130_fd_sc_hd__mux2_1
*I *1626:Q O *D sky130_fd_sc_hd__dlxtp_1
*CAP
1 *1451:S 0.000140952
2 *1626:Q 0.000140952
3 *1451:S *683:18 0.000214756
4 *1451:S *692:12 5.50049e-05
*RES
1 *1626:Q *1451:S 49.0243 
*END

*D_NET *279 0.0026316
*CONN
*I *1533:S I *D sky130_fd_sc_hd__mux2_1
*I *1627:Q O *D sky130_fd_sc_hd__dlxtp_1
*CAP
1 *1533:S 8.63863e-05
2 *1627:Q 0.000865422
3 *279:16 0.000951808
4 *1533:S *1533:A1 9.01952e-05
5 *1533:S *626:41 0.000175903
6 *279:16 *1627:GATE 2.51896e-05
7 *279:16 *1686:A 7.86537e-05
8 *279:16 *1687:A 0
9 *279:16 *520:8 5.50049e-05
10 *279:16 *563:14 0.000109762
11 *279:16 *590:118 1.6532e-05
12 *279:16 *620:57 0
13 *279:16 *626:43 2.18506e-05
14 *279:16 *638:30 9.71587e-05
15 *279:16 *649:24 2.05503e-05
16 *279:16 *676:16 3.71796e-05
*RES
1 *1627:Q *279:16 49.9936 
2 *279:16 *1533:S 40.0507 
*END

*D_NET *280 0.000936728
*CONN
*I *1532:S I *D sky130_fd_sc_hd__mux2_1
*I *1628:Q O *D sky130_fd_sc_hd__dlxtp_1
*CAP
1 *1532:S 0
2 *1628:Q 0.000269479
3 *280:10 0.000269479
4 *280:10 *563:30 3.78859e-05
5 *280:10 *632:78 0.000151079
6 *280:10 *672:14 0.000153169
7 *280:10 *692:30 5.56356e-05
*RES
1 *1628:Q *280:10 42.3086 
2 *280:10 *1532:S 38 
*END

*D_NET *281 0.00166121
*CONN
*I *1531:S I *D sky130_fd_sc_hd__mux2_1
*I *1629:Q O *D sky130_fd_sc_hd__dlxtp_1
*CAP
1 *1531:S 0
2 *1629:Q 0.000555755
3 *281:10 0.000555755
4 *281:10 *321:8 2.07642e-05
5 *281:10 *545:30 0.000215109
6 *281:10 *553:36 1.76335e-05
7 *281:10 *588:41 5.63702e-05
8 *281:10 *592:22 9.64028e-05
9 *281:10 *616:22 0.000119264
10 *281:10 *630:113 1.01436e-05
11 *281:10 *667:18 1.40087e-05
*RES
1 *1629:Q *281:10 46.555 
2 *281:10 *1531:S 38 
*END

*D_NET *282 0.000667887
*CONN
*I *1530:S I *D sky130_fd_sc_hd__mux2_1
*I *1630:Q O *D sky130_fd_sc_hd__dlxtp_1
*CAP
1 *1530:S 0
2 *1630:Q 0.000170672
3 *282:10 0.000170672
4 *282:10 *552:60 6.997e-05
5 *282:10 *555:42 0.000159788
6 *282:10 *585:75 9.67842e-05
*RES
1 *1630:Q *282:10 41.3557 
2 *282:10 *1530:S 38 
*END

*D_NET *283 0.00119939
*CONN
*I *1502:B I *D sky130_fd_sc_hd__xnor2_1
*I *1589:Q O *D sky130_fd_sc_hd__dlxtp_1
*CAP
1 *1502:B 0
2 *1589:Q 0.000325479
3 *283:20 0.000325479
4 *283:20 *316:20 8.81364e-05
5 *283:20 *449:24 5.3304e-05
6 *283:20 *449:34 0.000236816
7 *283:20 *517:12 1.16512e-05
8 *283:20 *579:62 6.00434e-05
9 *247:67 *283:20 9.84794e-05
*RES
1 *1589:Q *283:20 45.4364 
2 *283:20 *1502:B 38 
*END

*D_NET *284 0.000612217
*CONN
*I *1503:B I *D sky130_fd_sc_hd__xnor2_1
*I *1590:Q O *D sky130_fd_sc_hd__dlxtp_1
*CAP
1 *1503:B 0.000122228
2 *1590:Q 0.000122228
3 *1503:B *1578:A 0.000100069
4 *1503:B *449:44 5.56279e-05
5 *1503:B *451:8 7.87243e-05
6 *1503:B *577:36 9.41704e-05
7 *249:18 *1503:B 3.91701e-05
*RES
1 *1590:Q *1503:B 49.5007 
*END

*D_NET *285 0.00080209
*CONN
*I *1478:S I *D sky130_fd_sc_hd__mux2_1
*I *1599:Q O *D sky130_fd_sc_hd__dlxtp_1
*CAP
1 *1478:S 0.000107386
2 *1599:Q 0.000107386
3 *1478:S *1478:A1 0.000229801
4 *1478:S *521:32 0.000312497
5 *1478:S *625:134 4.50193e-05
*RES
1 *1599:Q *1478:S 49.9771 
*END

*D_NET *286 0.000692061
*CONN
*I *1477:S I *D sky130_fd_sc_hd__mux2_1
*I *1600:Q O *D sky130_fd_sc_hd__dlxtp_1
*CAP
1 *1477:S 0.000131777
2 *1600:Q 0.000131777
3 *1477:S *1957:A 0.000109052
4 *1477:S *625:154 0.000319454
*RES
1 *1600:Q *1477:S 49.9771 
*END

*D_NET *287 0.00104269
*CONN
*I *1476:S I *D sky130_fd_sc_hd__mux2_1
*I *1601:Q O *D sky130_fd_sc_hd__dlxtp_1
*CAP
1 *1476:S 0
2 *1601:Q 0.000345974
3 *287:10 0.000345974
4 *287:10 *518:26 0.000133653
5 *287:10 *629:22 6.92144e-05
6 *287:10 *640:46 0.000122244
7 *287:10 *656:28 2.56295e-05
*RES
1 *1601:Q *287:10 43.3857 
2 *287:10 *1476:S 38 
*END

*D_NET *288 0.000644324
*CONN
*I *1475:S I *D sky130_fd_sc_hd__mux2_1
*I *1602:Q O *D sky130_fd_sc_hd__dlxtp_1
*CAP
1 *1475:S 0
2 *1602:Q 0.000248945
3 *288:10 0.000248945
4 *288:10 *1475:A1 1.12863e-05
5 *288:10 *625:160 4.6318e-06
6 *288:10 *625:172 6.6869e-05
7 *288:10 *651:21 6.36464e-05
*RES
1 *1602:Q *288:10 41.9564 
2 *288:10 *1475:S 38 
*END

*D_NET *289 0.00102775
*CONN
*I *1474:S I *D sky130_fd_sc_hd__mux2_1
*I *1603:Q O *D sky130_fd_sc_hd__dlxtp_1
*CAP
1 *1474:S 0
2 *1603:Q 0.000337133
3 *289:8 0.000337133
4 *289:8 *1474:A0 4.9662e-05
5 *289:8 *684:42 0.000303822
*RES
1 *1603:Q *289:8 28.8829 
2 *289:8 *1474:S 23 
*END

*D_NET *290 0.000629563
*CONN
*I *1473:S I *D sky130_fd_sc_hd__mux2_1
*I *1604:Q O *D sky130_fd_sc_hd__dlxtp_1
*CAP
1 *1473:S 1.9139e-05
2 *1604:Q 0.000119268
3 *290:8 0.000138407
4 *1473:S *1473:A1 5.3304e-05
5 *1473:S *645:22 5.50049e-05
6 *290:8 *648:18 3.20954e-05
7 *290:8 *648:28 4.51797e-05
8 *290:8 *659:32 0.000146614
9 *271:16 *290:8 2.05503e-05
*RES
1 *1604:Q *290:8 40.2579 
2 *290:8 *1473:S 38.6214 
*END

*D_NET *291 0.000684341
*CONN
*I *1472:S I *D sky130_fd_sc_hd__mux2_1
*I *1605:Q O *D sky130_fd_sc_hd__dlxtp_1
*CAP
1 *1472:S 0.000214282
2 *1605:Q 0.000214282
3 *1472:S *652:54 0.00022706
4 *1472:S *693:22 9.24795e-06
5 *1523:S *1472:S 1.94693e-05
*RES
1 *1605:Q *1472:S 49.9771 
*END

*D_NET *292 0.00212421
*CONN
*I *1471:S I *D sky130_fd_sc_hd__mux2_1
*I *1606:Q O *D sky130_fd_sc_hd__dlxtp_1
*CAP
1 *1471:S 2.39336e-05
2 *1606:Q 0.000781612
3 *292:18 0.000805546
4 *1471:S *531:26 0.000146822
5 *1471:S *627:30 0.000144501
6 *292:18 *1638:GATE 2.93335e-05
7 *292:18 *373:8 0
8 *292:18 *458:28 3.41998e-06
9 *292:18 *460:27 4.93356e-05
10 *292:18 *460:46 5.86201e-05
11 *292:18 *543:30 2.82248e-05
12 *292:18 *585:122 2.05503e-05
13 *292:18 *604:10 1.62061e-05
14 *292:18 *650:47 2.75733e-06
15 *292:18 *673:26 3.87221e-06
16 *270:30 *292:18 9.4798e-06
*RES
1 *1606:Q *292:18 49.0407 
2 *292:18 *1471:S 39.5743 
*END

*D_NET *293 0.000802441
*CONN
*I *1470:S I *D sky130_fd_sc_hd__mux2_1
*I *1607:Q O *D sky130_fd_sc_hd__dlxtp_1
*CAP
1 *1470:S 9.82648e-05
2 *1607:Q 9.82648e-05
3 *1470:S *1517:A0 0.000273281
4 *1470:S *471:86 5.79682e-05
5 *1470:S *649:46 0.000225282
6 *1470:S *684:42 4.93812e-05
*RES
1 *1607:Q *1470:S 49.9771 
*END

*D_NET *294 0.00077349
*CONN
*I *1469:S I *D sky130_fd_sc_hd__mux2_1
*I *1608:Q O *D sky130_fd_sc_hd__dlxtp_1
*CAP
1 *1469:S 0
2 *1608:Q 0.000250478
3 *294:10 0.000250478
4 *294:10 *545:30 0.00010018
5 *294:10 *630:58 1.24376e-05
6 *294:10 *638:14 0.000149532
7 *294:10 *639:12 1.03836e-05
*RES
1 *1608:Q *294:10 41.8321 
2 *294:10 *1469:S 38 
*END

*D_NET *295 0.000457673
*CONN
*I *1482:S0 I *D sky130_fd_sc_hd__mux4_1
*I *1591:Q O *D sky130_fd_sc_hd__dlxtp_1
*CAP
1 *1482:S0 2.32701e-05
2 *1591:Q 9.82095e-05
3 *295:8 0.00012148
4 *1482:S0 *578:55 5.3304e-05
5 *1482:S0 *581:108 5.3304e-05
6 *295:8 *1624:GATE 0
7 *295:8 *619:42 0.000108106
*RES
1 *1591:Q *295:8 39.5536 
2 *295:8 *1482:S0 38.6214 
*END

*D_NET *296 0.000760904
*CONN
*I *1468:S I *D sky130_fd_sc_hd__mux2_1
*I *1609:Q O *D sky130_fd_sc_hd__dlxtp_1
*CAP
1 *1468:S 0
2 *1609:Q 0.000242684
3 *296:12 0.000242684
4 *296:12 *500:8 6.6869e-05
5 *296:12 *503:10 0.000138718
6 *296:12 *579:115 6.99492e-05
*RES
1 *1609:Q *296:12 42.1014 
2 *296:12 *1468:S 38 
*END

*D_NET *297 0.00237388
*CONN
*I *1467:S I *D sky130_fd_sc_hd__mux2_1
*I *1610:Q O *D sky130_fd_sc_hd__dlxtp_1
*CAP
1 *1467:S 8.4298e-05
2 *1610:Q 0.000524944
3 *297:14 0.000609242
4 *1467:S *558:28 9.96184e-06
5 *1467:S *625:32 0.000137301
6 *1467:S *641:10 5.3304e-05
7 *1467:S *677:30 1.87814e-05
8 *297:14 *1492:A1 0.000106623
9 *297:14 *332:20 5.64492e-05
10 *297:14 *515:48 3.79996e-05
11 *297:14 *543:20 5.3304e-05
12 *297:14 *620:40 4.34973e-05
13 *297:14 *641:20 0.000487036
14 *270:16 *297:14 8.04828e-05
15 *270:30 *297:14 7.06542e-05
*RES
1 *1610:Q *297:14 47.5286 
2 *297:14 *1467:S 40.0714 
*END

*D_NET *298 0.000756912
*CONN
*I *1466:S I *D sky130_fd_sc_hd__mux2_1
*I *1611:Q O *D sky130_fd_sc_hd__dlxtp_1
*CAP
1 *1466:S 0
2 *1611:Q 0.000283618
3 *298:14 0.000283618
4 *298:14 *471:62 5.52998e-05
5 *298:14 *485:18 1.59355e-05
6 *298:14 *514:10 0.000118441
*RES
1 *1611:Q *298:14 42.1221 
2 *298:14 *1466:S 38 
*END

*D_NET *299 0.000594344
*CONN
*I *1465:S I *D sky130_fd_sc_hd__mux2_1
*I *1612:Q O *D sky130_fd_sc_hd__dlxtp_1
*CAP
1 *1465:S 3.59271e-05
2 *1612:Q 0.00011762
3 *299:8 0.000153547
4 *1465:S *587:147 6.17437e-06
5 *1465:S *587:164 2.64616e-05
6 *1465:S *664:14 2.64616e-05
7 *299:8 *569:30 4.24693e-05
8 *299:8 *644:10 3.61511e-05
9 *1856:A *299:8 0.000149532
*RES
1 *1612:Q *299:8 40.2579 
2 *299:8 *1465:S 38.6214 
*END

*D_NET *300 0.000643207
*CONN
*I *1464:S I *D sky130_fd_sc_hd__mux2_1
*I *1613:Q O *D sky130_fd_sc_hd__dlxtp_1
*CAP
1 *1464:S 0.000129351
2 *1613:Q 0.000129351
3 *1464:S *579:115 0.000267587
4 *1464:S *586:93 0.000100403
5 *1464:S *586:106 1.65153e-05
*RES
1 *1613:Q *1464:S 49.9771 
*END

*D_NET *301 0.000275125
*CONN
*I *1463:S I *D sky130_fd_sc_hd__mux2_1
*I *1614:Q O *D sky130_fd_sc_hd__dlxtp_1
*CAP
1 *1463:S 7.63962e-05
2 *1614:Q 7.63962e-05
3 *1463:S *1463:A0 2.64616e-05
4 *1463:S *1614:GATE 0
5 *1463:S *686:28 9.58714e-05
*RES
1 *1614:Q *1463:S 47.595 
*END

*D_NET *302 0.00100414
*CONN
*I *1462:S I *D sky130_fd_sc_hd__mux2_1
*I *1615:Q O *D sky130_fd_sc_hd__dlxtp_1
*CAP
1 *1462:S 0
2 *1615:Q 0.000353294
3 *302:10 0.000353294
4 *302:10 *660:22 2.81066e-05
5 *302:10 *661:12 0.000128282
6 *302:10 *670:16 3.75094e-05
7 *302:10 *686:16 0.000103653
*RES
1 *1615:Q *302:10 42.9093 
2 *302:10 *1462:S 38 
*END

*D_NET *303 0.00025146
*CONN
*I *1461:S I *D sky130_fd_sc_hd__mux2_1
*I *1616:Q O *D sky130_fd_sc_hd__dlxtp_1
*CAP
1 *1461:S 6.0399e-05
2 *1616:Q 6.0399e-05
3 *1461:S *540:20 2.38288e-05
4 *1461:S *678:12 0.000106833
*RES
1 *1616:Q *1461:S 47.595 
*END

*D_NET *304 0.000622527
*CONN
*I *1460:S I *D sky130_fd_sc_hd__mux2_1
*I *1617:Q O *D sky130_fd_sc_hd__dlxtp_1
*CAP
1 *1460:S 0
2 *1617:Q 0.000188954
3 *304:10 0.000188954
4 *304:10 *561:30 0.000145895
5 *304:10 *564:20 4.30882e-05
6 *304:10 *587:145 5.56356e-05
*RES
1 *1617:Q *304:10 41.0036 
2 *304:10 *1460:S 38 
*END

*D_NET *305 0.000630768
*CONN
*I *1459:S I *D sky130_fd_sc_hd__mux2_1
*I *1618:Q O *D sky130_fd_sc_hd__dlxtp_1
*CAP
1 *1459:S 0.000215166
2 *1618:Q 0.000215166
3 *1459:S *346:10 5.50106e-05
4 *1459:S *470:36 2.43944e-05
5 *1459:S *663:32 0.00012103
*RES
1 *1618:Q *1459:S 49.9771 
*END

*D_NET *306 0.00189604
*CONN
*I *1482:S1 I *D sky130_fd_sc_hd__mux4_1
*I *1592:Q O *D sky130_fd_sc_hd__dlxtp_1
*CAP
1 *1482:S1 0
2 *1592:Q 0.000523432
3 *306:12 0.000523432
4 *306:12 *474:6 0.000261206
5 *306:12 *515:67 0.000183753
6 *306:12 *547:26 0.000393262
7 *306:12 *619:42 0
8 *306:12 *627:124 1.09562e-05
9 *306:12 *676:16 0
*RES
1 *1592:Q *306:12 48.1293 
2 *306:12 *1482:S1 38 
*END

*D_NET *307 0.00157133
*CONN
*I *1458:S I *D sky130_fd_sc_hd__mux2_1
*I *1619:Q O *D sky130_fd_sc_hd__dlxtp_1
*CAP
1 *1458:S 0
2 *1619:Q 0.000378511
3 *307:10 0.000378511
4 *307:10 *578:74 0.000336499
5 *307:10 *579:84 6.38845e-05
6 *307:10 *579:130 0.000272605
7 *307:10 *613:44 4.96717e-05
8 *307:10 *613:51 9.16459e-05
*RES
1 *1619:Q *307:10 45.7264 
2 *307:10 *1458:S 38 
*END

*D_NET *308 0.000410675
*CONN
*I *1457:S I *D sky130_fd_sc_hd__mux2_1
*I *1620:Q O *D sky130_fd_sc_hd__dlxtp_1
*CAP
1 *1457:S 6.08046e-05
2 *1620:Q 6.08046e-05
3 *1457:S *489:36 0.000185428
4 *1457:S *614:89 0.000103637
*RES
1 *1620:Q *1457:S 48.5479 
*END

*D_NET *309 0.000893214
*CONN
*I *1481:S0 I *D sky130_fd_sc_hd__mux4_1
*I *1593:Q O *D sky130_fd_sc_hd__dlxtp_1
*CAP
1 *1481:S0 9.59109e-05
2 *1593:Q 9.59109e-05
3 *1481:S0 *537:38 0.000348911
4 *1481:S0 *580:77 0.000352481
*RES
1 *1593:Q *1481:S0 49.9564 
*END

*D_NET *310 0.00109463
*CONN
*I *1481:S1 I *D sky130_fd_sc_hd__mux4_1
*I *1594:Q O *D sky130_fd_sc_hd__dlxtp_1
*CAP
1 *1481:S1 0
2 *1594:Q 0.00028291
3 *310:10 0.00028291
4 *310:10 *559:48 0.000266896
5 N4BEG[12] *310:10 0.000130958
6 *133:12 *310:10 0.000130958
*RES
1 *1594:Q *310:10 42.9093 
2 *310:10 *1481:S1 38 
*END

*D_NET *311 0.0016162
*CONN
*I *1480:S0 I *D sky130_fd_sc_hd__mux4_1
*I *1595:Q O *D sky130_fd_sc_hd__dlxtp_1
*CAP
1 *1480:S0 0
2 *1595:Q 0.000448298
3 *311:10 0.000448298
4 *311:10 *547:16 0.00030605
5 *311:10 *631:18 0.000302982
6 *311:10 *631:170 2.64616e-05
7 *311:10 *632:93 8.41122e-05
*RES
1 *1595:Q *311:10 45.8507 
2 *311:10 *1480:S0 38 
*END

*D_NET *312 0.00231959
*CONN
*I *1480:S1 I *D sky130_fd_sc_hd__mux4_1
*I *1596:Q O *D sky130_fd_sc_hd__dlxtp_1
*CAP
1 *1480:S1 0.000754225
2 *1596:Q 7.1968e-05
3 *312:8 0.000826193
4 *1480:S1 *1480:A2 2.35426e-05
5 *1480:S1 *590:137 6.70361e-05
6 *1480:S1 *626:41 0.000479329
7 *312:8 *669:28 1.62061e-05
8 *67:23 *312:8 8.10876e-05
*RES
1 *1596:Q *312:8 39.2014 
2 *312:8 *1480:S1 49.1443 
*END

*D_NET *313 0.00156459
*CONN
*I *1479:S0 I *D sky130_fd_sc_hd__mux4_1
*I *1597:Q O *D sky130_fd_sc_hd__dlxtp_1
*CAP
1 *1479:S0 0.000139711
2 *1597:Q 0.000207726
3 *313:8 0.000347437
4 *1479:S0 *1479:A0 6.12282e-05
5 *1479:S0 *557:12 0.000353097
6 *313:8 *546:12 0.000180237
7 *313:8 *547:42 0.000135159
8 *313:8 *551:24 6.63624e-05
9 *313:8 *578:99 4.56316e-05
10 *313:8 *617:28 2.79972e-05
*RES
1 *1597:Q *313:8 42.3707 
2 *313:8 *1479:S0 41.9564 
*END

*D_NET *314 0.00340585
*CONN
*I *1479:S1 I *D sky130_fd_sc_hd__mux4_1
*I *1598:Q O *D sky130_fd_sc_hd__dlxtp_1
*CAP
1 *1479:S1 0
2 *1598:Q 0.00015603
3 *314:24 0.000643856
4 *314:10 0.000799886
5 *314:10 *446:8 2.47015e-05
6 *314:10 *551:24 8.82268e-05
7 *314:10 *589:77 0.000205907
8 *314:10 *617:28 7.37814e-06
9 *314:24 *1469:A1 0
10 *314:24 *1510:A 9.31932e-05
11 *314:24 *438:12 0.000291803
12 *314:24 *608:40 1.84049e-05
13 *314:24 *631:106 0.000131655
14 *314:24 *656:28 0.000716047
15 *314:24 *684:18 0.000228764
*RES
1 *1598:Q *314:10 49.1382 
2 *314:10 *314:24 29.6602 
3 *314:24 *1479:S1 23 
*END

*D_NET *315 0.00540921
*CONN
*I *1501:B I *D sky130_fd_sc_hd__xnor2_1
*I *1587:Q O *D sky130_fd_sc_hd__dlxtp_1
*CAP
1 *1501:B 0
2 *1587:Q 0.000972739
3 *315:22 0.000546494
4 *315:10 0.00151923
5 *315:10 *1454:A1 0.000241904
6 *315:10 *1456:A1 0.000399291
7 *315:10 *351:10 2.46906e-05
8 *315:10 *484:14 2.35238e-05
9 *315:10 *585:149 5.56466e-05
10 *315:10 *674:28 5.3304e-05
11 *315:10 *676:26 0.000295569
12 *315:22 *1589:GATE 0.000179752
13 *315:22 *487:18 7.34025e-05
14 *315:22 *577:36 0.000428019
15 *315:22 *631:38 0.000265472
16 *246:14 *315:22 0.00030542
17 *251:8 *315:10 2.4754e-05
*RES
1 *1587:Q *315:10 41.2907 
2 *315:10 *315:22 41.9729 
3 *315:22 *1501:B 23 
*END

*D_NET *316 0.00646287
*CONN
*I *1504:B I *D sky130_fd_sc_hd__xnor2_1
*I *1588:Q O *D sky130_fd_sc_hd__dlxtp_1
*CAP
1 *1504:B 0
2 *1588:Q 0.000511459
3 *316:20 0.000936409
4 *316:10 0.00144787
5 *316:10 *1758:A 9.84851e-05
6 *316:10 *614:46 0.000719692
7 *316:10 *619:42 0.000123655
8 *316:10 *635:12 0.00137572
9 *316:20 *389:18 2.76611e-06
10 *316:20 *449:24 2.02872e-05
11 *316:20 *570:24 5.83407e-05
12 *316:20 *570:35 1.76557e-05
13 *316:20 *579:62 0.000434153
14 *1574:A2 *316:20 4.30894e-05
15 *247:48 *316:20 0.000194763
16 *247:67 *316:20 0
17 *248:37 *316:20 0.0001641
18 *248:58 *316:20 0.000226295
19 *283:20 *316:20 8.81364e-05
*RES
1 *1588:Q *316:10 42.5957 
2 *316:10 *316:20 45.7429 
3 *316:20 *1504:B 23 
*END

*D_NET *317 0.000828545
*CONN
*I *1732:A I *D sky130_fd_sc_hd__buf_1
*I *1482:X O *D sky130_fd_sc_hd__mux4_1
*CAP
1 *1732:A 2.71563e-05
2 *1482:X 0.000190429
3 *317:10 0.000217585
4 *1732:A *584:115 1.09903e-05
5 *317:10 *578:55 2.46348e-05
6 *317:10 *676:16 0.000178879
7 *67:15 *317:10 0.00017887
*RES
1 *1482:X *317:10 41.2314 
2 *317:10 *1732:A 38.58 
*END

*D_NET *318 0.00160996
*CONN
*I *1733:A I *D sky130_fd_sc_hd__clkbuf_1
*I *1481:X O *D sky130_fd_sc_hd__mux4_1
*CAP
1 *1733:A 0
2 *1481:X 0.000354488
3 *318:8 0.000354488
4 *318:8 *368:8 0.000504774
5 *318:8 *557:18 6.28155e-05
6 *318:8 *592:58 6.72648e-05
7 *144:12 *318:8 0.000266131
*RES
1 *1481:X *318:8 45.54 
2 *318:8 *1733:A 38 
*END

*D_NET *319 0.000886933
*CONN
*I *1734:A I *D sky130_fd_sc_hd__buf_1
*I *1480:X O *D sky130_fd_sc_hd__mux4_1
*CAP
1 *1734:A 0
2 *1480:X 0.000220963
3 *319:10 0.000220963
4 *319:10 *1704:A 7.42552e-05
5 *319:10 *548:68 0.000135557
6 *319:10 *590:137 0.000136743
7 *319:10 *688:14 9.84519e-05
*RES
1 *1480:X *319:10 42.5364 
2 *319:10 *1734:A 38 
*END

*D_NET *320 0.000321488
*CONN
*I *1735:A I *D sky130_fd_sc_hd__clkbuf_1
*I *1479:X O *D sky130_fd_sc_hd__mux4_1
*CAP
1 *1735:A 1.70892e-05
2 *1479:X 1.70892e-05
3 *1735:A *1479:A0 0.000143655
4 *1735:A *585:106 0.000143655
*RES
1 *1479:X *1735:A 47.5743 
*END

*D_NET *321 0.000717444
*CONN
*I *1736:A I *D sky130_fd_sc_hd__clkbuf_1
*I *1478:X O *D sky130_fd_sc_hd__mux2_1
*CAP
1 *1736:A 4.75819e-05
2 *1478:X 9.2095e-05
3 *321:8 0.000139677
4 *1736:A *592:22 0.000140935
5 *1736:A *616:26 7.43209e-05
6 *321:8 *553:36 0.000131275
7 *321:8 *592:22 7.07958e-05
8 *281:10 *321:8 2.07642e-05
*RES
1 *1478:X *321:8 39.9057 
2 *321:8 *1736:A 39.5743 
*END

*D_NET *322 0.00148088
*CONN
*I *1737:A I *D sky130_fd_sc_hd__clkbuf_1
*I *1477:X O *D sky130_fd_sc_hd__mux2_1
*CAP
1 *1737:A 0.000113316
2 *1477:X 0.000282966
3 *322:10 0.000396282
4 *1737:A *462:8 5.50049e-05
5 *1737:A *523:14 0.000123766
6 *1737:A *592:10 0.000135949
7 *322:10 *1632:GATE 0.000129757
8 *322:10 *1957:A 0.000135037
9 *322:10 *518:26 5.41369e-05
10 *322:10 *559:12 2.26406e-05
11 *322:10 *629:45 3.20252e-05
*RES
1 *1477:X *322:10 42.4329 
2 *322:10 *1737:A 41.48 
*END

*D_NET *323 0.000721291
*CONN
*I *1738:A I *D sky130_fd_sc_hd__clkbuf_1
*I *1476:X O *D sky130_fd_sc_hd__mux2_1
*CAP
1 *1738:A 9.84681e-05
2 *1476:X 0.000138321
3 *323:8 0.000236789
4 *1738:A *463:14 5.50049e-05
5 *1738:A *524:8 2.18506e-05
6 *1738:A *640:46 9.67842e-05
7 *323:8 *629:10 2.26406e-05
8 *323:8 *640:46 1.58805e-05
9 *323:8 *651:14 3.55515e-05
10 *323:8 *656:28 0
*RES
1 *1476:X *323:8 40.2579 
2 *323:8 *1738:A 40.0507 
*END

*D_NET *324 0.00133101
*CONN
*I *1739:A I *D sky130_fd_sc_hd__clkbuf_1
*I *1475:X O *D sky130_fd_sc_hd__mux2_1
*CAP
1 *1739:A 0.000204907
2 *1475:X 0.000142052
3 *324:8 0.000346959
4 *1739:A *464:10 2.64616e-05
5 *324:8 *1632:GATE 7.46267e-05
6 *324:8 *518:26 0.000346334
7 *324:8 *618:16 0.000189672
*RES
1 *1475:X *324:8 42.7229 
2 *324:8 *1739:A 41.0036 
*END

*D_NET *325 0.000391272
*CONN
*I *1740:A I *D sky130_fd_sc_hd__buf_1
*I *1474:X O *D sky130_fd_sc_hd__mux2_1
*CAP
1 *1740:A 7.99769e-05
2 *1474:X 7.99769e-05
3 *1740:A *527:8 5.25848e-05
4 *1740:A *684:42 0.000178733
*RES
1 *1474:X *1740:A 48.4236 
*END

*D_NET *326 0.000480119
*CONN
*I *1741:A I *D sky130_fd_sc_hd__buf_1
*I *1473:X O *D sky130_fd_sc_hd__mux2_1
*CAP
1 *1741:A 0
2 *1473:X 0.000162595
3 *326:10 0.000162595
4 *326:10 *649:8 1.37136e-05
5 *326:10 *672:14 0
6 *271:16 *326:10 0.000141215
*RES
1 *1473:X *326:10 40.4236 
2 *326:10 *1741:A 38 
*END

*D_NET *327 0.00130836
*CONN
*I *1742:A I *D sky130_fd_sc_hd__buf_1
*I *1472:X O *D sky130_fd_sc_hd__mux2_1
*CAP
1 *1742:A 0
2 *1472:X 0.000292368
3 *327:10 0.000292368
4 *327:10 *1605:D 0.000139346
5 *327:10 *1605:GATE 2.64616e-05
6 *327:10 *509:30 0.000402094
7 *327:10 *652:54 0.000155722
*RES
1 *1472:X *327:10 30.3329 
2 *327:10 *1742:A 23 
*END

*D_NET *328 0.0026917
*CONN
*I *1743:A I *D sky130_fd_sc_hd__clkbuf_1
*I *1471:X O *D sky130_fd_sc_hd__mux2_1
*CAP
1 *1743:A 7.11922e-05
2 *1471:X 0.00038434
3 *328:14 0.000455532
4 *1743:A *589:106 0.000268503
5 *1743:A *604:20 0.000112966
6 *328:14 *572:50 0.000148731
7 *328:14 *574:42 0.000479808
8 *328:14 *578:32 5.50106e-05
9 *328:14 *627:30 0.000540371
10 *328:14 *656:20 7.57281e-06
11 *229:8 *328:14 2.64544e-05
12 *229:14 *1743:A 0.000141215
*RES
1 *1471:X *328:14 47.715 
2 *328:14 *1743:A 41.0036 
*END

*D_NET *329 0.00220597
*CONN
*I *1744:A I *D sky130_fd_sc_hd__buf_1
*I *1470:X O *D sky130_fd_sc_hd__mux2_1
*CAP
1 *1744:A 6.97725e-05
2 *1470:X 0.000382987
3 *329:14 0.00045276
4 *1744:A *1607:GATE 9.28078e-06
5 *1744:A *531:10 4.40479e-06
6 *1744:A *588:105 1.30346e-05
7 *1744:A *652:28 5.50049e-05
8 *1744:A *684:32 5.70935e-05
9 *329:14 *415:30 3.36621e-05
10 *329:14 *475:16 2.05503e-05
11 *329:14 *572:34 0.000736219
12 *329:14 *662:20 0.000297343
13 *329:14 *684:42 5.3304e-05
14 *329:14 *687:36 2.05503e-05
*RES
1 *1470:X *329:14 48.3724 
2 *329:14 *1744:A 47.6468 
*END

*D_NET *330 0.000351723
*CONN
*I *1745:A I *D sky130_fd_sc_hd__clkbuf_1
*I *1469:X O *D sky130_fd_sc_hd__mux2_1
*CAP
1 *1745:A 9.65902e-05
2 *1469:X 9.65902e-05
3 *1745:A *519:12 0.000158542
*RES
1 *1469:X *1745:A 47.9471 
*END

*D_NET *331 0.00058506
*CONN
*I *1746:A I *D sky130_fd_sc_hd__buf_1
*I *1468:X O *D sky130_fd_sc_hd__mux2_1
*CAP
1 *1746:A 2.32701e-05
2 *1468:X 7.14398e-05
3 *331:8 9.47099e-05
4 *1746:A *579:115 5.3304e-05
5 *1746:A *586:106 5.3304e-05
6 *331:8 *497:20 8.9458e-05
7 *331:8 *499:14 0.000163352
8 *331:8 *691:28 3.62219e-05
*RES
1 *1468:X *331:8 40.2579 
2 *331:8 *1746:A 38.6214 
*END

*D_NET *332 0.00126801
*CONN
*I *1747:A I *D sky130_fd_sc_hd__buf_1
*I *1467:X O *D sky130_fd_sc_hd__mux2_1
*CAP
1 *1747:A 0
2 *1467:X 0.000144365
3 *332:20 0.000114765
4 *332:10 0.00025913
5 *332:10 *625:32 9.41704e-05
6 *332:10 *659:32 0.000111615
7 *332:10 *675:26 0.000107218
8 *332:20 *1492:A1 5.64492e-05
9 *332:20 *563:30 0.000114604
10 *332:20 *563:36 3.3344e-05
11 *332:20 *668:30 0.000175903
12 *297:14 *332:20 5.64492e-05
*RES
1 *1467:X *332:10 40.6514 
2 *332:10 *332:20 47.9 
3 *332:20 *1747:A 23 
*END

*D_NET *333 0.00110418
*CONN
*I *1748:A I *D sky130_fd_sc_hd__buf_1
*I *1466:X O *D sky130_fd_sc_hd__mux2_1
*CAP
1 *1748:A 4.05375e-05
2 *1466:X 0.000183711
3 *333:8 0.000224249
4 *1748:A *464:58 0.000140259
5 *1748:A *490:36 7.59794e-05
6 *333:8 *491:40 0.000218952
7 *333:8 *503:10 0.000180926
8 *333:8 *514:10 3.95692e-05
*RES
1 *1466:X *333:8 43.075 
2 *333:8 *1748:A 39.5743 
*END

*D_NET *334 0.00023867
*CONN
*I *1749:A I *D sky130_fd_sc_hd__clkbuf_1
*I *1465:X O *D sky130_fd_sc_hd__mux2_1
*CAP
1 *1749:A 6.88178e-05
2 *1465:X 6.88178e-05
3 *1749:A *536:8 1.00493e-05
4 *1749:A *561:30 5.3304e-05
5 *1749:A *587:145 3.7681e-05
*RES
1 *1465:X *1749:A 47.4707 
*END

*D_NET *335 0.000605831
*CONN
*I *1750:A I *D sky130_fd_sc_hd__buf_1
*I *1464:X O *D sky130_fd_sc_hd__mux2_1
*CAP
1 *1750:A 6.54739e-05
2 *1464:X 9.74398e-05
3 *335:8 0.000162914
4 *1750:A *631:170 0.000137651
5 *1750:A *632:106 3.3577e-05
6 *335:8 *538:10 8.62783e-05
7 *335:8 *632:106 2.24973e-05
8 *335:8 *687:26 0
9 *268:10 *335:8 0
*RES
1 *1464:X *335:8 39.9057 
2 *335:8 *1750:A 39.5743 
*END

*D_NET *336 0.000377933
*CONN
*I *1751:A I *D sky130_fd_sc_hd__clkbuf_1
*I *1463:X O *D sky130_fd_sc_hd__mux2_1
*CAP
1 *1751:A 7.28315e-05
2 *1463:X 7.28315e-05
3 *1751:A *686:28 3.53115e-05
4 *175:19 *1751:A 5.50049e-05
5 *229:85 *1751:A 0.000141954
*RES
1 *1463:X *1751:A 48.4236 
*END

*D_NET *337 0.00156724
*CONN
*I *1752:A I *D sky130_fd_sc_hd__buf_1
*I *1462:X O *D sky130_fd_sc_hd__mux2_1
*CAP
1 *1752:A 0
2 *1462:X 0.000406586
3 *337:10 0.000406586
4 *337:10 *547:16 5.49101e-05
5 *337:10 *617:74 5.64492e-05
6 *337:10 *663:32 0.000323692
7 *337:10 *666:16 2.0057e-05
8 *337:10 *683:26 8.04817e-05
9 *337:10 *686:16 0.000218476
*RES
1 *1462:X *337:10 45.25 
2 *337:10 *1752:A 38 
*END

*D_NET *338 0.000628019
*CONN
*I *1753:A I *D sky130_fd_sc_hd__buf_1
*I *1461:X O *D sky130_fd_sc_hd__mux2_1
*CAP
1 *1753:A 0.000210042
2 *1461:X 0.000210042
3 *1753:A *540:10 1.94812e-05
4 *1753:A *547:8 0.000137651
5 *1753:A *678:12 5.08033e-05
*RES
1 *1461:X *1753:A 49.9979 
*END

*D_NET *339 0.00067532
*CONN
*I *1762:A I *D sky130_fd_sc_hd__clkbuf_1
*I *1452:X O *D sky130_fd_sc_hd__mux2_1
*CAP
1 *1762:A 0
2 *1452:X 0.000231782
3 *339:10 0.000231782
4 *339:10 *541:8 3.42069e-05
5 *339:10 *592:34 0.000124902
6 N2BEGb[6] *339:10 2.34911e-05
7 *129:16 *339:10 2.91557e-05
*RES
1 *1452:X *339:10 41.3557 
2 *339:10 *1762:A 38 
*END

*D_NET *340 0.000351518
*CONN
*I *1763:A I *D sky130_fd_sc_hd__buf_1
*I *1451:X O *D sky130_fd_sc_hd__mux2_1
*CAP
1 *1763:A 8.79968e-05
2 *1451:X 8.79968e-05
3 *1763:A *542:16 4.14618e-05
4 *1763:A *683:18 7.73568e-05
5 *1763:A *689:20 5.67058e-05
*RES
1 *1451:X *1763:A 48.4236 
*END

*D_NET *341 0.000471295
*CONN
*I *1764:A I *D sky130_fd_sc_hd__buf_1
*I *1533:X O *D sky130_fd_sc_hd__mux2_1
*CAP
1 *1764:A 0
2 *1533:X 0.000144719
3 *341:10 0.000144719
4 *341:10 *491:22 3.41998e-06
5 *341:10 *626:41 1.05235e-05
6 *341:10 *661:12 0.000135008
7 *341:10 *669:34 3.29044e-05
*RES
1 *1533:X *341:10 40.5271 
2 *341:10 *1764:A 38 
*END

*D_NET *342 0.00204893
*CONN
*I *1765:A I *D sky130_fd_sc_hd__clkbuf_1
*I *1532:X O *D sky130_fd_sc_hd__mux2_1
*CAP
1 *1765:A 0.000265387
2 *1532:X 0.000216864
3 *342:12 0.000482251
4 *1765:A *419:10 3.39123e-05
5 *1765:A *468:18 0.000156414
6 *1765:A *547:26 0
7 *1765:A *583:124 0.000136728
8 *1765:A *590:95 2.82257e-05
9 *1765:A *638:30 5.68576e-05
10 *342:12 *515:48 0.000118932
11 *342:12 *590:95 0.000159509
12 *342:12 *675:26 9.02668e-05
13 *270:30 *1765:A 0.000295279
14 *270:30 *342:12 8.30566e-06
*RES
1 *1532:X *342:12 49.9046 
2 *342:12 *1765:A 49.3158 
*END

*D_NET *343 0.00124163
*CONN
*I *1766:A I *D sky130_fd_sc_hd__clkbuf_1
*I *1531:X O *D sky130_fd_sc_hd__mux2_1
*CAP
1 *1766:A 9.9137e-05
2 *1531:X 0.000200291
3 *343:10 0.000299428
4 *1766:A *1599:GATE 5.20401e-05
5 *1766:A *521:32 3.34247e-05
6 *1766:A *530:32 0.000180522
7 *1766:A *625:134 2.18409e-05
8 *1766:A *625:154 9.29065e-05
9 *343:10 *1967:A 2.64616e-05
10 *343:10 *522:10 0.000124902
11 *343:10 *530:32 9.9437e-05
12 *343:10 *532:18 8.30566e-06
13 *343:10 *537:26 2.92911e-06
*RES
1 *1531:X *343:10 41.0036 
2 *343:10 *1766:A 41.1486 
*END

*D_NET *344 0.000967666
*CONN
*I *1767:A I *D sky130_fd_sc_hd__clkbuf_1
*I *1530:X O *D sky130_fd_sc_hd__mux2_1
*CAP
1 *1767:A 0
2 *1530:X 0.000291516
3 *344:10 0.000291516
4 *344:10 *532:18 9.3287e-05
5 *344:10 *553:36 0.000103425
6 *344:10 *555:42 0
7 *344:10 *590:41 5.50106e-05
8 *344:10 *634:22 0.000132912
*RES
1 *1530:X *344:10 43.6964 
2 *344:10 *1767:A 38 
*END

*D_NET *345 0.0027835
*CONN
*I *1754:A I *D sky130_fd_sc_hd__clkbuf_1
*I *1460:X O *D sky130_fd_sc_hd__mux2_1
*CAP
1 *1754:A 0.000167955
2 *1460:X 0.00049612
3 *345:10 0.000664075
4 *1754:A *559:48 0.000395597
5 *1754:A *567:22 4.03238e-05
6 *1754:A *569:30 5.56279e-05
7 *1754:A *573:22 0.000137368
8 *345:10 *1649:GATE 9.28078e-06
9 *345:10 *536:20 5.05791e-05
10 *345:10 *537:48 0.00021731
11 *345:10 *655:28 0.000235739
12 *345:10 *682:34 0.000135997
13 NN4BEG[7] *345:10 1.01436e-05
14 NN4BEG[9] *345:10 3.3746e-05
15 *2:14 *345:10 5.3595e-05
16 *153:8 *1754:A 2.44078e-05
17 *158:8 *345:10 5.56356e-05
*RES
1 *1460:X *345:10 46.555 
2 *345:10 *1754:A 42.93 
*END

*D_NET *346 0.000753779
*CONN
*I *1755:A I *D sky130_fd_sc_hd__buf_1
*I *1459:X O *D sky130_fd_sc_hd__mux2_1
*CAP
1 *1755:A 0
2 *1459:X 0.000288138
3 *346:10 0.000288138
4 *346:10 *483:10 5.85024e-05
5 *346:10 *485:18 1.49224e-05
6 *346:10 *509:34 0
7 *346:10 *514:10 6.34355e-06
8 *346:10 *663:32 4.27248e-05
9 *1459:S *346:10 5.50106e-05
*RES
1 *1459:X *346:10 42.3086 
2 *346:10 *1755:A 38 
*END

*D_NET *347 0.000987438
*CONN
*I *1756:A I *D sky130_fd_sc_hd__buf_1
*I *1458:X O *D sky130_fd_sc_hd__mux2_1
*CAP
1 *1756:A 0
2 *1458:X 0.000300111
3 *347:10 0.000300111
4 *347:10 *1714:A 3.76475e-05
5 *347:10 *518:20 0
6 *347:10 *636:10 0.000124169
7 *82:17 *347:10 0.000225399
*RES
1 *1458:X *347:10 42.785 
2 *347:10 *1756:A 38 
*END

*D_NET *348 0.00033322
*CONN
*I *1757:A I *D sky130_fd_sc_hd__buf_1
*I *1457:X O *D sky130_fd_sc_hd__mux2_1
*CAP
1 *1757:A 0.000108542
2 *1457:X 0.000108542
3 *1757:A *489:36 1.76557e-05
4 *1757:A *579:107 9.84794e-05
*RES
1 *1457:X *1757:A 48.4236 
*END

*D_NET *349 0.000543347
*CONN
*I *1758:A I *D sky130_fd_sc_hd__buf_1
*I *1456:X O *D sky130_fd_sc_hd__mux2_1
*CAP
1 *1758:A 3.54671e-05
2 *1456:X 9.85283e-05
3 *349:8 0.000133995
4 *1758:A *614:46 5.50049e-05
5 *349:8 *351:10 0
6 *349:8 *613:32 9.2467e-06
7 *349:8 *614:46 0.000112619
8 *316:10 *1758:A 9.84851e-05
*RES
1 *1456:X *349:8 39.9057 
2 *349:8 *1758:A 39.0979 
*END

*D_NET *350 0.000878881
*CONN
*I *1759:A I *D sky130_fd_sc_hd__clkbuf_1
*I *1455:X O *D sky130_fd_sc_hd__mux2_1
*CAP
1 *1759:A 0
2 *1455:X 0.000281099
3 *350:10 0.000281099
4 *350:10 *457:12 0.000139346
5 *350:10 *457:14 4.66047e-05
6 *350:10 *548:62 0.000130733
7 *350:10 *578:16 0
*RES
1 *1455:X *350:10 42.4329 
2 *350:10 *1759:A 38 
*END

*D_NET *351 0.00058733
*CONN
*I *1760:A I *D sky130_fd_sc_hd__buf_1
*I *1454:X O *D sky130_fd_sc_hd__mux2_1
*CAP
1 *1760:A 0
2 *1454:X 0.000231286
3 *351:10 0.000231286
4 *351:10 *619:42 0
5 *351:10 *676:26 0.000100069
6 *315:10 *351:10 2.46906e-05
7 *349:8 *351:10 0
*RES
1 *1454:X *351:10 41.48 
2 *351:10 *1760:A 38 
*END

*D_NET *352 0.000602997
*CONN
*I *1761:A I *D sky130_fd_sc_hd__buf_1
*I *1453:X O *D sky130_fd_sc_hd__mux2_1
*CAP
1 *1761:A 0
2 *1453:X 0.000159286
3 *352:10 0.000159286
4 *352:10 *1799:A 5.35429e-05
5 *352:10 *487:18 0.000135011
6 *352:10 *581:108 9.58714e-05
*RES
1 *1453:X *352:10 41.0036 
2 *352:10 *1761:A 38 
*END

*D_NET *353 0.000553755
*CONN
*I *1768:A I *D sky130_fd_sc_hd__clkbuf_1
*I *1529:X O *D sky130_fd_sc_hd__mux2_1
*CAP
1 *1768:A 0
2 *1529:X 0.000115217
3 *353:10 0.000115217
4 *353:10 *581:63 0.000135008
5 *353:10 *585:75 5.3304e-05
6 *353:10 *616:22 0.000135008
*RES
1 *1529:X *353:10 40.5271 
2 *353:10 *1768:A 38 
*END

*D_NET *354 0.000992062
*CONN
*I *1769:A I *D sky130_fd_sc_hd__clkbuf_1
*I *1528:X O *D sky130_fd_sc_hd__mux2_1
*CAP
1 *1769:A 0
2 *1528:X 0.000432172
3 *354:10 0.000432172
4 *354:10 *462:10 0
5 *354:10 *537:26 8.85299e-06
6 *354:10 *565:12 3.52294e-05
7 *354:10 *587:46 0
8 *354:10 *592:10 2.05503e-05
9 *354:10 *657:22 4.5745e-05
10 *1528:S *354:10 1.73399e-05
*RES
1 *1528:X *354:10 44.6493 
2 *354:10 *1769:A 38 
*END

*D_NET *355 0.000747008
*CONN
*I *1778:A I *D sky130_fd_sc_hd__buf_1
*I *1519:X O *D sky130_fd_sc_hd__mux2_1
*CAP
1 *1778:A 3.7965e-05
2 *1519:X 9.40318e-05
3 *355:8 0.000131997
4 *1778:A *470:54 0.000139357
5 *1778:A *473:20 0.000139357
6 *355:8 *527:12 6.33511e-05
7 *355:8 *625:222 0.000140949
*RES
1 *1519:X *355:8 39.9057 
2 *355:8 *1778:A 39.5743 
*END

*D_NET *356 0.000442949
*CONN
*I *1779:A I *D sky130_fd_sc_hd__buf_1
*I *1518:X O *D sky130_fd_sc_hd__mux2_1
*CAP
1 *1779:A 0.000171049
2 *1518:X 0.000171049
3 *1779:A *560:14 5.67058e-05
4 *1779:A *581:136 4.41444e-05
*RES
1 *1518:X *1779:A 48.7757 
*END

*D_NET *357 0.00070757
*CONN
*I *1780:A I *D sky130_fd_sc_hd__buf_1
*I *1517:X O *D sky130_fd_sc_hd__mux2_1
*CAP
1 *1780:A 7.15797e-05
2 *1517:X 0.000105915
3 *357:8 0.000177495
4 *1780:A *561:12 6.17437e-06
5 *1780:A *652:54 5.30121e-05
6 *357:8 *471:86 1.01436e-05
7 *357:8 *486:12 0.000159177
8 *357:8 *645:34 0.000124073
*RES
1 *1517:X *357:8 40.2579 
2 *357:8 *1780:A 39.0979 
*END

*D_NET *358 0.0019645
*CONN
*I *1781:A I *D sky130_fd_sc_hd__clkbuf_1
*I *1516:X O *D sky130_fd_sc_hd__mux2_1
*CAP
1 *1781:A 0
2 *1516:X 0.000500784
3 *358:10 0.000500784
4 *358:10 *543:30 0.000290517
5 *358:10 *650:16 1.3523e-05
6 *358:10 *650:32 0.000100069
7 *1450:A *358:10 4.81753e-06
8 *229:33 *358:10 1.1103e-06
9 *272:10 *358:10 0.000171244
10 *272:20 *358:10 0.000381654
*RES
1 *1516:X *358:10 46.6793 
2 *358:10 *1781:A 38 
*END

*D_NET *359 0.000729387
*CONN
*I *1782:A I *D sky130_fd_sc_hd__buf_1
*I *1515:X O *D sky130_fd_sc_hd__mux2_1
*CAP
1 *1782:A 0
2 *1515:X 0.000157407
3 *359:10 0.000157407
4 *359:10 *1607:GATE 0.000132743
5 *359:10 *1797:A 2.46384e-05
6 *359:10 *474:12 0.000159613
7 *359:10 *590:137 9.75779e-05
*RES
1 *1515:X *359:10 41.3557 
2 *359:10 *1782:A 38 
*END

*D_NET *360 0.0027642
*CONN
*I *1783:A I *D sky130_fd_sc_hd__clkbuf_1
*I *1514:X O *D sky130_fd_sc_hd__mux2_1
*CAP
1 *1783:A 0
2 *1514:X 0.000921577
3 *360:12 0.000113898
4 *360:6 0.00103547
5 *360:6 *1489:A1 4.65317e-05
6 *360:6 *419:32 0.000219094
7 *360:6 *420:6 9.70665e-06
8 *360:6 *632:40 0.000139357
9 *360:6 *648:38 6.23499e-05
10 *360:6 *677:46 0.000106835
11 *360:12 *575:12 0
12 *161:19 *360:12 1.05441e-05
13 *271:45 *360:12 7.89973e-05
14 *272:10 *360:12 1.98354e-05
*RES
1 *1514:X *360:6 35.0557 
2 *360:6 *360:12 31.9057 
3 *360:12 *1783:A 23 
*END

*D_NET *361 0.00028645
*CONN
*I *1770:A I *D sky130_fd_sc_hd__clkbuf_1
*I *1527:X O *D sky130_fd_sc_hd__mux2_1
*CAP
1 *1770:A 0.000129717
2 *1527:X 0.000129717
3 *1770:A *524:8 7.53384e-06
4 *1770:A *566:8 1.94812e-05
5 *1527:S *1770:A 0
*RES
1 *1527:X *1770:A 48.4236 
*END

*D_NET *362 0.000684648
*CONN
*I *1771:A I *D sky130_fd_sc_hd__clkbuf_1
*I *1526:X O *D sky130_fd_sc_hd__mux2_1
*CAP
1 *1771:A 0
2 *1526:X 0.000208014
3 *362:10 0.000208014
4 *362:10 *462:10 0
5 *362:10 *504:24 0.000143655
6 *362:10 *567:10 4.23845e-05
7 *362:10 *587:46 0
8 *256:8 *362:10 8.25811e-05
*RES
1 *1526:X *362:10 41.8321 
2 *362:10 *1771:A 38 
*END

*D_NET *363 0.000359081
*CONN
*I *1772:A I *D sky130_fd_sc_hd__buf_1
*I *1525:X O *D sky130_fd_sc_hd__mux2_1
*CAP
1 *1772:A 0.000108561
2 *1525:X 0.000108561
3 *1772:A *699:DIODE 0.00014196
*RES
1 *1525:X *1772:A 48.4236 
*END

*D_NET *364 0.000376525
*CONN
*I *1773:A I *D sky130_fd_sc_hd__clkbuf_1
*I *1524:X O *D sky130_fd_sc_hd__mux2_1
*CAP
1 *1773:A 0.000105561
2 *1524:X 0.000105561
3 *1773:A *569:12 1.59094e-05
4 *1773:A *648:18 7.53384e-06
5 *169:13 *1773:A 0.00014196
*RES
1 *1524:X *1773:A 48.4236 
*END

*D_NET *365 0.000674586
*CONN
*I *1774:A I *D sky130_fd_sc_hd__buf_1
*I *1523:X O *D sky130_fd_sc_hd__mux2_1
*CAP
1 *1774:A 0
2 *1523:X 0.00023448
3 *365:10 0.00023448
4 *365:10 *464:66 5.58975e-06
5 *365:10 *501:10 0.000168754
6 *1523:S *365:10 3.12831e-05
*RES
1 *1523:X *365:10 41.8321 
2 *365:10 *1774:A 38 
*END

*D_NET *366 0.000540436
*CONN
*I *1775:A I *D sky130_fd_sc_hd__clkbuf_1
*I *1522:X O *D sky130_fd_sc_hd__mux2_1
*CAP
1 *1775:A 3.3586e-05
2 *1522:X 8.43807e-05
3 *366:8 0.000117967
4 *1775:A *585:137 0.000140259
5 *1775:A *638:30 0.000140259
6 *366:8 *421:10 1.34415e-05
7 *366:8 *573:8 1.05441e-05
*RES
1 *1522:X *366:8 39.2014 
2 *366:8 *1775:A 39.5743 
*END

*D_NET *367 0.00040823
*CONN
*I *1776:A I *D sky130_fd_sc_hd__buf_1
*I *1521:X O *D sky130_fd_sc_hd__mux2_1
*CAP
1 *1776:A 0.000128642
2 *1521:X 0.000128642
3 *1776:A *1928:A 0.000135037
4 *1776:A *574:8 1.59094e-05
*RES
1 *1521:X *1776:A 48.4236 
*END

*D_NET *368 0.00145117
*CONN
*I *1777:A I *D sky130_fd_sc_hd__clkbuf_1
*I *1520:X O *D sky130_fd_sc_hd__mux2_1
*CAP
1 *1777:A 0
2 *1520:X 0.000420648
3 *368:8 0.000420648
4 *155:10 *368:8 2.61014e-05
5 *262:10 *368:8 7.89973e-05
6 *318:8 *368:8 0.000504774
*RES
1 *1520:X *368:8 45.54 
2 *368:8 *1777:A 38 
*END

*D_NET *369 0.000661995
*CONN
*I *1786:A I *D sky130_fd_sc_hd__clkbuf_16
*I *1792:X O *D sky130_fd_sc_hd__clkbuf_16
*CAP
1 *1786:A 1.58352e-05
2 *1792:X 0.000154833
3 *369:10 0.000170668
4 *1786:A *1546:B 5.54294e-05
5 *369:10 *1499:A 0.000107212
6 *369:10 *424:10 0
7 *369:10 *624:14 0.000102389
8 *1796:A *1786:A 5.56279e-05
*RES
1 *1792:X *369:10 40.6514 
2 *369:10 *1786:A 38.6214 
*END

*D_NET *370 0.00185857
*CONN
*I *1584:D I *D sky130_fd_sc_hd__dfxtp_1
*I *1495:X O *D sky130_fd_sc_hd__and3_1
*CAP
1 *1584:D 0.000155086
2 *1495:X 0.000300805
3 *370:8 0.00045589
4 *1584:D *421:16 0.000183804
5 *1584:D *572:34 0.000232223
6 *1584:D *615:22 0.000185434
7 *370:8 *415:107 0.000345324
8 *370:8 *528:22 0
9 *1820:A *370:8 0
*RES
1 *1495:X *370:8 43.075 
2 *370:8 *1584:D 43.4323 
*END

*D_NET *371 0.0016155
*CONN
*I *1585:D I *D sky130_fd_sc_hd__dfxtp_2
*I *1500:X O *D sky130_fd_sc_hd__and3_1
*CAP
1 *1585:D 3.38047e-05
2 *1500:X 0.000414299
3 *371:8 0.000448104
4 *1585:D *425:6 1.13128e-05
5 *1585:D *595:8 5.73018e-05
6 *371:8 *1500:C 4.63769e-05
7 *371:8 *388:10 1.09547e-05
8 *371:8 *406:18 0.000103021
9 *371:8 *425:18 9.28078e-06
10 *371:8 *432:30 1.62061e-05
11 *371:8 *436:10 4.62166e-06
12 *371:8 *436:24 7.39611e-05
13 *371:8 *538:30 1.89587e-05
14 *371:8 *580:18 2.05503e-05
15 *371:8 *580:26 0.000346747
*RES
1 *1500:X *371:8 45.1879 
2 *371:8 *1585:D 38.668 
*END

*D_NET *372 0.0023116
*CONN
*I *1586:D I *D sky130_fd_sc_hd__dfxtp_1
*I *1506:X O *D sky130_fd_sc_hd__and3_1
*CAP
1 *1586:D 0
2 *1506:X 0.000460891
3 *372:10 0.000460891
4 *372:10 *1447:A 0.000112598
5 *372:10 *415:44 0.000446025
6 *372:10 *430:36 1.83618e-05
7 *372:10 *576:10 5.50049e-05
8 *372:10 *628:51 0.000268339
9 *372:10 *631:61 0.000273645
10 *1506:A *372:10 0.000137651
11 *234:10 *372:10 7.81982e-05
*RES
1 *1506:X *372:10 34.7916 
2 *372:10 *1586:D 23 
*END

*D_NET *373 0.000867094
*CONN
*I *1581:D I *D sky130_fd_sc_hd__dfxtp_1
*I *1509:Y O *D sky130_fd_sc_hd__o211ai_1
*CAP
1 *1581:D 7.17495e-06
2 *1509:Y 0.000275529
3 *373:8 0.000282704
4 *1581:D *589:106 1.64354e-05
5 *1581:D *604:20 1.64354e-05
6 *373:8 *458:10 4.41233e-05
7 *373:8 *628:76 0.000216572
8 *373:8 *673:26 8.11914e-06
9 *292:18 *373:8 0
*RES
1 *1509:Y *373:8 42.3707 
2 *373:8 *1581:D 38.1916 
*END

*D_NET *374 0.00147133
*CONN
*I *1582:D I *D sky130_fd_sc_hd__dfxtp_1
*I *1511:X O *D sky130_fd_sc_hd__o21a_1
*CAP
1 *1582:D 6.19784e-05
2 *1511:X 0.000348824
3 *374:14 0.000410803
4 *1582:D *1570:C1 0.000175805
5 *1582:D *1582:CLK 5.50049e-05
6 *374:14 *1570:A1 4.21281e-05
7 *374:14 *1582:CLK 0.000231465
8 *374:14 *376:12 0
9 *374:14 *388:10 5.3304e-05
10 *374:14 *436:24 1.21972e-05
11 *374:14 *608:40 7.98243e-05
*RES
1 *1511:X *374:14 44.2764 
2 *374:14 *1582:D 39.9471 
*END

*D_NET *375 0.000634229
*CONN
*I *1583:D I *D sky130_fd_sc_hd__dfxtp_1
*I *1508:X O *D sky130_fd_sc_hd__o21a_1
*CAP
1 *1583:D 3.92807e-05
2 *1508:X 0.000155629
3 *375:8 0.00019491
4 *1583:D *538:30 2.63091e-05
5 *1583:D *568:32 9.87348e-05
6 *1583:D *581:108 5.52003e-05
7 *375:8 *528:22 6.41645e-05
*RES
1 *1508:X *375:8 40.2579 
2 *375:8 *1583:D 39.6209 
*END

*D_NET *376 0.009682
*CONN
*I *1510:A I *D sky130_fd_sc_hd__nor2_1
*I *1534:A I *D sky130_fd_sc_hd__nor2_1
*I *1537:A I *D sky130_fd_sc_hd__nor2_1
*I *1535:A1 I *D sky130_fd_sc_hd__o31a_1
*I *1653:D I *D sky130_fd_sc_hd__dfxtp_1
*I *1444:Y O *D sky130_fd_sc_hd__inv_2
*CAP
1 *1510:A 0.000274176
2 *1534:A 0.000195997
3 *1537:A 0
4 *1535:A1 1.08631e-05
5 *1653:D 0.000102562
6 *1444:Y 1.60348e-05
7 *376:52 0.0005438
8 *376:40 0.000739797
9 *376:38 0.000407961
10 *376:27 0.000536354
11 *376:12 0.00141479
12 *376:8 0.00093656
13 *1510:A *1664:CLK 2.00313e-05
14 *1510:A *438:12 1.66113e-05
15 *1510:A *460:20 5.50106e-05
16 *1510:A *589:106 9.2018e-06
17 *1510:A *608:40 2.88933e-05
18 *1510:A *622:205 0.000119711
19 *1534:A *1664:D 0.000137651
20 *1534:A *589:106 1.21972e-05
21 *1534:A *604:20 0
22 *1535:A1 *1535:A3 5.67058e-05
23 *1535:A1 *403:12 5.50106e-05
24 *1653:D *1653:CLK 2.1819e-05
25 *1653:D *581:49 0.000290916
26 *376:8 *437:10 0.00010018
27 *376:8 *493:41 9.84851e-05
28 *376:12 *493:24 4.77164e-06
29 *376:12 *553:24 0.000267157
30 *376:12 *580:18 1.08015e-05
31 *376:12 *583:12 9.86551e-06
32 *376:12 *590:58 5.72021e-05
33 *376:12 *591:21 0.00019938
34 *376:12 *608:40 0
35 *376:12 *622:32 0.000103021
36 *376:12 *623:130 0.000121976
37 *376:12 *624:140 0.000178622
38 *376:27 *1653:CLK 0.000123287
39 *376:27 *1664:CLK 8.15379e-06
40 *376:27 *403:28 7.98243e-05
41 *376:27 *432:20 2.56498e-05
42 *376:27 *458:80 5.50049e-05
43 *376:27 *458:90 0.000172221
44 *376:27 *459:36 4.82567e-05
45 *376:27 *581:49 0.000163466
46 *376:27 *595:8 5.67058e-05
47 *376:27 *608:40 2.67894e-05
48 *376:38 *1664:CLK 4.49483e-05
49 *376:38 *608:40 2.12347e-05
50 *376:52 *1537:B 5.50049e-05
51 *376:52 *1569:B 3.74519e-05
52 *376:52 *1664:D 8.38304e-05
53 *376:52 *460:20 0.000161532
54 *376:52 *521:14 3.10777e-05
55 *376:52 *566:12 0.000432502
56 *376:52 *580:18 9.28078e-06
57 *376:52 *580:48 0.000249586
58 *376:52 *608:40 0.000249586
59 *376:52 *622:32 5.04789e-05
60 *1818:A *1653:D 0.000248811
61 *314:24 *1510:A 9.31932e-05
62 *374:14 *376:12 0
*RES
1 *1444:Y *376:8 39.0979 
2 *376:8 *376:12 31.6957 
3 *376:12 *1653:D 26.3195 
4 *376:12 *376:27 22.7679 
5 *376:27 *1535:A1 38.6214 
6 *376:27 *376:38 1.90571 
7 *376:38 *376:40 15 
8 *376:40 *376:52 42.0764 
9 *376:52 *1537:A 23 
10 *376:40 *1534:A 25.9 
11 *376:38 *1510:A 42.64 
*END

*D_NET *377 0.000354073
*CONN
*I *1580:D I *D sky130_fd_sc_hd__dfxtp_1
*I *1536:X O *D sky130_fd_sc_hd__o21a_1
*CAP
1 *1580:D 6.28866e-06
2 *1536:X 0.000154411
3 *377:8 0.0001607
4 *1580:D *458:49 1.64354e-05
5 *1580:D *581:16 5.99506e-06
6 *377:8 *406:10 1.02426e-05
*RES
1 *1536:X *377:8 39.9057 
2 *377:8 *1580:D 38.1916 
*END

*D_NET *378 0.00215692
*CONN
*I *1654:D I *D sky130_fd_sc_hd__dfxtp_2
*I *1541:X O *D sky130_fd_sc_hd__o211a_1
*CAP
1 *1654:D 0.000191651
2 *1541:X 0.000252541
3 *378:12 0.000444193
4 *1654:D *1544:A2 0.000450473
5 *1654:D *1670:D 9.64943e-05
6 *1654:D *578:119 0.000591247
7 *378:12 *394:12 0
8 *378:12 *578:138 0
9 *378:12 *600:32 0
10 *378:12 *623:113 0.000102162
11 *237:18 *378:12 2.8159e-05
*RES
1 *1541:X *378:12 41.6457 
2 *378:12 *1654:D 44.6545 
*END

*D_NET *379 0.000808913
*CONN
*I *1655:D I *D sky130_fd_sc_hd__dfxtp_2
*I *1544:X O *D sky130_fd_sc_hd__o211a_1
*CAP
1 *1655:D 7.43888e-05
2 *1544:X 6.18554e-05
3 *379:8 0.000136244
4 *1655:D *457:14 0.000185123
5 *1655:D *579:52 0.000137651
6 *379:8 *493:41 0.000105743
7 *379:8 *580:26 0.000107909
*RES
1 *1544:X *379:8 39.5536 
2 *379:8 *1655:D 40.0973 
*END

*D_NET *380 0.000425499
*CONN
*I *1656:D I *D sky130_fd_sc_hd__dfxtp_2
*I *1547:X O *D sky130_fd_sc_hd__o211a_1
*CAP
1 *1656:D 6.65799e-05
2 *1547:X 6.65799e-05
3 *1656:D *457:14 0.00012388
4 *1656:D *623:130 0.000164747
5 *1498:A *1656:D 3.7122e-06
*RES
1 *1547:X *1656:D 47.8902 
*END

*D_NET *381 0.00176009
*CONN
*I *1657:D I *D sky130_fd_sc_hd__dfxtp_2
*I *1550:X O *D sky130_fd_sc_hd__o211a_1
*CAP
1 *1657:D 9.69592e-06
2 *1550:X 0.000359248
3 *381:10 0.000368944
4 *1657:D *400:32 3.24476e-06
5 *1657:D *423:18 1.64354e-05
6 *381:10 *443:12 0.000498459
7 *381:10 *584:28 8.91468e-07
8 *381:10 *607:8 2.45549e-06
9 *381:10 *607:14 0.000500718
*RES
1 *1550:X *381:10 45.8093 
2 *381:10 *1657:D 38.1916 
*END

*D_NET *382 0.000759743
*CONN
*I *1658:D I *D sky130_fd_sc_hd__dfxtp_2
*I *1553:X O *D sky130_fd_sc_hd__o211a_1
*CAP
1 *1658:D 6.51661e-05
2 *1553:X 0.000109168
3 *382:10 0.000174334
4 *1658:D *1674:CLK 0.000124702
5 *1658:D *423:18 5.3304e-05
6 *382:10 *400:32 1.02029e-05
7 *382:10 *423:8 8.62783e-05
8 *382:10 *455:34 0.000107212
9 *382:10 *585:26 2.93747e-05
*RES
1 *1553:X *382:10 40.175 
2 *382:10 *1658:D 39.4137 
*END

*D_NET *383 0.00106265
*CONN
*I *1659:D I *D sky130_fd_sc_hd__dfxtp_2
*I *1556:X O *D sky130_fd_sc_hd__o211a_1
*CAP
1 *1659:D 4.18787e-05
2 *1556:X 0.00022964
3 *383:10 0.000271518
4 *1659:D *399:10 0.000170396
5 *1659:D *624:53 0.000133936
6 *383:10 *456:22 3.39102e-05
7 *383:10 *518:26 0
8 *383:10 *586:139 8.13001e-05
9 *383:10 *623:53 0.000100069
*RES
1 *1556:X *383:10 41.7079 
2 *383:10 *1659:D 39.8902 
*END

*D_NET *384 0.000974196
*CONN
*I *1660:D I *D sky130_fd_sc_hd__dfxtp_2
*I *1559:X O *D sky130_fd_sc_hd__o211a_1
*CAP
1 *1660:D 9.2692e-05
2 *1559:X 8.42346e-05
3 *384:8 0.000176927
4 *1660:D *456:6 0.000317502
5 *1660:D *586:125 0.000230553
6 *384:8 *462:10 0
7 *384:8 *586:125 3.83778e-05
8 *384:8 *587:10 3.39096e-05
*RES
1 *1559:X *384:8 39.5536 
2 *384:8 *1660:D 41.5266 
*END

*D_NET *385 0.000696558
*CONN
*I *1661:D I *D sky130_fd_sc_hd__dfxtp_2
*I *1562:X O *D sky130_fd_sc_hd__o211a_1
*CAP
1 *1661:D 1.13828e-05
2 *1562:X 0.000161277
3 *385:10 0.00017266
4 *1661:D *528:46 6.09588e-05
5 *1661:D *634:22 5.92579e-05
6 *385:10 *587:26 0.000107218
7 *385:10 *623:53 9.41704e-05
8 *241:23 *385:10 2.96323e-05
*RES
1 *1562:X *385:10 40.6514 
2 *385:10 *1661:D 38.668 
*END

*D_NET *386 0.000409566
*CONN
*I *1662:D I *D sky130_fd_sc_hd__dfxtp_1
*I *1565:X O *D sky130_fd_sc_hd__o211a_1
*CAP
1 *1662:D 7.88137e-05
2 *1565:X 7.88137e-05
3 *1662:D *1565:A1 0
4 *1662:D *445:16 8.08119e-05
5 *1662:D *456:95 5.50106e-05
6 *1662:D *456:106 0.000116116
*RES
1 *1565:X *1662:D 48.5893 
*END

*D_NET *387 0.00065654
*CONN
*I *1663:D I *D sky130_fd_sc_hd__dfxtp_2
*I *1568:X O *D sky130_fd_sc_hd__o211a_1
*CAP
1 *1663:D 9.65332e-05
2 *1568:X 4.6496e-05
3 *387:8 0.000143029
4 *1663:D *530:12 0.000145274
5 *387:8 *494:10 0.000112604
6 *387:8 *556:28 0.000112604
*RES
1 *1568:X *387:8 39.5536 
2 *387:8 *1663:D 39.6209 
*END

*D_NET *388 0.00267277
*CONN
*I *1664:D I *D sky130_fd_sc_hd__dfxtp_1
*I *1570:X O *D sky130_fd_sc_hd__o211a_1
*CAP
1 *1664:D 6.82535e-05
2 *1570:X 0.000461018
3 *388:10 0.000529271
4 *1664:D *1664:CLK 5.50049e-05
5 *1664:D *589:106 6.17437e-06
6 *1664:D *622:14 8.48502e-06
7 *1664:D *622:32 9.95066e-05
8 *388:10 *1534:B 0.0001607
9 *388:10 *1582:CLK 0.000199896
10 *388:10 *1664:CLK 0.000229255
11 *388:10 *406:18 0.000320234
12 *388:10 *432:20 1.88944e-05
13 *388:10 *458:63 0.00013924
14 *388:10 *580:18 1.12695e-05
15 *388:10 *580:26 7.98243e-05
16 *1534:A *1664:D 0.000137651
17 *371:8 *388:10 1.09547e-05
18 *374:14 *388:10 5.3304e-05
19 *376:52 *1664:D 8.38304e-05
*RES
1 *1570:X *388:10 47.57 
2 *388:10 *1664:D 40.3666 
*END

*D_NET *389 0.00415009
*CONN
*I *1665:D I *D sky130_fd_sc_hd__dfxtp_1
*I *1571:X O *D sky130_fd_sc_hd__and2b_1
*CAP
1 *1665:D 0
2 *1571:X 0.00128089
3 *389:18 0.000330094
4 *389:6 0.00161099
5 *389:6 *1666:D 3.07572e-05
6 *389:6 *1668:D 2.78402e-05
7 *389:6 *579:62 5.73793e-05
8 *389:18 *447:14 0.00021785
9 *1571:A_N *389:6 0.000133504
10 *247:29 *389:6 0.000230496
11 *247:67 *389:18 0
12 *248:16 *389:18 0.000108109
13 *248:37 *389:18 0.000107218
14 *249:12 *389:6 1.21972e-05
15 *316:20 *389:18 2.76611e-06
*RES
1 *1571:X *389:6 39.3436 
2 *389:6 *389:18 36.0279 
3 *389:18 *1665:D 23 
*END

*D_NET *390 0.00253277
*CONN
*I *1666:D I *D sky130_fd_sc_hd__dfxtp_1
*I *1573:X O *D sky130_fd_sc_hd__o21a_1
*CAP
1 *1666:D 0.000142445
2 *1573:X 0.000742002
3 *390:8 0.000884448
4 *1666:D *457:80 0.000134984
5 *1666:D *528:22 0
6 *1666:D *615:18 1.28019e-05
7 *390:8 *1665:CLK 4.56219e-05
8 *390:8 *447:14 0.000163995
9 *390:8 *449:10 0.000182826
10 *390:8 *457:74 1.94693e-05
11 *390:8 *579:80 2.18506e-05
12 *247:29 *1666:D 8.90284e-05
13 *248:8 *390:8 5.3304e-05
14 *248:37 *1666:D 9.23705e-06
15 *389:6 *1666:D 3.07572e-05
*RES
1 *1573:X *390:8 48.15 
2 *390:8 *1666:D 41.2521 
*END

*D_NET *391 0.00138294
*CONN
*I *1667:D I *D sky130_fd_sc_hd__dfxtp_1
*I *1576:X O *D sky130_fd_sc_hd__and3_1
*CAP
1 *1667:D 0
2 *1576:X 0.000241437
3 *391:8 0.000241437
4 *391:8 *1576:B 3.00479e-05
5 *391:8 *1667:CLK 0.00013185
6 *391:8 *2004:A 0.000102389
7 *391:8 *407:26 7.68541e-05
8 *391:8 *447:14 0.000306019
9 *391:8 *451:18 4.93812e-05
10 RESET_top *391:8 0.000146822
11 *1572:A1 *391:8 5.67058e-05
12 *1576:A *391:8 0
*RES
1 *1576:X *391:8 31.1045 
2 *391:8 *1667:D 23 
*END

*D_NET *392 0.000731622
*CONN
*I *1668:D I *D sky130_fd_sc_hd__dfxtp_1
*I *1579:X O *D sky130_fd_sc_hd__and3_1
*CAP
1 *1668:D 4.12159e-05
2 *1579:X 0.000131389
3 *392:10 0.000172605
4 *392:10 *407:26 5.67058e-05
5 *392:10 *457:50 1.05441e-05
6 *392:10 *576:10 0.00015835
7 *1571:A_N *1668:D 8.6426e-05
8 *232:26 *392:10 1.33927e-05
9 *232:34 *392:10 3.31532e-05
10 *389:6 *1668:D 2.78402e-05
*RES
1 *1579:X *392:10 40.8793 
2 *392:10 *1668:D 38.9943 
*END

*D_NET *393 0.00458122
*CONN
*I *1669:D I *D sky130_fd_sc_hd__dfxtp_1
*I *1541:A2 I *D sky130_fd_sc_hd__o211a_1
*I *1540:X O *D sky130_fd_sc_hd__and2_1
*CAP
1 *1669:D 0.000136112
2 *1541:A2 0
3 *1540:X 0.000243341
4 *393:29 0.000937235
5 *393:12 0.00104446
6 *1669:D *555:32 0.000180441
7 *1669:D *622:40 0.000448464
8 *393:12 *1543:A 0
9 *393:12 *455:75 0.000101764
10 *393:12 *578:138 0
11 *393:12 *624:106 0.000159613
12 *393:29 *1541:A1 7.72342e-05
13 *393:29 *423:28 0.000249586
14 *393:29 *424:10 0.000139215
15 *393:29 *438:26 0
16 *393:29 *552:60 0.000141339
17 *393:29 *578:119 0.000168409
18 *393:29 *623:113 0.000204076
19 *393:29 *624:106 2.54221e-05
20 *1496:A *393:29 0
21 *1498:D_N *393:29 8.11659e-05
22 *237:18 *393:29 5.6848e-05
23 *237:26 *393:29 7.83925e-05
24 *250:8 *393:29 0.000108098
*RES
1 *1540:X *393:12 41.9771 
2 *393:12 *1541:A2 38 
3 *393:12 *393:29 45.515 
4 *393:29 *1669:D 42.9559 
*END

*D_NET *394 0.00451254
*CONN
*I *1544:A2 I *D sky130_fd_sc_hd__o211a_1
*I *1670:D I *D sky130_fd_sc_hd__dfxtp_1
*I *1543:X O *D sky130_fd_sc_hd__and2_1
*CAP
1 *1544:A2 0.000681647
2 *1670:D 6.04763e-05
3 *1543:X 0.000493509
4 *394:14 0.000742123
5 *394:12 0.000493509
6 *1544:A2 *1544:A1 0.000262286
7 *1544:A2 *437:18 5.50106e-05
8 *1544:A2 *554:12 0.000152886
9 *1544:A2 *578:8 4.34876e-05
10 *1544:A2 *578:119 0.000123948
11 *1544:A2 *584:52 0.000185055
12 *1544:A2 *623:130 0.000310363
13 *1670:D *578:119 7.81569e-05
14 *1670:D *584:52 6.69604e-05
15 *394:12 *1671:CLK 1.03955e-05
16 *394:12 *1671:D 0
17 *394:12 *578:138 0
18 *394:12 *600:32 1.79215e-05
19 *394:12 *622:72 3.07028e-05
20 *1654:D *1544:A2 0.000450473
21 *1654:D *1670:D 9.64943e-05
22 *237:18 *394:12 0.000157134
23 *378:12 *394:12 0
*RES
1 *1543:X *394:12 45.1671 
2 *394:12 *394:14 15 
3 *394:14 *1670:D 25.0973 
4 *394:14 *1544:A2 40.3379 
*END

*D_NET *395 0.00552952
*CONN
*I *1671:D I *D sky130_fd_sc_hd__dfxtp_1
*I *1547:A2 I *D sky130_fd_sc_hd__o211a_1
*I *1546:X O *D sky130_fd_sc_hd__and2_1
*CAP
1 *1671:D 0.000380108
2 *1547:A2 5.11548e-05
3 *1546:X 0.000371989
4 *395:12 0.000652064
5 *395:6 0.00059279
6 *1547:A2 *438:26 4.51797e-05
7 *1671:D *1547:A1 6.10136e-05
8 *1671:D *437:10 0.000150416
9 *1671:D *583:20 0.000363358
10 *1671:D *600:14 0.000157879
11 *395:6 *1546:B 0.0011446
12 *395:6 *453:37 0.000234147
13 *395:12 *1499:A 0.000312078
14 *395:12 *1669:CLK 9.89529e-06
15 *395:12 *438:26 5.32959e-06
16 *395:12 *600:14 0.000122532
17 *395:12 *624:14 0.000133543
18 *1796:A *395:6 0.000180224
19 *1805:A *395:6 0.00053711
20 *1823:A *395:12 2.41083e-05
21 *237:18 *1671:D 0
22 *394:12 *1671:D 0
*RES
1 *1546:X *395:6 36.0086 
2 *395:6 *395:12 20.5204 
3 *395:12 *1547:A2 39.2946 
4 *395:12 *1671:D 46.2805 
*END

*D_NET *396 0.0028013
*CONN
*I *1672:D I *D sky130_fd_sc_hd__dfxtp_1
*I *1550:A2 I *D sky130_fd_sc_hd__o211a_1
*I *1549:X O *D sky130_fd_sc_hd__and2_1
*CAP
1 *1672:D 0
2 *1550:A2 0
3 *1549:X 0.000282586
4 *396:26 0.000466293
5 *396:14 0.000474888
6 *396:10 0.000291181
7 *396:10 *535:26 5.25111e-05
8 *396:10 *584:8 0.000138151
9 *396:10 *587:32 0
10 *396:10 *588:29 5.50049e-05
11 *396:10 *588:41 9.28078e-06
12 *396:10 *588:52 7.75695e-05
13 *396:14 *596:6 1.72719e-06
14 *396:26 *1550:A1 1.51276e-05
15 *396:26 *1672:CLK 0.000248812
16 *396:26 *439:10 0.000177583
17 *396:26 *455:65 8.4047e-05
18 *396:26 *584:12 2.81406e-06
19 *396:26 *587:32 0.000358466
20 *396:26 *596:6 6.52627e-05
*RES
1 *1549:X *396:10 43.3443 
2 *396:10 *396:14 15.1916 
3 *396:14 *396:26 39.9791 
4 *396:26 *1550:A2 23 
5 *396:14 *1672:D 23 
*END

*D_NET *397 0.00639401
*CONN
*I *1553:A2 I *D sky130_fd_sc_hd__o211a_1
*I *1673:D I *D sky130_fd_sc_hd__dfxtp_1
*I *1552:X O *D sky130_fd_sc_hd__and2_1
*CAP
1 *1553:A2 0
2 *1673:D 6.80714e-05
3 *1552:X 0.000203002
4 *397:39 0.000915489
5 *397:10 0.00118656
6 *1673:D *1673:CLK 1.64354e-05
7 *1673:D *526:32 0.000125852
8 *1673:D *577:10 6.06976e-05
9 *1673:D *616:10 3.28774e-05
10 *397:10 *1674:D 9.64943e-05
11 *397:10 *526:32 0.000293524
12 *397:10 *577:10 7.1459e-05
13 *397:10 *624:61 4.93812e-05
14 *397:39 *1553:A1 1.33453e-05
15 *397:39 *1553:B1 9.12714e-05
16 *397:39 *1553:C1 6.17437e-06
17 *397:39 *577:18 0.00167843
18 *397:39 *585:43 8.86299e-05
19 *397:39 *586:24 9.29393e-05
20 *397:39 *596:6 5.89166e-05
21 *397:39 *612:20 2.24903e-05
22 *397:39 *614:34 0.000880965
23 *397:39 *623:88 9.29393e-05
24 *1806:A *397:10 1.12487e-05
25 *240:8 *397:10 0.000140927
26 *240:14 *397:10 9.58963e-05
*RES
1 *1552:X *397:10 44.2454 
2 *397:10 *1673:D 39.9212 
3 *397:10 *397:39 39.1143 
4 *397:39 *1553:A2 23 
*END

*D_NET *398 0.00253399
*CONN
*I *1556:A2 I *D sky130_fd_sc_hd__o211a_1
*I *1674:D I *D sky130_fd_sc_hd__dfxtp_1
*I *1555:X O *D sky130_fd_sc_hd__and2_1
*CAP
1 *1556:A2 0.000238298
2 *1674:D 0.000355717
3 *1555:X 0.000112339
4 *398:8 0.000706354
5 *1556:A2 *1552:B 0
6 *1556:A2 *1556:B1 4.03747e-05
7 *1556:A2 *471:16 4.94189e-05
8 *1556:A2 *526:28 0.000107178
9 *1556:A2 *526:32 5.86204e-05
10 *1556:A2 *586:139 5.12055e-06
11 *1556:A2 *623:53 0.000102036
12 *1556:A2 *624:61 8.30905e-05
13 *1674:D *526:32 0.000158796
14 *1674:D *618:8 0.000135959
15 *1674:D *624:61 9.5877e-05
16 *398:8 *634:12 0.000143264
17 *240:8 *1674:D 4.5051e-05
18 *397:10 *1674:D 9.64943e-05
*RES
1 *1555:X *398:8 39.5743 
2 *398:8 *1674:D 45.6902 
3 *398:8 *1556:A2 43.6136 
*END

*D_NET *399 0.00313198
*CONN
*I *1559:A2 I *D sky130_fd_sc_hd__o211a_1
*I *1675:D I *D sky130_fd_sc_hd__dfxtp_1
*I *1558:X O *D sky130_fd_sc_hd__and2_1
*CAP
1 *1559:A2 8.81633e-05
2 *1675:D 0
3 *1558:X 0.000784934
4 *399:18 0.000217273
5 *399:10 0.00109037
6 *1559:A2 *624:53 5.09744e-05
7 *399:10 *624:53 0.000452468
8 *399:18 *586:12 0
9 *399:18 *586:125 0
10 *399:18 *587:10 2.2539e-05
11 *399:18 *587:26 0.000237374
12 *399:18 *623:53 1.74843e-05
13 *1659:D *399:10 0.000170396
*RES
1 *1558:X *399:10 34.2686 
2 *399:10 *399:18 33.858 
3 *399:18 *1675:D 23 
4 *399:10 *1559:A2 24.595 
*END

*D_NET *400 0.00635535
*CONN
*I *1562:A2 I *D sky130_fd_sc_hd__o211a_1
*I *1676:D I *D sky130_fd_sc_hd__dfxtp_1
*I *1561:X O *D sky130_fd_sc_hd__and2_1
*CAP
1 *1562:A2 0
2 *1676:D 0
3 *1561:X 0.000397975
4 *400:43 0.000194091
5 *400:32 0.000683562
6 *400:22 0.00111993
7 *400:14 0.000640252
8 *400:14 *1561:B 0.000226575
9 *400:14 *423:18 0.000580202
10 *400:14 *598:16 0.000624074
11 *400:22 *423:18 4.13761e-05
12 *400:22 *587:26 1.01065e-05
13 *400:22 *587:32 4.94435e-05
14 *400:22 *598:16 4.6318e-06
15 *400:22 *623:82 9.10621e-05
16 *400:32 *1673:CLK 8.12223e-05
17 *400:32 *1674:CLK 3.71369e-05
18 *400:32 *423:8 8.62876e-05
19 *400:32 *423:18 1.27616e-05
20 *400:32 *455:34 7.16844e-05
21 *400:32 *456:60 3.31127e-05
22 *400:32 *622:102 8.29289e-05
23 *400:43 *443:12 0.00032544
24 *400:43 *528:46 4.88638e-05
25 *400:43 *588:18 5.79466e-05
26 *400:43 *607:14 0.000157161
27 *1497:A *400:32 0.000157059
28 *1657:D *400:32 3.24476e-06
29 *1811:A *400:32 0.000105431
30 *238:12 *400:14 0.000344591
31 *241:23 *400:32 7.69915e-05
32 *382:10 *400:32 1.02029e-05
*RES
1 *1561:X *400:14 36.34 
2 *400:14 *400:22 33.7286 
3 *400:22 *400:32 41.1287 
4 *400:32 *1676:D 23 
5 *400:22 *400:43 34.7229 
6 *400:43 *1562:A2 23 
*END

*D_NET *401 0.00192396
*CONN
*I *1565:A2 I *D sky130_fd_sc_hd__o211a_1
*I *1677:D I *D sky130_fd_sc_hd__dfxtp_1
*I *1564:X O *D sky130_fd_sc_hd__and2_1
*CAP
1 *1565:A2 0.000152128
2 *1677:D 0.000160135
3 *1564:X 0.000196784
4 *401:8 0.000509046
5 *1565:A2 *461:16 0.000292382
6 *1565:A2 *588:41 0.000128489
7 *1677:D *456:88 5.3304e-05
8 *1677:D *461:16 0.000107218
9 *1677:D *588:41 4.98755e-05
10 *1677:D *622:46 7.80495e-06
11 *1677:D *624:28 6.17437e-06
12 *1677:D *634:22 0.000162133
13 *401:8 *623:37 9.84851e-05
*RES
1 *1564:X *401:8 40.5271 
2 *401:8 *1677:D 41.4437 
3 *401:8 *1565:A2 42.0186 
*END

*D_NET *402 0.00219594
*CONN
*I *1568:A2 I *D sky130_fd_sc_hd__o211a_1
*I *1678:D I *D sky130_fd_sc_hd__dfxtp_1
*I *1567:X O *D sky130_fd_sc_hd__and2_1
*CAP
1 *1568:A2 0.00030539
2 *1678:D 0.000145567
3 *1567:X 0.000208039
4 *402:8 0.000658996
5 *1568:A2 *494:10 9.4537e-06
6 *1568:A2 *538:52 3.10968e-05
7 *1568:A2 *556:28 0
8 *1568:A2 *623:12 5.95262e-05
9 *1678:D *1678:CLK 7.33953e-05
10 *1678:D *424:10 9.28078e-06
11 *1678:D *552:60 9.2467e-06
12 *1678:D *556:28 0
13 *1678:D *581:49 0.000172468
14 *1678:D *589:18 1.53528e-06
15 *402:8 *1663:CLK 0.000109458
16 *402:8 *1678:CLK 0.000154171
17 *402:8 *538:52 0.000202541
18 *236:18 *1678:D 4.57742e-05
*RES
1 *1567:X *402:8 41.8425 
2 *402:8 *1678:D 41.3246 
3 *402:8 *1568:A2 42.1325 
*END

*D_NET *403 0.00424488
*CONN
*I *1679:D I *D sky130_fd_sc_hd__dfxtp_1
*I *1570:A2 I *D sky130_fd_sc_hd__o211a_1
*I *1534:Y O *D sky130_fd_sc_hd__nor2_1
*CAP
1 *1679:D 0
2 *1570:A2 0
3 *1534:Y 7.90405e-05
4 *403:28 0.000156856
5 *403:22 0.000467353
6 *403:12 0.000518887
7 *403:8 0.000287431
8 *403:8 *1534:B 9.9437e-05
9 *403:8 *432:12 0.000101536
10 *403:12 *1535:A3 7.80916e-05
11 *403:12 *1535:B1 9.5877e-05
12 *403:12 *1794:A 0.000598004
13 *403:12 *436:43 6.79626e-05
14 *403:12 *458:90 2.02872e-05
15 *403:22 *1653:CLK 0.000304393
16 *403:22 *1794:A 6.70742e-05
17 *403:22 *425:6 0.000383805
18 *403:22 *436:43 6.70742e-05
19 *403:22 *458:80 4.05745e-05
20 *403:22 *531:46 0.000156186
21 *403:22 *553:24 0.000190042
22 *403:22 *590:58 5.79413e-06
23 *403:22 *622:32 1.80828e-05
24 *403:28 *432:20 0.000223002
25 *403:28 *581:34 6.77187e-05
26 *403:28 *608:40 1.55328e-05
27 *1535:A1 *403:12 5.50106e-05
28 *376:27 *403:28 7.98243e-05
*RES
1 *1534:Y *403:8 39.5536 
2 *403:8 *403:12 21.178 
3 *403:12 *403:22 38.177 
4 *403:22 *403:28 33.3143 
5 *403:28 *1570:A2 23 
6 *403:12 *1679:D 23 
*END

*D_NET *404 0.0018094
*CONN
*I *1509:C1 I *D sky130_fd_sc_hd__o211ai_1
*I *1445:Y O *D sky130_fd_sc_hd__inv_1
*CAP
1 *1509:C1 4.40041e-05
2 *1445:Y 0.000480502
3 *404:10 0.000524506
4 *1509:C1 *1536:B1 0.000106277
5 *1509:C1 *572:50 0.000103415
6 *404:10 *433:10 0.000332949
7 *404:10 *458:10 2.24366e-06
8 *404:10 *531:26 9.41704e-05
9 *404:10 *531:46 1.41129e-05
10 *404:10 *578:18 0.000107218
11 *404:10 *628:76 0
*RES
1 *1445:Y *404:10 45.0532 
2 *404:10 *1509:C1 40.0507 
*END

*D_NET *405 0.000898603
*CONN
*I *1509:A1 I *D sky130_fd_sc_hd__o211ai_1
*I *1536:B1 I *D sky130_fd_sc_hd__o21a_1
*I *1446:Y O *D sky130_fd_sc_hd__inv_2
*CAP
1 *1509:A1 2.34823e-05
2 *1536:B1 0.000276918
3 *1446:Y 4.33115e-05
4 *405:6 0.000343711
5 *1509:A1 *572:34 0
6 *1536:B1 *572:34 4.38756e-05
7 *1536:B1 *572:50 1.49686e-05
8 *1536:B1 *578:16 5.37348e-06
9 *405:6 *572:34 4.06849e-05
10 *1509:C1 *1536:B1 0.000106277
*RES
1 *1446:Y *405:6 24.0979 
2 *405:6 *1536:B1 27.93 
3 *405:6 *1509:A1 23.4971 
*END

*D_NET *406 0.00519207
*CONN
*I *1535:A3 I *D sky130_fd_sc_hd__o31a_1
*I *1534:B I *D sky130_fd_sc_hd__nor2_1
*I *1447:Y O *D sky130_fd_sc_hd__inv_2
*CAP
1 *1535:A3 0.000175877
2 *1534:B 0.000277245
3 *1447:Y 0.000314851
4 *406:18 0.00127981
5 *406:10 0.00114154
6 *1534:B *1664:CLK 8.30566e-06
7 *1534:B *432:12 3.87979e-05
8 *1534:B *589:106 5.50049e-05
9 *1535:A3 *1794:A 5.50106e-05
10 *1535:A3 *432:12 7.65863e-06
11 *1535:A3 *432:20 4.05745e-05
12 *1535:A3 *433:10 9.5877e-05
13 *406:10 *458:61 2.00313e-05
14 *406:10 *552:60 2.00313e-05
15 *406:18 *1511:B1 3.33642e-05
16 *406:18 *425:18 4.30119e-05
17 *406:18 *432:12 2.00313e-05
18 *406:18 *436:24 9.41704e-05
19 *406:18 *538:30 0.000466283
20 *1535:A1 *1535:A3 5.67058e-05
21 *232:83 *406:10 3.93904e-06
22 *234:25 *406:10 0.000172221
23 *371:8 *406:18 0.000103021
24 *377:8 *406:10 1.02426e-05
25 *388:10 *1534:B 0.0001607
26 *388:10 *406:18 0.000320234
27 *403:8 *1534:B 9.9437e-05
28 *403:12 *1535:A3 7.80916e-05
*RES
1 *1447:Y *406:10 42.2879 
2 *406:10 *406:18 42.4907 
3 *406:18 *1534:B 42.205 
4 *406:18 *1535:A3 41.625 
*END

*D_NET *407 0.00757607
*CONN
*I *1578:A I *D sky130_fd_sc_hd__nand2_1
*I *1577:A I *D sky130_fd_sc_hd__or2_1
*I *1448:Y O *D sky130_fd_sc_hd__inv_2
*CAP
1 *1578:A 0.000192243
2 *1577:A 0
3 *1448:Y 0.000555443
4 *407:26 0.000643742
5 *407:16 0.00107108
6 *407:10 0.000790533
7 *1578:A *451:8 1.21972e-05
8 *1578:A *552:34 2.17159e-05
9 *407:10 *415:32 0.000213063
10 *407:10 *415:34 0.00014196
11 *407:10 *615:18 8.30566e-06
12 *407:16 *552:24 0.000434422
13 *407:26 *1576:B 0.000527588
14 *407:26 *1579:B 1.21972e-05
15 *407:26 *451:18 0.000497265
16 *407:26 *584:58 0.000103637
17 *1503:B *1578:A 0.000100069
18 *1572:A1 *407:26 0.000232256
19 *1576:A *407:26 2.58303e-05
20 *1579:A *407:26 5.50049e-05
21 *232:20 *407:10 0.000287701
22 *232:20 *407:16 0.000561342
23 *246:37 *1578:A 0.000106468
24 *246:37 *407:26 0.000173369
25 *247:10 *407:26 0.000128291
26 *248:58 *407:10 9.62215e-05
27 *249:12 *1578:A 0.000199803
28 *249:12 *407:26 0.000196735
29 *249:18 *1578:A 5.40337e-05
30 *391:8 *407:26 7.68541e-05
31 *392:10 *407:26 5.67058e-05
*RES
1 *1448:Y *407:10 46.6793 
2 *407:10 *407:16 36.815 
3 *407:16 *407:26 32.0479 
4 *407:26 *1577:A 23 
5 *407:16 *1578:A 42.5364 
*END

*D_NET *408 0.000345791
*CONN
*I *1488:A1 I *D sky130_fd_sc_hd__o21ai_2
*I *1449:Y O *D sky130_fd_sc_hd__inv_2
*CAP
1 *1488:A1 0.000113088
2 *1449:Y 0.000113088
3 *1488:A1 *490:28 0.000119615
*RES
1 *1449:Y *1488:A1 47.9471 
*END

*D_NET *409 0.00104648
*CONN
*I *1494:A1 I *D sky130_fd_sc_hd__o21a_1
*I *1450:Y O *D sky130_fd_sc_hd__inv_1
*CAP
1 *1494:A1 0
2 *1450:Y 0.000179143
3 *409:10 0.000179143
4 *409:10 *1516:A0 9.5877e-05
5 *409:10 *650:16 0.00024367
6 *409:10 *650:32 2.62863e-05
7 *409:10 *692:30 0.000136743
8 *229:33 *409:10 0.000137658
9 *229:54 *409:10 2.4754e-05
10 *229:71 *409:10 2.32004e-05
*RES
1 *1450:Y *409:10 28.7896 
2 *409:10 *1494:A1 23 
*END

*D_NET *410 0.00177203
*CONN
*I *1488:A2 I *D sky130_fd_sc_hd__o21ai_2
*I *1483:X O *D sky130_fd_sc_hd__mux4_1
*CAP
1 *1488:A2 0
2 *1483:X 0.000607275
3 *410:10 0.000607275
4 *410:10 *414:10 1.85275e-05
5 *410:10 *579:107 5.89777e-05
6 *410:10 *649:46 3.36819e-05
7 *410:10 *652:36 2.67261e-05
8 *410:10 *687:36 0.000279803
9 *275:27 *410:10 5.41385e-05
10 *275:42 *410:10 8.56254e-05
*RES
1 *1483:X *410:10 47.1557 
2 *410:10 *1488:A2 38 
*END

*D_NET *411 0.000907309
*CONN
*I *1487:A1 I *D sky130_fd_sc_hd__a221o_1
*I *1484:Y O *D sky130_fd_sc_hd__nand2b_1
*CAP
1 *1487:A1 0.000250559
2 *1484:Y 6.4363e-05
3 *411:8 0.000314922
4 *1487:A1 *1487:B1 0.000222953
5 *1487:A1 *590:137 8.06804e-06
6 *411:8 *475:16 4.08537e-05
7 *411:8 *561:12 5.58975e-06
*RES
1 *1484:Y *411:8 39.2014 
2 *411:8 *1487:A1 41.5007 
*END

*D_NET *412 0.00166568
*CONN
*I *1487:A2 I *D sky130_fd_sc_hd__a221o_1
*I *1485:X O *D sky130_fd_sc_hd__o21ba_1
*CAP
1 *1487:A2 0.00023568
2 *1485:X 0.000172296
3 *412:10 0.000407976
4 *1487:A2 *1515:A0 5.50049e-05
5 *1487:A2 *414:10 2.32101e-05
6 *1487:A2 *590:137 0.000236933
7 *1487:A2 *685:37 0.000137651
8 *412:10 *1607:GATE 0.000135904
9 *412:10 *474:12 6.49723e-05
10 *412:10 *649:30 0.000141052
11 *1515:A1 *1487:A2 5.50049e-05
*RES
1 *1485:X *412:10 41.48 
2 *412:10 *1487:A2 43.6239 
*END

*D_NET *413 0.00241759
*CONN
*I *1487:B1 I *D sky130_fd_sc_hd__a221o_1
*I *1486:X O *D sky130_fd_sc_hd__mux2_1
*CAP
1 *1487:B1 0.00043991
2 *1486:X 6.47603e-05
3 *413:8 0.00050467
4 *1487:B1 *498:14 5.50049e-05
5 *1487:B1 *510:18 0.000602286
6 *1487:B1 *590:137 0.000282782
7 *413:8 *503:10 0.000109443
8 *1487:A1 *1487:B1 0.000222953
9 *1487:C1 *1487:B1 5.71958e-05
10 *229:160 *413:8 5.00353e-05
11 *275:42 *1487:B1 2.85479e-05
*RES
1 *1486:X *413:8 39.5536 
2 *413:8 *1487:B1 49.5793 
*END

*D_NET *414 0.00191176
*CONN
*I *1488:B1 I *D sky130_fd_sc_hd__o21ai_2
*I *1487:X O *D sky130_fd_sc_hd__a221o_1
*CAP
1 *1488:B1 1.60486e-05
2 *1487:X 0.000477391
3 *414:10 0.00049344
4 *1488:B1 *490:28 0.00010018
5 *1488:B1 *581:146 9.84794e-05
6 *414:10 *588:105 0
7 *414:10 *662:20 8.90342e-05
8 *414:10 *685:37 9.41704e-05
9 *414:10 *687:26 0.000124437
10 *414:10 *687:36 0.000356289
11 *1487:A2 *414:10 2.32101e-05
12 *273:24 *414:10 2.05503e-05
13 *410:10 *414:10 1.85275e-05
*RES
1 *1487:X *414:10 47.1143 
2 *414:10 *1488:B1 39.0979 
*END

*D_NET *415 0.0195322
*CONN
*I *1495:B I *D sky130_fd_sc_hd__and3_1
*I *1508:B1 I *D sky130_fd_sc_hd__o21a_1
*I *1509:B1 I *D sky130_fd_sc_hd__o211ai_1
*I *1511:B1 I *D sky130_fd_sc_hd__o21a_1
*I *1506:B I *D sky130_fd_sc_hd__and3_1
*I *1500:B I *D sky130_fd_sc_hd__and3_1
*I *1488:Y O *D sky130_fd_sc_hd__o21ai_2
*CAP
1 *1495:B 0
2 *1508:B1 1.89692e-05
3 *1509:B1 0.00014647
4 *1511:B1 0.000156192
5 *1506:B 0.000126469
6 *1500:B 0.000538187
7 *1488:Y 6.48573e-05
8 *415:107 0.000916937
9 *415:52 0.000767895
10 *415:50 0.00056537
11 *415:44 0.000929052
12 *415:34 0.000619146
13 *415:32 0.001287
14 *415:30 0.00228146
15 *415:10 0.00209978
16 *1500:B *1447:A 7.89883e-05
17 *1500:B *1590:D 1.21972e-05
18 *1500:B *493:43 0.000114499
19 *1500:B *578:16 0.000322974
20 *1506:B *430:36 0.000135037
21 *1509:B1 *471:20 0.000148563
22 *1509:B1 *628:76 5.79413e-06
23 *1511:B1 *1511:A1 9.41704e-05
24 *1511:B1 *1511:A2 1.59094e-05
25 *1511:B1 *538:30 0.000259337
26 *1511:B1 *581:16 3.65917e-05
27 *415:10 *579:107 0
28 *415:10 *588:105 1.90943e-05
29 *415:30 *1591:D 8.06804e-06
30 *415:30 *484:10 2.38602e-06
31 *415:30 *531:26 0.000472071
32 *415:30 *535:14 0.0021147
33 *415:30 *572:34 0
34 *415:30 *574:32 0.000125895
35 *415:30 *581:116 4.60157e-05
36 *415:30 *584:115 0.000128753
37 *415:30 *588:83 0.00013721
38 *415:30 *612:20 0.000285385
39 *415:30 *612:24 1.03955e-05
40 *415:30 *619:42 2.2954e-05
41 *415:30 *662:20 4.67748e-05
42 *415:32 *1508:A1 9.84851e-05
43 *415:32 *430:14 0.000181738
44 *415:32 *430:36 2.4754e-05
45 *415:34 *1508:A1 0.000141954
46 *415:34 *1508:A2 2.18506e-05
47 *415:34 *430:36 2.43944e-05
48 *415:44 *430:36 0.000242292
49 *415:44 *471:20 0.000245685
50 *415:44 *552:60 1.22779e-05
51 *415:44 *631:61 0.000241069
52 *415:50 *464:38 0.000393421
53 *415:50 *568:48 7.61883e-05
54 *415:50 *586:45 0.000157484
55 *415:50 *588:83 0.00034821
56 *415:52 *1447:A 0.000161779
57 *415:52 *578:16 0.000155107
58 *415:107 *421:10 9.30826e-05
59 *415:107 *421:16 0.000294008
60 *415:107 *528:22 0
61 *415:107 *538:18 0
62 *415:107 *543:20 5.3304e-05
63 *415:107 *573:8 9.28078e-06
64 *415:107 *594:10 5.6478e-05
65 *415:107 *615:18 0
66 *1808:A *415:107 0
67 *232:10 *415:107 1.87365e-05
68 *232:20 *415:107 3.87221e-06
69 *232:65 *1500:B 9.59291e-05
70 *232:83 *1500:B 5.82673e-06
71 *329:14 *415:30 3.36621e-05
72 *370:8 *415:107 0.000345324
73 *372:10 *415:44 0.000446025
74 *406:18 *1511:B1 3.33642e-05
75 *407:10 *415:32 0.000213063
76 *407:10 *415:34 0.00014196
*RES
1 *1488:Y *415:10 47.0254 
2 *415:10 *415:30 46.5084 
3 *415:30 *415:32 5.86214 
4 *415:32 *415:34 3.00357 
5 *415:34 *415:44 27.3768 
6 *415:44 *415:50 17.0864 
7 *415:50 *415:52 2.43393 
8 *415:52 *1500:B 46.6793 
9 *415:52 *1506:B 39.5743 
10 *415:50 *1511:B1 41.6457 
11 *415:44 *1509:B1 40.4339 
12 *415:34 *1508:B1 23.4971 
13 *415:32 *415:107 43.4436 
14 *415:107 *1495:B 23 
*END

*D_NET *416 0.000540613
*CONN
*I *1494:A2 I *D sky130_fd_sc_hd__o21a_1
*I *1489:X O *D sky130_fd_sc_hd__mux4_1
*CAP
1 *1494:A2 8.40509e-05
2 *1489:X 6.03695e-05
3 *416:8 0.00014442
4 *1494:A2 *648:28 9.5877e-05
5 *416:8 *420:14 7.68979e-05
6 *174:13 *416:8 7.89973e-05
*RES
1 *1489:X *416:8 39.2014 
2 *416:8 *1494:A2 39.0979 
*END

*D_NET *417 0.000979574
*CONN
*I *1493:A1 I *D sky130_fd_sc_hd__a221o_1
*I *1490:Y O *D sky130_fd_sc_hd__nand2b_1
*CAP
1 *1493:A1 0.000115649
2 *1490:Y 0.000118842
3 *417:8 0.000234491
4 *1493:A1 *1469:A0 6.24014e-05
5 *1493:A1 *418:20 1.46586e-05
6 *1493:A1 *575:12 5.56356e-05
7 *1493:A1 *625:71 9.77405e-05
8 *417:8 *534:22 8.62783e-05
9 *417:8 *625:63 1.17256e-05
10 *417:8 *637:10 0.000182152
11 *1491:B1_N *417:8 0
*RES
1 *1490:Y *417:8 40.61 
2 *417:8 *1493:A1 40.5271 
*END

*D_NET *418 0.000847269
*CONN
*I *1493:A2 I *D sky130_fd_sc_hd__a221o_1
*I *1491:X O *D sky130_fd_sc_hd__o21ba_1
*CAP
1 *1493:A2 0
2 *1491:X 6.64215e-05
3 *418:20 0.000112407
4 *418:8 0.000178829
5 *418:20 *1469:A0 0.000153266
6 *418:20 *420:6 0.000140094
7 *418:20 *625:63 3.41998e-06
8 *1491:B1_N *418:8 0.000108106
9 *1491:B1_N *418:20 2.00313e-05
10 *1493:A1 *418:20 1.46586e-05
11 *272:20 *418:8 5.00353e-05
*RES
1 *1491:X *418:8 39.5536 
2 *418:8 *418:20 47.5945 
3 *418:20 *1493:A2 23 
*END

*D_NET *419 0.00736446
*CONN
*I *1493:B1 I *D sky130_fd_sc_hd__a221o_1
*I *1492:X O *D sky130_fd_sc_hd__mux2_1
*CAP
1 *1493:B1 0
2 *1492:X 0.000255103
3 *419:32 0.0002314
4 *419:24 0.00124858
5 *419:10 0.00127228
6 *419:10 *544:10 2.26406e-05
7 *419:10 *547:26 3.41001e-05
8 *419:10 *583:124 8.15379e-06
9 *419:10 *590:95 0.000180224
10 *419:24 *1614:GATE 2.36336e-05
11 *419:24 *1644:GATE 0.000100061
12 *419:24 *560:32 0.000442045
13 *419:24 *562:10 3.15373e-05
14 *419:24 *587:131 1.34995e-05
15 *419:24 *680:26 0.00130216
16 *419:24 *683:26 0.000688687
17 *419:24 *686:28 4.73952e-05
18 *419:24 *692:38 9.48944e-05
19 *419:32 *1469:A0 8.21826e-05
20 *419:32 *1489:A1 9.5877e-05
21 *419:32 *543:30 0.000126192
22 *419:32 *632:40 7.7501e-06
23 *1493:B2 *419:32 1.28818e-05
24 *1765:A *419:10 3.39123e-05
25 *267:8 *419:24 0.000315399
26 *271:45 *419:24 0.000474769
27 *360:6 *419:32 0.000219094
*RES
1 *1492:X *419:10 42.1325 
2 *419:10 *419:24 46.9556 
3 *419:24 *419:32 34.9093 
4 *419:32 *1493:B1 23 
*END

*D_NET *420 0.00333369
*CONN
*I *1494:B1 I *D sky130_fd_sc_hd__o21a_1
*I *1493:X O *D sky130_fd_sc_hd__a221o_1
*CAP
1 *1494:B1 0
2 *1493:X 0.000986216
3 *420:14 0.00013581
4 *420:6 0.00112203
5 *420:6 *1469:A0 0.000153074
6 *420:6 *648:38 4.03448e-05
7 *420:6 *677:46 0.000198591
8 *420:14 *650:16 5.50106e-05
9 *420:14 *692:30 5.67058e-05
10 *1489:S0 *420:6 0.000187692
11 *174:13 *420:14 2.4917e-05
12 *229:71 *420:14 0.000146605
13 *360:6 *420:6 9.70665e-06
14 *416:8 *420:14 7.68979e-05
15 *418:20 *420:6 0.000140094
*RES
1 *1493:X *420:6 36.0086 
2 *420:6 *420:14 32.8793 
3 *420:14 *1494:B1 23 
*END

*D_NET *421 0.00405512
*CONN
*I *1495:C I *D sky130_fd_sc_hd__and3_1
*I *1509:A2 I *D sky130_fd_sc_hd__o211ai_1
*I *1494:X O *D sky130_fd_sc_hd__o21a_1
*CAP
1 *1495:C 8.53237e-06
2 *1509:A2 0
3 *1494:X 0.000430831
4 *421:16 0.000984052
5 *421:10 0.00142342
6 *1495:C *460:46 1.95448e-05
7 *1495:C *589:120 1.95448e-05
8 *421:10 *560:32 0
9 *421:10 *573:8 2.72097e-05
10 *421:10 *590:83 0
11 *421:10 *597:28 3.41998e-06
12 *421:10 *656:20 7.23962e-05
13 *421:10 *692:30 9.84851e-05
14 *421:16 *572:34 0.000309791
15 *421:16 *597:28 4.75593e-05
16 *421:16 *615:22 2.13733e-05
17 *421:16 *626:10 0
18 *1584:D *421:16 0.000183804
19 *229:71 *421:10 4.6318e-06
20 *366:8 *421:10 1.34415e-05
21 *415:107 *421:10 9.30826e-05
22 *415:107 *421:16 0.000294008
*RES
1 *1494:X *421:10 44.525 
2 *421:10 *421:16 29.9971 
3 *421:16 *1509:A2 23 
4 *421:10 *1495:C 38.2279 
*END

*D_NET *422 0.00403355
*CONN
*I *1499:A I *D sky130_fd_sc_hd__nor3_1
*I *1496:X O *D sky130_fd_sc_hd__or4_1
*CAP
1 *1499:A 0.000657951
2 *1496:X 0.000570643
3 *422:10 0.00122859
4 *1499:A *424:10 0
5 *1499:A *438:26 9.85586e-06
6 *1499:A *538:42 1.11089e-05
7 *1499:A *551:24 0
8 *1499:A *581:49 0.00014379
9 *1499:A *624:14 1.75427e-05
10 *422:10 *424:10 9.91101e-05
11 *422:10 *435:12 1.21972e-05
12 *1496:A *422:10 1.49746e-05
13 *1496:C *422:10 9.67842e-05
14 *1498:A *422:10 0.00048718
15 *1498:D_N *422:10 6.59159e-05
16 *1818:A *1499:A 0.000100061
17 *236:18 *1499:A 1.59071e-05
18 *236:26 *422:10 2.93431e-05
19 *237:26 *422:10 5.3304e-05
20 *369:10 *1499:A 0.000107212
21 *395:12 *1499:A 0.000312078
*RES
1 *1496:X *422:10 49.1236 
2 *422:10 *1499:A 49.5793 
*END

*D_NET *423 0.00574129
*CONN
*I *1499:B I *D sky130_fd_sc_hd__nor3_1
*I *1497:X O *D sky130_fd_sc_hd__or4_1
*CAP
1 *1499:B 0
2 *1497:X 3.89875e-05
3 *423:28 0.000441535
4 *423:18 0.00145321
5 *423:8 0.00105066
6 *423:18 *1546:B 0.000565861
7 *423:18 *1561:A 3.7122e-06
8 *423:18 *1561:B 6.47898e-05
9 *423:18 *453:6 1.54983e-05
10 *423:18 *609:14 5.3304e-05
11 *423:28 *424:10 0.000388515
12 *423:28 *552:60 5.58713e-05
13 *423:28 *581:49 0.000138518
14 *1657:D *423:18 1.64354e-05
15 *1658:D *423:18 5.3304e-05
16 *238:12 *423:18 0.000344591
17 *382:10 *423:8 8.62783e-05
18 *393:29 *423:28 0.000249586
19 *400:14 *423:18 0.000580202
20 *400:22 *423:18 4.13761e-05
21 *400:32 *423:8 8.62876e-05
22 *400:32 *423:18 1.27616e-05
*RES
1 *1497:X *423:8 39.2014 
2 *423:8 *423:18 49.3679 
3 *423:18 *423:28 37.8507 
4 *423:28 *1499:B 38 
*END

*D_NET *424 0.00216645
*CONN
*I *1499:C I *D sky130_fd_sc_hd__nor3_1
*I *1498:X O *D sky130_fd_sc_hd__or4b_1
*CAP
1 *1499:C 2.06475e-05
2 *1498:X 0.000703277
3 *424:10 0.000723924
4 *1499:C *581:49 5.56356e-05
5 *424:10 *552:60 8.50742e-06
6 *1499:A *424:10 0
7 *1678:D *424:10 9.28078e-06
8 *236:18 *1499:C 1.83408e-05
9 *369:10 *424:10 0
10 *393:29 *424:10 0.000139215
11 *422:10 *424:10 9.91101e-05
12 *423:28 *424:10 0.000388515
*RES
1 *1498:X *424:10 49.455 
2 *424:10 *1499:C 38.6214 
*END

*D_NET *425 0.00821164
*CONN
*I *1510:B I *D sky130_fd_sc_hd__nor2_1
*I *1500:C I *D sky130_fd_sc_hd__and3_1
*I *1499:Y O *D sky130_fd_sc_hd__nor3_1
*CAP
1 *1510:B 0
2 *1500:C 0.000491616
3 *1499:Y 0.0012963
4 *425:47 0.0005038
5 *425:18 0.00116957
6 *425:6 0.00147045
7 *1500:C *430:36 1.44872e-05
8 *1500:C *432:30 7.56187e-05
9 *1500:C *436:10 3.24898e-05
10 *1500:C *436:24 0
11 *1500:C *538:30 1.42761e-05
12 *1500:C *581:16 0.000225697
13 *1500:C *624:140 6.44826e-05
14 *1500:C *624:148 0.000132345
15 *1500:C *631:90 1.8497e-05
16 *425:6 *1653:CLK 6.2403e-05
17 *425:6 *458:78 1.59094e-05
18 *425:6 *458:80 1.21972e-05
19 *425:6 *595:8 4.68021e-06
20 *425:18 *432:12 2.38163e-05
21 *425:18 *436:10 4.87831e-05
22 *425:18 *595:8 0.000181174
23 *425:47 *432:12 0
24 *425:47 *436:10 5.82673e-06
25 *425:47 *460:20 0.000316071
26 *425:47 *578:89 1.09111e-05
27 *425:47 *581:16 0.000119769
28 *425:47 *589:106 0
29 *425:47 *622:10 9.1946e-06
30 *425:47 *631:90 0.000452375
31 *425:47 *631:106 0.000174869
32 *1585:D *425:6 1.13128e-05
33 *1818:A *425:6 0.000215288
34 *232:93 *425:18 5.56279e-05
35 *232:93 *425:47 0.000396951
36 *236:18 *425:6 0.000102389
37 *371:8 *1500:C 4.63769e-05
38 *371:8 *425:18 9.28078e-06
39 *403:22 *425:6 0.000383805
40 *406:18 *425:18 4.30119e-05
*RES
1 *1499:Y *425:6 39.3436 
2 *425:6 *425:18 49.2257 
3 *425:18 *1500:C 47.715 
4 *425:18 *425:47 27.7807 
5 *425:47 *1510:B 23 
*END

*D_NET *426 0.000526484
*CONN
*I *1505:A I *D sky130_fd_sc_hd__and4_1
*I *1501:Y O *D sky130_fd_sc_hd__xnor2_1
*CAP
1 *1505:A 7.43734e-05
2 *1501:Y 6.63201e-05
3 *426:8 0.000140693
4 *1505:A *1505:C 6.17437e-06
5 *1505:A *429:8 2.98648e-05
6 *426:8 *449:34 0.000104595
7 *426:8 *517:12 0.000104463
*RES
1 *1501:Y *426:8 39.5536 
2 *426:8 *1505:A 39.0979 
*END

*D_NET *427 0.000334567
*CONN
*I *1505:B I *D sky130_fd_sc_hd__and4_1
*I *1502:Y O *D sky130_fd_sc_hd__xnor2_1
*CAP
1 *1505:B 9.63036e-05
2 *1502:Y 9.63036e-05
3 *1505:B *429:8 0.00014196
*RES
1 *1502:Y *1505:B 47.5743 
*END

*D_NET *428 0.00265471
*CONN
*I *1505:C I *D sky130_fd_sc_hd__and4_1
*I *1503:Y O *D sky130_fd_sc_hd__xnor2_1
*CAP
1 *1505:C 4.16921e-05
2 *1503:Y 0.000690172
3 *428:10 0.000731864
4 *1505:C *429:8 0.000141954
5 *1505:C *430:10 5.41288e-05
6 *428:10 *430:10 0.000220911
7 *428:10 *517:12 0.000271148
8 *428:10 *675:42 4.79458e-06
9 *1505:A *1505:C 6.17437e-06
10 *246:14 *428:10 0.000123149
11 *246:25 *428:10 0.000226295
12 *248:58 *428:10 2.93747e-05
13 *249:41 *428:10 0.000113051
*RES
1 *1503:Y *428:10 49.31 
2 *428:10 *1505:C 39.5743 
*END

*D_NET *429 0.00112602
*CONN
*I *1505:D I *D sky130_fd_sc_hd__and4_1
*I *1504:Y O *D sky130_fd_sc_hd__xnor2_1
*CAP
1 *1505:D 0
2 *1504:Y 0.000316774
3 *429:8 0.000316774
4 *429:8 *430:10 1.5769e-05
5 *1505:A *429:8 2.98648e-05
6 *1505:B *429:8 0.00014196
7 *1505:C *429:8 0.000141954
8 *248:37 *429:8 0.000162926
*RES
1 *1504:Y *429:8 29.3593 
2 *429:8 *1505:D 23 
*END

*D_NET *430 0.00673324
*CONN
*I *1507:A_N I *D sky130_fd_sc_hd__and2b_1
*I *1506:C I *D sky130_fd_sc_hd__and3_1
*I *1505:X O *D sky130_fd_sc_hd__and4_1
*CAP
1 *1507:A_N 0
2 *1506:C 5.32978e-05
3 *1505:X 0.000373809
4 *430:36 0.0015858
5 *430:14 0.00172439
6 *430:10 0.000565693
7 *430:10 *517:12 5.62821e-05
8 *430:10 *585:149 9.75779e-05
9 *430:10 *675:42 0.000365066
10 *430:36 *1508:A1 0.000107168
11 *430:36 *1508:A2 2.81138e-05
12 *430:36 *453:37 9.41704e-05
13 *430:36 *624:148 2.78332e-05
14 *430:36 *631:90 0.000103852
15 *1500:C *430:36 1.44872e-05
16 *1505:C *430:10 5.41288e-05
17 *1506:A *1506:C 6.04112e-05
18 *1506:A *430:36 2.06822e-05
19 *1506:B *430:36 0.000135037
20 *1507:B *430:36 9.84851e-05
21 *1512:B *430:36 0.000175903
22 *234:10 *430:36 0.000262826
23 *372:10 *430:36 1.83618e-05
24 *415:32 *430:14 0.000181738
25 *415:32 *430:36 2.4754e-05
26 *415:34 *430:36 2.43944e-05
27 *415:44 *430:36 0.000242292
28 *428:10 *430:10 0.000220911
29 *429:8 *430:10 1.5769e-05
*RES
1 *1505:X *430:10 45.9543 
2 *430:10 *430:14 18.9564 
3 *430:14 *430:36 39.6293 
4 *430:36 *1506:C 38.7043 
5 *430:14 *1507:A_N 23 
*END

*D_NET *431 0.00021223
*CONN
*I *1508:A2 I *D sky130_fd_sc_hd__o21a_1
*I *1507:X O *D sky130_fd_sc_hd__and2b_1
*CAP
1 *1508:A2 2.44268e-05
2 *1507:X 2.44268e-05
3 *1508:A2 *1508:A1 5.67058e-05
4 *1507:B *1508:A2 5.67058e-05
5 *415:34 *1508:A2 2.18506e-05
6 *430:36 *1508:A2 2.81138e-05
*RES
1 *1507:X *1508:A2 47.0979 
*END

*D_NET *432 0.00455459
*CONN
*I *1511:A2 I *D sky130_fd_sc_hd__o21a_1
*I *1510:Y O *D sky130_fd_sc_hd__nor2_1
*CAP
1 *1511:A2 5.67095e-05
2 *1510:Y 0.000507674
3 *432:30 0.000380631
4 *432:20 0.000827533
5 *432:12 0.00101129
6 *432:12 *589:106 3.21574e-05
7 *432:12 *622:10 0.000291597
8 *432:12 *631:106 0.000140259
9 *432:20 *1582:CLK 0.000199896
10 *432:20 *1664:CLK 1.23172e-05
11 *432:20 *433:10 9.5877e-05
12 *432:20 *458:63 0.000132501
13 *432:20 *459:36 2.26497e-05
14 *432:20 *580:26 1.34487e-05
15 *432:20 *581:34 5.62821e-05
16 *432:30 *453:37 0.000166072
17 *1500:C *432:30 7.56187e-05
18 *1511:B1 *1511:A2 1.59094e-05
19 *1534:B *432:12 3.87979e-05
20 *1535:A3 *432:12 7.65863e-06
21 *1535:A3 *432:20 4.05745e-05
22 *371:8 *432:30 1.62061e-05
23 *376:27 *432:20 2.56498e-05
24 *388:10 *432:20 1.88944e-05
25 *403:8 *432:12 0.000101536
26 *403:28 *432:20 0.000223002
27 *406:18 *432:12 2.00313e-05
28 *425:18 *432:12 2.38163e-05
29 *425:47 *432:12 0
*RES
1 *1510:Y *432:12 45.975 
2 *432:12 *432:20 38.8864 
3 *432:20 *432:30 49.6814 
4 *432:30 *1511:A2 23.6214 
*END

*D_NET *433 0.00186936
*CONN
*I *1536:A2 I *D sky130_fd_sc_hd__o21a_1
*I *1535:X O *D sky130_fd_sc_hd__o31a_1
*CAP
1 *1536:A2 0
2 *1535:X 0.000407199
3 *433:10 0.000407199
4 *433:10 *1445:A 3.48973e-05
5 *433:10 *1794:A 2.18409e-05
6 *433:10 *458:61 7.14436e-05
7 *433:10 *531:46 0.000227257
8 *433:10 *572:50 0.000105252
9 *433:10 *622:10 5.3304e-05
10 *433:10 *627:30 9.8971e-06
11 *1535:A3 *433:10 9.5877e-05
12 *229:8 *433:10 6.3704e-06
13 *404:10 *433:10 0.000332949
14 *432:20 *433:10 9.5877e-05
*RES
1 *1535:X *433:10 47.3214 
2 *433:10 *1536:A2 38 
*END

*D_NET *434 0.00360012
*CONN
*I *1794:A I *D sky130_fd_sc_hd__buf_2
*I *1569:B I *D sky130_fd_sc_hd__nand2_1
*I *1537:Y O *D sky130_fd_sc_hd__nor2_1
*CAP
1 *1794:A 0.00079017
2 *1569:B 7.37068e-05
3 *1537:Y 0.000242746
4 *434:22 0.000959209
5 *1569:B *521:14 9.41704e-05
6 *1569:B *566:12 1.21972e-05
7 *1794:A *436:43 0.000104349
8 *434:22 *1537:B 0.000269586
9 *434:22 *617:28 0.000274603
10 *1535:A3 *1794:A 5.50106e-05
11 *376:52 *1569:B 3.74519e-05
12 *403:12 *1794:A 0.000598004
13 *403:22 *1794:A 6.70742e-05
14 *433:10 *1794:A 2.18409e-05
*RES
1 *1537:Y *1569:B 47.595 
2 *1537:Y *434:22 42.0186 
3 *434:22 *1794:A 49.6207 
*END

*D_NET *435 0.0026275
*CONN
*I *1541:C1 I *D sky130_fd_sc_hd__o211a_1
*I *1538:Y O *D sky130_fd_sc_hd__nand2_1
*CAP
1 *1541:C1 0
2 *1538:Y 0.000877969
3 *435:24 0.000122088
4 *435:12 0.00100006
5 *435:12 *455:6 9.41704e-05
6 *435:12 *455:8 1.24376e-05
7 *435:12 *622:90 0.000246878
8 *435:24 *1541:B1 5.12055e-06
9 *435:24 *439:10 3.91386e-05
10 *435:24 *609:14 0.000125835
11 *435:24 *623:92 2.18409e-05
12 *435:24 *624:106 5.35429e-05
13 *1496:A *435:12 1.00493e-05
14 *1496:C *435:12 6.17437e-06
15 *422:10 *435:12 1.21972e-05
*RES
1 *1538:Y *435:12 36.4229 
2 *435:12 *435:24 33.1693 
3 *435:24 *1541:C1 23 
*END

*D_NET *436 0.00570525
*CONN
*I *1795:A I *D sky130_fd_sc_hd__buf_2
*I *1570:B1 I *D sky130_fd_sc_hd__o211a_1
*I *1539:Y O *D sky130_fd_sc_hd__nor2_1
*CAP
1 *1795:A 0
2 *1570:B1 1.31416e-05
3 *1539:Y 0.000367187
4 *436:43 0.000852854
5 *436:24 0.00118993
6 *436:10 0.000691123
7 *1570:B1 *1570:C1 1.75562e-05
8 *436:10 *538:30 5.43589e-05
9 *436:10 *622:10 0.000203823
10 *436:24 *1570:A1 0.000135037
11 *436:24 *1582:CLK 4.5051e-05
12 *436:24 *471:16 2.12286e-05
13 *436:24 *538:30 4.45778e-05
14 *436:24 *538:42 7.12426e-05
15 *436:24 *568:48 7.20213e-06
16 *436:24 *586:45 6.86109e-05
17 *436:43 *1570:C1 0.000139352
18 *436:43 *1582:CLK 2.61526e-05
19 *436:43 *494:20 0.000178517
20 *436:43 *580:18 0.000344616
21 *436:43 *622:32 0.000344616
22 *1500:C *436:10 3.24898e-05
23 *1500:C *436:24 0
24 *1794:A *436:43 0.000104349
25 *232:93 *436:10 0.00037764
26 *371:8 *436:10 4.62166e-06
27 *371:8 *436:24 7.39611e-05
28 *374:14 *436:24 1.21972e-05
29 *403:12 *436:43 6.79626e-05
30 *403:22 *436:43 6.70742e-05
31 *406:18 *436:24 9.41704e-05
32 *425:18 *436:10 4.87831e-05
33 *425:47 *436:10 5.82673e-06
*RES
1 *1539:Y *436:10 45.2811 
2 *436:10 *436:24 36.2302 
3 *436:24 *1570:B1 23.4971 
4 *436:24 *436:43 45.3907 
5 *436:43 *1795:A 23 
*END

*D_NET *437 0.00360527
*CONN
*I *1544:B1 I *D sky130_fd_sc_hd__o211a_1
*I *1542:Y O *D sky130_fd_sc_hd__nand2_1
*CAP
1 *1544:B1 0
2 *1542:Y 0.000925677
3 *437:18 0.000250888
4 *437:10 0.00117657
5 *437:10 *493:41 0.000165803
6 *437:10 *584:58 4.83626e-05
7 *437:10 *590:58 5.67058e-05
8 *437:10 *600:14 0.000152648
9 *437:10 *600:32 7.53384e-06
10 *437:10 *617:20 9.65573e-05
11 *437:18 *554:12 5.50106e-05
12 *437:18 *579:10 1.02426e-05
13 *437:18 *579:14 5.33814e-05
14 *437:18 *580:26 0
15 *437:18 *581:34 9.45256e-05
16 VALUE_top10 *437:10 0.000139352
17 VALUE_top9 *437:10 5.3304e-05
18 *1544:A2 *437:18 5.50106e-05
19 *1671:D *437:10 0.000150416
20 *237:18 *437:10 1.31042e-05
21 *376:8 *437:10 0.00010018
*RES
1 *1542:Y *437:10 39.0329 
2 *437:10 *437:18 34.2879 
3 *437:18 *1544:B1 23 
*END

*D_NET *438 0.00646424
*CONN
*I *1547:B1 I *D sky130_fd_sc_hd__o211a_1
*I *1545:Y O *D sky130_fd_sc_hd__nand2_1
*CAP
1 *1547:B1 0
2 *1545:Y 0.000145544
3 *438:26 0.00161885
4 *438:12 0.00176439
5 *438:12 *608:40 6.77278e-05
6 *438:12 *684:18 0.000272639
7 *438:26 *488:24 0.00121422
8 *438:26 *577:18 0.000369757
9 *438:26 *612:20 0.000236031
10 *438:26 *614:34 0.000406302
11 *1499:A *438:26 9.85586e-06
12 *1510:A *438:12 1.66113e-05
13 *1547:A2 *438:26 4.51797e-05
14 *314:24 *438:12 0.000291803
15 *393:29 *438:26 0
16 *395:12 *438:26 5.32959e-06
*RES
1 *1545:Y *438:12 47.5536 
2 *438:12 *438:26 45.2103 
3 *438:26 *1547:B1 23 
*END

*D_NET *439 0.00150348
*CONN
*I *1550:B1 I *D sky130_fd_sc_hd__o211a_1
*I *1548:Y O *D sky130_fd_sc_hd__nand2_1
*CAP
1 *1550:B1 0
2 *1548:Y 0.000423382
3 *439:10 0.000423382
4 *439:10 *1548:B 9.84851e-05
5 *439:10 *584:12 1.32939e-05
6 *439:10 *609:14 1.24376e-05
7 *439:10 *623:88 5.3304e-05
8 *439:10 *623:92 0.000262475
9 *396:26 *439:10 0.000177583
10 *435:24 *439:10 3.91386e-05
*RES
1 *1548:Y *439:10 31.7621 
2 *439:10 *1550:B1 23 
*END

*D_NET *440 0.00278862
*CONN
*I *1553:B1 I *D sky130_fd_sc_hd__o211a_1
*I *1551:Y O *D sky130_fd_sc_hd__nand2_1
*CAP
1 *1553:B1 0.000513414
2 *1551:Y 0.000216034
3 *440:8 0.000729448
4 *1553:B1 *585:26 0.000266637
5 *1553:B1 *585:43 5.61255e-06
6 *1553:B1 *596:6 0.000175903
7 *440:8 *463:18 7.80049e-05
8 *440:8 *518:26 0.000122269
9 *440:8 *621:16 0.000126192
10 *240:14 *1553:B1 0.000431551
11 *241:23 *1553:B1 3.22879e-05
12 *397:39 *1553:B1 9.12714e-05
*RES
1 *1551:Y *440:8 42.3707 
2 *440:8 *1553:B1 49.4757 
*END

*D_NET *441 0.000381091
*CONN
*I *1556:B1 I *D sky130_fd_sc_hd__o211a_1
*I *1554:Y O *D sky130_fd_sc_hd__nand2_1
*CAP
1 *1556:B1 0.00013879
2 *1554:Y 0.00013879
3 *1556:B1 *586:139 7.11824e-06
4 *1556:B1 *622:139 2.93335e-05
5 *1556:B1 *623:53 2.01003e-05
6 *1556:B1 *629:10 6.58415e-06
7 *1556:A2 *1556:B1 4.03747e-05
*RES
1 *1554:Y *1556:B1 48.5479 
*END

*D_NET *442 0.00331774
*CONN
*I *1559:B1 I *D sky130_fd_sc_hd__o211a_1
*I *1557:Y O *D sky130_fd_sc_hd__nand2_1
*CAP
1 *1559:B1 0
2 *1557:Y 0.00116151
3 *442:18 8.30422e-05
4 *442:10 0.00124455
5 *442:10 *1557:A 1.21972e-05
6 *442:10 *624:53 0.000651485
7 *442:10 *651:8 2.92911e-06
8 *442:18 *531:52 5.43589e-05
9 *442:18 *623:64 5.43589e-05
10 *442:18 *624:53 5.3304e-05
*RES
1 *1557:Y *442:10 39.0329 
2 *442:10 *442:18 31.4707 
3 *442:18 *1559:B1 23 
*END

*D_NET *443 0.00378276
*CONN
*I *1562:B1 I *D sky130_fd_sc_hd__o211a_1
*I *1560:Y O *D sky130_fd_sc_hd__nand2_1
*CAP
1 *1562:B1 0
2 *1560:Y 8.46065e-05
3 *443:12 0.000730114
4 *443:8 0.00081472
5 *443:8 *462:18 6.69899e-05
6 *443:8 *584:28 9.84794e-05
7 *443:12 *462:18 1.22906e-05
8 *443:12 *584:28 0.00017788
9 *443:12 *585:43 0.000684938
10 *443:12 *586:24 0.000142807
11 *443:12 *607:14 9.80838e-05
12 *443:12 *622:183 4.26048e-06
13 *443:12 *623:82 4.36885e-05
14 *381:10 *443:12 0.000498459
15 *400:43 *443:12 0.00032544
*RES
1 *1560:Y *443:8 40.0507 
2 *443:8 *443:12 32.4 
3 *443:12 *1562:B1 23 
*END

*D_NET *444 0.000782802
*CONN
*I *1565:B1 I *D sky130_fd_sc_hd__o211a_1
*I *1563:Y O *D sky130_fd_sc_hd__nand2_1
*CAP
1 *1565:B1 0
2 *1563:Y 0.000208814
3 *444:8 0.000208814
4 *444:8 *1565:A1 1.89095e-05
5 *444:8 *445:16 9.02461e-05
6 *444:8 *456:80 0.00014941
7 *444:8 *598:16 5.3304e-05
8 *444:8 *624:53 5.3304e-05
*RES
1 *1563:Y *444:8 27.4536 
2 *444:8 *1565:B1 23 
*END

*D_NET *445 0.00306079
*CONN
*I *1568:B1 I *D sky130_fd_sc_hd__o211a_1
*I *1566:Y O *D sky130_fd_sc_hd__nand2_1
*CAP
1 *1568:B1 0
2 *1566:Y 0.00119151
3 *445:16 0.00119151
4 *445:16 *1565:A1 4.67488e-05
5 *445:16 *1568:C1 6.57416e-05
6 *445:16 *456:80 1.54983e-05
7 *445:16 *456:95 8.48502e-06
8 *445:16 *456:106 7.38656e-05
9 *445:16 *538:42 7.53303e-06
10 *445:16 *589:10 0.000190955
11 *445:16 *623:12 3.7122e-06
12 *445:16 *623:31 9.41704e-05
13 *1662:D *445:16 8.08119e-05
14 *444:8 *445:16 9.02461e-05
*RES
1 *1566:Y *445:16 39.9236 
2 *445:16 *1568:B1 23 
*END

*D_NET *446 0.00367928
*CONN
*I *1570:C1 I *D sky130_fd_sc_hd__o211a_1
*I *1569:Y O *D sky130_fd_sc_hd__nand2_1
*CAP
1 *1570:C1 0.000361931
2 *1569:Y 0.00043541
3 *446:8 0.000797341
4 *1570:C1 *1582:CLK 2.02872e-05
5 *1570:C1 *555:24 2.64616e-05
6 *1570:C1 *622:32 0.000125896
7 *1570:C1 *622:40 0.000339369
8 *446:8 *494:20 0.000369658
9 *446:8 *551:24 0.000712298
10 *446:8 *589:77 0.00013321
11 *1570:B1 *1570:C1 1.75562e-05
12 *1582:D *1570:C1 0.000175805
13 *314:10 *446:8 2.47015e-05
14 *436:43 *1570:C1 0.000139352
*RES
1 *1569:Y *446:8 48.3571 
2 *446:8 *1570:C1 46.4307 
*END

*D_NET *447 0.00360748
*CONN
*I *1573:B1 I *D sky130_fd_sc_hd__o21a_1
*I *1572:Y O *D sky130_fd_sc_hd__a21boi_1
*CAP
1 *1573:B1 0
2 *1572:Y 0.000902565
3 *447:14 0.000902565
4 *447:14 *1573:A2 0.000397596
5 *447:14 *1665:CLK 0.000155018
6 *447:14 *1667:CLK 3.30518e-05
7 *447:14 *457:74 0.000213872
8 *447:14 *579:80 0.00031495
9 *389:18 *447:14 0.00021785
10 *390:8 *447:14 0.000163995
11 *391:8 *447:14 0.000306019
*RES
1 *1572:Y *447:14 43.01 
2 *447:14 *1573:B1 23 
*END

*D_NET *448 0.00421062
*CONN
*I *1576:B I *D sky130_fd_sc_hd__and3_1
*I *1574:X O *D sky130_fd_sc_hd__a21o_1
*CAP
1 *1576:B 0.000587707
2 *1574:X 0.000179353
3 *448:18 0.0011046
4 *448:10 0.000696249
5 *1576:B *1667:CLK 5.25626e-05
6 *448:10 *1586:CLK 8.49387e-06
7 *448:10 *449:55 7.68979e-05
8 *448:10 *528:22 0.000121976
9 *448:10 *577:36 0.000135037
10 *448:18 *1586:CLK 9.01562e-05
11 *448:18 *457:65 0.000301878
12 *448:18 *577:24 9.28078e-06
13 *448:18 *584:78 4.15283e-05
14 *232:20 *448:18 0.000180224
15 *247:10 *448:18 0
16 *249:12 *448:18 0
17 *249:41 *448:10 6.70361e-05
18 *391:8 *1576:B 3.00479e-05
19 *407:26 *1576:B 0.000527588
*RES
1 *1574:X *448:10 41.48 
2 *448:10 *448:18 37.83 
3 *448:18 *1576:B 46.7207 
*END

*D_NET *449 0.0106929
*CONN
*I *1576:C I *D sky130_fd_sc_hd__and3_1
*I *1577:B I *D sky130_fd_sc_hd__or2_1
*I *1578:B I *D sky130_fd_sc_hd__nand2_1
*I *1575:Y O *D sky130_fd_sc_hd__nand3_1
*CAP
1 *1576:C 0
2 *1577:B 0
3 *1578:B 0
4 *1575:Y 0.000271899
5 *449:78 8.6722e-05
6 *449:65 0.000138061
7 *449:57 0.000514171
8 *449:55 0.000804398
9 *449:44 0.000202145
10 *449:34 0.00154927
11 *449:24 0.00105348
12 *449:10 0.000493261
13 *449:10 *570:24 0.000148797
14 *449:10 *579:62 0.000132539
15 *449:10 *579:80 0.000440169
16 *449:24 *517:12 6.07573e-05
17 *449:24 *579:62 0.000136738
18 *449:24 *611:10 6.78191e-05
19 *449:34 *517:12 7.50688e-05
20 *449:34 *568:22 7.57281e-06
21 *449:34 *577:36 0.000638491
22 *449:44 *1586:CLK 7.68979e-05
23 *449:44 *577:24 3.39102e-05
24 *449:44 *577:36 0.000137651
25 *449:55 *1586:CLK 6.15596e-05
26 *449:55 *457:65 0.000181611
27 *449:55 *528:22 0.000219683
28 *449:55 *552:24 0.000123587
29 *449:57 *517:18 0.000915693
30 *449:65 *517:18 0.000361027
31 *449:78 *2004:A 9.70259e-06
32 HOLD_top *449:65 3.98813e-05
33 RESET_top *449:78 4.7568e-05
34 *1503:B *449:44 5.56279e-05
35 *1574:A2 *449:34 0
36 *213:9 *449:55 0
37 *213:9 *449:57 0.000531112
38 *213:9 *449:65 0.000357631
39 *232:34 *449:65 6.07611e-06
40 *246:14 *449:10 8.30566e-06
41 *249:18 *449:44 2.93335e-05
42 *283:20 *449:24 5.3304e-05
43 *283:20 *449:34 0.000236816
44 *316:20 *449:24 2.02872e-05
45 *390:8 *449:10 0.000182826
46 *426:8 *449:34 0.000104595
47 *448:10 *449:55 7.68979e-05
*RES
1 *1575:Y *449:10 45.1671 
2 *449:10 *449:24 49.0186 
3 *449:24 *449:34 42.8843 
4 *449:34 *449:44 33.3971 
5 *449:44 *1578:B 23 
6 *449:34 *449:55 40.005 
7 *449:55 *449:57 10.15 
8 *449:57 *449:65 35.8621 
9 *449:65 *1577:B 23 
10 *449:57 *449:78 31.7814 
11 *449:78 *1576:C 23 
*END

*D_NET *450 0.000738718
*CONN
*I *1579:B I *D sky130_fd_sc_hd__and3_1
*I *1577:X O *D sky130_fd_sc_hd__or2_1
*CAP
1 *1579:B 0.00022792
2 *1577:X 0.00022792
3 *1579:B *584:58 0.000270682
4 *407:26 *1579:B 1.21972e-05
*RES
1 *1577:X *1579:B 49.48 
*END

*D_NET *451 0.00346751
*CONN
*I *1579:C I *D sky130_fd_sc_hd__and3_1
*I *1578:Y O *D sky130_fd_sc_hd__nand2_1
*CAP
1 *1579:C 0
2 *1578:Y 0.000396589
3 *451:18 0.000560903
4 *451:8 0.000957493
5 *451:8 *552:34 4.57742e-05
6 *451:8 *631:69 4.38068e-06
7 *451:18 *2004:A 0.000232409
8 *451:18 *471:20 0.000514941
9 *451:18 *576:10 0
10 *1503:B *451:8 7.87243e-05
11 *1576:A *451:18 0.000117452
12 *1578:A *451:8 1.21972e-05
13 *252:8 *451:18 0
14 *391:8 *451:18 4.93812e-05
15 *407:26 *451:18 0.000497265
*RES
1 *1578:Y *451:8 42.9093 
2 *451:8 *451:18 28.7543 
3 *451:18 *1579:C 23 
*END

*D_NET *452 0.00210454
*CONN
*I *1787:A I *D sky130_fd_sc_hd__clkbuf_16
*I *1785:X O *D sky130_fd_sc_hd__clkbuf_16
*CAP
1 *1787:A 0
2 *1785:X 0.000704336
3 *452:10 0.000704336
4 *452:10 *528:46 9.33067e-05
5 *452:10 *622:119 0.000146277
6 *452:10 *634:12 0.000310005
7 *241:23 *452:10 0.000146277
*RES
1 *1785:X *452:10 49.1857 
2 *452:10 *1787:A 38 
*END

*D_NET *453 0.0131489
*CONN
*I *1791:A I *D sky130_fd_sc_hd__clkbuf_16
*I *1790:A I *D sky130_fd_sc_hd__clkbuf_16
*I *1789:A I *D sky130_fd_sc_hd__clkbuf_16
*I *1788:A I *D sky130_fd_sc_hd__clkbuf_16
*I *1786:X O *D sky130_fd_sc_hd__clkbuf_16
*CAP
1 *1791:A 0.000379443
2 *1790:A 0.000429362
3 *1789:A 0.000446633
4 *1788:A 0.000298465
5 *1786:X 0.00156255
6 *453:37 0.00116004
7 *453:8 0.000745098
8 *453:6 0.00121132
9 *1788:A *609:14 0.000162103
10 *1788:A *622:46 0.000477406
11 *1789:A *589:28 0.000309947
12 *1789:A *589:35 0.000132743
13 *1789:A *589:56 0.000188148
14 *1789:A *616:22 0.000289688
15 *1789:A *622:46 7.12679e-05
16 *1789:A *624:90 5.50106e-05
17 *1790:A *1455:A1 0.000221992
18 *1790:A *1622:GATE 8.19146e-05
19 *1790:A *457:8 0.000314142
20 *1790:A *457:12 0.000221084
21 *1790:A *548:62 1.95431e-05
22 *1790:A *577:24 2.43944e-05
23 *1790:A *578:16 0.000430654
24 *1790:A *631:90 0.000151657
25 *1791:A *458:61 0
26 *1791:A *531:46 3.61511e-05
27 *1791:A *578:16 0.000415005
28 *1791:A *610:10 9.28078e-06
29 *1791:A *631:90 0.000521194
30 *453:6 *1561:A 0.000861612
31 *453:6 *1561:B 0.000412887
32 *453:6 *598:16 0.000181125
33 *453:37 *1546:B 2.62931e-05
34 *453:37 *1561:A 0.000141215
35 *453:37 *591:6 0.000213869
36 *453:37 *624:148 9.58714e-05
37 *1455:S *1790:A 5.73309e-05
38 *1496:C *1788:A 2.36971e-05
39 *1496:C *1789:A 1.48425e-05
40 *1506:A *453:37 6.99492e-05
41 *1805:A *453:37 5.56356e-05
42 *229:8 *1791:A 2.86532e-05
43 *232:24 *1790:A 8.97481e-05
44 *395:6 *453:37 0.000234147
45 *423:18 *453:6 1.54983e-05
46 *430:36 *453:37 9.41704e-05
47 *432:30 *453:37 0.000166072
*RES
1 *1786:X *453:6 40.2964 
2 *453:6 *453:8 15 
3 *453:8 *1788:A 44.8357 
4 *453:8 *1789:A 48.6264 
5 *1786:X *453:37 48.15 
6 *453:37 *1790:A 49.9936 
7 *453:37 *1791:A 46.5964 
*END

*D_NET *454 0.000105508
*CONN
*I *1784:A I *D sky130_fd_sc_hd__buf_2
*I *1787:X O *D sky130_fd_sc_hd__clkbuf_16
*CAP
1 *1784:A 4.47995e-05
2 *1787:X 4.47995e-05
3 *240:14 *1784:A 1.59094e-05
*RES
1 *1787:X *1784:A 46.6214 
*END

*D_NET *455 0.00969907
*CONN
*I *1672:CLK I *D sky130_fd_sc_hd__dfxtp_1
*I *1793:A I *D sky130_fd_sc_hd__clkbuf_8
*I *1671:CLK I *D sky130_fd_sc_hd__dfxtp_1
*I *1670:CLK I *D sky130_fd_sc_hd__dfxtp_1
*I *1661:CLK I *D sky130_fd_sc_hd__dfxtp_2
*I *1657:CLK I *D sky130_fd_sc_hd__dfxtp_2
*I *1676:CLK I *D sky130_fd_sc_hd__dfxtp_1
*I *1673:CLK I *D sky130_fd_sc_hd__dfxtp_1
*I *1788:X O *D sky130_fd_sc_hd__clkbuf_16
*CAP
1 *1672:CLK 0.000184514
2 *1793:A 0
3 *1671:CLK 0.000167805
4 *1670:CLK 0
5 *1661:CLK 0.000368258
6 *1657:CLK 0
7 *1676:CLK 0
8 *1673:CLK 0.00075331
9 *1788:X 0.000191103
10 *455:81 0.000112399
11 *455:75 0.00089187
12 *455:65 0.000708896
13 *455:63 0.000439075
14 *455:34 0.000679876
15 *455:8 0.00079429
16 *455:6 0.00038637
17 *1661:CLK *456:60 0.000123698
18 *1661:CLK *528:46 0.000114499
19 *1661:CLK *607:14 6.18486e-05
20 *1671:CLK *600:14 0.000101764
21 *1671:CLK *600:32 5.50106e-05
22 *1671:CLK *622:72 6.5888e-05
23 *1672:CLK *584:8 0
24 *1673:CLK *1538:B 1.09903e-05
25 *1673:CLK *616:10 0.000138628
26 *1673:CLK *621:10 0.000277396
27 *1673:CLK *622:94 1.32314e-05
28 *1673:CLK *622:102 0.000225613
29 *455:6 *622:90 4.6595e-05
30 *455:8 *622:90 3.22879e-05
31 *455:8 *622:94 2.4754e-05
32 *455:34 *456:60 1.14452e-05
33 *455:34 *596:12 0.000130733
34 *455:34 *607:14 0.000122661
35 *455:63 *622:90 0.000177604
36 *455:65 *584:8 0
37 *455:65 *587:32 1.78655e-05
38 *455:75 *1540:B 4.9662e-05
39 *455:75 *1543:A 2.812e-05
40 *455:75 *2015:A 0
41 *455:75 *493:12 0.000434148
42 *455:75 *584:8 0
43 *455:75 *587:32 0.000138055
44 *455:75 *589:28 2.18506e-05
45 *455:75 *622:72 0.000246788
46 *455:81 *578:138 0.000109377
47 *455:81 *623:113 3.41998e-06
48 VALUE_top6 *455:75 6.51763e-05
49 *1673:D *1673:CLK 1.64354e-05
50 *237:18 *1671:CLK 7.51453e-06
51 *237:18 *455:81 0
52 *239:8 *1673:CLK 0.000181064
53 *242:8 *1673:CLK 0.00015544
54 *382:10 *455:34 0.000107212
55 *393:12 *455:75 0.000101764
56 *394:12 *1671:CLK 1.03955e-05
57 *396:26 *1672:CLK 0.000248812
58 *396:26 *455:65 8.4047e-05
59 *400:32 *1673:CLK 8.12223e-05
60 *400:32 *455:34 7.16844e-05
61 *435:12 *455:6 9.41704e-05
62 *435:12 *455:8 1.24376e-05
*RES
1 *1788:X *455:6 24.0979 
2 *455:6 *455:8 1.09786 
3 *455:8 *1673:CLK 40.8764 
4 *455:8 *1676:CLK 23 
5 *455:6 *455:34 20.7793 
6 *455:34 *1657:CLK 38 
7 *455:34 *1661:CLK 44.235 
8 *1788:X *455:63 40.0507 
9 *455:63 *455:65 1.90571 
10 *455:65 *455:75 28.8786 
11 *455:75 *455:81 31.9057 
12 *455:81 *1670:CLK 23 
13 *455:75 *1671:CLK 26.9979 
14 *455:65 *1793:A 38 
15 *455:63 *1672:CLK 41.6664 
*END

*D_NET *456 0.0121661
*CONN
*I *1663:CLK I *D sky130_fd_sc_hd__dfxtp_2
*I *1678:CLK I *D sky130_fd_sc_hd__dfxtp_1
*I *1662:CLK I *D sky130_fd_sc_hd__dfxtp_1
*I *1677:CLK I *D sky130_fd_sc_hd__dfxtp_1
*I *1658:CLK I *D sky130_fd_sc_hd__dfxtp_2
*I *1674:CLK I *D sky130_fd_sc_hd__dfxtp_1
*I *1675:CLK I *D sky130_fd_sc_hd__dfxtp_1
*I *1660:CLK I *D sky130_fd_sc_hd__dfxtp_2
*I *1659:CLK I *D sky130_fd_sc_hd__dfxtp_2
*I *1789:X O *D sky130_fd_sc_hd__clkbuf_16
*CAP
1 *1663:CLK 0.000172875
2 *1678:CLK 0.000141276
3 *1662:CLK 0
4 *1677:CLK 0
5 *1658:CLK 0
6 *1674:CLK 0.00056342
7 *1675:CLK 3.81122e-05
8 *1660:CLK 0
9 *1659:CLK 0
10 *1789:X 0.000433574
11 *456:106 0.000542115
12 *456:95 0.000289332
13 *456:88 0.000232299
14 *456:80 0.000581395
15 *456:60 0.000852981
16 *456:47 0.000731893
17 *456:41 0.000756948
18 *456:22 0.000468777
19 *456:6 0.000837353
20 *1663:CLK *530:22 0.000139982
21 *1663:CLK *538:52 2.17571e-05
22 *1663:CLK *552:60 6.59709e-05
23 *1663:CLK *602:10 1.05441e-05
24 *1674:CLK *585:8 1.59094e-05
25 *1674:CLK *618:8 1.94812e-05
26 *1675:CLK *623:53 2.64616e-05
27 *1678:CLK *552:60 0.000164029
28 *456:6 *460:8 6.17437e-06
29 *456:6 *460:10 0.000286834
30 *456:6 *586:125 5.38291e-05
31 *456:6 *587:8 5.12254e-05
32 *456:22 *460:8 0.0001165
33 *456:22 *518:26 9.15376e-05
34 *456:22 *586:125 4.05745e-05
35 *456:22 *586:139 6.72184e-06
36 *456:22 *613:14 0.000138607
37 *456:22 *629:10 0
38 *456:22 *629:22 0
39 *456:22 *656:28 1.05441e-05
40 *456:41 *528:46 0
41 *456:41 *624:90 0.000112619
42 *456:47 *1563:B 2.33476e-05
43 *456:47 *528:46 0
44 *456:47 *623:37 2.93845e-05
45 *456:47 *623:39 2.93747e-05
46 *456:47 *623:41 0.000135287
47 *456:47 *623:53 2.02872e-05
48 *456:47 *624:37 0.000162236
49 *456:47 *624:90 7.05435e-05
50 *456:60 *528:46 6.16352e-05
51 *456:60 *587:26 0.000154773
52 *456:60 *607:14 1.58587e-05
53 *456:60 *623:64 5.72853e-05
54 *456:80 *1565:A1 3.17027e-05
55 *456:80 *598:16 5.3304e-05
56 *456:80 *623:31 0.000223698
57 *456:88 *461:16 0.000412022
58 *456:88 *589:28 0.000262228
59 *456:88 *589:35 0.000123529
60 *456:88 *589:56 2.40336e-05
61 *456:95 *1565:A1 5.3304e-05
62 *456:95 *623:31 5.62507e-05
63 *456:106 *589:10 4.57742e-05
64 *456:106 *623:31 0.000608379
65 *1658:D *1674:CLK 0.000124702
66 *1660:D *456:6 0.000317502
67 *1661:CLK *456:60 0.000123698
68 *1662:D *456:95 5.50106e-05
69 *1662:D *456:106 0.000116116
70 *1677:D *456:88 5.3304e-05
71 *1678:D *1678:CLK 7.33953e-05
72 *241:23 *456:60 0
73 *383:10 *456:22 3.39102e-05
74 *400:32 *1674:CLK 3.71369e-05
75 *400:32 *456:60 3.31127e-05
76 *402:8 *1663:CLK 0.000109458
77 *402:8 *1678:CLK 0.000154171
78 *444:8 *456:80 0.00014941
79 *445:16 *456:80 1.54983e-05
80 *445:16 *456:95 8.48502e-06
81 *445:16 *456:106 7.38656e-05
82 *455:34 *456:60 1.14452e-05
*RES
1 *1789:X *456:6 32.6736 
2 *456:6 *456:22 37.6229 
3 *456:22 *1659:CLK 23 
4 *456:6 *1660:CLK 23 
5 *1789:X *456:41 39.5536 
6 *456:41 *456:47 22.7471 
7 *456:47 *1675:CLK 23.6214 
8 *456:47 *456:60 35.7793 
9 *456:60 *1674:CLK 32.2179 
10 *456:60 *1658:CLK 23 
11 *456:41 *456:80 20.8829 
12 *456:80 *456:88 36.4007 
13 *456:88 *1677:CLK 23 
14 *456:80 *456:95 1.57429 
15 *456:95 *1662:CLK 23 
16 *456:95 *456:106 22.3121 
17 *456:106 *1678:CLK 41.3143 
18 *456:106 *1663:CLK 41.8321 
*END

*D_NET *457 0.0124016
*CONN
*I *1586:CLK I *D sky130_fd_sc_hd__dfxtp_1
*I *1665:CLK I *D sky130_fd_sc_hd__dfxtp_1
*I *1666:CLK I *D sky130_fd_sc_hd__dfxtp_1
*I *1667:CLK I *D sky130_fd_sc_hd__dfxtp_1
*I *1668:CLK I *D sky130_fd_sc_hd__dfxtp_1
*I *1655:CLK I *D sky130_fd_sc_hd__dfxtp_2
*I *1656:CLK I *D sky130_fd_sc_hd__dfxtp_2
*I *1669:CLK I *D sky130_fd_sc_hd__dfxtp_1
*I *1654:CLK I *D sky130_fd_sc_hd__dfxtp_2
*I *1790:X O *D sky130_fd_sc_hd__clkbuf_16
*CAP
1 *1586:CLK 0.000422115
2 *1665:CLK 6.75255e-05
3 *1666:CLK 0
4 *1667:CLK 4.9901e-05
5 *1668:CLK 0
6 *1655:CLK 0
7 *1656:CLK 0
8 *1669:CLK 0.000480603
9 *1654:CLK 0.000117841
10 *1790:X 2.41748e-05
11 *457:80 0.000113939
12 *457:74 0.000360878
13 *457:65 0.000568278
14 *457:59 0.000795189
15 *457:50 0.000118947
16 *457:16 0.000598444
17 *457:14 0.000673359
18 *457:12 0.000820232
19 *457:8 0.000581747
20 *457:6 0.000374214
21 *1586:CLK *528:22 0
22 *1586:CLK *577:24 2.2438e-05
23 *1586:CLK *628:39 0.000119533
24 *1654:CLK *608:24 0.00017336
25 *1669:CLK *551:20 6.01073e-05
26 *1669:CLK *551:24 9.86551e-06
27 *1669:CLK *608:24 0.000182498
28 *1669:CLK *624:14 7.68685e-05
29 *457:8 *552:24 0.000395251
30 *457:8 *584:78 0.00073898
31 *457:12 *577:24 9.24795e-06
32 *457:14 *577:24 0.000463703
33 *457:14 *579:10 2.93845e-05
34 *457:14 *579:52 0.000183088
35 *457:14 *623:130 0.000189421
36 *457:50 *576:10 4.39092e-05
37 *457:50 *675:42 3.55303e-05
38 *457:59 *552:24 5.3304e-05
39 *457:80 *528:22 0
40 *1576:B *1667:CLK 5.25626e-05
41 *1655:D *457:14 0.000185123
42 *1656:D *457:14 0.00012388
43 *1666:D *457:80 0.000134984
44 *1790:A *457:8 0.000314142
45 *1790:A *457:12 0.000221084
46 *1823:A *1669:CLK 0.00015465
47 *231:8 *1669:CLK 0.000144515
48 *232:20 *457:8 1.03955e-05
49 *232:24 *457:8 5.3793e-05
50 *232:26 *457:50 6.49599e-05
51 *235:8 *1654:CLK 0.000175459
52 *235:8 *1669:CLK 4.89731e-05
53 *247:10 *457:65 0
54 *248:8 *1665:CLK 2.64616e-05
55 *248:16 *457:80 6.10809e-05
56 *248:37 *457:80 0.000149768
57 *249:12 *1586:CLK 0
58 *350:10 *457:12 0.000139346
59 *350:10 *457:14 4.66047e-05
60 *390:8 *1665:CLK 4.56219e-05
61 *390:8 *457:74 1.94693e-05
62 *391:8 *1667:CLK 0.00013185
63 *392:10 *457:50 1.05441e-05
64 *395:12 *1669:CLK 9.89529e-06
65 *447:14 *1665:CLK 0.000155018
66 *447:14 *1667:CLK 3.30518e-05
67 *447:14 *457:74 0.000213872
68 *448:10 *1586:CLK 8.49387e-06
69 *448:18 *1586:CLK 9.01562e-05
70 *448:18 *457:65 0.000301878
71 *449:44 *1586:CLK 7.68979e-05
72 *449:55 *1586:CLK 6.15596e-05
73 *449:55 *457:65 0.000181611
*RES
1 *1790:X *457:6 23.4971 
2 *457:6 *457:8 10.15 
3 *457:8 *457:12 3.50071 
4 *457:12 *457:14 15.8671 
5 *457:14 *457:16 15 
6 *457:16 *1654:CLK 40.61 
7 *457:16 *1669:CLK 46.5964 
8 *457:14 *1656:CLK 23 
9 *457:12 *1655:CLK 23 
10 *457:8 *457:50 32.2579 
11 *457:50 *1668:CLK 23 
12 *457:6 *457:59 15.6214 
13 *457:59 *457:65 21.2764 
14 *457:65 *1667:CLK 25.0507 
15 *457:65 *457:74 4.43286 
16 *457:74 *457:80 32.9621 
17 *457:80 *1666:CLK 23 
18 *457:74 *1665:CLK 25.0507 
19 *457:59 *1586:CLK 44.1314 
*END

*D_NET *458 0.0121024
*CONN
*I *1584:CLK I *D sky130_fd_sc_hd__dfxtp_1
*I *1580:CLK I *D sky130_fd_sc_hd__dfxtp_1
*I *1664:CLK I *D sky130_fd_sc_hd__dfxtp_1
*I *1585:CLK I *D sky130_fd_sc_hd__dfxtp_2
*I *1653:CLK I *D sky130_fd_sc_hd__dfxtp_1
*I *1679:CLK I *D sky130_fd_sc_hd__dfxtp_1
*I *1582:CLK I *D sky130_fd_sc_hd__dfxtp_1
*I *1583:CLK I *D sky130_fd_sc_hd__dfxtp_1
*I *1581:CLK I *D sky130_fd_sc_hd__dfxtp_1
*I *1791:X O *D sky130_fd_sc_hd__clkbuf_16
*CAP
1 *1584:CLK 2.21237e-05
2 *1580:CLK 0
3 *1664:CLK 0.000233299
4 *1585:CLK 0
5 *1653:CLK 0.00022263
6 *1679:CLK 0
7 *1582:CLK 0.000248019
8 *1583:CLK 0.000108274
9 *1581:CLK 0
10 *1791:X 0.000593811
11 *458:90 0.000259771
12 *458:80 0.000551764
13 *458:78 0.000100119
14 *458:63 0.000363315
15 *458:61 0.00100387
16 *458:49 0.00088882
17 *458:30 0.00047455
18 *458:28 0.000421049
19 *458:10 0.000358369
20 *1582:CLK *1570:A1 5.3304e-05
21 *1583:CLK *538:30 1.34914e-05
22 *1583:CLK *581:16 3.22051e-05
23 *1583:CLK *581:108 2.93335e-05
24 *1583:CLK *628:39 6.73613e-05
25 *1584:CLK *568:32 2.86868e-05
26 *1584:CLK *572:34 3.53516e-05
27 *1664:CLK *459:36 1.15883e-05
28 *1664:CLK *622:32 5.50049e-05
29 *458:10 *531:26 9.9453e-05
30 *458:10 *578:18 0
31 *458:10 *578:89 0
32 *458:28 *531:26 9.84794e-05
33 *458:28 *578:28 3.41998e-06
34 *458:28 *597:10 0.000143989
35 *458:28 *627:30 9.67842e-05
36 *458:30 *531:26 0
37 *458:30 *568:32 0
38 *458:30 *568:48 2.05503e-05
39 *458:30 *597:10 1.14452e-05
40 *458:30 *628:76 0
41 *458:49 *538:30 0.000609898
42 *458:49 *581:16 8.94769e-05
43 *458:49 *628:39 0.000227208
44 *458:61 *538:30 9.67842e-05
45 *458:61 *556:28 0.000160506
46 *458:61 *578:18 6.02684e-06
47 *458:61 *581:16 0.000444952
48 *458:61 *662:20 0.000721283
49 *458:78 *595:8 2.02872e-05
50 *458:80 *595:8 4.21281e-05
51 *458:90 *1535:B1 9.5877e-05
52 *458:90 *608:40 0.000174312
53 *1510:A *1664:CLK 2.00313e-05
54 *1534:B *1664:CLK 8.30566e-06
55 *1570:C1 *1582:CLK 2.02872e-05
56 *1580:D *458:49 1.64354e-05
57 *1582:D *1582:CLK 5.50049e-05
58 *1653:D *1653:CLK 2.1819e-05
59 *1664:D *1664:CLK 5.50049e-05
60 *1791:A *458:61 0
61 *1818:A *1653:CLK 0.000137368
62 *229:8 *458:61 3.16908e-05
63 *229:33 *458:10 1.74874e-06
64 *232:83 *458:61 0.000179354
65 *292:18 *458:28 3.41998e-06
66 *373:8 *458:10 4.41233e-05
67 *374:14 *1582:CLK 0.000231465
68 *376:27 *1653:CLK 0.000123287
69 *376:27 *1664:CLK 8.15379e-06
70 *376:27 *458:80 5.50049e-05
71 *376:27 *458:90 0.000172221
72 *376:38 *1664:CLK 4.49483e-05
73 *388:10 *1582:CLK 0.000199896
74 *388:10 *1664:CLK 0.000229255
75 *388:10 *458:63 0.00013924
76 *403:12 *458:90 2.02872e-05
77 *403:22 *1653:CLK 0.000304393
78 *403:22 *458:80 4.05745e-05
79 *404:10 *458:10 2.24366e-06
80 *406:10 *458:61 2.00313e-05
81 *425:6 *1653:CLK 6.2403e-05
82 *425:6 *458:78 1.59094e-05
83 *425:6 *458:80 1.21972e-05
84 *432:20 *1582:CLK 0.000199896
85 *432:20 *1664:CLK 1.23172e-05
86 *432:20 *458:63 0.000132501
87 *433:10 *458:61 7.14436e-05
88 *436:24 *1582:CLK 4.5051e-05
89 *436:43 *1582:CLK 2.61526e-05
*RES
1 *1791:X *458:10 42.7643 
2 *458:10 *1581:CLK 38 
3 *1791:X *458:28 42.06 
4 *458:28 *458:30 2.25786 
5 *458:30 *1583:CLK 39.9471 
6 *458:30 *458:49 22.4571 
7 *458:49 *458:61 38.0745 
8 *458:61 *458:63 2.08179 
9 *458:63 *1582:CLK 44.4421 
10 *458:63 *458:78 15.6214 
11 *458:78 *458:80 1.57429 
12 *458:80 *458:90 34.6814 
13 *458:90 *1679:CLK 23 
14 *458:80 *1653:CLK 28.4064 
15 *458:78 *1585:CLK 23 
16 *458:61 *1664:CLK 42.4639 
17 *458:49 *1580:CLK 23 
18 *458:28 *1584:CLK 38.6214 
*END

*D_NET *459 0.0163891
*CONN
*I *1537:B I *D sky130_fd_sc_hd__nor2_1
*I *1535:A2 I *D sky130_fd_sc_hd__o31a_1
*I *1824:X O *D sky130_fd_sc_hd__buf_1
*CAP
1 *1537:B 0.000323987
2 *1535:A2 0
3 *1824:X 0.000224051
4 *459:36 0.000318871
5 *459:26 0.0016371
6 *459:22 0.00183909
7 *459:16 0.000844846
8 *459:14 0.000224051
9 *1537:B *521:14 2.93747e-05
10 *1537:B *554:16 0.000473984
11 *1537:B *617:28 8.37638e-05
12 *459:14 *493:12 2.03764e-06
13 *459:14 *526:32 2.48822e-05
14 *459:14 *578:144 0.000110386
15 *459:22 *462:32 0.000281785
16 *459:22 *463:28 0.000190284
17 *459:22 *526:34 0
18 *459:22 *551:14 0.000223698
19 *459:22 *570:12 0.00138283
20 *459:22 *617:12 0.00338306
21 *459:26 *472:8 0
22 *459:26 *493:24 2.8314e-06
23 *459:26 *554:16 0.0010544
24 *459:26 *579:14 0
25 *459:26 *590:58 0.000111403
26 *459:26 *617:28 0.000119473
27 *459:36 *531:46 0.000232694
28 *459:36 *556:28 6.7582e-05
29 *459:36 *581:16 0.000204089
30 *459:36 *662:20 0.00057309
31 VALUE_top1 *459:14 0.0001181
32 VALUE_top7 *459:22 0.000619707
33 VALUE_top9 *459:26 4.34181e-05
34 *1664:CLK *459:36 1.15883e-05
35 *1:11 *459:14 1.24376e-05
36 *3:15 *459:14 7.38543e-05
37 *213:13 *459:26 0.000769434
38 *213:32 *459:26 0.000381422
39 *376:27 *459:36 4.82567e-05
40 *376:52 *1537:B 5.50049e-05
41 *432:20 *459:36 2.26497e-05
42 *434:22 *1537:B 0.000269586
*RES
1 *1824:X *459:14 42.8264 
2 *459:14 *459:16 15 
3 *459:16 *459:22 41.2836 
4 *459:22 *459:26 37.1539 
5 *459:26 *459:36 32.8455 
6 *459:36 *1535:A2 23 
7 *459:26 *1537:B 45.6332 
*END

*D_NET *460 0.0156986
*CONN
*I *1697:A I *D sky130_fd_sc_hd__buf_1
*I *1638:D I *D sky130_fd_sc_hd__dlxtp_1
*I *1606:D I *D sky130_fd_sc_hd__dlxtp_1
*I *1825:X O *D sky130_fd_sc_hd__buf_1
*CAP
1 *1697:A 0
2 *1638:D 0
3 *1606:D 0
4 *1825:X 0.000554202
5 *460:46 0.000534217
6 *460:27 0.00066781
7 *460:20 0.000713896
8 *460:10 0.00327973
9 *460:8 0.00325363
10 *460:8 *613:14 0.000103881
11 *460:8 *684:10 0.000355006
12 *460:10 *530:12 0.000255194
13 *460:10 *530:22 0.000718133
14 *460:10 *587:8 9.67842e-05
15 *460:20 *1638:GATE 0.000102488
16 *460:20 *521:14 0.000692453
17 *460:20 *554:16 0.000178732
18 *460:20 *590:75 0.000176491
19 *460:20 *590:83 0.000565579
20 *460:20 *622:205 4.21281e-05
21 *460:20 *631:106 3.64394e-05
22 *460:27 *1638:GATE 0.000207663
23 *460:27 *585:106 0.000318039
24 *460:27 *590:83 5.60845e-05
25 *460:27 *638:30 0.000100803
26 *460:46 *543:20 0.00020184
27 *460:46 *585:128 0.000179473
28 *460:46 *589:120 0.000529797
29 *460:46 *590:83 1.17256e-05
30 *460:46 *604:10 5.56356e-05
31 *460:46 *638:30 0.000201755
32 *460:46 *650:47 0.00019461
33 *1495:C *460:46 1.95448e-05
34 *1510:A *460:20 5.50106e-05
35 *1522:S *460:46 5.3304e-05
36 *1808:A *460:46 0.00019143
37 *292:18 *460:27 4.93356e-05
38 *292:18 *460:46 5.86201e-05
39 *376:52 *460:20 0.000161532
40 *425:47 *460:20 0.000316071
41 *456:6 *460:8 6.17437e-06
42 *456:6 *460:10 0.000286834
43 *456:22 *460:8 0.0001165
*RES
1 *1825:X *460:8 33.1707 
2 *460:8 *460:10 36.3536 
3 *460:10 *460:20 47.545 
4 *460:20 *1606:D 23 
5 *460:20 *460:27 5.86214 
6 *460:27 *1638:D 23 
7 *460:27 *460:46 44.8521 
8 *460:46 *1697:A 23 
*END

*D_NET *461 0.0369486
*CONN
*I *2019:A I *D sky130_fd_sc_hd__buf_2
*I *695:DIODE I *D sky130_fd_sc_hd__diode_2
*I *1690:X O *D sky130_fd_sc_hd__clkbuf_2
*CAP
1 *2019:A 9.86826e-06
2 *695:DIODE 2.85169e-05
3 *1690:X 0.000516846
4 *461:42 0.00267293
5 *461:34 0.00363407
6 *461:32 0.00110744
7 *461:26 0.00314353
8 *461:16 0.00447787
9 *461:12 0.00197884
10 *695:DIODE *509:12 5.58873e-06
11 *2019:A *2021:A 5.79559e-05
12 *2019:A *465:10 3.22051e-05
13 *461:12 *1529:A0 2.24608e-05
14 *461:12 *1956:A 3.22879e-05
15 *461:12 *504:24 0.000319959
16 *461:12 *545:30 3.84903e-05
17 *461:12 *581:63 2.24608e-05
18 *461:12 *588:41 0
19 *461:12 *589:56 3.35885e-06
20 *461:12 *616:22 0.000104908
21 *461:12 *618:48 0.000147441
22 *461:16 *2015:A 0.000591555
23 *461:16 *493:24 4.40479e-06
24 *461:16 *581:63 1.40281e-05
25 *461:16 *588:41 0.000123676
26 *461:16 *589:28 0.00100245
27 *461:16 *589:56 0.00027157
28 *461:16 *624:22 0.000351428
29 *461:26 *462:46 0.00213024
30 *461:26 *472:12 0.000742795
31 *461:26 *518:20 0.000354081
32 *461:26 *548:46 0.00268272
33 *461:26 *570:24 0.000124075
34 *461:26 *694:18 0.000398503
35 *461:32 *551:12 7.06299e-05
36 *461:34 *1458:A0 5.67058e-05
37 *461:34 *471:46 0.000501987
38 *461:34 *578:74 5.50049e-05
39 *461:34 *579:80 0.000131372
40 *461:34 *613:40 0.00122538
41 *461:34 *636:8 0.000922757
42 *461:42 *463:28 0
43 *461:42 *471:46 0
44 *461:42 *485:18 0.00029718
45 *461:42 *486:12 0.000549535
46 *461:42 *489:36 3.56784e-05
47 *461:42 *506:10 0
48 *461:42 *514:10 0
49 *461:42 *535:14 7.73561e-05
50 *461:42 *568:22 0
51 *461:42 *572:34 0.000209556
52 *461:42 *628:120 0.000222097
53 *461:42 *632:124 8.46364e-06
54 *461:42 *662:20 0.00167592
55 FrameData_O[11] *461:42 2.55744e-05
56 VALUE_top5 *461:16 0
57 VALUE_top6 *461:16 0
58 *1565:A2 *461:16 0.000292382
59 *1575:C *461:32 0
60 *1677:D *461:16 0.000107218
61 *68:11 *461:34 0.000836121
62 *77:19 *461:42 0
63 *78:11 *461:26 0.000313255
64 *79:13 *461:26 1.56665e-05
65 *79:13 *461:32 3.31683e-05
66 *82:17 *461:34 8.10066e-05
67 *83:17 *461:34 0.00130562
68 *115:12 *461:12 9.84794e-05
69 *224:8 *461:16 0.000231605
70 *253:10 *461:12 8.30566e-06
71 *456:88 *461:16 0.000412022
*RES
1 *1690:X *461:12 47.4561 
2 *461:12 *461:16 41.9507 
3 *461:16 *461:26 45.7131 
4 *461:26 *461:32 32.2579 
5 *461:32 *461:34 37.3064 
6 *461:34 *461:42 42.5289 
7 *461:42 *695:DIODE 46.3211 
8 *695:DIODE *2019:A 46.6214 
*END

*D_NET *462 0.0410339
*CONN
*I *2020:A I *D sky130_fd_sc_hd__buf_2
*I *1691:X O *D sky130_fd_sc_hd__clkbuf_2
*CAP
1 *2020:A 0.000279333
2 *1691:X 0.000163977
3 *462:46 0.00561975
4 *462:40 0.00576149
5 *462:32 0.00155729
6 *462:18 0.00159561
7 *462:10 0.00233251
8 *462:8 0.00203709
9 *2020:A *467:10 9.47227e-05
10 *2020:A *509:22 0.000229815
11 *462:8 *523:14 1.21972e-05
12 *462:8 *592:10 0.000300203
13 *462:8 *629:45 5.3304e-05
14 *462:10 *1551:B 6.46431e-05
15 *462:10 *463:18 0.000208795
16 *462:10 *524:12 3.3746e-05
17 *462:10 *528:32 0.000450774
18 *462:10 *567:10 0
19 *462:10 *585:75 1.05658e-05
20 *462:10 *586:125 3.02231e-05
21 *462:10 *587:46 0
22 *462:10 *592:10 6.12496e-06
23 *462:10 *622:119 0.000489787
24 *462:10 *623:53 4.01325e-05
25 *462:10 *655:48 0.000844023
26 *462:10 *657:22 1.35629e-05
27 *462:10 *681:34 0
28 *462:18 *493:12 0.000779347
29 *462:18 *584:28 3.98818e-05
30 *462:18 *585:43 6.1062e-05
31 *462:18 *586:24 6.50143e-05
32 *462:18 *619:26 0.000100139
33 *462:32 *463:28 0.00190191
34 *462:32 *492:22 0.000149187
35 *462:32 *493:24 0.000159812
36 *462:32 *551:14 1.72202e-05
37 *462:32 *579:16 0.000476738
38 *462:32 *583:20 9.28078e-06
39 *462:32 *583:26 0.000190284
40 *462:32 *600:32 0.000101947
41 *462:32 *617:12 0.000141954
42 *462:32 *617:20 3.87221e-06
43 *462:32 *619:26 0.000128381
44 *462:40 *472:12 0.00126188
45 *462:40 *551:14 0.00143577
46 *462:40 *579:16 9.13556e-05
47 *462:46 *494:26 0.00218788
48 *462:46 *497:12 0.00130835
49 *462:46 *498:14 0
50 *462:46 *518:20 0.00346756
51 *462:46 *526:34 0.000333993
52 *462:46 *679:36 0.000437377
53 RESET_top *462:40 7.6085e-05
54 VALUE_top3 *462:18 2.7237e-05
55 VALUE_top4 *462:18 5.24583e-05
56 VALUE_top5 *462:18 0
57 *1728:A *462:46 0
58 *1737:A *462:8 5.50049e-05
59 *1810:A *462:10 0
60 *1811:A *462:10 0
61 *70:15 *462:46 2.1199e-05
62 *75:11 *462:46 0
63 *81:13 *462:46 0.00119092
64 *255:8 *462:10 0
65 *256:8 *462:10 3.98731e-05
66 *354:10 *462:10 0
67 *362:10 *462:10 0
68 *384:8 *462:10 0
69 *443:8 *462:18 6.69899e-05
70 *443:12 *462:18 1.22906e-05
71 *459:22 *462:32 0.000281785
72 *461:26 *462:46 0.00213024
*RES
1 *1691:X *462:8 41.48 
2 *462:8 *462:10 38.5286 
3 *462:10 *462:18 42.5632 
4 *462:18 *462:32 40.7805 
5 *462:32 *462:40 41.6532 
6 *462:40 *462:46 47.3234 
7 *462:46 *2020:A 43.8829 
*END

*D_NET *463 0.0452837
*CONN
*I *2021:A I *D sky130_fd_sc_hd__buf_2
*I *1692:X O *D sky130_fd_sc_hd__clkbuf_2
*CAP
1 *2021:A 0.000419799
2 *1692:X 9.84309e-05
3 *463:38 0.00195566
4 *463:28 0.00693712
5 *463:18 0.00660962
6 *463:14 0.00140236
7 *463:8 0.000292424
8 *2021:A *1694:A 0.000226295
9 *2021:A *464:58 0.000349716
10 *2021:A *465:10 0.000494821
11 *2021:A *469:8 0.00016105
12 *463:8 *629:22 0
13 *463:8 *640:46 0.000135547
14 *463:14 *1601:GATE 9.41704e-05
15 *463:14 *524:8 0.000564145
16 *463:14 *640:46 0.00028988
17 *463:18 *518:26 0
18 *463:18 *528:32 0.00130656
19 *463:18 *621:16 0.00141956
20 *463:18 *623:53 8.88736e-05
21 *463:28 *471:30 0.000101663
22 *463:28 *471:46 2.05503e-05
23 *463:28 *487:18 0
24 *463:28 *488:24 0.00688064
25 *463:28 *492:22 0.00088554
26 *463:28 *494:26 0.00801048
27 *463:28 *518:20 0.00170384
28 *463:28 *551:14 0.000306971
29 *463:28 *617:12 0.000164818
30 *463:28 *619:26 0
31 *463:38 *1694:A 6.51763e-05
32 *463:38 *464:58 0.000119511
33 *463:38 *490:36 0.000385463
34 *463:38 *492:28 0
35 *463:38 *494:32 0
36 *463:38 *499:14 0
37 *463:38 *500:8 0.000690408
38 *463:38 *584:140 4.99125e-06
39 *463:38 *588:159 2.24973e-05
40 *463:38 *691:28 0.000293776
41 VALUE_top2 *463:18 0.000108003
42 *1725:A *463:38 0
43 *1726:A *463:38 0
44 *1738:A *463:14 5.50049e-05
45 *2019:A *2021:A 5.79559e-05
46 *70:9 *463:28 0
47 *85:9 *463:28 0.000130187
48 *257:10 *2021:A 5.12254e-05
49 *440:8 *463:18 7.80049e-05
50 *459:22 *463:28 0.000190284
51 *461:42 *463:28 0
52 *462:10 *463:18 0.000208795
53 *462:32 *463:28 0.00190191
*RES
1 *1692:X *463:8 39.9057 
2 *463:8 *463:14 36.3386 
3 *463:14 *463:18 37.9011 
4 *463:18 *463:28 43.1515 
5 *463:28 *463:38 48.4268 
6 *463:38 *2021:A 36.5057 
*END

*D_NET *464 0.0394287
*CONN
*I *2022:A I *D sky130_fd_sc_hd__buf_2
*I *1693:X O *D sky130_fd_sc_hd__clkbuf_2
*CAP
1 *2022:A 0
2 *1693:X 0.000560486
3 *464:66 0.000203251
4 *464:58 0.00111844
5 *464:54 0.00361049
6 *464:38 0.00710526
7 *464:10 0.00497044
8 *464:10 *1956:A 9.75779e-05
9 *464:10 *525:10 0.000308214
10 *464:10 *530:22 2.24608e-05
11 *464:10 *535:26 7.57281e-06
12 *464:38 *470:22 0.000172841
13 *464:38 *481:12 8.43956e-05
14 *464:38 *531:26 0.00116597
15 *464:38 *536:20 0.000477724
16 *464:38 *544:30 2.5212e-05
17 *464:38 *547:42 0.00162839
18 *464:38 *549:26 5.31675e-05
19 *464:38 *556:28 7.27684e-05
20 *464:38 *560:26 0.000159572
21 *464:38 *565:12 0.000398024
22 *464:38 *565:28 0.00105733
23 *464:38 *567:22 0.00108621
24 *464:38 *568:48 0.000828946
25 *464:38 *572:34 0.000970241
26 *464:38 *572:64 0.000360922
27 *464:38 *587:115 5.10545e-05
28 *464:38 *588:83 0.000613173
29 *464:38 *620:30 6.95499e-05
30 *464:38 *625:134 0.000672274
31 *464:54 *471:46 0.000398176
32 *464:54 *471:86 3.39192e-05
33 *464:54 *486:12 0.000420715
34 *464:54 *535:14 0.000370035
35 *464:54 *548:62 0.000630106
36 *464:54 *568:22 0.00335481
37 *464:54 *586:51 0.000577795
38 *464:54 *588:83 0.000843949
39 *464:54 *632:124 0.000169227
40 *464:58 *1694:A 0.000395895
41 *464:58 *469:8 0.00225667
42 *464:58 *471:50 0.000219383
43 *464:58 *490:28 1.74129e-05
44 *464:58 *490:36 0.000262203
45 *464:66 *501:10 1.27508e-05
46 *464:66 *509:12 4.80826e-05
47 FrameData_O[11] *464:66 0.000109352
48 *1739:A *464:10 2.64616e-05
49 *1748:A *464:58 0.000140259
50 *2021:A *464:58 0.000349716
51 *109:8 *464:10 0.000138444
52 *112:8 *464:10 0.00018282
53 *365:10 *464:66 5.58975e-06
54 *415:50 *464:38 0.000393421
55 *463:38 *464:58 0.000119511
*RES
1 *1693:X *464:10 49.9004 
2 *464:10 *464:38 49.6877 
3 *464:38 *464:54 46.7847 
4 *464:54 *464:58 43.7307 
5 *464:58 *464:66 33.8321 
6 *464:66 *2022:A 23 
*END

*D_NET *465 0.00180898
*CONN
*I *2023:A I *D sky130_fd_sc_hd__buf_2
*I *1694:X O *D sky130_fd_sc_hd__clkbuf_1
*CAP
1 *2023:A 0
2 *1694:X 0.000618029
3 *465:10 0.000618029
4 *465:10 *469:14 4.58924e-05
5 *465:10 *509:12 0
6 FrameData_O[11] *465:10 0
7 *2019:A *465:10 3.22051e-05
8 *2021:A *465:10 0.000494821
9 *38:10 *465:10 0
*RES
1 *1694:X *465:10 49.5586 
2 *465:10 *2023:A 38 
*END

*D_NET *466 0.0181084
*CONN
*I *2024:A I *D sky130_fd_sc_hd__buf_2
*I *1695:X O *D sky130_fd_sc_hd__buf_1
*CAP
1 *2024:A 0.000550955
2 *1695:X 0.000355749
3 *466:48 0.00148576
4 *466:38 0.00283492
5 *466:22 0.00277268
6 *466:10 0.00122833
7 *2024:A *1637:D 0.00010018
8 *2024:A *2025:A 0.000263176
9 *2024:A *586:112 5.30077e-05
10 *466:10 *646:8 0.000123708
11 *466:10 *649:8 0.000291107
12 *466:22 *1706:A 8.56254e-05
13 *466:22 *520:20 0.000140593
14 *466:22 *632:8 6.47117e-05
15 *466:22 *632:20 1.21972e-05
16 *466:22 *660:22 5.62433e-06
17 *466:22 *677:22 4.45594e-05
18 *466:22 *686:16 0.00021677
19 *466:22 *686:28 0.000734474
20 *466:38 *474:28 0.000466283
21 *466:38 *479:18 0
22 *466:38 *485:18 0.000183968
23 *466:38 *500:8 0.000146842
24 *466:38 *504:40 0.000145912
25 *466:38 *558:28 0
26 *466:38 *603:14 0.00106033
27 *466:38 *603:31 6.33958e-05
28 *466:38 *632:158 0.000464582
29 *466:38 *645:34 0.000387923
30 *466:38 *681:24 0.00104564
31 *466:48 *1637:D 3.28409e-05
32 *466:48 *1637:GATE 8.48502e-06
33 *466:48 *498:14 0.000114846
34 *466:48 *510:18 0.000385463
35 *466:48 *512:10 0.000719859
36 *466:48 *529:12 0.000716688
37 *67:23 *466:22 0.000356246
38 *188:17 *466:10 3.60392e-05
39 *229:85 *466:22 0.000164318
40 *229:122 *466:22 0.000127885
41 *229:150 *466:38 0.000116687
*RES
1 *1695:X *466:10 43.4686 
2 *466:10 *466:22 48.5911 
3 *466:22 *466:38 43.8286 
4 *466:38 *466:48 48.27 
5 *466:48 *2024:A 32.6943 
*END

*D_NET *467 0.00257672
*CONN
*I *2025:A I *D sky130_fd_sc_hd__buf_2
*I *1696:X O *D sky130_fd_sc_hd__clkbuf_1
*CAP
1 *2025:A 0.000300261
2 *1696:X 0.000323311
3 *467:10 0.000623571
4 *2025:A *586:112 0.000325642
5 *467:10 *1472:A1 0.000240173
6 *467:10 *496:12 0.000368747
7 *467:10 *511:16 3.71198e-05
8 *2020:A *467:10 9.47227e-05
9 *2024:A *2025:A 0.000263176
*RES
1 *1696:X *467:10 45.1257 
2 *467:10 *2025:A 45.7886 
*END

*D_NET *468 0.0170482
*CONN
*I *2026:A I *D sky130_fd_sc_hd__buf_2
*I *1697:X O *D sky130_fd_sc_hd__buf_1
*CAP
1 *2026:A 0
2 *1697:X 3.02499e-05
3 *468:18 0.005995
4 *468:10 0.00602525
5 *468:10 *597:28 9.47911e-06
6 *468:10 *626:10 4.73652e-05
7 *468:10 *656:20 3.41998e-06
8 *468:18 *469:14 0.000256175
9 *468:18 *501:14 0
10 *468:18 *515:48 0.000290674
11 *468:18 *538:18 0.000331378
12 *468:18 *558:28 0
13 *468:18 *561:22 0.00148457
14 *468:18 *572:34 0
15 *468:18 *586:76 0.000888804
16 *468:18 *619:50 0.000123809
17 *468:18 *625:234 0
18 *468:18 *649:24 0.000265623
19 *468:18 *659:32 4.89323e-05
20 *468:18 *684:18 0.000838009
21 *1486:S *468:18 0.000115662
22 *1765:A *468:18 0.000156414
23 *270:30 *468:18 5.36891e-05
24 *273:14 *468:18 8.37399e-05
*RES
1 *1697:X *468:10 46.6732 
2 *468:10 *468:18 40.8861 
3 *468:18 *2026:A 23 
*END

*D_NET *469 0.00788116
*CONN
*I *2027:A I *D sky130_fd_sc_hd__buf_2
*I *1698:X O *D sky130_fd_sc_hd__clkbuf_1
*CAP
1 *2027:A 0
2 *1698:X 0
3 *469:14 0.000570358
4 *469:8 0.00241123
5 *469:4 0.00184087
6 *469:14 *501:10 0
7 *469:14 *501:14 0
8 *469:14 *586:112 4.27854e-05
9 FrameData_O[11] *469:14 2.04934e-05
10 FrameData_O[13] *469:14 2.5343e-05
11 FrameData_O[14] *469:14 0
12 FrameData_O[15] *469:14 0.00012389
13 FrameData_O[17] *469:14 0.00012641
14 *2021:A *469:8 0.00016105
15 *464:58 *469:8 0.00225667
16 *465:10 *469:14 4.58924e-05
17 *468:18 *469:14 0.000256175
*RES
1 *1698:X *469:4 23 
2 *469:4 *469:8 42.3014 
3 *469:8 *469:14 27.2836 
4 *469:14 *2027:A 23 
*END

*D_NET *470 0.0303246
*CONN
*I *2028:A I *D sky130_fd_sc_hd__buf_2
*I *696:DIODE I *D sky130_fd_sc_hd__diode_2
*I *1699:X O *D sky130_fd_sc_hd__buf_1
*CAP
1 *2028:A 1.95323e-05
2 *696:DIODE 1.95323e-05
3 *1699:X 0.000627222
4 *470:54 0.000884655
5 *470:36 0.00175523
6 *470:30 0.00199587
7 *470:22 0.00483408
8 *470:12 0.00433601
9 *2028:A *473:20 5.79559e-05
10 *470:12 *482:41 6.82841e-05
11 *470:12 *547:42 7.31656e-05
12 *470:12 *550:38 0.00128268
13 *470:12 *567:22 0.000600145
14 *470:12 *592:58 0.000409561
15 *470:12 *625:88 7.09211e-05
16 *470:12 *630:42 8.64901e-05
17 *470:22 *481:24 0.00532309
18 *470:22 *572:64 1.51127e-05
19 *470:30 *1462:A0 9.58714e-05
20 *470:30 *1626:GATE 0.000176437
21 *470:30 *1797:A 5.3304e-05
22 *470:30 *2005:A 0.000270953
23 *470:30 *520:20 0.00051059
24 *470:30 *542:26 3.85446e-05
25 *470:30 *663:32 0.000507792
26 *470:30 *665:10 4.15283e-06
27 *470:30 *666:16 0.000117315
28 *470:30 *677:22 0.000455036
29 *470:30 *686:16 0.000392374
30 *470:36 *1618:GATE 9.41704e-05
31 *470:36 *499:14 0.000384792
32 *470:36 *513:12 0.000384792
33 *470:36 *663:32 0.00063627
34 *470:54 *1641:D 6.75057e-06
35 *470:54 *473:20 0.000935479
36 *470:54 *486:28 0.000167186
37 *1459:A1 *470:36 0.000178517
38 *1459:S *470:36 2.43944e-05
39 *1778:A *470:54 0.000139357
40 *165:15 *470:22 0.000178191
41 *183:13 *470:30 0
42 *201:17 *470:30 5.50106e-05
43 *207:15 *470:30 0.000334525
44 *208:11 *470:30 0.00041066
45 *229:150 *470:30 1.22822e-05
46 *229:150 *470:36 0.00108318
47 *264:14 *470:54 4.42623e-05
48 *464:38 *470:22 0.000172841
*RES
1 *1699:X *470:12 49.5286 
2 *470:12 *470:22 35.5752 
3 *470:22 *470:30 43.9689 
4 *470:30 *470:36 38.2 
5 *470:36 *470:54 34.8443 
6 *470:54 *696:DIODE 23 
7 *696:DIODE *2028:A 46.6214 
*END

*D_NET *471 0.0395785
*CONN
*I *1607:D I *D sky130_fd_sc_hd__dlxtp_1
*I *1698:A I *D sky130_fd_sc_hd__clkbuf_1
*I *1639:D I *D sky130_fd_sc_hd__dlxtp_1
*I *1826:X O *D sky130_fd_sc_hd__dlymetal6s2s_1
*CAP
1 *1607:D 0
2 *1698:A 0
3 *1639:D 0
4 *1826:X 0.000270723
5 *471:86 0.000706528
6 *471:62 0.000380735
7 *471:50 0.000530966
8 *471:46 0.00193202
9 *471:36 0.00135475
10 *471:30 0.00112747
11 *471:20 0.00190783
12 *471:16 0.00466107
13 *471:8 0.00387194
14 *471:16 *1557:A 9.23705e-06
15 *471:16 *526:28 0.000131974
16 *471:16 *531:46 1.57751e-05
17 *471:16 *531:52 0.00206969
18 *471:16 *538:42 0.00127325
19 *471:16 *556:28 0.00228118
20 *471:16 *568:48 0.000851102
21 *471:16 *586:12 1.05243e-05
22 *471:16 *613:14 0.000237763
23 *471:16 *616:22 9.31734e-05
24 *471:16 *622:127 8.22421e-06
25 *471:16 *624:61 0.000221686
26 *471:16 *629:10 0
27 *471:16 *651:14 0.000162307
28 *471:16 *662:20 0.000324312
29 *471:16 *673:10 1.29942e-05
30 *471:20 *552:34 7.6472e-05
31 *471:20 *576:10 0
32 *471:20 *628:51 0.00028153
33 *471:20 *628:76 0.000153646
34 *471:20 *631:69 1.27408e-05
35 *471:30 *472:12 0.000585018
36 *471:30 *472:16 0.000468013
37 *471:30 *494:26 0.000186822
38 *471:30 *551:14 0.00216685
39 *471:30 *570:12 0.0016589
40 *471:36 *579:84 0
41 *471:46 *486:12 6.53836e-05
42 *471:46 *489:36 0.000132918
43 *471:46 *579:107 0
44 *471:46 *645:34 0.000408619
45 *471:50 *490:28 7.68955e-05
46 *471:62 *699:DIODE 5.3304e-05
47 *471:62 *485:18 0.000259186
48 *471:62 *491:34 8.49767e-05
49 *471:62 *514:10 0
50 *471:62 *535:10 2.82784e-05
51 *471:86 *1517:A0 0.000327583
52 *471:86 *486:12 9.8519e-05
53 *471:86 *645:34 0.000248501
54 *471:86 *649:38 9.13769e-05
55 *471:86 *649:46 0.000102655
56 *471:86 *684:32 9.80004e-05
57 RESET_top *471:20 0
58 *1470:S *471:86 5.79682e-05
59 *1509:B1 *471:20 0.000148563
60 *1556:A2 *471:16 4.94189e-05
61 *9:11 *471:16 0
62 *67:9 *471:30 0.000154451
63 *68:11 *471:46 0.000663924
64 *80:11 *471:30 0.000696372
65 *80:17 *471:30 0.000781403
66 *82:17 *471:46 0.00156737
67 *83:17 *471:36 0
68 *85:9 *471:36 9.28078e-06
69 *213:9 *471:20 0
70 *213:32 *471:16 0.000763973
71 *232:111 *471:20 0.000449432
72 *298:14 *471:62 5.52998e-05
73 *357:8 *471:86 1.01436e-05
74 *415:44 *471:20 0.000245685
75 *436:24 *471:16 2.12286e-05
76 *451:18 *471:20 0.000514941
77 *461:34 *471:46 0.000501987
78 *461:42 *471:46 0
79 *463:28 *471:30 0.000101663
80 *463:28 *471:46 2.05503e-05
81 *464:54 *471:46 0.000398176
82 *464:54 *471:86 3.39192e-05
83 *464:58 *471:50 0.000219383
*RES
1 *1826:X *471:8 41.9564 
2 *471:8 *471:16 35.9912 
3 *471:16 *471:20 35.7454 
4 *471:20 *471:30 46.5657 
5 *471:30 *471:36 34.0186 
6 *471:36 *471:46 47.2936 
7 *471:46 *471:50 18.0036 
8 *471:50 *471:62 37.7886 
9 *471:62 *1639:D 23 
10 *471:50 *1698:A 23 
11 *471:46 *471:86 28.5471 
12 *471:86 *1607:D 23 
*END

*D_NET *472 0.0213661
*CONN
*I *2029:A I *D sky130_fd_sc_hd__buf_2
*I *1681:X O *D sky130_fd_sc_hd__buf_1
*CAP
1 *2029:A 0
2 *1681:X 0.000140617
3 *472:22 0.000141788
4 *472:16 0.00144801
5 *472:14 0.00133151
6 *472:12 0.00106909
7 *472:10 0.00104379
8 *472:8 0.000140617
9 *472:12 *488:24 0.00022031
10 *472:12 *517:18 0.00222014
11 *472:12 *551:14 0.000885383
12 *472:12 *579:16 0.000182832
13 *472:12 *694:18 4.04206e-05
14 *472:12 *694:20 0.00111834
15 *472:16 *694:20 0.00138408
16 FrameData_O[1] *472:22 3.20914e-05
17 VALUE_top10 *472:8 4.13298e-05
18 *35:12 *472:22 0
19 *69:9 *472:16 0
20 *76:11 *472:22 7.99777e-05
21 *77:9 *472:16 0.00250721
22 *78:11 *472:12 0.000180021
23 *80:17 *472:16 1.03836e-05
24 *84:11 *472:16 2.31797e-05
25 *85:9 *472:16 0.00264956
26 *213:9 *472:12 0.000201049
27 *248:16 *472:12 0.00121671
28 *459:26 *472:8 0
29 *461:26 *472:12 0.000742795
30 *462:40 *472:12 0.00126188
31 *471:30 *472:12 0.000585018
32 *471:30 *472:16 0.000468013
*RES
1 *1681:X *472:8 40.2579 
2 *472:8 *472:10 15 
3 *472:10 *472:12 57.0782 
4 *472:12 *472:14 0.497143 
5 *472:14 *472:16 55.1725 
6 *472:16 *472:22 33.3143 
7 *472:22 *2029:A 23 
*END

*D_NET *473 0.00425855
*CONN
*I *1911:A I *D sky130_fd_sc_hd__buf_2
*I *1700:X O *D sky130_fd_sc_hd__clkbuf_1
*CAP
1 *1911:A 0
2 *1700:X 0.00151525
3 *473:20 0.00151525
4 *473:20 *1641:D 9.20335e-05
5 *473:20 *486:28 3.22796e-06
6 *1778:A *473:20 0.000139357
7 *2028:A *473:20 5.79559e-05
8 *470:54 *473:20 0.000935479
*RES
1 *1700:X *473:20 48.4371 
2 *473:20 *1911:A 23 
*END

*D_NET *474 0.0153154
*CONN
*I *1912:A I *D sky130_fd_sc_hd__buf_2
*I *1701:X O *D sky130_fd_sc_hd__buf_1
*CAP
1 *1912:A 0
2 *1701:X 0.00136093
3 *474:28 0.00136962
4 *474:20 0.0025742
5 *474:12 0.00180835
6 *474:6 0.0019647
7 *474:6 *547:16 0.000995812
8 *474:6 *547:26 1.56542e-05
9 *474:6 *669:34 0.000127609
10 *474:12 *1607:GATE 3.2719e-05
11 *474:12 *1704:A 0.000259461
12 *474:12 *1797:A 0.000130417
13 *474:12 *477:8 0.000129092
14 *474:12 *508:26 3.33144e-05
15 *474:12 *548:68 0.000277032
16 *474:12 *625:10 8.35502e-05
17 *474:12 *649:38 3.04247e-05
18 *474:12 *688:14 0
19 *474:20 *1650:D 1.05441e-05
20 *474:20 *477:12 0.000456109
21 *474:20 *483:10 1.74874e-06
22 *474:20 *485:18 1.6551e-05
23 *474:20 *508:26 5.3304e-05
24 *474:20 *514:10 0
25 *474:20 *603:14 0.00012144
26 *474:20 *603:31 2.33476e-05
27 *474:28 *475:20 3.18142e-05
28 *474:28 *477:12 0.00156294
29 *474:28 *483:10 5.68958e-05
30 *474:28 *632:158 0.000336788
31 *474:28 *632:166 0.000140259
32 *474:28 *632:179 0.000137651
33 *273:34 *474:6 0.000221084
34 *306:12 *474:6 0.000261206
35 *359:10 *474:12 0.000159613
36 *412:10 *474:12 6.49723e-05
37 *466:38 *474:28 0.000466283
*RES
1 *1701:X *474:6 42.6786 
2 *474:6 *474:12 43.1743 
3 *474:12 *474:20 46.24 
4 *474:20 *474:28 30.3464 
5 *474:28 *1912:A 23 
*END

*D_NET *475 0.011207
*CONN
*I *1913:A I *D sky130_fd_sc_hd__buf_2
*I *1702:X O *D sky130_fd_sc_hd__clkbuf_1
*CAP
1 *1913:A 0
2 *1702:X 2.97486e-05
3 *475:20 0.00129384
4 *475:16 0.00247259
5 *475:8 0.0012085
6 *475:8 *1611:D 5.68958e-05
7 *475:8 *491:34 0.000144501
8 *475:8 *526:61 3.22465e-05
9 *475:16 *526:54 8.27648e-05
10 *475:16 *533:22 1.24585e-05
11 *475:16 *561:12 0
12 *475:16 *581:146 3.39272e-05
13 *475:16 *632:106 0.000135277
14 *475:16 *632:112 0.000300629
15 *475:16 *643:24 0.000273641
16 *475:16 *645:34 0
17 *475:16 *687:26 0
18 *475:16 *687:36 5.90175e-05
19 *475:20 *477:12 0.00297209
20 *475:20 *625:220 0.00185293
21 *1484:B *475:16 1.28019e-05
22 *1487:C1 *475:16 5.16989e-05
23 *275:42 *475:16 8.81977e-05
24 *329:14 *475:16 2.05503e-05
25 *411:8 *475:16 4.08537e-05
26 *474:28 *475:20 3.18142e-05
*RES
1 *1702:X *475:8 39.5743 
2 *475:8 *475:16 35.0514 
3 *475:16 *475:20 35.2971 
4 *475:20 *1913:A 23 
*END

*D_NET *476 0.0210479
*CONN
*I *1914:A I *D sky130_fd_sc_hd__buf_2
*I *697:DIODE I *D sky130_fd_sc_hd__diode_2
*I *1703:X O *D sky130_fd_sc_hd__buf_1
*CAP
1 *1914:A 2.268e-05
2 *697:DIODE 2.268e-05
3 *1703:X 2.81092e-05
4 *476:28 0.00165909
5 *476:22 0.00568715
6 *476:12 0.00405617
7 *476:12 *625:63 4.62763e-05
8 *476:12 *657:8 1.27321e-05
9 *476:12 *667:18 5.45304e-05
10 *476:22 *481:24 0.00606731
11 *476:22 *508:26 0
12 *476:22 *542:38 0.0031892
13 *476:22 *690:16 0
14 *476:28 *478:38 0
15 *476:28 *527:12 0
16 *476:28 *679:36 0
17 *476:28 *689:26 4.62457e-05
18 *51:10 *1914:A 3.22879e-05
19 *51:10 *476:28 0.000100803
20 *102:12 *476:22 0
21 *174:13 *476:12 2.26406e-05
22 *209:21 *476:22 0
*RES
1 *1703:X *476:12 46.42 
2 *476:12 *476:22 38.3901 
3 *476:22 *476:28 39.1011 
4 *476:28 *697:DIODE 23 
5 *697:DIODE *1914:A 46.6214 
*END

*D_NET *477 0.00903453
*CONN
*I *1915:A I *D sky130_fd_sc_hd__buf_2
*I *1704:X O *D sky130_fd_sc_hd__clkbuf_1
*CAP
1 *1915:A 0
2 *1704:X 8.16321e-05
3 *477:18 0.000176981
4 *477:12 0.00136223
5 *477:10 0.00118524
6 *477:8 8.16321e-05
7 *477:8 *1797:A 0.000126993
8 *477:12 *508:26 6.17437e-06
9 *477:12 *625:220 0.000626248
10 *477:12 *632:166 0.000141954
11 *477:12 *632:179 0.000125213
12 *477:18 *501:14 0
13 *474:12 *477:8 0.000129092
14 *474:20 *477:12 0.000456109
15 *474:28 *477:12 0.00156294
16 *475:20 *477:12 0.00297209
*RES
1 *1704:X *477:8 39.9057 
2 *477:8 *477:10 15 
3 *477:10 *477:12 41.1179 
4 *477:12 *477:18 32.9621 
5 *477:18 *1915:A 23 
*END

*D_NET *478 0.0182735
*CONN
*I *1916:A I *D sky130_fd_sc_hd__buf_2
*I *1705:X O *D sky130_fd_sc_hd__buf_1
*CAP
1 *1916:A 0
2 *1705:X 0.000306714
3 *478:38 0.000870257
4 *478:28 0.00387611
5 *478:26 0.00428085
6 *478:18 0.00158474
7 *478:12 0.000616461
8 *478:12 *560:32 5.42272e-05
9 *478:12 *655:8 8.27131e-05
10 *478:18 *504:28 0
11 *478:18 *504:34 1.09903e-05
12 *478:18 *529:24 7.18133e-05
13 *478:18 *529:30 0.000514235
14 *478:26 *504:28 0
15 *478:26 *504:34 0.000826861
16 *478:26 *529:24 0.00250768
17 *478:28 *504:40 0.000227606
18 *478:38 *483:14 0.000209015
19 *478:38 *485:26 0
20 *478:38 *501:14 0
21 *478:38 *511:30 0.000185428
22 *478:38 *679:36 0
23 *478:38 *693:22 9.28078e-06
24 FrameData_O[31] *478:38 0
25 FrameStrobe_O[18] *478:28 0.000168975
26 *146:8 *478:12 0.00020657
27 *173:11 *478:12 0.000204471
28 *177:13 *478:12 1.60389e-05
29 *179:13 *478:18 0.000110332
30 *198:13 *478:26 5.50049e-05
31 *198:13 *478:28 0.000231949
32 *202:15 *478:28 2.98648e-05
33 *203:13 *478:28 0.000305425
34 *206:13 *478:26 0.000166774
35 *207:15 *478:26 0.00028094
36 *210:13 *478:26 0.000234147
37 *229:37 *478:12 2.80623e-05
38 *476:28 *478:38 0
*RES
1 *1705:X *478:12 44.5457 
2 *478:12 *478:18 22.54 
3 *478:18 *478:26 36.0636 
4 *478:26 *478:28 37.7829 
5 *478:28 *478:38 45.4529 
6 *478:38 *1916:A 23 
*END

*D_NET *479 0.0130165
*CONN
*I *1917:A I *D sky130_fd_sc_hd__buf_2
*I *1706:X O *D sky130_fd_sc_hd__buf_1
*CAP
1 *1917:A 0
2 *1706:X 0.000123013
3 *479:18 0.0035143
4 *479:10 0.00363731
5 *479:10 *1615:GATE 9.85586e-06
6 *479:10 *489:10 0.000105252
7 *479:10 *571:26 9.9025e-06
8 *479:10 *676:16 6.61965e-05
9 *479:18 *480:20 2.51564e-05
10 *479:18 *483:22 2.26406e-05
11 *479:18 *485:18 0.00116146
12 *479:18 *628:162 0.00203472
13 *479:18 *645:34 9.84155e-05
14 *479:18 *647:22 0.000286375
15 *479:18 *679:32 5.64569e-05
16 *479:18 *682:22 0.00186546
17 *466:38 *479:18 0
*RES
1 *1706:X *479:10 48.4339 
2 *479:10 *479:18 33.3376 
3 *479:18 *1917:A 23 
*END

*D_NET *480 0.0128599
*CONN
*I *1918:A I *D sky130_fd_sc_hd__buf_2
*I *1707:X O *D sky130_fd_sc_hd__buf_1
*CAP
1 *1918:A 0
2 *1707:X 0.000243202
3 *480:28 0.00146805
4 *480:20 0.00243933
5 *480:12 0.00121449
6 *480:12 *1616:GATE 2.05503e-05
7 *480:12 *676:12 2.24608e-05
8 *480:12 *678:12 0.000314525
9 *480:20 *507:10 2.72097e-05
10 *480:20 *628:162 0.00203698
11 *480:20 *647:22 0.000702469
12 *480:20 *691:12 0.00064524
13 *480:20 *691:24 4.60157e-05
14 *480:28 *1938:A 2.44913e-05
15 *480:28 *1939:A 0.000310647
16 *480:28 *481:28 0.000516075
17 *480:28 *679:32 0.000988907
18 *480:28 *691:24 0.000885085
19 FrameStrobe_O[12] *480:28 9.91024e-05
20 FrameStrobe_O[14] *480:28 0.00010018
21 FrameStrobe_O[16] *480:28 0.00010018
22 FrameStrobe_O[4] *480:28 5.56356e-05
23 FrameStrobe_O[6] *480:28 5.67058e-05
24 FrameStrobe_O[8] *480:28 9.58714e-05
25 *55:10 *480:28 0.00010018
26 *88:12 *480:28 0.000140935
27 *95:10 *480:28 0.000180218
28 *479:18 *480:20 2.51564e-05
*RES
1 *1707:X *480:12 49.8011 
2 *480:12 *480:20 28.7355 
3 *480:20 *480:28 36.0636 
4 *480:28 *1918:A 23 
*END

*D_NET *481 0.0266479
*CONN
*I *1919:A I *D sky130_fd_sc_hd__buf_2
*I *1708:X O *D sky130_fd_sc_hd__buf_1
*CAP
1 *1919:A 0
2 *1708:X 0.000117541
3 *481:28 0.00065413
4 *481:24 0.00556695
5 *481:12 0.00503036
6 *481:12 *536:20 8.43956e-05
7 *481:12 *592:75 7.0261e-05
8 *481:24 *505:20 1.14452e-05
9 *481:24 *513:12 9.80568e-05
10 *481:24 *529:12 0.000163085
11 *481:24 *542:38 0.000830635
12 *481:24 *572:64 0.000418517
13 *481:28 *1938:A 0.000261945
14 *481:28 *495:16 6.9805e-05
15 *481:28 *679:32 0.000863693
16 FrameStrobe_O[17] *481:24 0
17 FrameStrobe_O[19] *481:24 0
18 *2:14 *481:12 6.77187e-05
19 *96:8 *481:24 0.000348447
20 *464:38 *481:12 8.43956e-05
21 *470:22 *481:24 0.00532309
22 *476:22 *481:24 0.00606731
23 *480:28 *481:28 0.000516075
*RES
1 *1708:X *481:12 47.2102 
2 *481:12 *481:24 49.99 
3 *481:24 *481:28 32.2964 
4 *481:28 *1919:A 23 
*END

*D_NET *482 0.0129632
*CONN
*I *1640:D I *D sky130_fd_sc_hd__dlxtp_1
*I *1608:D I *D sky130_fd_sc_hd__dlxtp_1
*I *1699:A I *D sky130_fd_sc_hd__buf_1
*I *1827:X O *D sky130_fd_sc_hd__buf_1
*CAP
1 *1640:D 0.000306585
2 *1608:D 1.97948e-05
3 *1699:A 2.52923e-05
4 *1827:X 0.000233465
5 *482:41 0.000517647
6 *482:28 0.0004844
7 *482:24 0.000853411
8 *482:16 0.00276286
9 *482:10 0.00241075
10 *1608:D *545:30 5.50049e-05
11 *1608:D *639:12 1.94693e-05
12 *1640:D *559:48 0.000306344
13 *1640:D *566:18 0.00022843
14 *1640:D *617:40 9.28078e-06
15 *1640:D *630:86 4.67488e-05
16 *1640:D *639:30 0.000133966
17 *482:10 *1602:GATE 3.04595e-05
18 *482:10 *515:8 0.000141675
19 *482:10 *651:14 5.50106e-05
20 *482:10 *651:21 3.49686e-05
21 *482:16 *492:10 8.62876e-05
22 *482:16 *519:20 0.0013639
23 *482:16 *618:16 0.000901958
24 *482:16 *618:18 1.56762e-05
25 *482:16 *651:21 0.000232655
26 *482:24 *545:30 0.000603995
27 *482:24 *551:24 0.000107218
28 *482:24 *627:55 3.73918e-05
29 *482:28 *1979:A 9.58714e-05
30 *482:28 *519:12 4.03573e-05
31 *482:28 *550:38 0.000262858
32 *482:41 *519:12 6.97831e-05
33 *482:41 *566:18 0.000150368
34 *482:41 *625:88 3.51334e-05
35 *16:13 *482:10 5.79559e-05
36 *125:16 *482:16 8.4047e-05
37 *137:14 *482:24 2.05503e-05
38 *137:14 *482:28 5.3304e-05
39 *470:12 *482:41 6.82841e-05
*RES
1 *1827:X *482:10 28.1889 
2 *482:10 *482:16 47.0761 
3 *482:16 *482:24 38.3686 
4 *482:24 *482:28 19.9093 
5 *482:28 *1699:A 23.4971 
6 *482:28 *482:41 18.8321 
7 *482:41 *1608:D 38.6214 
8 *482:41 *1640:D 44.7943 
*END

*D_NET *483 0.0073888
*CONN
*I *1920:A I *D sky130_fd_sc_hd__buf_2
*I *1709:X O *D sky130_fd_sc_hd__clkbuf_1
*CAP
1 *1920:A 0
2 *1709:X 0.000313539
3 *483:22 0.000454349
4 *483:14 0.00127853
5 *483:10 0.00113772
6 *483:10 *485:18 0
7 *483:10 *514:10 0.000321531
8 *483:14 *496:18 0.000254456
9 *483:14 *511:30 0.00194974
10 *483:14 *689:20 0.00130543
11 *483:22 *485:26 0
12 FrameData_O[27] *483:22 0
13 FrameData_O[29] *483:22 0
14 FrameData_O[30] *483:22 2.47015e-05
15 FrameData_O[31] *483:22 0
16 *346:10 *483:10 5.85024e-05
17 *474:20 *483:10 1.74874e-06
18 *474:28 *483:10 5.68958e-05
19 *478:38 *483:14 0.000209015
20 *479:18 *483:22 2.26406e-05
*RES
1 *1709:X *483:10 43.8207 
2 *483:10 *483:14 41.3486 
3 *483:14 *483:22 37.7057 
4 *483:22 *1920:A 23 
*END

*D_NET *484 0.014913
*CONN
*I *1921:A I *D sky130_fd_sc_hd__buf_2
*I *1682:X O *D sky130_fd_sc_hd__buf_1
*CAP
1 *1921:A 0
2 *1682:X 0.000708054
3 *484:20 0.000194042
4 *484:14 0.00442964
5 *484:12 0.0042356
6 *484:10 0.000708054
7 *484:10 *1591:D 8.17328e-05
8 *484:10 *518:20 8.14951e-05
9 *484:10 *584:115 0.000403962
10 *484:10 *612:24 0.000184324
11 *484:10 *619:42 0.00027799
12 *484:14 *1619:D 1.94812e-05
13 *484:14 *1619:GATE 4.99329e-05
14 *484:14 *1710:A 2.05898e-05
15 *484:14 *1925:A 1.83327e-05
16 *484:14 *486:8 0.00083357
17 *484:14 *488:30 0.00105631
18 *484:14 *510:8 0.000737585
19 *484:14 *613:44 7.73003e-05
20 *484:14 *613:51 0.000119436
21 *484:14 *636:35 6.99492e-05
22 *484:14 *676:26 0.000444896
23 *484:20 *1926:A 5.08064e-05
24 *73:17 *484:20 0
25 *263:10 *484:10 8.4047e-05
26 *315:10 *484:14 2.35238e-05
27 *415:30 *484:10 2.38602e-06
*RES
1 *1682:X *484:10 49.7864 
2 *484:10 *484:12 15 
3 *484:12 *484:14 61.1279 
4 *484:14 *484:20 33.6664 
5 *484:20 *1921:A 23 
*END

*D_NET *485 0.0139241
*CONN
*I *1922:A I *D sky130_fd_sc_hd__buf_2
*I *1710:X O *D sky130_fd_sc_hd__buf_1
*CAP
1 *1922:A 0
2 *1710:X 0.000789886
3 *485:26 0.000511242
4 *485:18 0.00370308
5 *485:8 0.00398173
6 *485:8 *488:30 2.43944e-05
7 *485:18 *1650:D 0.00023231
8 *485:18 *506:10 0
9 *485:18 *509:34 0.00110949
10 *485:18 *514:10 0
11 *485:18 *558:28 0
12 *485:18 *603:31 1.28035e-05
13 *485:18 *628:120 0.000382995
14 *485:18 *632:146 1.35764e-05
15 *485:26 *501:14 0.000462719
16 FrameData_O[26] *485:26 0
17 FrameData_O[31] *485:26 6.48049e-05
18 *80:23 *485:8 0.000528215
19 *266:8 *485:18 0.000157682
20 *273:10 *485:18 0
21 *298:14 *485:18 1.59355e-05
22 *346:10 *485:18 1.49224e-05
23 *461:42 *485:18 0.00029718
24 *466:38 *485:18 0.000183968
25 *471:62 *485:18 0.000259186
26 *474:20 *485:18 1.6551e-05
27 *478:38 *485:26 0
28 *479:18 *485:18 0.00116146
29 *483:10 *485:18 0
30 *483:22 *485:26 0
*RES
1 *1710:X *485:8 49.5793 
2 *485:8 *485:18 44.3309 
3 *485:18 *485:26 33.0154 
4 *485:26 *1922:A 23 
*END

*D_NET *486 0.0145815
*CONN
*I *1923:A I *D sky130_fd_sc_hd__buf_2
*I *1711:X O *D sky130_fd_sc_hd__buf_1
*CAP
1 *1923:A 0
2 *1711:X 0.000145552
3 *486:34 0.000428882
4 *486:28 0.00212403
5 *486:12 0.00248505
6 *486:8 0.000935457
7 *486:8 *488:30 0.000835271
8 *486:12 *510:26 0.00054948
9 *486:12 *628:120 0.000803363
10 *486:12 *628:135 0.000280201
11 *486:12 *645:34 5.36851e-05
12 *486:28 *1641:D 3.97328e-05
13 *486:28 *1641:GATE 0.000132374
14 *486:28 *1650:D 5.25011e-05
15 *486:28 *506:22 0.0010208
16 *486:28 *516:8 0.0010262
17 *486:28 *632:146 5.76984e-06
18 *486:28 *632:150 0.000161478
19 *486:34 *1937:A 0.00108628
20 *486:34 *1941:A 5.50106e-05
21 *97:8 *486:34 4.75087e-05
22 *264:14 *486:28 1.55187e-05
23 *357:8 *486:12 0.000159177
24 *461:42 *486:12 0.000549535
25 *464:54 *486:12 0.000420715
26 *470:54 *486:28 0.000167186
27 *471:46 *486:12 6.53836e-05
28 *471:86 *486:12 9.8519e-05
29 *473:20 *486:28 3.22796e-06
30 *484:14 *486:8 0.00083357
*RES
1 *1711:X *486:8 47.1971 
2 *486:8 *486:12 38.0343 
3 *486:12 *486:28 45.4914 
4 *486:28 *486:34 27.5529 
5 *486:34 *1923:A 23 
*END

*D_NET *487 0.0175991
*CONN
*I *1924:A I *D sky130_fd_sc_hd__buf_2
*I *1683:X O *D sky130_fd_sc_hd__buf_1
*CAP
1 *1924:A 0
2 *1683:X 6.67973e-05
3 *487:18 0.00565464
4 *487:8 0.00572144
5 *487:8 *652:20 0.000186019
6 *487:8 *684:22 9.89912e-05
7 *487:18 *1589:GATE 2.66478e-05
8 *487:18 *1799:A 9.31277e-05
9 *487:18 *1926:A 0.000179296
10 *487:18 *552:24 0.00106195
11 *487:18 *556:10 3.87221e-06
12 *487:18 *568:22 0.000977659
13 *487:18 *577:44 0.0023234
14 *487:18 *583:124 0.000814186
15 *487:18 *613:32 7.56293e-06
16 *487:18 *674:28 8.95118e-05
17 FrameData_O[2] *487:18 1.78619e-05
18 FrameData_O[3] *487:18 2.82105e-05
19 FrameData_O[6] *487:18 3.94969e-05
20 *315:22 *487:18 7.34025e-05
21 *352:10 *487:18 0.000135011
22 *463:28 *487:18 0
*RES
1 *1683:X *487:8 40.0507 
2 *487:8 *487:18 43.7497 
3 *487:18 *1924:A 38 
*END

*D_NET *488 0.0386815
*CONN
*I *1925:A I *D sky130_fd_sc_hd__buf_2
*I *698:DIODE I *D sky130_fd_sc_hd__diode_2
*I *1684:X O *D sky130_fd_sc_hd__clkbuf_2
*CAP
1 *1925:A 3.49207e-05
2 *698:DIODE 3.49207e-05
3 *1684:X 0.000723593
4 *488:30 0.000942605
5 *488:28 0.00151043
6 *488:24 0.00575566
7 *488:14 0.00591142
8 *488:14 *533:58 0.000523269
9 *488:14 *537:26 9.5877e-05
10 *488:14 *544:30 0.000393692
11 *488:14 *555:42 2.24608e-05
12 *488:14 *667:18 0.00116282
13 *488:14 *671:20 1.48022e-05
14 *488:24 *492:22 0.00686221
15 *488:24 *549:26 0
16 *488:24 *568:48 0
17 *488:24 *583:52 0.000258531
18 *488:24 *694:20 0.00012144
19 *488:28 *1651:D 0
20 *488:28 *1710:A 0
21 *488:28 *526:44 0
22 *488:28 *614:89 0.000183687
23 *488:30 *510:8 0.00073928
24 *1715:A *488:30 0.000632651
25 *80:17 *488:28 0.000200338
26 *80:23 *488:30 0.00219403
27 *83:17 *488:28 0
28 *139:12 *488:14 0.000113353
29 *438:26 *488:24 0.00121422
30 *463:28 *488:24 0.00688064
31 *472:12 *488:24 0.00022031
32 *484:14 *1925:A 1.83327e-05
33 *484:14 *488:30 0.00105631
34 *485:8 *488:30 2.43944e-05
35 *486:8 *488:30 0.000835271
*RES
1 *1684:X *488:14 49.7504 
2 *488:14 *488:24 44.7331 
3 *488:24 *488:28 24.1246 
4 *488:28 *488:30 39.2121 
5 *488:30 *698:DIODE 23 
6 *698:DIODE *1925:A 46.6214 
*END

*D_NET *489 0.0187564
*CONN
*I *1926:A I *D sky130_fd_sc_hd__buf_2
*I *1685:X O *D sky130_fd_sc_hd__buf_1
*CAP
1 *1926:A 0.00026602
2 *1685:X 0.000327069
3 *489:40 0.00105217
4 *489:36 0.00202714
5 *489:28 0.00219971
6 *489:22 0.00190327
7 *489:10 0.00127162
8 *489:10 *1647:D 0.000171505
9 *489:10 *571:26 7.07866e-05
10 *489:10 *633:46 5.64492e-05
11 *489:10 *670:16 1.59094e-05
12 *489:10 *676:16 7.45306e-06
13 *489:10 *677:22 0.000107212
14 *489:10 *686:24 5.3304e-05
15 *489:22 *1480:A3 8.57069e-05
16 *489:22 *547:16 0.000477633
17 *489:22 *577:44 0.000288247
18 *489:22 *586:93 4.29508e-05
19 *489:22 *590:118 5.99983e-05
20 *489:22 *625:32 0.000768926
21 *489:22 *683:26 7.6085e-05
22 *489:28 *1800:A 5.78077e-05
23 *489:28 *547:16 4.2517e-05
24 *489:28 *577:44 0.000472365
25 *489:28 *579:130 0
26 *489:28 *614:76 5.38934e-05
27 *489:28 *631:18 0.000152656
28 *489:28 *631:22 0.000203025
29 *489:28 *636:35 0.000238518
30 *489:36 *1457:A1 2.64616e-05
31 *489:36 *579:107 0.000142513
32 *489:36 *614:61 3.71369e-05
33 *489:36 *614:68 1.76557e-05
34 *489:36 *614:89 0.000133986
35 *489:36 *660:38 2.80924e-06
36 FrameData_O[1] *1926:A 6.86023e-06
37 FrameData_O[2] *1926:A 2.26497e-05
38 *1457:S *489:36 0.000185428
39 *1757:A *489:36 1.76557e-05
40 *35:12 *489:40 3.22879e-05
41 *61:10 *1926:A 2.64616e-05
42 *67:23 *489:10 3.16186e-05
43 *68:11 *489:40 0.00236835
44 *73:11 *489:40 8.71694e-05
45 *76:11 *1926:A 6.99248e-05
46 *82:17 *489:40 0.00249358
47 *461:42 *489:36 3.56784e-05
48 *471:46 *489:36 0.000132918
49 *479:10 *489:10 0.000105252
50 *484:20 *1926:A 5.08064e-05
51 *487:18 *1926:A 0.000179296
*RES
1 *1685:X *489:10 44.4007 
2 *489:10 *489:22 49.7925 
3 *489:22 *489:28 34.6061 
4 *489:28 *489:36 48.2493 
5 *489:36 *489:40 47.0657 
6 *489:40 *1926:A 44.0486 
*END

*D_NET *490 0.0114289
*CONN
*I *1927:A I *D sky130_fd_sc_hd__buf_2
*I *1686:X O *D sky130_fd_sc_hd__buf_1
*CAP
1 *1927:A 0.000986366
2 *1686:X 0.000203017
3 *490:36 0.00168016
4 *490:28 0.00229219
5 *490:8 0.00180142
6 *1927:A *1928:A 0.000551692
7 *490:8 *520:8 0.00021677
8 *490:28 *1643:GATE 0.000136743
9 *490:28 *526:54 5.04473e-05
10 *490:28 *577:44 0.000763099
11 *490:28 *581:136 0.000525417
12 *490:28 *581:146 0.00020072
13 *490:28 *688:14 0.000290314
14 *490:36 *512:10 0.000420324
15 *490:36 *516:8 0.000198359
16 *1488:A1 *490:28 0.000119615
17 *1488:B1 *490:28 0.00010018
18 *1748:A *490:36 7.59794e-05
19 *273:34 *490:28 5.64492e-05
20 *275:16 *490:28 1.76693e-05
21 *463:38 *490:36 0.000385463
22 *464:58 *490:28 1.74129e-05
23 *464:58 *490:36 0.000262203
24 *471:50 *490:28 7.68955e-05
*RES
1 *1686:X *490:8 40.5271 
2 *490:8 *490:28 47.2107 
3 *490:28 *490:36 45.9293 
4 *490:36 *1927:A 40.6693 
*END

*D_NET *491 0.0133439
*CONN
*I *1928:A I *D sky130_fd_sc_hd__buf_2
*I *1687:X O *D sky130_fd_sc_hd__buf_1
*CAP
1 *1928:A 0.00151492
2 *1687:X 0.000248808
3 *491:40 0.00160755
4 *491:34 0.00191404
5 *491:22 0.00248562
6 *491:10 0.000913014
7 *1928:A *1521:A0 5.50106e-05
8 *1928:A *574:8 7.43025e-06
9 *1928:A *584:140 2.18409e-05
10 *1928:A *588:159 0.00039238
11 *491:10 *1687:A 2.7557e-05
12 *491:10 *515:67 9.28078e-06
13 *491:10 *626:41 5.56279e-05
14 *491:10 *627:124 4.03206e-05
15 *491:10 *649:24 0
16 *491:22 *543:6 0.000120613
17 *491:22 *547:16 0.00023088
18 *491:22 *547:26 5.73309e-05
19 *491:22 *560:14 0
20 *491:22 *581:136 0
21 *491:22 *588:93 9.28078e-06
22 *491:22 *649:30 0.000308039
23 *491:22 *661:12 0.000379352
24 *491:22 *669:34 8.51239e-05
25 *491:34 *1611:D 5.00831e-05
26 *491:34 *526:46 0.000190826
27 *491:34 *526:61 3.42256e-05
28 *491:34 *588:97 0.000319473
29 *491:34 *588:128 6.51763e-05
30 *491:34 *614:76 1.59094e-05
31 *491:34 *628:120 2.42041e-05
32 *491:40 *492:28 0.000141879
33 *491:40 *503:10 7.76364e-06
34 *491:40 *514:10 5.20202e-05
35 *1776:A *1928:A 0.000135037
36 *1927:A *1928:A 0.000551692
37 *67:15 *491:22 0
38 *265:10 *491:22 0.00016216
39 *276:10 *491:34 0.000657536
40 *333:8 *491:40 0.000218952
41 *341:10 *491:22 3.41998e-06
42 *471:62 *491:34 8.49767e-05
43 *475:8 *491:34 0.000144501
*RES
1 *1687:X *491:10 41.9357 
2 *491:10 *491:22 44.9971 
3 *491:22 *491:34 44.5386 
4 *491:34 *491:40 33.3143 
5 *491:40 *1928:A 49.8457 
*END

*D_NET *492 0.0348556
*CONN
*I *1929:A I *D sky130_fd_sc_hd__buf_2
*I *699:DIODE I *D sky130_fd_sc_hd__diode_2
*I *1688:X O *D sky130_fd_sc_hd__clkbuf_2
*CAP
1 *1929:A 2.36083e-05
2 *699:DIODE 0.00103813
3 *1688:X 0.000277862
4 *492:28 0.0016058
5 *492:22 0.00866752
6 *492:10 0.0083541
7 *699:DIODE *1930:A 0.000976825
8 *699:DIODE *588:163 0.00106712
9 *1929:A *1930:A 3.22051e-05
10 *492:10 *521:32 0.000297119
11 *492:10 *538:52 4.84581e-05
12 *492:10 *545:30 0.000135037
13 *492:22 *493:24 0.000249291
14 *492:22 *494:26 0.000209345
15 *492:22 *552:24 0
16 *492:22 *555:24 0.000846945
17 *492:22 *583:52 0.000180849
18 *492:22 *585:87 0.000213892
19 *492:22 *603:14 6.92597e-05
20 *492:22 *619:42 0
21 *492:22 *636:14 0
22 *492:22 *636:35 0
23 *492:22 *681:34 0.000428339
24 *492:22 *694:20 0.000130187
25 *492:28 *503:10 0
26 *492:28 *505:10 8.62876e-05
27 *492:28 *514:10 0.00064616
28 *1725:A *492:28 0.000182619
29 *1772:A *699:DIODE 0.00014196
30 *73:17 *699:DIODE 5.56356e-05
31 *77:19 *492:28 0.000122124
32 *83:11 *492:22 0.000140203
33 *125:16 *492:10 1.02029e-05
34 *247:67 *492:22 0.000305087
35 *261:10 *699:DIODE 0.000135037
36 *462:32 *492:22 0.000149187
37 *463:28 *492:22 0.00088554
38 *463:38 *492:28 0
39 *471:62 *699:DIODE 5.3304e-05
40 *482:16 *492:10 8.62876e-05
41 *488:24 *492:22 0.00686221
42 *491:40 *492:28 0.000141879
*RES
1 *1688:X *492:10 43.7689 
2 *492:10 *492:22 47.5685 
3 *492:22 *492:28 36.3504 
4 *492:28 *699:DIODE 47.9607 
5 *699:DIODE *1929:A 46.6214 
*END

*D_NET *493 0.0144045
*CONN
*I *1590:D I *D sky130_fd_sc_hd__dlxtp_1
*I *1622:D I *D sky130_fd_sc_hd__dlxtp_1
*I *1681:A I *D sky130_fd_sc_hd__buf_1
*I *1828:X O *D sky130_fd_sc_hd__buf_1
*CAP
1 *1590:D 0.000291539
2 *1622:D 0
3 *1681:A 0
4 *1828:X 4.16351e-05
5 *493:43 0.000454947
6 *493:41 0.000813735
7 *493:26 0.000650327
8 *493:24 0.00133311
9 *493:12 0.00313677
10 *493:8 0.00184529
11 *1590:D *631:69 0.000279206
12 *493:8 *526:32 8.85189e-05
13 *493:8 *619:10 4.08641e-05
14 *493:12 *586:24 1.21972e-05
15 *493:12 *587:32 3.17634e-05
16 *493:24 *555:24 0.000341901
17 *493:24 *589:28 1.13589e-05
18 *493:24 *590:58 9.28078e-06
19 *493:24 *600:32 0.000284729
20 *493:24 *608:24 0.000778419
21 *493:24 *615:18 6.81191e-05
22 *493:24 *619:26 0.000211399
23 *493:24 *622:72 5.58534e-05
24 *493:41 *548:62 0.000102772
25 *493:41 *579:52 5.54948e-05
26 *493:41 *580:26 0.000333838
27 *493:41 *584:58 0.000693084
28 *493:43 *624:140 0.000142254
29 *493:43 *631:69 4.67488e-05
30 HOLD_top *493:41 7.53384e-06
31 VALUE_top2 *493:12 8.97286e-06
32 VALUE_top5 *493:12 5.14746e-06
33 *1500:B *1590:D 1.21972e-05
34 *1500:B *493:43 0.000114499
35 *1:11 *493:12 2.54193e-05
36 *3:15 *493:12 6.89442e-05
37 *376:8 *493:41 9.84851e-05
38 *376:12 *493:24 4.77164e-06
39 *379:8 *493:41 0.000105743
40 *437:10 *493:41 0.000165803
41 *455:75 *493:12 0.000434148
42 *459:14 *493:12 2.03764e-06
43 *459:26 *493:24 2.8314e-06
44 *461:16 *493:24 4.40479e-06
45 *462:18 *493:12 0.000779347
46 *462:32 *493:24 0.000159812
47 *492:22 *493:24 0.000249291
*RES
1 *1828:X *493:8 39.2014 
2 *493:8 *493:12 39.9193 
3 *493:12 *493:24 36.1034 
4 *493:24 *493:26 15 
5 *493:26 *1681:A 23 
6 *493:26 *493:41 46.8614 
7 *493:41 *493:43 3.95643 
8 *493:43 *1622:D 23 
9 *493:43 *1590:D 28.8621 
*END

*D_NET *494 0.0366204
*CONN
*I *1930:A I *D sky130_fd_sc_hd__buf_2
*I *1689:X O *D sky130_fd_sc_hd__buf_1
*CAP
1 *1930:A 0.00113873
2 *1689:X 0.00056332
3 *494:32 0.00168754
4 *494:26 0.00432783
5 *494:20 0.00424688
6 *494:10 0.00103119
7 *494:10 *1598:D 2.36123e-05
8 *494:10 *538:52 0
9 *494:10 *556:28 0.000371075
10 *494:10 *623:31 0
11 *494:10 *627:44 9.93575e-05
12 *494:20 *1568:A1 0.000183788
13 *494:20 *538:42 2.18409e-05
14 *494:20 *589:77 7.16228e-05
15 *494:20 *617:28 0.000119554
16 *494:20 *623:12 0.000142634
17 *494:26 *518:20 0.0051935
18 *494:26 *551:20 0.000133704
19 *494:26 *551:24 7.28722e-06
20 *494:26 *555:24 0.000917556
21 *494:26 *570:12 0.000200278
22 *494:26 *617:28 0.00098004
23 *494:32 *505:20 0.000516461
24 *494:32 *512:10 3.62219e-05
25 *494:32 *513:12 0.000591666
26 VALUE_top9 *494:26 0.000269258
27 *699:DIODE *1930:A 0.000976825
28 *1568:A2 *494:10 9.4537e-06
29 *1719:A *494:32 0.00055834
30 *1726:A *494:32 3.13478e-05
31 *1929:A *1930:A 3.22051e-05
32 *65:10 *1930:A 3.06338e-05
33 *80:17 *494:26 0.000146757
34 *84:11 *494:26 0.000190284
35 *85:17 *494:32 0.000487709
36 *213:13 *494:26 2.66183e-05
37 *387:8 *494:10 0.000112604
38 *436:43 *494:20 0.000178517
39 *446:8 *494:20 0.000369658
40 *462:46 *494:26 0.00218788
41 *463:28 *494:26 0.00801048
42 *463:38 *494:32 0
43 *471:30 *494:26 0.000186822
44 *492:22 *494:26 0.000209345
*RES
1 *1689:X *494:10 47.4664 
2 *494:10 *494:20 40.4814 
3 *494:20 *494:26 44.2998 
4 *494:26 *494:32 39.5196 
5 *494:32 *1930:A 44.0043 
*END

*D_NET *495 0.00645271
*CONN
*I *1931:A I *D sky130_fd_sc_hd__buf_2
*I *1712:X O *D sky130_fd_sc_hd__clkbuf_1
*CAP
1 *1931:A 0
2 *1712:X 0.000294239
3 *495:30 0.000608927
4 *495:16 0.0017056
5 *495:8 0.00139092
6 *495:8 *502:10 0.000142467
7 *495:8 *527:12 0.000233682
8 *495:8 *632:166 1.01436e-05
9 *495:16 *1932:A 2.64616e-05
10 *495:16 *1938:A 0.000513284
11 *495:16 *1939:A 8.48502e-06
12 *495:16 *496:18 5.884e-05
13 *495:16 *504:40 0
14 *495:16 *511:30 0
15 *495:16 *514:10 3.55303e-05
16 *495:16 *691:24 0.000284543
17 *495:30 *1942:A 6.80121e-05
18 *495:30 *1944:A 9.41704e-05
19 *495:30 *1946:A 0.000144501
20 FrameStrobe_O[12] *495:16 8.65248e-05
21 FrameStrobe_O[14] *495:16 3.47879e-05
22 FrameStrobe_O[1] *495:30 2.81066e-05
23 *91:12 *495:16 0.000120396
24 *99:8 *495:30 2.47515e-05
25 *100:10 *495:30 5.50049e-05
26 *104:8 *495:30 5.55752e-05
27 *106:8 *495:30 0.000357953
28 *481:28 *495:16 6.9805e-05
*RES
1 *1712:X *495:8 44.8357 
2 *495:8 *495:16 46.4264 
3 *495:16 *495:30 27.0971 
4 *495:30 *1931:A 23 
*END

*D_NET *496 0.010529
*CONN
*I *1932:A I *D sky130_fd_sc_hd__buf_2
*I *1722:X O *D sky130_fd_sc_hd__clkbuf_1
*CAP
1 *1932:A 5.49284e-05
2 *1722:X 4.72659e-05
3 *496:18 0.0015623
4 *496:12 0.00287226
5 *496:8 0.00141215
6 *1932:A *1949:A 5.56279e-05
7 *1932:A *691:24 0.000139969
8 *496:12 *1472:A1 0.000134574
9 *496:12 *497:12 0.000579713
10 *496:12 *511:12 0.00011901
11 *496:12 *511:16 0
12 *496:12 *568:10 0.000179321
13 *496:12 *693:22 0.00112798
14 *496:18 *498:20 0.000250286
15 *496:18 *514:10 8.54236e-05
16 *496:18 *689:20 0.00118022
17 *75:11 *496:8 1.94812e-05
18 *467:10 *496:12 0.000368747
19 *483:14 *496:18 0.000254456
20 *495:16 *1932:A 2.64616e-05
21 *495:16 *496:18 5.884e-05
*RES
1 *1722:X *496:8 38.6214 
2 *496:8 *496:12 47.19 
3 *496:12 *496:18 37.3921 
4 *496:18 *1932:A 39.5743 
*END

*D_NET *497 0.011071
*CONN
*I *1933:A I *D sky130_fd_sc_hd__buf_2
*I *1723:X O *D sky130_fd_sc_hd__clkbuf_1
*CAP
1 *1933:A 0
2 *1723:X 0.000196441
3 *497:20 0.00186328
4 *497:12 0.00279299
5 *497:8 0.00112614
6 *497:12 *679:36 0.000266245
7 *497:12 *693:22 0.000291664
8 *497:20 *499:14 0.00054868
9 *497:20 *500:8 2.12347e-06
10 *497:20 *504:40 0
11 *497:20 *579:115 0.000438759
12 *497:20 *579:144 3.23719e-05
13 *497:20 *647:22 4.80423e-06
14 *497:20 *691:28 0.00103452
15 FrameStrobe_O[17] *497:20 7.461e-05
16 *1519:S *497:20 1.5769e-05
17 *70:15 *497:12 0.000137889
18 *73:11 *497:8 0.000267178
19 *81:19 *497:12 0
20 *95:10 *497:20 0
21 *331:8 *497:20 8.9458e-05
22 *462:46 *497:12 0.00130835
23 *496:12 *497:12 0.000579713
*RES
1 *1723:X *497:8 41.0036 
2 *497:8 *497:12 40.4993 
3 *497:12 *497:20 47.2107 
4 *497:20 *1933:A 38 
*END

*D_NET *498 0.00906163
*CONN
*I *1934:A I *D sky130_fd_sc_hd__buf_2
*I *1724:X O *D sky130_fd_sc_hd__clkbuf_1
*CAP
1 *1934:A 0
2 *1724:X 0.000246907
3 *498:20 0.000671811
4 *498:14 0.00233535
5 *498:8 0.00191045
6 *498:14 *1468:A0 5.3304e-05
7 *498:14 *1603:D 0.000175097
8 *498:14 *1637:D 0.000148503
9 *498:14 *1637:GATE 4.17736e-05
10 *498:14 *502:10 0
11 *498:14 *509:22 2.06967e-05
12 *498:14 *510:18 0.00067979
13 *498:14 *527:12 0
14 *498:14 *586:112 0.000162778
15 *498:14 *590:137 9.91895e-05
16 *498:14 *625:234 1.05658e-05
17 *498:14 *632:187 0.000226306
18 *498:14 *662:26 2.12347e-06
19 *498:14 *679:36 0
20 *498:14 *684:57 0.000164282
21 *498:20 *503:10 0.000440186
22 *498:20 *514:10 4.71037e-05
23 *498:20 *632:158 0.000261323
24 *1487:B1 *498:14 5.50049e-05
25 *1728:A *498:8 2.93747e-05
26 *75:11 *498:8 9.50292e-05
27 *229:160 *498:20 0.000777174
28 *257:10 *498:14 4.23714e-05
29 *462:46 *498:14 0
30 *466:48 *498:14 0.000114846
31 *496:18 *498:20 0.000250286
*RES
1 *1724:X *498:8 41.48 
2 *498:8 *498:14 47.77 
3 *498:14 *498:20 47.0479 
4 *498:20 *1934:A 23 
*END

*D_NET *499 0.00785645
*CONN
*I *1935:A I *D sky130_fd_sc_hd__buf_2
*I *1725:X O *D sky130_fd_sc_hd__clkbuf_1
*CAP
1 *1935:A 2.84143e-05
2 *1725:X 0.000177987
3 *499:14 0.00166579
4 *499:12 0.00181536
5 *1935:A *1948:A 9.67842e-05
6 *1935:A *1950:A 9.67842e-05
7 *499:14 *513:12 0.00174739
8 *499:14 *584:140 0.000567261
9 *499:14 *586:106 0.000187986
10 *499:14 *679:32 2.26406e-05
11 *499:14 *691:28 0.000155143
12 *1726:A *499:12 0.00010018
13 *75:11 *499:12 8.54716e-05
14 *85:17 *499:12 1.24376e-05
15 *331:8 *499:14 0.000163352
16 *463:38 *499:14 0
17 *470:36 *499:14 0.000384792
18 *497:20 *499:14 0.00054868
*RES
1 *1725:X *499:12 41.9979 
2 *499:12 *499:14 38.8807 
3 *499:14 *1935:A 39.0979 
*END

*D_NET *500 0.00657447
*CONN
*I *1936:A I *D sky130_fd_sc_hd__buf_2
*I *1726:X O *D sky130_fd_sc_hd__clkbuf_1
*CAP
1 *1936:A 1.50079e-05
2 *1726:X 0
3 *500:8 0.00153763
4 *500:6 0.00152262
5 *1936:A *1939:A 5.50049e-05
6 *1936:A *691:24 5.50049e-05
7 *500:8 *1486:A1 0.000109443
8 *500:8 *1609:D 9.03979e-05
9 *500:8 *503:10 0.000364064
10 *500:8 *504:40 0.000289397
11 *500:8 *647:22 0.00121803
12 *500:8 *691:28 0.000226465
13 *1486:S *500:8 2.33476e-05
14 *261:10 *500:8 0.000161814
15 *296:12 *500:8 6.6869e-05
16 *463:38 *500:8 0.000690408
17 *466:38 *500:8 0.000146842
18 *497:20 *500:8 2.12347e-06
*RES
1 *1726:X *500:6 38 
2 *500:6 *500:8 35.7114 
3 *500:8 *1936:A 38.6214 
*END

*D_NET *501 0.00760109
*CONN
*I *1937:A I *D sky130_fd_sc_hd__buf_2
*I *1727:X O *D sky130_fd_sc_hd__clkbuf_1
*CAP
1 *1937:A 0.000693109
2 *1727:X 0.000342811
3 *501:14 0.00165138
4 *501:10 0.00130108
5 *1937:A *1950:A 2.81066e-05
6 *501:10 *509:12 0.00028459
7 *501:10 *511:16 0.000231258
8 *501:10 *572:10 4.73652e-05
9 *501:14 *511:16 0.00128527
10 FrameData_O[19] *501:14 0
11 FrameData_O[22] *501:14 0
12 *97:8 *1937:A 5.61255e-06
13 *365:10 *501:10 0.000168754
14 *464:66 *501:10 1.27508e-05
15 *468:18 *501:14 0
16 *469:14 *501:10 0
17 *469:14 *501:14 0
18 *477:18 *501:14 0
19 *478:38 *501:14 0
20 *485:26 *501:14 0.000462719
21 *486:34 *1937:A 0.00108628
*RES
1 *1727:X *501:10 46.1614 
2 *501:10 *501:14 37.33 
3 *501:14 *1937:A 37.3343 
*END

*D_NET *502 0.00802056
*CONN
*I *1938:A I *D sky130_fd_sc_hd__buf_2
*I *1728:X O *D sky130_fd_sc_hd__clkbuf_1
*CAP
1 *1938:A 0.000208452
2 *1728:X 0.000215426
3 *502:10 0.00168111
4 *502:8 0.00168809
5 *1938:A *1939:A 4.07999e-05
6 *1938:A *679:32 6.53382e-05
7 *502:10 *506:20 6.7001e-05
8 *502:10 *506:22 0.00229207
9 *502:10 *510:18 0
10 *502:10 *516:8 3.21609e-05
11 *502:10 *527:12 0
12 *502:10 *625:222 0.000244509
13 *502:10 *625:234 8.72599e-05
14 *502:10 *632:166 2.96051e-05
15 *502:10 *632:187 5.45906e-05
16 *75:11 *502:8 0.000128964
17 *264:14 *502:10 0.000242996
18 *480:28 *1938:A 2.44913e-05
19 *481:28 *1938:A 0.000261945
20 *495:8 *502:10 0.000142467
21 *495:16 *1938:A 0.000513284
22 *498:14 *502:10 0
*RES
1 *1728:X *502:8 41.48 
2 *502:8 *502:10 35.3593 
3 *502:10 *1938:A 44.3593 
*END

*D_NET *503 0.00687243
*CONN
*I *1939:A I *D sky130_fd_sc_hd__buf_2
*I *1729:X O *D sky130_fd_sc_hd__clkbuf_1
*CAP
1 *1939:A 0.000131777
2 *1729:X 4.00127e-05
3 *503:10 0.00179694
4 *503:8 0.00170517
5 *1939:A *691:24 8.27123e-05
6 *503:10 *701:DIODE 2.5415e-05
7 *503:10 *1609:D 0.000191148
8 *503:10 *504:40 0.000806953
9 *503:10 *505:10 2.29192e-05
10 *503:10 *514:10 0
11 *503:10 *632:158 0.000259092
12 *503:10 *654:34 1.28274e-05
13 *1725:A *503:8 3.22879e-05
14 *1936:A *1939:A 5.50049e-05
15 *1938:A *1939:A 4.07999e-05
16 *229:160 *503:10 3.07529e-05
17 *261:10 *503:10 7.8377e-05
18 *296:12 *503:10 0.000138718
19 *333:8 *503:10 0.000180926
20 *413:8 *503:10 0.000109443
21 *480:28 *1939:A 0.000310647
22 *491:40 *503:10 7.76364e-06
23 *492:28 *503:10 0
24 *495:16 *1939:A 8.48502e-06
25 *498:20 *503:10 0.000440186
26 *500:8 *503:10 0.000364064
*RES
1 *1729:X *503:8 38.6214 
2 *503:8 *503:10 36.0636 
3 *503:10 *1939:A 41.9771 
*END

*D_NET *504 0.0340884
*CONN
*I *1641:D I *D sky130_fd_sc_hd__dlxtp_1
*I *1700:A I *D sky130_fd_sc_hd__clkbuf_1
*I *1609:D I *D sky130_fd_sc_hd__dlxtp_1
*I *1829:X O *D sky130_fd_sc_hd__dlymetal6s2s_1
*CAP
1 *1641:D 0.000137847
2 *1700:A 0
3 *1609:D 0.000169307
4 *1829:X 0.0010476
5 *504:55 0.000167348
6 *504:40 0.00149439
7 *504:34 0.00318725
8 *504:28 0.00364347
9 *504:26 0.0017518
10 *504:24 0.00157612
11 *504:14 0.00262372
12 *1609:D *579:115 6.74906e-05
13 *1609:D *586:106 0.000178517
14 *1641:D *1641:GATE 0.000136738
15 *504:14 *1475:A0 2.92911e-06
16 *504:14 *1633:D 7.34747e-05
17 *504:14 *585:75 9.8971e-06
18 *504:14 *625:172 0.000189009
19 *504:14 *640:12 0.000155178
20 *504:14 *640:19 1.59094e-05
21 *504:24 *1529:A0 7.53384e-06
22 *504:24 *1531:A1 2.26406e-05
23 *504:24 *534:38 2.68802e-05
24 *504:24 *540:30 8.30566e-06
25 *504:24 *580:95 0.000104928
26 *504:24 *585:75 0.000267614
27 *504:24 *588:41 0
28 *504:24 *616:22 2.53684e-05
29 *504:24 *618:48 0.000108399
30 *504:24 *630:138 9.58714e-05
31 *504:28 *515:22 0.000324702
32 *504:28 *582:16 0.000840105
33 *504:28 *583:96 2.43944e-05
34 *504:28 *655:44 0.00195837
35 *504:28 *658:16 0.00272011
36 *504:34 *515:22 0
37 *504:34 *550:14 0
38 *504:40 *529:16 0
39 *504:40 *550:14 0
40 *504:55 *1641:GATE 5.50106e-05
41 FrameStrobe_O[11] *504:40 0.000209464
42 FrameStrobe_O[14] *504:40 2.79167e-05
43 FrameStrobe_O[15] *504:40 0.000300108
44 FrameStrobe_O[16] *504:40 0.000397725
45 FrameStrobe_O[3] *504:40 0.000309952
46 N2BEG[3] *504:24 0.000519922
47 N2BEG[4] *504:24 0.000386632
48 N4BEG[2] *504:28 8.55621e-05
49 *1526:S *504:24 0.000438474
50 *1529:S *504:24 5.50049e-05
51 *115:12 *504:24 0.000533589
52 *164:13 *504:28 0.00013961
53 *171:13 *504:34 0.00060551
54 *175:11 *504:28 0.000391478
55 *175:11 *504:34 0
56 *179:13 *504:28 7.74743e-05
57 *181:13 *504:34 2.02872e-05
58 *185:15 *504:34 0.000765399
59 *187:13 *504:34 0.000121723
60 *192:13 *504:34 6.66198e-05
61 *195:13 *504:34 0.000233906
62 *197:13 *504:34 3.65917e-05
63 *198:13 *504:34 5.24457e-05
64 *199:13 *504:34 0.000296758
65 *202:15 *504:34 0.000242629
66 *202:15 *504:40 9.84794e-05
67 *206:13 *504:34 0.000707167
68 *210:13 *504:34 2.02872e-05
69 *229:45 *504:28 0.000434426
70 *253:10 *504:24 0.000103653
71 *362:10 *504:24 0.000143655
72 *461:12 *504:24 0.000319959
73 *466:38 *504:40 0.000145912
74 *470:54 *1641:D 6.75057e-06
75 *473:20 *1641:D 9.20335e-05
76 *478:18 *504:28 0
77 *478:18 *504:34 1.09903e-05
78 *478:26 *504:28 0
79 *478:26 *504:34 0.000826861
80 *478:28 *504:40 0.000227606
81 *486:28 *1641:D 3.97328e-05
82 *495:16 *504:40 0
83 *497:20 *504:40 0
84 *500:8 *1609:D 9.03979e-05
85 *500:8 *504:40 0.000289397
86 *503:10 *1609:D 0.000191148
87 *503:10 *504:40 0.000806953
*RES
1 *1829:X *504:14 39.5507 
2 *504:14 *504:24 49.1164 
3 *504:24 *504:26 15 
4 *504:26 *504:28 53.505 
5 *504:28 *504:34 46.1307 
6 *504:34 *504:40 45.2843 
7 *504:40 *1609:D 42.6607 
8 *504:40 *504:55 15.6214 
9 *504:55 *1700:A 23 
10 *504:55 *1641:D 26.278 
*END

*D_NET *505 0.00879567
*CONN
*I *1940:A I *D sky130_fd_sc_hd__buf_2
*I *1730:X O *D sky130_fd_sc_hd__clkbuf_1
*CAP
1 *1940:A 0
2 *1730:X 0.000104401
3 *505:20 0.00122282
4 *505:16 0.00168738
5 *505:10 0.000568962
6 *505:16 *506:20 0.000602841
7 *505:20 *512:10 0.00237015
8 *505:20 *513:12 0.00155487
9 *505:20 *529:12 3.18683e-05
10 *75:11 *505:10 5.37348e-06
11 *76:15 *505:10 9.8971e-06
12 *481:24 *505:20 1.14452e-05
13 *492:28 *505:10 8.62876e-05
14 *494:32 *505:20 0.000516461
15 *503:10 *505:10 2.29192e-05
*RES
1 *1730:X *505:10 39.8229 
2 *505:10 *505:16 36.815 
3 *505:16 *505:20 49.655 
4 *505:20 *1940:A 23 
*END

*D_NET *506 0.00995073
*CONN
*I *1941:A I *D sky130_fd_sc_hd__buf_2
*I *1731:X O *D sky130_fd_sc_hd__clkbuf_1
*CAP
1 *1941:A 1.80182e-05
2 *1731:X 0.000139848
3 *506:22 0.00130002
4 *506:20 0.00182111
5 *506:10 0.000678959
6 *506:10 *514:10 0.000102363
7 *506:20 *516:8 0.000159735
8 *506:22 *516:8 0.000715995
9 *506:22 *527:12 0
10 *76:15 *506:10 2.45549e-06
11 *77:19 *506:10 7.51453e-06
12 *80:23 *506:20 0.000937602
13 *97:8 *1941:A 2.93845e-05
14 *461:42 *506:10 0
15 *485:18 *506:10 0
16 *486:28 *506:22 0.0010208
17 *486:34 *1941:A 5.50106e-05
18 *502:10 *506:20 6.7001e-05
19 *502:10 *506:22 0.00229207
20 *505:16 *506:20 0.000602841
*RES
1 *1731:X *506:10 40.175 
2 *506:10 *506:20 43.5368 
3 *506:20 *506:22 35.3282 
4 *506:22 *1941:A 38.6214 
*END

*D_NET *507 0.00179665
*CONN
*I *1942:A I *D sky130_fd_sc_hd__buf_2
*I *1713:X O *D sky130_fd_sc_hd__clkbuf_1
*CAP
1 *1942:A 8.73875e-05
2 *1713:X 0.000429323
3 *507:10 0.000516711
4 *507:10 *550:12 0
5 *507:10 *628:162 0.000111029
6 *507:10 *689:20 1.1674e-05
7 *507:10 *691:24 4.60157e-05
8 FrameStrobe_O[4] *507:10 0.000113153
9 *1898:A *507:10 0.000298706
10 *1899:A *507:10 5.67058e-05
11 *99:8 *1942:A 3.07203e-05
12 *480:20 *507:10 2.72097e-05
13 *495:30 *1942:A 6.80121e-05
*RES
1 *1713:X *507:10 45.3743 
2 *507:10 *1942:A 40.6721 
*END

*D_NET *508 0.0121045
*CONN
*I *1943:A I *D sky130_fd_sc_hd__buf_2
*I *1714:X O *D sky130_fd_sc_hd__clkbuf_1
*CAP
1 *1943:A 1.37058e-05
2 *1714:X 0.000447726
3 *508:26 0.0016424
4 *508:12 0.00306011
5 *508:8 0.00187914
6 *508:8 *614:46 0.000370795
7 *508:8 *614:61 3.22879e-05
8 *508:12 *1485:A1 5.57841e-05
9 *508:12 *520:20 0.000469071
10 *508:12 *579:130 6.79897e-05
11 *508:12 *626:41 4.83846e-05
12 *508:12 *631:10 0.000238065
13 *508:12 *631:18 0.000451406
14 *508:12 *638:34 5.95625e-06
15 *508:12 *660:32 0.00102855
16 *508:12 *660:38 7.07344e-05
17 *508:26 *1797:A 0.00015083
18 *508:26 *542:16 4.98399e-06
19 *508:26 *588:105 0.000113144
20 *508:26 *625:10 2.97675e-05
21 *508:26 *625:32 0.000301215
22 *508:26 *625:220 2.25809e-05
23 *508:26 *631:8 5.3304e-05
24 *508:26 *647:22 9.65356e-05
25 *508:26 *677:10 0.000134472
26 *508:26 *685:16 0.000228414
27 *508:26 *690:16 0.000342607
28 FrameStrobe_O[4] *1943:A 2.05503e-05
29 FrameStrobe_O[5] *1943:A 2.26406e-05
30 *200:15 *508:26 0.000267119
31 *209:21 *508:26 0.000341483
32 *474:12 *508:26 3.33144e-05
33 *474:20 *508:26 5.3304e-05
34 *476:22 *508:26 0
35 *477:12 *508:26 6.17437e-06
*RES
1 *1714:X *508:8 44.3386 
2 *508:8 *508:12 42.9643 
3 *508:12 *508:26 44.2875 
4 *508:26 *1943:A 46.3211 
*END

*D_NET *509 0.0118688
*CONN
*I *1944:A I *D sky130_fd_sc_hd__buf_2
*I *1715:X O *D sky130_fd_sc_hd__buf_1
*CAP
1 *1944:A 5.31015e-05
2 *1715:X 0.000444436
3 *509:34 0.000839625
4 *509:30 0.00198921
5 *509:22 0.00178546
6 *509:12 0.00102721
7 *509:12 *511:16 0.000177198
8 *509:22 *1637:D 2.71291e-05
9 *509:22 *1696:A 1.94812e-05
10 *509:22 *625:234 2.26406e-05
11 *509:22 *679:36 0.000155432
12 *509:22 *684:57 7.91493e-05
13 *509:30 *1486:A0 0.0002263
14 *509:30 *1605:GATE 1.46594e-05
15 *509:30 *529:8 0.000222791
16 *509:30 *652:54 0.000314111
17 *509:34 *1618:D 0.000169521
18 *509:34 *511:30 0.000134306
19 *509:34 *550:12 0.000452055
20 *509:34 *628:120 0.000368747
21 *509:34 *628:135 0.000425118
22 *509:34 *628:150 8.56839e-05
23 *509:34 *679:20 4.51797e-05
24 FrameData_O[11] *509:12 2.72445e-06
25 *695:DIODE *509:12 5.58873e-06
26 *1486:S *509:30 2.64616e-05
27 *2020:A *509:22 0.000229815
28 *73:17 *509:12 0.000378492
29 *88:12 *509:34 0.000159911
30 *104:8 *1944:A 2.81066e-05
31 *327:10 *509:30 0.000402094
32 *346:10 *509:34 0
33 *464:66 *509:12 4.80826e-05
34 *465:10 *509:12 0
35 *485:18 *509:34 0.00110949
36 *495:30 *1944:A 9.41704e-05
37 *498:14 *509:22 2.06967e-05
38 *501:10 *509:12 0.00028459
*RES
1 *1715:X *509:12 48.7714 
2 *509:12 *509:22 41.2064 
3 *509:22 *509:30 35.7971 
4 *509:30 *509:34 37.33 
5 *509:34 *1944:A 39.0979 
*END

*D_NET *510 0.0124174
*CONN
*I *1945:A I *D sky130_fd_sc_hd__buf_2
*I *1716:X O *D sky130_fd_sc_hd__buf_1
*CAP
1 *1945:A 0
2 *1716:X 0.000156844
3 *510:26 0.000733493
4 *510:18 0.00275755
5 *510:8 0.0021809
6 *510:18 *1468:A0 5.3304e-05
7 *510:18 *1603:D 0
8 *510:18 *527:12 0.000434497
9 *510:18 *632:187 0.000559361
10 *510:18 *662:26 9.85586e-06
11 *510:26 *512:18 0.000135547
12 *510:26 *550:12 1.83561e-05
13 *510:26 *628:135 0.000257657
14 *510:26 *628:150 0.000229742
15 *510:26 *645:34 0.000911254
16 *510:26 *679:20 0.000142577
17 *510:26 *691:24 0.000142577
18 *1487:B1 *510:18 0.000602286
19 *466:48 *510:18 0.000385463
20 *484:14 *510:8 0.000737585
21 *486:12 *510:26 0.00054948
22 *488:30 *510:8 0.00073928
23 *498:14 *510:18 0.00067979
24 *502:10 *510:18 0
*RES
1 *1716:X *510:8 46.2443 
2 *510:8 *510:18 49.4064 
3 *510:18 *510:26 49.3264 
4 *510:26 *1945:A 23 
*END

*D_NET *511 0.0125123
*CONN
*I *1946:A I *D sky130_fd_sc_hd__buf_2
*I *1717:X O *D sky130_fd_sc_hd__buf_1
*CAP
1 *1946:A 3.79832e-05
2 *1717:X 0.000413223
3 *511:30 0.00104058
4 *511:16 0.00226633
5 *511:12 0.00167696
6 *511:16 *1472:A1 0.000192759
7 *511:16 *568:10 5.54472e-05
8 *511:16 *572:10 4.73652e-05
9 *511:16 *693:22 0
10 *511:30 *512:18 0.00020611
11 *511:30 *514:10 0
12 *511:30 *679:20 4.51797e-05
13 *511:30 *689:20 0.000123537
14 *511:30 *693:12 0
15 *511:30 *693:16 0.00173729
16 FrameStrobe_O[12] *511:30 0
17 *73:17 *511:12 0
18 *75:11 *511:12 3.7122e-06
19 *76:15 *511:12 1.95556e-05
20 *81:19 *511:12 3.73876e-05
21 *88:12 *511:30 0.000160654
22 *102:12 *511:30 2.33476e-05
23 *104:8 *1946:A 5.0155e-05
24 *259:8 *511:16 0.000110922
25 *467:10 *511:16 3.71198e-05
26 *478:38 *511:30 0.000185428
27 *483:14 *511:30 0.00194974
28 *495:16 *511:30 0
29 *495:30 *1946:A 0.000144501
30 *496:12 *511:12 0.00011901
31 *496:12 *511:16 0
32 *501:10 *511:16 0.000231258
33 *501:14 *511:16 0.00128527
34 *509:12 *511:16 0.000177198
35 *509:34 *511:30 0.000134306
*RES
1 *1717:X *511:12 43.8932 
2 *511:12 *511:16 44.6939 
3 *511:16 *511:30 46.2786 
4 *511:30 *1946:A 39.5743 
*END

*D_NET *512 0.00967918
*CONN
*I *1947:A I *D sky130_fd_sc_hd__buf_2
*I *1718:X O *D sky130_fd_sc_hd__clkbuf_1
*CAP
1 *1947:A 0
2 *1718:X 0
3 *512:18 0.000988026
4 *512:10 0.00219194
5 *512:6 0.00120391
6 *512:10 *516:8 0.000233283
7 *512:10 *529:12 0.000236792
8 *512:18 *550:12 0.000135557
9 *512:18 *628:150 6.17437e-06
10 *512:18 *689:20 3.41817e-05
11 *512:18 *693:16 0.000761102
12 *466:48 *512:10 0.000719859
13 *490:36 *512:10 0.000420324
14 *494:32 *512:10 3.62219e-05
15 *505:20 *512:10 0.00237015
16 *510:26 *512:18 0.000135547
17 *511:30 *512:18 0.00020611
*RES
1 *1718:X *512:6 38 
2 *512:6 *512:10 48.9507 
3 *512:10 *512:18 44.4379 
4 *512:18 *1947:A 23 
*END

*D_NET *513 0.00872383
*CONN
*I *1948:A I *D sky130_fd_sc_hd__buf_2
*I *1719:X O *D sky130_fd_sc_hd__clkbuf_1
*CAP
1 *1948:A 0.000247047
2 *1719:X 0
3 *513:12 0.00167761
4 *513:6 0.00143056
5 *1948:A *1950:A 0.00015544
6 *513:12 *586:106 0.000188926
7 *513:12 *679:32 2.05503e-05
8 *1935:A *1948:A 9.67842e-05
9 *91:12 *1948:A 6.68919e-05
10 *93:8 *1948:A 0.000431557
11 *106:8 *1948:A 3.16784e-05
12 *470:36 *513:12 0.000384792
13 *481:24 *513:12 9.80568e-05
14 *494:32 *513:12 0.000591666
15 *499:14 *513:12 0.00174739
16 *505:20 *513:12 0.00155487
*RES
1 *1719:X *513:6 38 
2 *513:6 *513:12 39.295 
3 *513:12 *1948:A 44.8357 
*END

*D_NET *514 0.0082734
*CONN
*I *1949:A I *D sky130_fd_sc_hd__buf_2
*I *1720:X O *D sky130_fd_sc_hd__clkbuf_1
*CAP
1 *1949:A 9.322e-05
2 *1720:X 0.000342339
3 *514:10 0.00187941
4 *514:8 0.00212853
5 *1949:A *679:20 3.7681e-05
6 *1949:A *691:24 9.59004e-05
7 *1949:A *693:6 0.000185093
8 *514:10 *1650:D 0
9 *514:10 *535:10 5.47268e-05
10 *514:10 *632:124 2.26497e-05
11 *514:10 *632:146 2.06058e-05
12 *514:10 *693:12 9.9437e-05
13 *1932:A *1949:A 5.56279e-05
14 *76:15 *514:8 0.000481943
15 *77:19 *514:10 9.02595e-05
16 *229:160 *514:10 0.000669947
17 *273:10 *514:10 0.000561543
18 *298:14 *514:10 0.000118441
19 *333:8 *514:10 3.95692e-05
20 *346:10 *514:10 6.34355e-06
21 *461:42 *514:10 0
22 *471:62 *514:10 0
23 *474:20 *514:10 0
24 *483:10 *514:10 0.000321531
25 *485:18 *514:10 0
26 *491:40 *514:10 5.20202e-05
27 *492:28 *514:10 0.00064616
28 *495:16 *514:10 3.55303e-05
29 *496:18 *514:10 8.54236e-05
30 *498:20 *514:10 4.71037e-05
31 *503:10 *514:10 0
32 *506:10 *514:10 0.000102363
33 *511:30 *514:10 0
*RES
1 *1720:X *514:8 43.3857 
2 *514:8 *514:10 37.12 
3 *514:10 *1949:A 41.0243 
*END

*D_NET *515 0.0261235
*CONN
*I *1610:D I *D sky130_fd_sc_hd__dlxtp_1
*I *1642:D I *D sky130_fd_sc_hd__dlxtp_1
*I *1701:A I *D sky130_fd_sc_hd__buf_1
*I *1830:X O *D sky130_fd_sc_hd__buf_1
*CAP
1 *1610:D 8.59042e-05
2 *1642:D 0
3 *1701:A 0
4 *1830:X 0.000104444
5 *515:67 0.00028406
6 *515:54 0.000420959
7 *515:48 0.000695334
8 *515:36 0.000701603
9 *515:26 0.00132832
10 *515:22 0.00396303
11 *515:20 0.00286378
12 *515:18 0.00140636
13 *515:12 0.00180942
14 *515:8 0.000507502
15 *1610:D *1533:A1 1.40183e-05
16 *1610:D *589:120 1.17256e-05
17 *1610:D *641:20 4.62166e-06
18 *515:12 *571:20 0.000561093
19 *515:12 *582:8 0.000162787
20 *515:12 *603:14 0.000215075
21 *515:12 *613:14 0.00023363
22 *515:18 *571:20 0.000100593
23 *515:18 *582:14 0
24 *515:18 *582:16 0
25 *515:22 *550:14 1.85916e-05
26 *515:22 *658:16 0.00119288
27 *515:26 *544:10 0.000213256
28 *515:26 *547:26 0
29 *515:26 *550:26 0.000143709
30 *515:26 *583:124 0.000714977
31 *515:26 *625:34 8.12052e-05
32 *515:26 *645:10 0.000393478
33 *515:26 *648:18 0.000336369
34 *515:26 *648:28 9.9699e-06
35 *515:36 *638:30 0.000180218
36 *515:36 *659:32 0.000128487
37 *515:36 *675:26 0.000129465
38 *515:48 *543:12 0.000116833
39 *515:48 *561:22 0.000147628
40 *515:48 *590:95 2.43944e-05
41 *515:48 *641:20 3.25753e-05
42 *515:48 *675:26 9.91442e-06
43 *515:54 *543:6 5.40337e-05
44 *515:54 *547:26 0.000102389
45 *515:54 *632:78 0
46 *515:54 *641:20 3.00007e-05
47 *515:67 *543:6 0.000159874
48 *515:67 *547:26 0.00029444
49 *515:67 *627:124 9.88449e-05
50 N2BEG[5] *515:18 0.000551542
51 N2BEG[6] *515:18 0.00150418
52 N2BEG[7] *515:18 0.000349103
53 N2BEGb[0] *515:18 0.00025239
54 N4BEG[2] *515:22 0.000647555
55 *1838:A *515:12 7.76035e-05
56 *164:13 *515:22 0.000896758
57 *171:13 *515:26 0.000234886
58 *172:19 *515:26 0.000353575
59 *175:11 *515:22 4.05745e-05
60 *270:30 *515:48 2.05503e-05
61 *297:14 *515:48 3.79996e-05
62 *306:12 *515:67 0.000183753
63 *342:12 *515:48 0.000118932
64 *468:18 *515:48 0.000290674
65 *482:10 *515:8 0.000141675
66 *491:10 *515:67 9.28078e-06
67 *504:28 *515:22 0.000324702
68 *504:34 *515:22 0
*RES
1 *1830:X *515:8 39.5743 
2 *515:8 *515:12 28.1743 
3 *515:12 *515:18 46.0714 
4 *515:18 *515:20 15 
5 *515:20 *515:22 58.2693 
6 *515:22 *515:26 38.3864 
7 *515:26 *515:36 48.9564 
8 *515:36 *515:48 36.2837 
9 *515:48 *515:54 17.8275 
10 *515:54 *1701:A 23 
11 *515:54 *515:67 36.7943 
12 *515:67 *1642:D 23 
13 *515:48 *1610:D 39.0254 
*END

*D_NET *516 0.00818173
*CONN
*I *1950:A I *D sky130_fd_sc_hd__buf_2
*I *1721:X O *D sky130_fd_sc_hd__clkbuf_1
*CAP
1 *1950:A 0.000340513
2 *1721:X 0
3 *516:8 0.00180325
4 *516:6 0.00146274
5 *516:8 *527:12 0
6 *516:8 *529:12 0.00160537
7 *1935:A *1950:A 9.67842e-05
8 *1937:A *1950:A 2.81066e-05
9 *1948:A *1950:A 0.00015544
10 *93:8 *1950:A 1.5769e-05
11 *97:8 *1950:A 0.000308028
12 *486:28 *516:8 0.0010262
13 *490:36 *516:8 0.000198359
14 *502:10 *516:8 3.21609e-05
15 *506:20 *516:8 0.000159735
16 *506:22 *516:8 0.000715995
17 *512:10 *516:8 0.000233283
*RES
1 *1721:X *516:6 38 
2 *516:6 *516:8 39.2329 
3 *516:8 *1950:A 45.3121 
*END

*D_NET *517 0.00852259
*CONN
*I *1951:A I *D sky130_fd_sc_hd__buf_2
*I *1513:Y O *D sky130_fd_sc_hd__nand2b_1
*CAP
1 *1951:A 0
2 *1513:Y 0.000141238
3 *517:18 0.000645914
4 *517:12 0.00158228
5 *517:8 0.0010776
6 *517:8 *581:108 1.13999e-05
7 *517:12 *570:24 0
8 *517:12 *611:10 5.54299e-05
9 *517:12 *675:42 2.61014e-05
10 *517:18 *548:62 0.000187429
11 *517:18 *580:26 0
12 VALUE_top11 *517:18 0
13 *1513:A_N *517:8 2.18506e-05
14 *1513:B *517:8 9.8612e-05
15 *78:11 *517:18 0.000270682
16 *79:13 *517:12 0
17 *213:9 *517:18 0.000111933
18 *246:14 *517:12 0
19 *247:67 *517:12 0.000215886
20 *248:16 *517:12 0
21 *283:20 *517:12 1.16512e-05
22 *426:8 *517:12 0.000104463
23 *428:10 *517:12 0.000271148
24 *430:10 *517:12 5.62821e-05
25 *449:24 *517:12 6.07573e-05
26 *449:34 *517:12 7.50688e-05
27 *449:57 *517:18 0.000915693
28 *449:65 *517:18 0.000361027
29 *472:12 *517:18 0.00222014
*RES
1 *1513:Y *517:8 40.0507 
2 *517:8 *517:12 30.9914 
3 *517:12 *517:18 42.0529 
4 *517:18 *1951:A 38 
*END

*D_NET *518 0.0332621
*CONN
*I *1952:A I *D sky130_fd_sc_hd__buf_2
*I *1732:X O *D sky130_fd_sc_hd__buf_1
*CAP
1 *1952:A 6.30879e-05
2 *1732:X 0.000213454
3 *518:26 0.00239069
4 *518:20 0.00627098
5 *518:8 0.00415683
6 *518:8 *584:115 0.000317879
7 *518:20 *548:46 0.00443318
8 *518:20 *551:12 0
9 *518:20 *619:26 0
10 *518:20 *619:42 4.75035e-05
11 *518:20 *636:10 0
12 *518:20 *674:28 1.58785e-05
13 *518:20 *676:16 0
14 *518:26 *1632:GATE 8.30618e-05
15 *518:26 *1691:A 0.000160915
16 *518:26 *520:40 1.01436e-05
17 *518:26 *523:14 6.84987e-06
18 *518:26 *524:12 0
19 *518:26 *559:12 5.02657e-05
20 *518:26 *570:8 0.00026824
21 *518:26 *571:20 0
22 *518:26 *579:24 2.71502e-05
23 *518:26 *585:26 3.90425e-05
24 *518:26 *586:139 0
25 *518:26 *603:14 0
26 *518:26 *606:14 0
27 *518:26 *613:22 0.000815431
28 *518:26 *618:16 0.000141934
29 *518:26 *619:10 0
30 *518:26 *621:16 0
31 *518:26 *625:172 0.00017902
32 *518:26 *629:22 0.000870711
33 *518:26 *656:28 3.93904e-06
34 VALUE_top1 *518:26 0
35 VALUE_top2 *518:26 0.000162207
36 *67:9 *518:20 0.00016679
37 *67:15 *518:20 0
38 *80:11 *518:20 0.000127117
39 *82:15 *518:20 0.000415067
40 *108:8 *1952:A 0.000144494
41 *263:10 *518:20 0.000131847
42 *287:10 *518:26 0.000133653
43 *322:10 *518:26 5.41369e-05
44 *324:8 *518:26 0.000346334
45 *347:10 *518:20 0
46 *383:10 *518:26 0
47 *440:8 *518:26 0.000122269
48 *456:22 *518:26 9.15376e-05
49 *461:26 *518:20 0.000354081
50 *462:46 *518:20 0.00346756
51 *463:18 *518:26 0
52 *463:28 *518:20 0.00170384
53 *484:10 *518:20 8.14951e-05
54 *494:26 *518:20 0.0051935
*RES
1 *1732:X *518:8 41.48 
2 *518:8 *518:20 48.5231 
3 *518:20 *518:26 48.6268 
4 *518:26 *1952:A 39.5743 
*END

*D_NET *519 0.00758147
*CONN
*I *1953:A I *D sky130_fd_sc_hd__buf_2
*I *1733:X O *D sky130_fd_sc_hd__clkbuf_1
*CAP
1 *1953:A 0
2 *1733:X 0.000743276
3 *519:20 0.000651118
4 *519:12 0.00139439
5 *519:12 *1469:A0 8.71791e-05
6 *519:12 *1469:A1 0.000143655
7 *519:12 *1969:A 0.000110285
8 *519:12 *1979:A 0.000141677
9 *519:12 *532:6 0.000156745
10 *519:12 *539:20 9.5877e-05
11 *519:12 *546:6 0.000614212
12 *519:12 *550:38 0.000264564
13 *519:12 *625:88 0.000314679
14 *519:20 *528:46 0.000158182
15 *519:20 *530:22 0
16 *519:20 *532:6 8.68427e-06
17 *519:20 *546:6 0.000159954
18 *519:20 *618:18 0.00039759
19 *519:20 *618:33 0.000226306
20 *519:20 *618:48 0.000136738
21 *1745:A *519:12 0.000158542
22 *125:16 *519:20 9.8203e-05
23 *253:10 *519:20 4.55775e-05
24 *482:16 *519:20 0.0013639
25 *482:28 *519:12 4.03573e-05
26 *482:41 *519:12 6.97831e-05
*RES
1 *1733:X *519:12 42.4921 
2 *519:12 *519:20 49.5543 
3 *519:20 *1953:A 23 
*END

*D_NET *520 0.0286429
*CONN
*I *1954:A I *D sky130_fd_sc_hd__buf_2
*I *1734:X O *D sky130_fd_sc_hd__buf_1
*CAP
1 *1954:A 0
2 *1734:X 0.000235894
3 *520:40 0.00507783
4 *520:20 0.00621016
5 *520:8 0.00136823
6 *520:8 *626:43 0.000469804
7 *520:20 *1626:GATE 5.4398e-05
8 *520:20 *540:10 4.2781e-06
9 *520:20 *540:20 0.00025342
10 *520:20 *626:41 3.39102e-05
11 *520:20 *631:10 1.13579e-05
12 *520:20 *638:34 1.75427e-05
13 *520:20 *647:22 0.000242207
14 *520:20 *660:22 0.000114941
15 *520:20 *664:10 0
16 *520:20 *665:10 0.00017196
17 *520:20 *676:12 1.02561e-05
18 *520:20 *690:16 0.000361042
19 *520:20 *690:24 5.50885e-05
20 *520:40 *524:12 0
21 *520:40 *527:34 0.000819221
22 *520:40 *533:58 0.000293996
23 *520:40 *540:30 0.00460239
24 *520:40 *549:26 0.000672732
25 *520:40 *559:30 0
26 *520:40 *571:20 0.000158152
27 *520:40 *583:52 0.000346363
28 *520:40 *583:77 0.000898943
29 *520:40 *583:110 0.000721652
30 *520:40 *587:73 0.00162255
31 *520:40 *592:22 0
32 *520:40 *655:48 0
33 *520:40 *671:20 0.000227044
34 *520:40 *690:24 0.00104346
35 N2BEGb[4] *520:40 0.000914652
36 N4BEG[3] *520:40 4.51815e-05
37 *195:13 *520:20 7.47981e-05
38 *229:122 *520:20 0.000107263
39 *279:16 *520:8 5.50049e-05
40 *466:22 *520:20 0.000140593
41 *470:30 *520:20 0.00051059
42 *490:8 *520:8 0.00021677
43 *508:12 *520:20 0.000469071
44 *518:26 *520:40 1.01436e-05
*RES
1 *1734:X *520:8 43.3857 
2 *520:8 *520:20 45.1007 
3 *520:20 *520:40 41.9267 
4 *520:40 *1954:A 23 
*END

*D_NET *521 0.00999671
*CONN
*I *1955:A I *D sky130_fd_sc_hd__buf_2
*I *1735:X O *D sky130_fd_sc_hd__clkbuf_1
*CAP
1 *1955:A 0
2 *1735:X 8.72527e-05
3 *521:38 5.68704e-05
4 *521:32 0.00173154
5 *521:14 0.00296989
6 *521:8 0.00138247
7 *521:8 *578:89 0
8 *521:8 *589:106 2.41841e-05
9 *521:8 *590:75 2.05503e-05
10 *521:14 *1569:A 2.02872e-05
11 *521:14 *566:12 1.6458e-05
12 *521:14 *659:40 0.000614548
13 *521:32 *1599:GATE 4.17736e-05
14 *521:32 *538:52 7.57651e-05
15 *521:32 *552:60 0.000153535
16 *521:32 *552:74 0.000516944
17 *521:32 *618:48 5.79715e-05
18 *521:32 *625:134 0.000157264
19 *521:32 *625:154 0.000517306
20 *521:38 *528:46 2.47091e-05
21 *521:38 *531:52 2.64309e-05
22 *1478:S *521:32 0.000312497
23 *1537:B *521:14 2.93747e-05
24 *1569:B *521:14 9.41704e-05
25 *1766:A *521:32 3.34247e-05
26 *125:16 *521:32 1.08483e-05
27 *376:52 *521:14 3.10777e-05
28 *460:20 *521:14 0.000692453
29 *492:10 *521:32 0.000297119
*RES
1 *1735:X *521:8 39.2014 
2 *521:8 *521:14 48.7257 
3 *521:14 *521:32 43.0471 
4 *521:32 *521:38 31.2014 
5 *521:38 *1955:A 23 
*END

*D_NET *522 0.00311193
*CONN
*I *1956:A I *D sky130_fd_sc_hd__buf_2
*I *1736:X O *D sky130_fd_sc_hd__clkbuf_1
*CAP
1 *1956:A 0.000172901
2 *1736:X 0.00046135
3 *522:10 0.000634251
4 *1956:A *525:10 4.0365e-05
5 *1956:A *545:30 0.000182826
6 *1956:A *618:26 5.3304e-05
7 *522:10 *1531:A1 0.000136743
8 *522:10 *1967:A 6.24251e-05
9 *522:10 *530:32 1.8904e-05
10 *522:10 *532:18 4.74355e-05
11 *522:10 *535:26 6.10551e-06
12 *522:10 *537:26 0.00043154
13 *522:10 *592:22 9.67842e-05
14 *522:10 *616:26 1.54983e-05
15 *112:8 *1956:A 2.4754e-05
16 *115:12 *1956:A 5.60056e-05
17 *115:12 *522:10 0.000415968
18 *343:10 *522:10 0.000124902
19 *461:12 *1956:A 3.22879e-05
20 *464:10 *1956:A 9.75779e-05
*RES
1 *1736:X *522:10 49.0407 
2 *522:10 *1956:A 42.93 
*END

*D_NET *523 0.00259824
*CONN
*I *1957:A I *D sky130_fd_sc_hd__buf_2
*I *1737:X O *D sky130_fd_sc_hd__clkbuf_1
*CAP
1 *1957:A 0.000416128
2 *1737:X 0.000312184
3 *523:14 0.000728312
4 *1957:A *1477:A1 0.000183733
5 *1957:A *625:154 0.00014514
6 *1957:A *629:45 2.93747e-05
7 *523:14 *1632:GATE 0.000158247
8 *523:14 *524:12 2.54933e-05
9 *523:14 *629:45 0.000156025
10 *1477:S *1957:A 0.000109052
11 *1737:A *523:14 0.000123766
12 *111:10 *1957:A 5.67058e-05
13 *322:10 *1957:A 0.000135037
14 *462:8 *523:14 1.21972e-05
15 *518:26 *523:14 6.84987e-06
*RES
1 *1737:X *523:14 44.7321 
2 *523:14 *1957:A 47.2179 
*END

*D_NET *524 0.00463776
*CONN
*I *1958:A I *D sky130_fd_sc_hd__buf_2
*I *1738:X O *D sky130_fd_sc_hd__clkbuf_1
*CAP
1 *1958:A 0
2 *1738:X 0.000523927
3 *524:12 0.000666452
4 *524:8 0.00119038
5 *524:12 *1632:GATE 9.93122e-05
6 *524:12 *1633:GATE 3.35885e-06
7 *524:12 *621:16 0.000120104
8 *524:12 *629:45 0.000206224
9 *524:12 *651:34 7.31162e-05
10 *524:12 *655:48 0.00110212
11 *1738:A *524:8 2.18506e-05
12 *1770:A *524:8 7.53384e-06
13 *462:10 *524:12 3.3746e-05
14 *463:14 *524:8 0.000564145
15 *518:26 *524:12 0
16 *520:40 *524:12 0
17 *523:14 *524:12 2.54933e-05
*RES
1 *1738:X *524:8 45.2914 
2 *524:8 *524:12 31.3436 
3 *524:12 *1958:A 23 
*END

*D_NET *525 0.00146496
*CONN
*I *1959:A I *D sky130_fd_sc_hd__buf_2
*I *1739:X O *D sky130_fd_sc_hd__clkbuf_1
*CAP
1 *1959:A 0
2 *1739:X 0.000558191
3 *525:10 0.000558191
4 *1956:A *525:10 4.0365e-05
5 *464:10 *525:10 0.000308214
*RES
1 *1739:X *525:10 33.6679 
2 *525:10 *1959:A 23 
*END

*D_NET *526 0.0263089
*CONN
*I *1611:D I *D sky130_fd_sc_hd__dlxtp_1
*I *1702:A I *D sky130_fd_sc_hd__clkbuf_1
*I *1643:D I *D sky130_fd_sc_hd__dlxtp_1
*I *1831:X O *D sky130_fd_sc_hd__clkbuf_2
*CAP
1 *1611:D 0.000130678
2 *1702:A 0
3 *1643:D 0
4 *1831:X 0.000475888
5 *526:61 0.000167664
6 *526:54 0.000244059
7 *526:46 0.000372864
8 *526:44 0.00103452
9 *526:34 0.00497229
10 *526:32 0.00490488
11 *526:28 0.00150338
12 *526:12 0.00110397
13 *1611:D *584:115 2.1819e-05
14 *1611:D *628:120 0.000135037
15 *526:12 *613:14 0
16 *526:12 *614:34 0.000147041
17 *526:12 *640:8 0.000523547
18 *526:28 *1552:B 4.07835e-05
19 *526:28 *1554:A 6.48356e-05
20 *526:28 *1555:B 0.000138607
21 *526:28 *614:34 0
22 *526:28 *622:127 2.12347e-06
23 *526:28 *622:139 6.25338e-05
24 *526:28 *634:12 0.000140927
25 *526:28 *640:8 0
26 *526:32 *548:46 0
27 *526:32 *578:144 7.47369e-05
28 *526:32 *606:14 0
29 *526:32 *616:10 0
30 *526:32 *619:10 3.335e-05
31 *526:32 *624:61 0.000188926
32 *526:34 *528:26 0.00212371
33 *526:34 *548:46 0.000110155
34 *526:34 *570:12 7.45491e-05
35 *526:34 *617:12 0
36 *526:44 *552:10 0
37 *526:44 *579:92 0.000136486
38 *526:44 *579:107 0
39 *526:44 *588:105 0
40 *526:46 *588:128 0.00035673
41 *526:54 *1643:GATE 5.50106e-05
42 *526:54 *581:146 0.000184415
43 *526:54 *632:124 2.90256e-05
44 *526:61 *584:115 2.31687e-05
45 *526:61 *588:128 8.52481e-05
46 VALUE_top0 *526:32 0
47 VALUE_top1 *526:32 0
48 *1487:C1 *526:54 1.05441e-05
49 *1556:A2 *526:28 0.000107178
50 *1556:A2 *526:32 5.86204e-05
51 *1673:D *526:32 0.000125852
52 *1674:D *526:32 0.000158796
53 *1806:A *526:32 1.06693e-05
54 *1825:A *526:12 4.73652e-05
55 *1843:A *526:32 1.05658e-05
56 *9:11 *526:12 0
57 *9:11 *526:28 5.94978e-05
58 *13:11 *526:12 0.000330734
59 *14:11 *526:32 0.000203886
60 *67:9 *526:34 0.00156158
61 *68:7 *526:44 0.000411178
62 *80:17 *526:34 7.38999e-05
63 *80:17 *526:44 0.000446475
64 *81:13 *526:34 0.000997486
65 *84:11 *526:34 0.000499389
66 *86:9 *526:44 0
67 *276:10 *526:54 0.000161817
68 *397:10 *526:32 0.000293524
69 *459:14 *526:32 2.48822e-05
70 *459:22 *526:34 0
71 *462:46 *526:34 0.000333993
72 *471:16 *526:28 0.000131974
73 *475:8 *1611:D 5.68958e-05
74 *475:8 *526:61 3.22465e-05
75 *475:16 *526:54 8.27648e-05
76 *488:28 *526:44 0
77 *490:28 *526:54 5.04473e-05
78 *491:34 *1611:D 5.00831e-05
79 *491:34 *526:46 0.000190826
80 *491:34 *526:61 3.42256e-05
81 *493:8 *526:32 8.85189e-05
*RES
1 *1831:X *526:12 49.6725 
2 *526:12 *526:28 42.0246 
3 *526:28 *526:32 34.865 
4 *526:32 *526:34 116.394 
5 *526:34 *526:44 47.8143 
6 *526:44 *526:46 3.95643 
7 *526:46 *526:54 35.365 
8 *526:54 *1643:D 23 
9 *526:46 *526:61 1.57429 
10 *526:61 *1702:A 23 
11 *526:61 *1611:D 26.0036 
*END

*D_NET *527 0.0343293
*CONN
*I *1960:A I *D sky130_fd_sc_hd__buf_2
*I *1740:X O *D sky130_fd_sc_hd__buf_1
*CAP
1 *1960:A 0.000124215
2 *1740:X 0.000348792
3 *527:34 0.00264895
4 *527:24 0.00575188
5 *527:20 0.00343672
6 *527:14 0.00183629
7 *527:12 0.00325313
8 *527:8 0.00197521
9 *1960:A *655:48 0
10 *527:8 *684:42 8.89399e-05
11 *527:12 *1603:D 1.61755e-05
12 *527:12 *529:12 0
13 *527:12 *558:10 2.26497e-05
14 *527:12 *625:222 0.000113846
15 *527:12 *632:166 1.34354e-05
16 *527:12 *632:179 7.88066e-05
17 *527:12 *632:187 1.87077e-05
18 *527:12 *679:36 0
19 *527:12 *689:26 0.000354849
20 *527:14 *529:16 0.00301019
21 *527:14 *550:14 4.05745e-05
22 *527:20 *529:24 3.82956e-05
23 *527:24 *529:24 0.00246323
24 *527:24 *529:30 0.000100231
25 *527:34 *529:30 0.00013657
26 *527:34 *540:30 0.00210079
27 *527:34 *549:26 0.000554669
28 *527:34 *571:20 0.000620614
29 N2BEGb[4] *527:34 0.000897469
30 N4BEG[12] *527:34 7.57281e-06
31 N4BEG[15] *527:34 0.000223698
32 NN4BEG[10] *527:24 2.46906e-05
33 NN4BEG[10] *527:34 0.000307974
34 NN4BEG[13] *527:24 0.000355975
35 NN4BEG[14] *527:24 4.05745e-05
36 NN4BEG[1] *527:34 8.93501e-05
37 NN4BEG[2] *527:34 0.000477016
38 *1740:A *527:8 5.25848e-05
39 *116:8 *1960:A 1.83564e-05
40 *118:8 *1960:A 7.25007e-05
41 *161:11 *527:24 5.06994e-05
42 *162:15 *527:34 2.26406e-05
43 *177:13 *527:24 0.000164455
44 *183:13 *527:20 0.000110769
45 *204:17 *527:14 0.00040268
46 *205:15 *527:20 8.20653e-05
47 *206:13 *527:20 0.000222969
48 *207:15 *527:20 6.7177e-06
49 *355:8 *527:12 6.33511e-05
50 *476:28 *527:12 0
51 *495:8 *527:12 0.000233682
52 *498:14 *527:12 0
53 *502:10 *527:12 0
54 *506:22 *527:12 0
55 *510:18 *527:12 0.000434497
56 *516:8 *527:12 0
57 *520:40 *527:34 0.000819221
*RES
1 *1740:X *527:8 42.4329 
2 *527:8 *527:12 47.8943 
3 *527:12 *527:14 39.2121 
4 *527:14 *527:20 34.7229 
5 *527:20 *527:24 44.4736 
6 *527:24 *527:34 42.3492 
7 *527:34 *1960:A 48.4339 
*END

*D_NET *528 0.0309472
*CONN
*I *1961:A I *D sky130_fd_sc_hd__buf_2
*I *1741:X O *D sky130_fd_sc_hd__buf_1
*CAP
1 *1961:A 8.52189e-05
2 *1741:X 0.000869463
3 *528:46 0.0017569
4 *528:32 0.00239861
5 *528:26 0.00194017
6 *528:24 0.00121323
7 *528:22 0.00132685
8 *528:18 0.00257432
9 *528:12 0.00211693
10 *1961:A *625:154 0.000123934
11 *528:12 *1636:D 1.59094e-05
12 *528:12 *583:118 4.2062e-05
13 *528:12 *630:26 5.20028e-05
14 *528:12 *630:42 2.81066e-05
15 *528:12 *645:22 0.00051147
16 *528:18 *1463:A1 0.000532861
17 *528:18 *539:10 9.30443e-06
18 *528:18 *585:149 0.000411527
19 *528:18 *597:10 0.000227208
20 *528:18 *627:12 0.0004687
21 *528:18 *627:30 0.000394988
22 *528:18 *630:42 0.000142037
23 *528:18 *652:20 0.000228316
24 *528:18 *673:28 0
25 *528:22 *531:26 0.000147258
26 *528:22 *552:24 0.000121076
27 *528:22 *572:34 4.75766e-05
28 *528:22 *615:18 0.00095611
29 *528:22 *628:39 3.09416e-05
30 *528:22 *631:61 2.05503e-05
31 *528:26 *570:12 0.00555468
32 *528:32 *583:26 0.000221184
33 *528:46 *530:22 0
34 *528:46 *531:52 3.88552e-05
35 *528:46 *587:26 0.000139352
36 *528:46 *588:18 6.01687e-05
37 *528:46 *607:14 9.28078e-06
38 *528:46 *623:64 0.000260411
39 *528:46 *624:90 0
40 *528:46 *634:12 0.000221997
41 *528:46 *634:22 0.000125034
42 *528:46 *680:26 0
43 N1BEG[1] *528:46 0.000155476
44 VALUE_top2 *528:32 2.20861e-05
45 VALUE_top3 *528:32 0
46 *1586:CLK *528:22 0
47 *1661:CLK *528:46 0.000114499
48 *1661:D *528:46 6.09588e-05
49 *1666:D *528:22 0
50 *1856:A *528:18 0.000343958
51 *67:9 *528:26 5.50106e-05
52 *113:12 *1961:A 4.96717e-05
53 *117:10 *1961:A 3.22879e-05
54 *173:17 *528:18 1.50482e-05
55 *248:16 *528:22 0
56 *370:8 *528:22 0
57 *375:8 *528:22 6.41645e-05
58 *400:43 *528:46 4.88638e-05
59 *415:107 *528:22 0
60 *448:10 *528:22 0.000121976
61 *449:55 *528:22 0.000219683
62 *452:10 *528:46 9.33067e-05
63 *456:41 *528:46 0
64 *456:47 *528:46 0
65 *456:60 *528:46 6.16352e-05
66 *457:80 *528:22 0
67 *462:10 *528:32 0.000450774
68 *463:18 *528:32 0.00130656
69 *519:20 *528:46 0.000158182
70 *521:38 *528:46 2.47091e-05
71 *526:34 *528:26 0.00212371
*RES
1 *1741:X *528:12 49.745 
2 *528:12 *528:18 41.7214 
3 *528:18 *528:22 39.0907 
4 *528:22 *528:24 15 
5 *528:24 *528:26 61.1279 
6 *528:26 *528:32 49.1607 
7 *528:32 *528:46 46.9829 
8 *528:46 *1961:A 40.5271 
*END

*D_NET *529 0.03528
*CONN
*I *1962:A I *D sky130_fd_sc_hd__buf_2
*I *1742:X O *D sky130_fd_sc_hd__buf_1
*CAP
1 *1962:A 0
2 *1742:X 0.00018006
3 *529:40 0.0017911
4 *529:30 0.00298334
5 *529:24 0.00214029
6 *529:16 0.0020473
7 *529:12 0.00220354
8 *529:8 0.00128436
9 *529:16 *550:14 0.00186213
10 *529:30 *655:36 0.00059411
11 *529:30 *655:42 1.88944e-05
12 *529:40 *531:52 1.05441e-05
13 *529:40 *542:38 0.000433075
14 *529:40 *571:20 0.00286304
15 *529:40 *587:73 0.000106556
16 *529:40 *655:48 0
17 FrameStrobe_O[11] *529:16 0
18 FrameStrobe_O[18] *529:16 0
19 N2BEGb[7] *529:40 2.56866e-05
20 N4BEG[0] *529:40 0.00116622
21 N4BEG[10] *529:30 2.11157e-05
22 N4BEG[11] *529:30 4.95487e-06
23 N4BEG[13] *529:30 4.66047e-05
24 N4BEG[5] *529:40 3.11236e-05
25 N4BEG[9] *529:30 9.16592e-05
26 NN4BEG[10] *529:30 0.000181712
27 NN4BEG[11] *529:30 6.52873e-05
28 NN4BEG[14] *529:30 4.21062e-05
29 NN4BEG[1] *529:30 0.0006428
30 NN4BEG[6] *529:30 0.000198928
31 *2:14 *529:30 0.000125964
32 *96:8 *529:12 0.000345295
33 *118:8 *529:40 5.74514e-05
34 *120:8 *529:40 9.61282e-05
35 *121:12 *529:40 0
36 *161:11 *529:30 0.000517108
37 *162:9 *529:30 7.43025e-06
38 *163:11 *529:30 0.000644027
39 *177:13 *529:30 0.000161542
40 *206:13 *529:24 0.000197372
41 *207:15 *529:24 0.000272346
42 *466:48 *529:12 0.000716688
43 *478:18 *529:24 7.18133e-05
44 *478:18 *529:30 0.000514235
45 *478:26 *529:24 0.00250768
46 *481:24 *529:12 0.000163085
47 *504:40 *529:16 0
48 *505:20 *529:12 3.18683e-05
49 *509:30 *529:8 0.000222791
50 *512:10 *529:12 0.000236792
51 *516:8 *529:12 0.00160537
52 *527:12 *529:12 0
53 *527:14 *529:16 0.00301019
54 *527:20 *529:24 3.82956e-05
55 *527:24 *529:24 0.00246323
56 *527:24 *529:30 0.000100231
57 *527:34 *529:30 0.00013657
*RES
1 *1742:X *529:8 40.5271 
2 *529:8 *529:12 42.9643 
3 *529:12 *529:16 48.9714 
4 *529:16 *529:24 48.9507 
5 *529:24 *529:30 47.9668 
6 *529:30 *529:40 41.1841 
7 *529:40 *1962:A 23 
*END

*D_NET *530 0.0107713
*CONN
*I *1963:A I *D sky130_fd_sc_hd__buf_2
*I *1743:X O *D sky130_fd_sc_hd__clkbuf_1
*CAP
1 *1963:A 0.000136352
2 *1743:X 0.00128039
3 *530:32 0.000408881
4 *530:22 0.00166369
5 *530:12 0.00267155
6 *1963:A *1965:A 5.50049e-05
7 *1963:A *537:26 2.35777e-05
8 *530:12 *580:8 1.02175e-05
9 *530:12 *589:106 8.99655e-05
10 *530:12 *590:10 0.000261206
11 *530:12 *590:50 0.000257636
12 *530:12 *622:14 0.000221992
13 *530:12 *622:32 0.000148384
14 *530:22 *535:26 0.000223223
15 *530:22 *624:90 0.00103702
16 *530:32 *532:18 0.000144515
17 *530:32 *625:134 9.41704e-05
18 *530:32 *625:154 1.21972e-05
19 N1BEG[1] *530:22 0
20 N2BEG[0] *530:22 0.000135986
21 *1663:CLK *530:22 0.000139982
22 *1663:D *530:12 0.000145274
23 *1766:A *530:32 0.000180522
24 *121:12 *1963:A 7.28762e-05
25 *123:8 *1963:A 0.00024261
26 *343:10 *530:32 9.9437e-05
27 *460:10 *530:12 0.000255194
28 *460:10 *530:22 0.000718133
29 *464:10 *530:22 2.24608e-05
30 *519:20 *530:22 0
31 *522:10 *530:32 1.8904e-05
32 *528:46 *530:22 0
*RES
1 *1743:X *530:12 44.5221 
2 *530:12 *530:22 45.2636 
3 *530:22 *530:32 49.785 
4 *530:32 *1963:A 27.0807 
*END

*D_NET *531 0.0280131
*CONN
*I *1964:A I *D sky130_fd_sc_hd__buf_2
*I *1744:X O *D sky130_fd_sc_hd__buf_1
*CAP
1 *1964:A 5.06612e-05
2 *1744:X 7.12226e-05
3 *531:52 0.00227527
4 *531:46 0.00329311
5 *531:26 0.00374388
6 *531:10 0.0027466
7 *531:10 *548:68 0.000126882
8 *531:10 *588:105 0
9 *531:10 *684:32 1.14452e-05
10 *531:26 *568:32 3.55939e-05
11 *531:26 *572:34 0.000959503
12 *531:26 *578:28 0.000440648
13 *531:26 *588:83 0.00266467
14 *531:26 *597:10 0.000405204
15 *531:26 *627:30 0.000188915
16 *531:46 *556:28 0.000726127
17 *531:46 *589:77 0.000441552
18 *531:46 *610:10 4.80423e-06
19 *531:46 *622:32 0.000153577
20 *531:46 *627:30 0.000269994
21 *531:46 *659:32 0.000974523
22 *531:46 *662:20 0.00103394
23 *531:52 *587:10 0.000105743
24 *531:52 *587:26 9.45814e-05
25 *531:52 *587:46 0.00047877
26 *531:52 *587:73 0.000163993
27 *531:52 *589:77 0.00024459
28 *531:52 *623:64 6.77462e-05
29 *531:52 *662:20 0.000481961
30 *531:52 *680:26 0.000130212
31 *531:52 *682:66 2.5343e-05
32 *1471:S *531:26 0.000146822
33 *1744:A *531:10 4.40479e-06
34 *1791:A *531:46 3.61511e-05
35 *108:8 *1964:A 0.000136743
36 *111:10 *531:52 0.00011649
37 *116:14 *1964:A 0.000136743
38 *120:8 *531:52 8.48085e-05
39 *229:8 *531:46 1.65299e-05
40 *403:22 *531:46 0.000156186
41 *404:10 *531:26 9.41704e-05
42 *404:10 *531:46 1.41129e-05
43 *415:30 *531:26 0.000472071
44 *433:10 *531:46 0.000227257
45 *442:18 *531:52 5.43589e-05
46 *458:10 *531:26 9.9453e-05
47 *458:28 *531:26 9.84794e-05
48 *458:30 *531:26 0
49 *459:36 *531:46 0.000232694
50 *464:38 *531:26 0.00116597
51 *471:16 *531:46 1.57751e-05
52 *471:16 *531:52 0.00206969
53 *521:38 *531:52 2.64309e-05
54 *528:22 *531:26 0.000147258
55 *528:46 *531:52 3.88552e-05
56 *529:40 *531:52 1.05441e-05
*RES
1 *1744:X *531:10 47.7296 
2 *531:10 *531:26 47.5729 
3 *531:26 *531:46 48.6213 
4 *531:46 *531:52 37.372 
5 *531:52 *1964:A 39.5743 
*END

*D_NET *532 0.00723854
*CONN
*I *1965:A I *D sky130_fd_sc_hd__buf_2
*I *1745:X O *D sky130_fd_sc_hd__clkbuf_1
*CAP
1 *1965:A 1.97948e-05
2 *1745:X 0.00113242
3 *532:18 0.000778614
4 *532:6 0.00189124
5 *1965:A *537:26 1.94693e-05
6 *532:6 *546:6 0.00108004
7 *532:6 *625:88 0.000100803
8 *532:18 *535:26 7.68351e-05
9 *532:18 *545:8 0.000108913
10 *532:18 *553:36 2.79962e-05
11 *532:18 *555:42 0
12 *532:18 *567:22 6.52302e-05
13 *532:18 *588:41 0.000575467
14 *532:18 *603:14 0.000648917
15 *532:18 *618:26 0.000120426
16 *532:18 *625:140 7.83863e-05
17 *1963:A *1965:A 5.50049e-05
18 *115:12 *532:18 0
19 *343:10 *532:18 8.30566e-06
20 *344:10 *532:18 9.3287e-05
21 *519:12 *532:6 0.000156745
22 *519:20 *532:6 8.68427e-06
23 *522:10 *532:18 4.74355e-05
24 *530:32 *532:18 0.000144515
*RES
1 *1745:X *532:6 39.82 
2 *532:6 *532:18 41.7038 
3 *532:18 *1965:A 38.6214 
*END

*D_NET *533 0.0340694
*CONN
*I *1966:A I *D sky130_fd_sc_hd__buf_2
*I *1746:X O *D sky130_fd_sc_hd__buf_1
*CAP
1 *1966:A 0.000116207
2 *1746:X 0.000927059
3 *533:58 0.00260065
4 *533:38 0.00432276
5 *533:22 0.00324018
6 *533:6 0.00232893
7 *1966:A *1968:A 6.17437e-06
8 *533:6 *586:106 0.00115357
9 *533:22 *558:28 1.36509e-05
10 *533:22 *603:14 0.00256359
11 *533:22 *633:10 0.000118526
12 *533:22 *633:16 4.30894e-05
13 *533:22 *643:24 0.00274281
14 *533:22 *645:34 0
15 *533:22 *668:16 0.000248042
16 *533:22 *692:26 3.74737e-05
17 *533:38 *558:42 0.00106315
18 *533:38 *564:10 3.7294e-05
19 *533:38 *582:30 0.00117067
20 *533:38 *587:164 2.11157e-05
21 *533:38 *617:53 0.000155626
22 *533:38 *667:18 0.0016131
23 *533:38 *681:24 0.001342
24 *533:38 *682:22 6.51882e-05
25 *533:58 *580:118 0.000108206
26 *533:58 *583:52 0.000269848
27 *533:58 *587:73 0.00106789
28 *533:58 *617:28 0.000373716
29 *533:58 *617:53 0.00154515
30 *533:58 *657:22 0.00209043
31 *533:58 *667:18 0.000124809
32 *533:58 *671:20 0.000337165
33 *533:58 *682:66 0.000103612
34 N2BEG[1] *533:58 0.000112156
35 N4BEG[3] *533:58 0.000273714
36 *1856:A *533:38 0.000343579
37 *110:8 *1966:A 8.88103e-05
38 *116:14 *1966:A 0.000143522
39 *117:10 *533:58 2.31209e-05
40 *119:10 *533:58 2.11157e-05
41 *124:10 *1966:A 6.53942e-05
42 *139:12 *533:58 8.76318e-05
43 *175:19 *533:38 0.000129006
44 *475:16 *533:22 1.24585e-05
45 *488:14 *533:58 0.000523269
46 *520:40 *533:58 0.000293996
*RES
1 *1746:X *533:6 36.0086 
2 *533:6 *533:22 44.93 
3 *533:22 *533:38 44.4078 
4 *533:38 *533:58 41.1765 
5 *533:58 *1966:A 41.045 
*END

*D_NET *534 0.0217375
*CONN
*I *1967:A I *D sky130_fd_sc_hd__buf_2
*I *1747:X O *D sky130_fd_sc_hd__buf_1
*CAP
1 *1967:A 0.000107246
2 *1747:X 0.000261069
3 *534:38 0.00125249
4 *534:28 0.00198419
5 *534:22 0.0031448
6 *534:12 0.00256692
7 *1967:A *1531:A1 5.50049e-05
8 *534:12 *589:134 3.78016e-05
9 *534:12 *641:20 9.25823e-05
10 *534:12 *692:30 0.000219383
11 *534:22 *1469:A0 0.00013055
12 *534:22 *539:20 8.52025e-05
13 *534:22 *544:30 0.00190577
14 *534:22 *625:88 0.000867525
15 *534:22 *637:10 1.7915e-05
16 *534:22 *643:24 0.000171799
17 *534:22 *683:26 0.00290743
18 *534:28 *566:18 0.000196356
19 *534:28 *580:48 0.000197678
20 *534:28 *580:65 8.86025e-05
21 *534:28 *587:92 4.52006e-05
22 *534:28 *630:66 0.000180425
23 *534:28 *631:106 0.000439583
24 *534:38 *1531:A1 2.05503e-05
25 *534:38 *540:30 0.000170817
26 *534:38 *553:36 0
27 *534:38 *580:95 0.000118487
28 *534:38 *582:16 0.00187237
29 *534:38 *667:18 4.56316e-05
30 N2BEG[5] *534:38 0.000149682
31 N2BEG[6] *534:38 0.000188329
32 N4BEG[10] *534:38 0.000267373
33 N4BEG[11] *534:28 0.000189408
34 N4BEG[12] *534:28 1.02029e-05
35 N4BEG[13] *534:38 3.84903e-05
36 N4BEG[4] *534:38 0.00107761
37 *1491:B1_N *534:22 0
38 *123:14 *534:38 8.11489e-05
39 *152:8 *534:28 3.062e-05
40 *162:15 *534:28 0.000319214
41 *343:10 *1967:A 2.64616e-05
42 *417:8 *534:22 8.62783e-05
43 *504:24 *534:38 2.68802e-05
44 *522:10 *1967:A 6.24251e-05
*RES
1 *1747:X *534:12 49.9046 
2 *534:12 *534:22 42.8991 
3 *534:22 *534:28 47.4 
4 *534:28 *534:38 45.1186 
5 *534:38 *1967:A 40.0507 
*END

*D_NET *535 0.0327675
*CONN
*I *1968:A I *D sky130_fd_sc_hd__buf_2
*I *1748:X O *D sky130_fd_sc_hd__buf_1
*CAP
1 *1968:A 0.000122084
2 *1748:X 9.23769e-05
3 *535:26 0.0017676
4 *535:14 0.00620673
5 *535:10 0.00465359
6 *535:14 *548:62 0.00233308
7 *535:14 *552:60 0.00252305
8 *535:14 *586:45 7.45978e-05
9 *535:14 *586:51 0.00215779
10 *535:14 *588:83 0.000206089
11 *535:14 *613:22 0.00608391
12 *535:14 *616:22 0.000272745
13 *535:14 *620:30 2.17681e-05
14 *535:14 *632:124 0.000850117
15 *535:14 *662:20 0.000186971
16 *535:26 *1566:B 2.26406e-05
17 *535:26 *545:8 0.00010897
18 *535:26 *587:26 0.000213686
19 *535:26 *588:41 0.000253715
20 *535:26 *598:16 0.00016507
21 *535:26 *599:20 0.000159613
22 *535:26 *618:26 0.000180694
23 *535:26 *623:31 2.21151e-05
24 *535:26 *623:37 4.167e-05
25 *535:26 *624:90 4.20402e-05
26 *535:26 *625:140 8.04857e-05
27 N2BEG[0] *535:26 0.00035861
28 N2BEG[1] *535:26 2.45917e-05
29 N2BEG[3] *535:26 4.20226e-05
30 *1966:A *1968:A 6.17437e-06
31 *115:12 *535:26 3.35885e-06
32 *116:14 *1968:A 0.000261951
33 *124:10 *1968:A 6.83551e-05
34 *124:10 *535:26 8.4447e-05
35 *128:10 *1968:A 6.17437e-06
36 *128:10 *535:26 5.72853e-05
37 *396:10 *535:26 5.25111e-05
38 *415:30 *535:14 0.0021147
39 *461:42 *535:14 7.73561e-05
40 *464:10 *535:26 7.57281e-06
41 *464:54 *535:14 0.000370035
42 *471:62 *535:10 2.82784e-05
43 *514:10 *535:10 5.47268e-05
44 *522:10 *535:26 6.10551e-06
45 *530:22 *535:26 0.000223223
46 *532:18 *535:26 7.68351e-05
*RES
1 *1748:X *535:10 47.7296 
2 *535:10 *535:14 27.4619 
3 *535:14 *535:26 47.9668 
4 *535:26 *1968:A 26.0036 
*END

*D_NET *536 0.0113185
*CONN
*I *1969:A I *D sky130_fd_sc_hd__buf_2
*I *1749:X O *D sky130_fd_sc_hd__clkbuf_1
*CAP
1 *1969:A 0.000135728
2 *1749:X 0.00068352
3 *536:20 0.00170754
4 *536:8 0.00225534
5 *1969:A *539:20 9.5877e-05
6 *536:8 *1617:D 0.00018304
7 *536:8 *1703:A 5.3304e-05
8 *536:8 *1992:A 0.000100061
9 *536:8 *2003:A 5.3304e-05
10 *536:8 *559:61 9.5877e-05
11 *536:8 *561:30 0.000368005
12 *536:8 *592:75 1.41129e-05
13 *536:8 *656:8 5.3304e-05
14 *536:8 *682:34 0.000939652
15 *536:20 *1649:GATE 2.26497e-05
16 *536:20 *2003:A 0.000182513
17 *536:20 *547:42 3.78256e-05
18 *536:20 *549:26 4.67233e-05
19 *536:20 *556:28 0.000333662
20 *536:20 *565:28 0.000451537
21 *536:20 *568:48 0.000262075
22 *536:20 *587:115 4.57342e-05
23 *536:20 *627:55 1.02219e-05
24 *536:20 *657:22 0.00199469
25 *536:20 *682:34 3.55458e-05
26 *1749:A *536:8 1.00493e-05
27 *127:10 *1969:A 5.56279e-05
28 *135:10 *536:20 0.000313014
29 *178:9 *536:8 5.50106e-05
30 *345:10 *536:20 5.05791e-05
31 *464:38 *536:20 0.000477724
32 *481:12 *536:20 8.43956e-05
33 *519:12 *1969:A 0.000110285
*RES
1 *1749:X *536:8 39.8407 
2 *536:8 *536:20 42.6909 
3 *536:20 *1969:A 41.0243 
*END

*D_NET *537 0.0204822
*CONN
*I *1703:A I *D sky130_fd_sc_hd__buf_1
*I *1612:D I *D sky130_fd_sc_hd__dlxtp_1
*I *1644:D I *D sky130_fd_sc_hd__dlxtp_1
*I *1832:X O *D sky130_fd_sc_hd__buf_1
*CAP
1 *1703:A 0.000167119
2 *1612:D 0.000115244
3 *1644:D 0
4 *1832:X 0.00016385
5 *537:75 0.000800056
6 *537:60 0.000181525
7 *537:52 0.000851438
8 *537:48 0.000773592
9 *537:38 0.0023499
10 *537:26 0.00338989
11 *537:16 0.00278539
12 *537:8 0.00128788
13 *1612:D *569:30 6.53382e-05
14 *1612:D *682:22 5.3304e-05
15 *1703:A *561:30 5.3304e-05
16 *1703:A *657:8 0.000161527
17 *537:8 *614:16 2.29167e-05
18 *537:16 *603:8 0.000254737
19 *537:16 *655:48 2.54046e-05
20 *537:26 *580:118 1.22822e-05
21 *537:26 *592:10 5.26733e-06
22 *537:26 *592:22 0.000545244
23 *537:38 *1593:GATE 3.0538e-05
24 *537:38 *544:30 0.000137305
25 *537:38 *572:64 0.000303243
26 *537:38 *580:77 0.000107466
27 *537:38 *587:92 1.6318e-05
28 *537:38 *587:115 0.000146931
29 *537:38 *592:22 4.21062e-05
30 *537:38 *592:58 2.24608e-05
31 *537:38 *667:18 0.000570174
32 *537:38 *671:20 6.27727e-05
33 *537:38 *682:58 2.81406e-06
34 *537:48 *558:42 4.21498e-05
35 *537:48 *564:10 0.000108283
36 *537:48 *569:30 0.000464106
37 *537:52 *559:48 0.000243241
38 *537:52 *654:14 1.24376e-05
39 *537:60 *1646:GATE 0.000209058
40 *537:60 *559:48 1.09903e-05
41 *537:60 *562:10 1.41324e-05
42 *537:60 *632:40 9.28078e-06
43 *537:60 *654:14 0.000152741
44 *537:75 *559:48 8.45868e-05
45 *537:75 *559:76 7.48436e-05
46 *537:75 *654:14 4.08664e-05
47 *537:75 *657:8 4.51887e-05
48 *537:75 *682:22 0.000108086
49 *1481:S0 *537:38 0.000348911
50 *1528:S *537:26 0.000309746
51 *1839:A *537:8 5.79413e-06
52 *1841:A *537:8 0.000155396
53 *1963:A *537:26 2.35777e-05
54 *1965:A *537:26 1.94693e-05
55 *2:14 *537:48 0.000219401
56 *22:11 *537:8 0
57 *27:11 *537:8 5.61207e-05
58 *108:8 *537:16 9.87624e-05
59 *110:8 *537:16 0.00048256
60 *116:8 *537:16 1.01436e-05
61 *119:10 *537:26 0.000137651
62 *121:12 *537:26 0.000127754
63 *143:14 *537:38 0.000100061
64 *144:12 *537:38 2.05503e-05
65 *174:13 *1703:A 6.47837e-05
66 *174:13 *537:75 2.39961e-05
67 *176:11 *1612:D 0.000139357
68 *269:14 *1612:D 9.03816e-05
69 *269:14 *537:75 5.50049e-05
70 *272:10 *537:52 5.56279e-05
71 *343:10 *537:26 2.92911e-06
72 *345:10 *537:48 0.00021731
73 *354:10 *537:26 8.85299e-06
74 *488:14 *537:26 9.5877e-05
75 *522:10 *537:26 0.00043154
76 *536:8 *1703:A 5.3304e-05
*RES
1 *1832:X *537:8 42.0186 
2 *537:8 *537:16 46.1157 
3 *537:16 *537:26 40.1057 
4 *537:26 *537:38 49.7898 
5 *537:38 *537:48 40.5539 
6 *537:48 *537:52 18.0036 
7 *537:52 *537:60 33.4593 
8 *537:60 *1644:D 23 
9 *537:52 *537:75 23.1821 
10 *537:75 *1612:D 41.0036 
11 *537:75 *1703:A 41.2314 
*END

*D_NET *538 0.0255141
*CONN
*I *1970:A I *D sky130_fd_sc_hd__buf_2
*I *1750:X O *D sky130_fd_sc_hd__buf_1
*CAP
1 *1970:A 0
2 *1750:X 8.67532e-05
3 *538:52 0.000990378
4 *538:42 0.00215394
5 *538:30 0.00279256
6 *538:18 0.00405239
7 *538:10 0.00251014
8 *538:10 *632:112 0.000179321
9 *538:18 *558:28 7.06939e-05
10 *538:18 *561:22 0.00029907
11 *538:18 *585:149 6.95297e-05
12 *538:18 *586:76 1.36509e-05
13 *538:18 *590:118 0.00110924
14 *538:18 *619:50 9.22439e-05
15 *538:18 *626:10 1.53931e-05
16 *538:18 *675:42 0.000167546
17 *538:18 *680:26 0.00354606
18 *538:30 *568:32 0.000651532
19 *538:30 *581:16 2.17486e-05
20 *538:30 *581:108 0.00021004
21 *538:30 *628:39 2.31687e-05
22 *538:42 *1568:C1 4.84129e-06
23 *538:42 *556:28 4.47198e-05
24 *538:42 *580:18 0.000130609
25 *538:42 *581:34 0.000165177
26 *538:42 *586:45 0.000125453
27 *538:42 *623:12 0.000316802
28 *538:52 *539:20 0
29 *538:52 *545:30 5.3304e-05
30 *538:52 *552:60 1.90614e-05
31 *538:52 *556:28 0
32 *538:52 *585:87 6.64546e-05
33 *538:52 *602:10 3.7786e-05
34 *538:52 *621:40 5.3304e-05
35 *538:52 *623:12 2.38508e-05
36 *538:52 *623:31 5.56216e-05
37 *1499:A *538:42 1.11089e-05
38 *1500:C *538:30 1.42761e-05
39 *1511:B1 *538:30 0.000259337
40 *1568:A2 *538:52 3.10968e-05
41 *1583:CLK *538:30 1.34914e-05
42 *1583:D *538:30 2.63091e-05
43 *1663:CLK *538:52 2.17571e-05
44 *1807:A *538:42 9.28078e-06
45 *125:16 *538:52 0.000129751
46 *127:10 *538:52 0
47 *213:32 *538:42 0.000189831
48 *233:10 *538:18 7.68979e-05
49 *245:25 *538:42 8.03289e-05
50 *268:10 *538:10 0
51 *270:30 *538:18 0.00108915
52 *335:8 *538:10 8.62783e-05
53 *371:8 *538:30 1.89587e-05
54 *402:8 *538:52 0.000202541
55 *406:18 *538:30 0.000466283
56 *415:107 *538:18 0
57 *436:10 *538:30 5.43589e-05
58 *436:24 *538:30 4.45778e-05
59 *436:24 *538:42 7.12426e-05
60 *445:16 *538:42 7.53303e-06
61 *458:49 *538:30 0.000609898
62 *458:61 *538:30 9.67842e-05
63 *468:18 *538:18 0.000331378
64 *471:16 *538:42 0.00127325
65 *492:10 *538:52 4.84581e-05
66 *494:10 *538:52 0
67 *494:20 *538:42 2.18409e-05
68 *521:32 *538:52 7.57651e-05
*RES
1 *1750:X *538:10 48.4339 
2 *538:10 *538:18 40.8792 
3 *538:18 *538:30 42.5604 
4 *538:30 *538:42 41.1172 
5 *538:42 *538:52 46.1779 
6 *538:52 *1970:A 23 
*END

*D_NET *539 0.012336
*CONN
*I *1971:A I *D sky130_fd_sc_hd__buf_2
*I *1751:X O *D sky130_fd_sc_hd__clkbuf_1
*CAP
1 *1971:A 0
2 *1751:X 0.000150319
3 *539:20 0.00229307
4 *539:10 0.00244339
5 *539:10 *643:24 6.94806e-05
6 *539:20 *544:30 0.000374248
7 *539:20 *556:28 4.30894e-05
8 *539:20 *572:50 8.61904e-05
9 *539:20 *578:99 0.000328826
10 *539:20 *585:87 0.00116879
11 *539:20 *603:14 0.00417323
12 *539:20 *668:30 0.000794193
13 *539:20 *681:34 4.78668e-05
14 *539:20 *683:26 2.16606e-05
15 *1856:A *539:10 5.54393e-05
16 *1969:A *539:20 9.5877e-05
17 *519:12 *539:20 9.5877e-05
18 *528:18 *539:10 9.30443e-06
19 *534:22 *539:20 8.52025e-05
20 *538:52 *539:20 0
*RES
1 *1751:X *539:10 48.4339 
2 *539:10 *539:20 32.8985 
3 *539:20 *1971:A 23 
*END

*D_NET *540 0.0237802
*CONN
*I *1972:A I *D sky130_fd_sc_hd__buf_2
*I *1752:X O *D sky130_fd_sc_hd__buf_1
*CAP
1 *1972:A 0
2 *1752:X 0.000200786
3 *540:30 0.00328278
4 *540:20 0.00377013
5 *540:10 0.00068813
6 *540:10 *661:12 0.000112958
7 *540:10 *665:10 4.25895e-05
8 *540:10 *678:12 0.000306338
9 *540:20 *1616:GATE 0.000139131
10 *540:20 *571:22 0.000499305
11 *540:20 *676:12 1.40281e-05
12 *540:20 *678:12 0.000100724
13 *540:30 *549:26 4.86495e-05
14 *540:30 *571:20 0.00702831
15 *540:30 *690:24 9.81333e-06
16 N2BEG[4] *540:30 0.000183792
17 N2BEG[5] *540:30 2.05503e-05
18 *1461:S *540:20 2.38288e-05
19 *1753:A *540:10 1.94812e-05
20 *116:14 *540:30 9.5877e-05
21 *136:12 *540:30 3.22879e-05
22 *195:13 *540:20 1.14351e-05
23 *229:122 *540:10 9.28078e-06
24 *504:24 *540:30 8.30566e-06
25 *520:20 *540:10 4.2781e-06
26 *520:20 *540:20 0.00025342
27 *520:40 *540:30 0.00460239
28 *527:34 *540:30 0.00210079
29 *534:38 *540:30 0.000170817
*RES
1 *1752:X *540:10 43.0336 
2 *540:10 *540:20 48.0154 
3 *540:20 *540:30 41.5072 
4 *540:30 *1972:A 23 
*END

*D_NET *541 0.000685247
*CONN
*I *1973:A I *D sky130_fd_sc_hd__buf_2
*I *1762:X O *D sky130_fd_sc_hd__clkbuf_1
*CAP
1 *1973:A 7.7472e-05
2 *1762:X 0.000107595
3 *541:8 0.000185067
4 N2BEGb[6] *541:8 0.000156181
5 *129:16 *1973:A 9.29065e-05
6 *129:16 *541:8 3.18198e-05
7 *143:14 *541:8 0
8 *339:10 *541:8 3.42069e-05
*RES
1 *1762:X *541:8 40.2579 
2 *541:8 *1973:A 39.5743 
*END

*D_NET *542 0.021896
*CONN
*I *1974:A I *D sky130_fd_sc_hd__buf_2
*I *1763:X O *D sky130_fd_sc_hd__buf_1
*CAP
1 *1974:A 0
2 *1763:X 0.000543744
3 *542:38 0.00381492
4 *542:26 0.00438594
5 *542:16 0.00111477
6 *542:16 *680:16 0.000271015
7 *542:16 *683:18 4.46353e-05
8 *542:16 *685:16 0.00013793
9 *542:16 *687:14 2.24608e-05
10 *542:16 *691:12 4.5745e-05
11 *542:26 *663:14 3.53115e-05
12 *542:26 *665:10 9.75779e-05
13 *542:26 *666:16 9.58714e-05
14 *542:26 *677:10 0.000137651
15 *542:26 *685:8 0.000135037
16 *542:26 *687:14 5.50049e-05
17 *542:38 *1976:A 9.41618e-05
18 *542:38 *546:12 0.000397564
19 *542:38 *551:24 0.000197529
20 *542:38 *571:20 0.00453335
21 *542:38 *580:77 0.000216206
22 *542:38 *587:73 2.61501e-05
23 *542:38 *690:16 0
24 N4BEG[4] *542:38 1.94463e-05
25 N4BEG[5] *542:38 8.90275e-06
26 N4BEG[6] *542:38 4.38237e-05
27 *1763:A *542:16 4.14618e-05
28 *1880:A *542:26 3.74084e-05
29 *1903:A *542:26 6.99492e-05
30 *185:15 *542:26 0.000315952
31 *201:17 *542:16 4.40293e-05
32 *208:11 *542:26 0.000396789
33 *209:21 *542:26 1.91952e-05
34 *470:30 *542:26 3.85446e-05
35 *476:22 *542:38 0.0031892
36 *481:24 *542:38 0.000830635
37 *508:26 *542:16 4.98399e-06
38 *529:40 *542:38 0.000433075
*RES
1 *1763:X *542:16 47.4457 
2 *542:16 *542:26 44.1168 
3 *542:26 *542:38 39.1158 
4 *542:38 *1974:A 38 
*END

*D_NET *543 0.0117992
*CONN
*I *1975:A I *D sky130_fd_sc_hd__buf_2
*I *1764:X O *D sky130_fd_sc_hd__buf_1
*CAP
1 *1975:A 0
2 *1764:X 0.00101081
3 *543:30 0.0010379
4 *543:20 0.00208926
5 *543:12 0.00118521
6 *543:6 0.00114466
7 *543:6 *547:26 6.46477e-05
8 *543:6 *578:43 5.5142e-05
9 *543:6 *615:47 2.02872e-05
10 *543:6 *649:30 0.000305431
11 *543:12 *641:20 0
12 *543:12 *675:26 0.00017486
13 *543:20 *573:14 0.000604644
14 *543:20 *589:120 0.000283347
15 *543:20 *604:10 0.000137368
16 *543:20 *620:40 0.000646332
17 *543:20 *626:22 0.000220769
18 *543:30 *1489:A1 9.1946e-06
19 *543:30 *1708:A 5.56356e-05
20 *543:30 *585:122 2.39653e-05
21 *543:30 *587:131 5.68443e-05
22 *543:30 *630:58 0.000267361
23 *543:30 *637:10 5.56356e-05
24 *543:30 *638:20 3.39755e-05
25 *543:30 *639:12 0.00022565
26 *543:30 *673:26 9.63938e-05
27 *1489:S0 *543:30 0.000169172
28 *1808:A *543:20 0.000185434
29 *161:19 *543:30 0.000146822
30 *163:19 *543:30 1.83327e-05
31 *270:30 *543:30 6.56284e-05
32 *270:49 *543:30 5.8447e-05
33 *271:45 *543:30 0.000135037
34 *272:20 *543:30 1.02219e-05
35 *292:18 *543:30 2.82248e-05
36 *297:14 *543:20 5.3304e-05
37 *358:10 *543:30 0.000290517
38 *415:107 *543:20 5.3304e-05
39 *419:32 *543:30 0.000126192
40 *460:46 *543:20 0.00020184
41 *491:22 *543:6 0.000120613
42 *515:48 *543:12 0.000116833
43 *515:54 *543:6 5.40337e-05
44 *515:67 *543:6 0.000159874
*RES
1 *1764:X *543:6 36.9614 
2 *543:6 *543:12 32.61 
3 *543:12 *543:20 39.9607 
4 *543:20 *543:30 35.9007 
5 *543:30 *1975:A 23 
*END

*D_NET *544 0.0151889
*CONN
*I *1976:A I *D sky130_fd_sc_hd__buf_2
*I *1765:X O *D sky130_fd_sc_hd__clkbuf_1
*CAP
1 *1976:A 7.90509e-05
2 *1765:X 0.000177853
3 *544:30 0.00302856
4 *544:10 0.00312736
5 *1976:A *551:24 9.7954e-05
6 *1976:A *587:92 5.3304e-05
7 *1976:A *592:34 1.59094e-05
8 *544:10 *547:26 0
9 *544:30 *549:26 0
10 *544:30 *568:48 0.000665673
11 *544:30 *572:64 0.000177234
12 *544:30 *587:115 0.000268572
13 *544:30 *603:14 2.37708e-05
14 *544:30 *628:76 0.000114862
15 *544:30 *643:24 0.000160507
16 *544:30 *667:18 0.000334099
17 *544:30 *668:30 0.000800858
18 *544:30 *671:20 0.0011815
19 *544:30 *680:26 0.000990187
20 *544:30 *683:26 0.000250125
21 *270:42 *544:30 0.00047525
22 *419:10 *544:10 2.26406e-05
23 *464:38 *544:30 2.5212e-05
24 *488:14 *544:30 0.000393692
25 *515:26 *544:10 0.000213256
26 *534:22 *544:30 0.00190577
27 *537:38 *544:30 0.000137305
28 *539:20 *544:30 0.000374248
29 *542:38 *1976:A 9.41618e-05
*RES
1 *1765:X *544:10 49.1382 
2 *544:10 *544:30 43.4949 
3 *544:30 *1976:A 47.9989 
*END

*D_NET *545 0.00625624
*CONN
*I *1977:A I *D sky130_fd_sc_hd__buf_2
*I *1766:X O *D sky130_fd_sc_hd__clkbuf_1
*CAP
1 *1977:A 0
2 *1766:X 5.55696e-05
3 *545:30 0.0013442
4 *545:8 0.00139977
5 *545:30 *1597:GATE 2.17486e-05
6 *545:30 *580:48 0.000135037
7 *545:30 *621:28 0.000260962
8 *545:30 *621:40 0.000573998
9 *545:30 *625:92 9.94357e-05
10 *545:30 *625:103 0.000127587
11 *545:30 *627:86 0.000225279
12 *545:30 *630:58 3.66496e-05
13 *545:30 *630:66 0.00026626
14 *545:30 *630:94 3.90662e-05
15 *545:30 *630:113 2.85839e-05
16 *545:30 *639:12 4.02637e-05
17 *1608:D *545:30 5.50049e-05
18 *1956:A *545:30 0.000182826
19 *281:10 *545:30 0.000215109
20 *294:10 *545:30 0.00010018
21 *461:12 *545:30 3.84903e-05
22 *482:24 *545:30 0.000603995
23 *492:10 *545:30 0.000135037
24 *532:18 *545:8 0.000108913
25 *535:26 *545:8 0.00010897
26 *538:52 *545:30 5.3304e-05
*RES
1 *1766:X *545:8 39.5536 
2 *545:8 *545:30 46.6721 
3 *545:30 *1977:A 23 
*END

*D_NET *546 0.00503632
*CONN
*I *1978:A I *D sky130_fd_sc_hd__buf_2
*I *1767:X O *D sky130_fd_sc_hd__clkbuf_1
*CAP
1 *1978:A 0
2 *1767:X 0.000304829
3 *546:12 0.000501691
4 *546:6 0.00080652
5 *546:12 *547:42 1.50886e-05
6 *546:12 *551:24 1.06354e-05
7 *546:12 *565:28 3.83031e-05
8 *546:12 *580:77 0.000202987
9 *546:12 *617:28 0.000549114
10 *546:12 *627:86 0.000175148
11 *313:8 *546:12 0.000180237
12 *519:12 *546:6 0.000614212
13 *519:20 *546:6 0.000159954
14 *532:6 *546:6 0.00108004
15 *542:38 *546:12 0.000397564
*RES
1 *1767:X *546:6 35.0557 
2 *546:6 *546:12 42.1179 
3 *546:12 *1978:A 23 
*END

*D_NET *547 0.0241891
*CONN
*I *1979:A I *D sky130_fd_sc_hd__buf_2
*I *1753:X O *D sky130_fd_sc_hd__buf_1
*CAP
1 *1979:A 3.5426e-05
2 *1753:X 0.00011508
3 *547:42 0.00218206
4 *547:26 0.00373169
5 *547:16 0.00274263
6 *547:8 0.00127264
7 *547:16 *1626:GATE 4.97831e-05
8 *547:16 *617:74 5.64492e-05
9 *547:16 *631:10 0.000109834
10 *547:16 *631:18 0.000267894
11 *547:16 *666:16 0.000343273
12 *547:16 *669:34 0.000561067
13 *547:16 *683:26 0.000545431
14 *547:26 *560:26 9.67261e-05
15 *547:26 *583:124 0
16 *547:26 *615:30 0.000127678
17 *547:26 *615:47 2.62931e-05
18 *547:26 *625:34 6.94806e-05
19 *547:26 *627:12 0.000190835
20 *547:26 *673:28 0.000636079
21 *547:26 *684:18 6.14962e-05
22 *547:42 *551:24 0.000215633
23 *547:42 *558:42 0.000618248
24 *547:42 *567:22 0.00105197
25 *547:42 *592:58 0.000411884
26 *547:42 *603:14 0.000474276
27 *547:42 *627:86 4.36547e-05
28 *547:42 *630:42 0.00161119
29 *547:42 *632:40 0.000341866
30 *547:42 *657:22 2.33927e-05
31 *547:42 *681:24 0.000638957
32 *1489:S1 *547:42 2.05503e-05
33 *1753:A *547:8 0.000137651
34 *1765:A *547:26 0
35 *137:14 *1979:A 2.4754e-05
36 *229:37 *547:42 0.000108674
37 *271:28 *547:42 4.77667e-05
38 *306:12 *547:26 0.000393262
39 *311:10 *547:16 0.00030605
40 *313:8 *547:42 0.000135159
41 *337:10 *547:16 5.49101e-05
42 *419:10 *547:26 3.41001e-05
43 *464:38 *547:42 0.00162839
44 *470:12 *547:42 7.31656e-05
45 *474:6 *547:16 0.000995812
46 *474:6 *547:26 1.56542e-05
47 *482:28 *1979:A 9.58714e-05
48 *489:22 *547:16 0.000477633
49 *489:28 *547:16 4.2517e-05
50 *491:22 *547:16 0.00023088
51 *491:22 *547:26 5.73309e-05
52 *515:26 *547:26 0
53 *515:54 *547:26 0.000102389
54 *515:67 *547:26 0.00029444
55 *519:12 *1979:A 0.000141677
56 *536:20 *547:42 3.78256e-05
57 *543:6 *547:26 6.46477e-05
58 *544:10 *547:26 0
59 *546:12 *547:42 1.50886e-05
*RES
1 *1753:X *547:8 39.5743 
2 *547:8 *547:16 46.1129 
3 *547:16 *547:26 44.0104 
4 *547:26 *547:42 44.4459 
5 *547:42 *1979:A 39.5743 
*END

*D_NET *548 0.0403454
*CONN
*I *1704:A I *D sky130_fd_sc_hd__clkbuf_1
*I *1645:D I *D sky130_fd_sc_hd__dlxtp_1
*I *1613:D I *D sky130_fd_sc_hd__dlxtp_1
*I *1833:X O *D sky130_fd_sc_hd__dlymetal6s2s_1
*CAP
1 *1704:A 0.000147864
2 *1645:D 0.000119993
3 *1613:D 0
4 *1833:X 0.000338661
5 *548:76 0.000420958
6 *548:68 0.0010609
7 *548:62 0.00418299
8 *548:46 0.00674347
9 *548:30 0.00403954
10 *548:16 0.00120566
11 *1645:D *588:105 1.60389e-05
12 *1645:D *631:170 5.3304e-05
13 *1645:D *632:106 1.59094e-05
14 *1645:D *680:26 0.000171483
15 *1645:D *685:16 0.000138727
16 *1704:A *688:14 5.15971e-05
17 *548:16 *614:16 5.90856e-07
18 *548:16 *614:34 4.69135e-05
19 *548:30 *614:34 0.000621233
20 *548:30 *634:12 5.3304e-05
21 *548:46 *1552:B 1.47563e-05
22 *548:46 *612:10 5.16001e-05
23 *548:46 *614:34 0.000274182
24 *548:46 *617:8 0.000245575
25 *548:46 *619:26 0
26 *548:46 *620:10 2.33476e-05
27 *548:46 *624:67 0.000138708
28 *548:62 *1622:GATE 1.88129e-05
29 *548:62 *568:22 7.19883e-05
30 *548:62 *578:16 0
31 *548:62 *579:52 0.000128492
32 *548:62 *580:26 0
33 *548:62 *584:58 0
34 *548:62 *586:45 2.24814e-05
35 *548:62 *613:22 0.000137836
36 *548:62 *614:34 0.00313234
37 *548:62 *620:30 0.00100072
38 *548:62 *628:39 0.00146454
39 *548:68 *588:105 0
40 *548:68 *684:32 5.53016e-05
41 *548:68 *688:14 8.60326e-05
42 *548:76 *586:93 2.94414e-05
43 *548:76 *588:105 3.9307e-05
44 *548:76 *626:43 6.70361e-05
45 HOLD_top *548:62 0.000439808
46 VALUE_top0 *548:46 0.000200525
47 VALUE_top11 *548:46 1.56261e-05
48 *1515:A1 *1645:D 5.79413e-06
49 *1515:A1 *548:76 3.9307e-05
50 *1790:A *548:62 1.95431e-05
51 *1826:A *548:30 7.76035e-05
52 *1829:A *548:30 7.76035e-05
53 *1831:A *548:16 0.000103854
54 *1833:A *548:16 7.76035e-05
55 *1844:A *548:46 1.2472e-05
56 *1868:A *548:30 7.76035e-05
57 *1:11 *548:46 0
58 *3:15 *548:46 0
59 *14:11 *548:46 0
60 *18:13 *548:16 0.000153683
61 *25:11 *548:46 0.000281789
62 *30:13 *548:46 7.74297e-05
63 *33:13 *548:46 4.7382e-05
64 *34:13 *548:30 8.27951e-05
65 *232:34 *548:62 0
66 *275:16 *548:68 0.00063994
67 *319:10 *1704:A 7.42552e-05
68 *319:10 *548:68 0.000135557
69 *350:10 *548:62 0.000130733
70 *461:26 *548:46 0.00268272
71 *464:54 *548:62 0.000630106
72 *474:12 *1704:A 0.000259461
73 *474:12 *548:68 0.000277032
74 *493:41 *548:62 0.000102772
75 *517:18 *548:62 0.000187429
76 *518:20 *548:46 0.00443318
77 *526:32 *548:46 0
78 *526:34 *548:46 0.000110155
79 *531:10 *548:68 0.000126882
80 *535:14 *548:62 0.00233308
*RES
1 *1833:X *548:16 45.5711 
2 *548:16 *548:30 48.1146 
3 *548:30 *548:46 48.4575 
4 *548:46 *548:62 43.4302 
5 *548:62 *548:68 14.4689 
6 *548:68 *548:76 34.205 
7 *548:76 *1613:D 38 
8 *548:76 *1645:D 41.2314 
9 *548:68 *1704:A 41.6664 
*END

*D_NET *549 0.00873928
*CONN
*I *1980:A I *D sky130_fd_sc_hd__buf_2
*I *1754:X O *D sky130_fd_sc_hd__clkbuf_1
*CAP
1 *1980:A 0.000149653
2 *1754:X 0.000339546
3 *549:34 0.000629564
4 *549:26 0.00150152
5 *549:10 0.00136116
6 *1980:A *551:36 4.79544e-05
7 *1980:A *553:36 9.77405e-05
8 *549:10 *559:48 0.000240974
9 *549:26 *568:48 2.03036e-06
10 *549:26 *580:77 5.62433e-06
11 *549:34 *551:36 0.000905353
12 *549:34 *580:89 0.000175148
13 N4BEG[12] *549:10 2.47015e-05
14 N4BEG[6] *549:26 3.33082e-05
15 N4BEG[6] *549:34 0.00106597
16 N4BEG[7] *549:26 4.60157e-05
17 N4BEG[8] *549:34 0.000105913
18 *133:12 *549:10 2.05503e-05
19 *136:12 *1980:A 0.000399183
20 *138:10 *1980:A 3.53115e-05
21 *142:10 *549:34 0.000176117
22 *464:38 *549:26 5.31675e-05
23 *488:24 *549:26 0
24 *520:40 *549:26 0.000672732
25 *527:34 *549:26 0.000554669
26 *536:20 *549:26 4.67233e-05
27 *540:30 *549:26 4.86495e-05
28 *544:30 *549:26 0
*RES
1 *1754:X *549:10 42.2775 
2 *549:10 *549:26 35.6524 
3 *549:26 *549:34 45.1421 
4 *549:34 *1980:A 42.93 
*END

*D_NET *550 0.0248172
*CONN
*I *1981:A I *D sky130_fd_sc_hd__buf_2
*I *1755:X O *D sky130_fd_sc_hd__buf_1
*CAP
1 *1981:A 0
2 *1755:X 8.62682e-05
3 *550:38 0.000988967
4 *550:26 0.00254059
5 *550:14 0.00332735
6 *550:12 0.00216473
7 *550:8 0.000475269
8 *550:8 *689:20 0.000140935
9 *550:12 *628:150 6.0174e-05
10 *550:26 *558:42 0.00185419
11 *550:26 *617:53 3.04182e-05
12 *550:26 *625:34 0.000233883
13 *550:26 *625:63 0.000384116
14 *550:26 *628:76 2.48388e-05
15 *550:26 *645:10 0.000395709
16 *550:26 *657:22 0.000728429
17 *550:26 *678:26 3.46451e-05
18 *550:26 *682:22 0.00103809
19 *550:38 *554:16 7.13317e-05
20 *550:38 *567:22 5.90536e-05
21 *550:38 *603:14 0.00191343
22 *550:38 *625:63 0.000339273
23 *550:38 *625:88 2.74082e-05
24 *550:38 *630:42 7.38689e-05
25 FrameStrobe_O[3] *550:14 0
26 FrameStrobe_O[8] *550:12 0.00057977
27 FrameStrobe_O[9] *550:12 0.000379794
28 *88:12 *550:12 1.89075e-05
29 *169:13 *550:26 6.02684e-06
30 *170:11 *550:26 0.000356036
31 *171:13 *550:14 1.47112e-05
32 *171:13 *550:26 0.000136338
33 *181:13 *550:14 0.000105362
34 *182:13 *550:14 0.000566554
35 *183:13 *550:14 2.98648e-05
36 *186:13 *550:14 0.000177291
37 *192:13 *550:14 0.000119682
38 *195:13 *550:14 9.97475e-05
39 *197:13 *550:14 5.42593e-05
40 *199:13 *550:14 0.000133526
41 *204:17 *550:14 1.36806e-05
42 *205:15 *550:14 0.000551542
43 *470:12 *550:38 0.00128268
44 *482:28 *550:38 0.000262858
45 *504:34 *550:14 0
46 *504:40 *550:14 0
47 *507:10 *550:12 0
48 *509:34 *550:12 0.000452055
49 *510:26 *550:12 1.83561e-05
50 *512:18 *550:12 0.000135557
51 *515:22 *550:14 1.85916e-05
52 *515:26 *550:26 0.000143709
53 *519:12 *550:38 0.000264564
54 *527:14 *550:14 4.05745e-05
55 *529:16 *550:14 0.00186213
*RES
1 *1755:X *550:8 39.5743 
2 *550:8 *550:12 27.1179 
3 *550:12 *550:14 42.0707 
4 *550:14 *550:26 47.9562 
5 *550:26 *550:38 38.8201 
6 *550:38 *1981:A 23 
*END

*D_NET *551 0.024269
*CONN
*I *1982:A I *D sky130_fd_sc_hd__buf_2
*I *1756:X O *D sky130_fd_sc_hd__buf_1
*CAP
1 *1982:A 0
2 *1756:X 0.000497353
3 *551:36 0.000499845
4 *551:24 0.0019776
5 *551:20 0.00237437
6 *551:14 0.00180248
7 *551:12 0.00132073
8 *551:8 0.000912218
9 *551:8 *635:12 0.000710837
10 *551:12 *555:12 0
11 *551:12 *613:32 0
12 *551:14 *570:12 0.00110269
13 *551:20 *555:24 0.000914149
14 *551:20 *577:18 4.67137e-05
15 *551:20 *584:52 0.000108681
16 *551:20 *608:24 0.000142917
17 *551:20 *617:20 0.000118717
18 *551:24 *1593:GATE 0.000374892
19 *551:24 *578:99 6.69637e-06
20 *551:24 *587:73 0.000153212
21 *551:24 *617:28 0
22 *551:24 *627:34 0
23 *551:24 *627:55 7.31442e-05
24 *551:24 *627:86 5.63449e-05
25 *551:24 *659:40 0.000360134
26 *551:36 *553:36 5.56356e-05
27 *551:36 *580:89 0.000164988
28 N2BEGb[1] *551:36 1.59094e-05
29 N2BEGb[2] *551:36 6.58415e-06
30 N4BEG[1] *551:24 3.44366e-05
31 N4BEG[3] *551:24 4.79458e-06
32 N4BEG[6] *551:36 4.05745e-05
33 N4BEG[8] *551:36 0.000864487
34 *1499:A *551:24 0
35 *1669:CLK *551:20 6.01073e-05
36 *1669:CLK *551:24 9.86551e-06
37 *1807:A *551:24 5.48652e-05
38 *1976:A *551:24 9.7954e-05
39 *1980:A *551:36 4.79544e-05
40 *79:13 *551:12 0
41 *138:10 *551:36 7.98824e-05
42 *140:8 *551:36 7.89883e-05
43 *231:8 *551:20 5.55466e-05
44 *245:25 *551:24 0.000271814
45 *248:16 *551:14 0.0012201
46 *313:8 *551:24 6.63624e-05
47 *314:10 *551:24 8.82268e-05
48 *446:8 *551:24 0.000712298
49 *459:22 *551:14 0.000223698
50 *461:32 *551:12 7.06299e-05
51 *462:32 *551:14 1.72202e-05
52 *462:40 *551:14 0.00143577
53 *463:28 *551:14 0.000306971
54 *471:30 *551:14 0.00216685
55 *472:12 *551:14 0.000885383
56 *482:24 *551:24 0.000107218
57 *494:26 *551:20 0.000133704
58 *494:26 *551:24 7.28722e-06
59 *518:20 *551:12 0
60 *542:38 *551:24 0.000197529
61 *546:12 *551:24 1.06354e-05
62 *547:42 *551:24 0.000215633
63 *549:34 *551:36 0.000905353
*RES
1 *1756:X *551:8 45.7679 
2 *551:8 *551:12 20.7793 
3 *551:12 *551:14 49.6936 
4 *551:14 *551:20 33.1975 
5 *551:20 *551:24 46.3096 
6 *551:24 *551:36 45.4321 
7 *551:36 *1982:A 23 
*END

*D_NET *552 0.0267102
*CONN
*I *1983:A I *D sky130_fd_sc_hd__buf_2
*I *1757:X O *D sky130_fd_sc_hd__buf_1
*CAP
1 *1983:A 0
2 *1757:X 5.03733e-05
3 *552:74 0.000587766
4 *552:60 0.00295975
5 *552:34 0.00259871
6 *552:24 0.00288585
7 *552:10 0.0027095
8 *552:10 *579:107 4.9808e-05
9 *552:24 *553:24 0.00156509
10 *552:24 *577:44 0.00014678
11 *552:24 *584:90 1.86684e-05
12 *552:24 *612:20 0.000533451
13 *552:24 *614:89 0.000100139
14 *552:24 *619:42 0.000755374
15 *552:24 *636:14 0.000805646
16 *552:24 *636:35 0.000124564
17 *552:24 *674:28 5.43386e-05
18 *552:34 *631:69 7.43845e-05
19 *552:60 *555:42 0.000200192
20 *552:60 *588:83 0.00249465
21 *552:60 *589:10 4.30894e-05
22 *552:60 *589:18 3.04439e-05
23 *552:60 *602:10 0.00015962
24 *552:60 *628:51 0.000124902
25 *552:74 *1684:A 2.93104e-06
26 *552:74 *555:42 0.000656092
27 *552:74 *592:22 0.000109664
28 *552:74 *616:43 0.000110428
29 *552:74 *625:134 3.14237e-05
30 *552:74 *658:26 0.000109377
31 *1578:A *552:34 2.17159e-05
32 *1663:CLK *552:60 6.59709e-05
33 *1678:CLK *552:60 0.000164029
34 *1678:D *552:60 9.2467e-06
35 *125:16 *552:74 1.31343e-05
36 *232:20 *552:24 6.53382e-05
37 *232:111 *552:34 5.95172e-05
38 *236:18 *552:60 0.000253794
39 *246:37 *552:34 6.17791e-05
40 *250:8 *552:60 7.02639e-05
41 *282:10 *552:60 6.997e-05
42 *393:29 *552:60 0.000141339
43 *406:10 *552:60 2.00313e-05
44 *407:16 *552:24 0.000434422
45 *415:44 *552:60 1.22779e-05
46 *423:28 *552:60 5.58713e-05
47 *424:10 *552:60 8.50742e-06
48 *449:55 *552:24 0.000123587
49 *451:8 *552:34 4.57742e-05
50 *457:8 *552:24 0.000395251
51 *457:59 *552:24 5.3304e-05
52 *471:20 *552:34 7.6472e-05
53 *487:18 *552:24 0.00106195
54 *492:22 *552:24 0
55 *521:32 *552:60 0.000153535
56 *521:32 *552:74 0.000516944
57 *526:44 *552:10 0
58 *528:22 *552:24 0.000121076
59 *535:14 *552:60 0.00252305
60 *538:52 *552:60 1.90614e-05
*RES
1 *1757:X *552:10 46.6732 
2 *552:10 *552:24 40.2933 
3 *552:24 *552:34 49.8886 
4 *552:34 *552:60 45.88 
5 *552:60 *552:74 29.2204 
6 *552:74 *1983:A 23 
*END

*D_NET *553 0.0219655
*CONN
*I *1984:A I *D sky130_fd_sc_hd__buf_2
*I *1758:X O *D sky130_fd_sc_hd__buf_1
*CAP
1 *1984:A 0
2 *1758:X 3.26685e-05
3 *553:36 0.00137085
4 *553:24 0.00459627
5 *553:10 0.00325809
6 *553:10 *613:32 2.2154e-05
7 *553:24 *583:12 0.000201181
8 *553:24 *590:58 0.00112326
9 *553:24 *612:20 0.000965992
10 *553:24 *615:18 0.000587285
11 *553:24 *619:26 0.00184349
12 *553:24 *619:42 0.00143775
13 *553:24 *622:32 1.17e-05
14 *553:24 *623:130 6.56284e-05
15 *553:24 *624:140 0.000180778
16 *553:24 *627:30 6.94148e-05
17 *553:24 *659:32 0.000459566
18 *553:24 *662:20 0.00153657
19 *553:24 *673:26 0.000243661
20 *553:36 *1629:D 1.65946e-06
21 *553:36 *555:42 0
22 *553:36 *557:8 0.000210174
23 *553:36 *559:30 4.82477e-05
24 *553:36 *580:89 3.04247e-05
25 *553:36 *588:41 0.000259285
26 *553:36 *592:22 9.23705e-06
27 *553:36 *616:22 0.000190875
28 *553:36 *621:22 0.000155635
29 *553:36 *621:40 1.44086e-05
30 *553:36 *630:113 2.11631e-05
31 *553:36 *634:22 0.000562123
32 *1980:A *553:36 9.77405e-05
33 *281:10 *553:36 1.76335e-05
34 *321:8 *553:36 0.000131275
35 *344:10 *553:36 0.000103425
36 *376:12 *553:24 0.000267157
37 *403:22 *553:24 0.000190042
38 *532:18 *553:36 2.79962e-05
39 *534:38 *553:36 0
40 *551:36 *553:36 5.56356e-05
41 *552:24 *553:24 0.00156509
*RES
1 *1758:X *553:10 46.6732 
2 *553:10 *553:24 43.1702 
3 *553:24 *553:36 47.8468 
4 *553:36 *1984:A 23 
*END

*D_NET *554 0.00800534
*CONN
*I *1985:A I *D sky130_fd_sc_hd__buf_2
*I *1759:X O *D sky130_fd_sc_hd__clkbuf_1
*CAP
1 *1985:A 0
2 *1759:X 0.0005004
3 *554:16 0.00142373
4 *554:12 0.00192413
5 *554:12 *1544:A1 1.5769e-05
6 *554:12 *578:8 5.03223e-05
7 *554:12 *578:119 0.000265521
8 *554:12 *579:52 1.93007e-05
9 *554:12 *623:130 0.000308039
10 *554:16 *566:18 0
11 *554:16 *590:58 0.00128191
12 *554:16 *590:75 5.42005e-05
13 *554:16 *617:28 0.000134202
14 *554:16 *625:88 4.14659e-05
15 *1537:B *554:16 0.000473984
16 *1544:A2 *554:12 0.000152886
17 *437:18 *554:12 5.50106e-05
18 *459:26 *554:16 0.0010544
19 *460:20 *554:16 0.000178732
20 *550:38 *554:16 7.13317e-05
*RES
1 *1759:X *554:12 48.3157 
2 *554:12 *554:16 45.4293 
3 *554:16 *1985:A 23 
*END

*D_NET *555 0.0193922
*CONN
*I *1986:A I *D sky130_fd_sc_hd__buf_2
*I *1760:X O *D sky130_fd_sc_hd__buf_1
*CAP
1 *1986:A 0
2 *1760:X 0.00021019
3 *555:42 0.00172746
4 *555:32 0.00230693
5 *555:24 0.00392682
6 *555:12 0.00355754
7 *555:12 *613:32 6.09632e-05
8 *555:12 *635:12 0.000185434
9 *555:24 *615:18 0.000685888
10 *555:24 *619:42 0.000923354
11 *555:24 *622:40 4.75206e-05
12 *555:32 *622:40 5.52985e-05
13 *555:42 *581:53 0
14 *555:42 *589:10 3.76475e-05
15 *555:42 *589:18 7.17297e-05
16 *555:42 *621:40 2.23143e-05
17 *555:42 *634:22 0
18 *555:42 *658:26 0.000192865
19 N4BEG[2] *555:42 3.76959e-05
20 *1570:C1 *555:24 2.64616e-05
21 *1669:D *555:32 0.000180441
22 *129:16 *555:42 1.75562e-05
23 *136:12 *555:42 5.55713e-06
24 *139:12 *555:42 2.32298e-05
25 *142:10 *555:42 1.75562e-05
26 *236:18 *555:32 5.41385e-05
27 *236:18 *555:42 0.000109064
28 *247:67 *555:24 0.000849508
29 *282:10 *555:42 0.000159788
30 *344:10 *555:42 0
31 *488:14 *555:42 2.24608e-05
32 *492:22 *555:24 0.000846945
33 *493:24 *555:24 0.000341901
34 *494:26 *555:24 0.000917556
35 *532:18 *555:42 0
36 *551:12 *555:12 0
37 *551:20 *555:24 0.000914149
38 *552:60 *555:42 0.000200192
39 *552:74 *555:42 0.000656092
40 *553:36 *555:42 0
*RES
1 *1760:X *555:12 49.7804 
2 *555:12 *555:24 47.3691 
3 *555:24 *555:32 23.8864 
4 *555:32 *555:42 44.9321 
5 *555:42 *1986:A 23 
*END

*D_NET *556 0.0154908
*CONN
*I *1987:A I *D sky130_fd_sc_hd__buf_2
*I *1761:X O *D sky130_fd_sc_hd__buf_1
*CAP
1 *1987:A 0
2 *1761:X 3.73808e-05
3 *556:28 0.00326184
4 *556:10 0.00329922
5 *556:10 *615:30 1.22851e-05
6 *556:10 *684:18 1.05441e-05
7 *556:28 *1568:A1 5.23737e-05
8 *556:28 *568:48 0.000111911
9 *556:28 *572:34 0.00103898
10 *556:28 *574:42 0.000229318
11 *556:28 *581:16 0.000675569
12 *556:28 *627:34 0.000250092
13 *556:28 *627:44 2.02946e-05
14 *556:28 *627:55 4.24694e-06
15 *556:28 *654:34 0.00152282
16 *556:28 *662:20 0.000111451
17 N2BEGb[6] *556:28 0
18 *1568:A2 *556:28 0
19 *1678:D *556:28 0
20 *1807:A *556:28 1.09921e-05
21 *127:10 *556:28 0.000458333
22 *135:10 *556:28 2.99134e-05
23 *277:10 *556:28 0.000136027
24 *387:8 *556:28 0.000112604
25 *458:61 *556:28 0.000160506
26 *459:36 *556:28 6.7582e-05
27 *464:38 *556:28 7.27684e-05
28 *471:16 *556:28 0.00228118
29 *487:18 *556:10 3.87221e-06
30 *494:10 *556:28 0.000371075
31 *531:46 *556:28 0.000726127
32 *536:20 *556:28 0.000333662
33 *538:42 *556:28 4.47198e-05
34 *538:52 *556:28 0
35 *539:20 *556:28 4.30894e-05
*RES
1 *1761:X *556:10 46.6732 
2 *556:10 *556:28 40.8383 
3 *556:28 *1987:A 38 
*END

*D_NET *557 0.00621669
*CONN
*I *1988:A I *D sky130_fd_sc_hd__buf_2
*I *1768:X O *D sky130_fd_sc_hd__clkbuf_1
*CAP
1 *1988:A 0
2 *1768:X 0.000106844
3 *557:18 0.000298557
4 *557:12 0.00215729
5 *557:8 0.00196558
6 *557:8 *1630:GATE 5.88461e-05
7 *557:8 *616:22 0.000133889
8 *557:8 *630:113 1.01436e-05
9 *557:12 *1479:A0 5.88607e-06
10 *557:12 *1479:A2 8.6123e-05
11 *557:12 *1479:A3 5.12254e-05
12 *557:12 *1598:D 8.92013e-05
13 *557:12 *1630:GATE 6.17437e-06
14 *557:12 *585:75 1.36806e-05
15 *557:12 *585:106 0.000120867
16 *557:12 *627:44 2.13733e-05
17 *557:12 *634:26 1.59094e-05
18 *557:12 *634:33 0.000183765
19 *557:12 *638:14 9.84851e-05
20 *557:18 *567:22 2.26497e-05
21 *557:18 *573:22 0
22 *557:18 *592:58 2.47015e-05
23 *557:18 *638:14 0.000119408
24 *1479:S0 *557:12 0.000353097
25 *318:8 *557:18 6.28155e-05
26 *553:36 *557:8 0.000210174
*RES
1 *1768:X *557:8 40.9621 
2 *557:8 *557:12 39.9193 
3 *557:12 *557:18 34.7229 
4 *557:18 *1988:A 23 
*END

*D_NET *558 0.0213875
*CONN
*I *1989:A I *D sky130_fd_sc_hd__buf_2
*I *1778:X O *D sky130_fd_sc_hd__buf_1
*CAP
1 *1989:A 0.00020607
2 *1778:X 1.22666e-05
3 *558:42 0.00197199
4 *558:28 0.00517702
5 *558:10 0.00342337
6 *1989:A *1991:A 0.000234616
7 *1989:A *655:28 0.000173044
8 *558:10 *625:222 9.86551e-06
9 *558:28 *1801:A 0.000135037
10 *558:28 *603:14 5.79083e-05
11 *558:28 *603:31 2.20686e-05
12 *558:28 *625:32 0.00032037
13 *558:28 *630:14 5.56356e-05
14 *558:28 *643:24 0.000352526
15 *558:28 *677:30 0.000128081
16 *558:28 *680:26 0.00018058
17 *558:28 *683:26 0.00108879
18 *558:28 *692:26 4.75788e-05
19 *558:42 *1492:A1 0
20 *558:42 *561:30 0
21 *558:42 *564:10 3.4673e-05
22 *558:42 *630:14 0
23 *558:42 *630:42 0.000651175
24 *558:42 *649:8 0.000199896
25 *558:42 *657:22 6.41106e-05
26 *558:42 *658:12 5.43589e-05
27 *558:42 *681:24 5.25433e-05
28 *558:42 *682:22 0.000296021
29 NN4BEG[12] *1989:A 0.000271435
30 *1467:S *558:28 9.96184e-06
31 *163:19 *558:42 0.000534892
32 *229:93 *558:28 0.000108721
33 *229:101 *558:28 0.000547643
34 *229:131 *558:28 0.00121134
35 *272:10 *558:42 6.92184e-05
36 *466:38 *558:28 0
37 *468:18 *558:28 0
38 *485:18 *558:28 0
39 *527:12 *558:10 2.26497e-05
40 *533:22 *558:28 1.36509e-05
41 *533:38 *558:42 0.00106315
42 *537:48 *558:42 4.21498e-05
43 *538:18 *558:28 7.06939e-05
44 *547:42 *558:42 0.000618248
45 *550:26 *558:42 0.00185419
*RES
1 *1778:X *558:10 46.3211 
2 *558:10 *558:28 40.2101 
3 *558:28 *558:42 47.8641 
4 *558:42 *1989:A 44.8098 
*END

*D_NET *559 0.0174599
*CONN
*I *1614:D I *D sky130_fd_sc_hd__dlxtp_1
*I *1705:A I *D sky130_fd_sc_hd__buf_1
*I *1646:D I *D sky130_fd_sc_hd__dlxtp_1
*I *1834:X O *D sky130_fd_sc_hd__buf_1
*CAP
1 *1614:D 0
2 *1705:A 0
3 *1646:D 0
4 *1834:X 0.000544265
5 *559:76 0.000295912
6 *559:61 0.000167713
7 *559:48 0.00198714
8 *559:30 0.00300775
9 *559:12 0.0020285
10 *559:12 *1600:D 5.56279e-05
11 *559:12 *1632:GATE 1.13589e-05
12 *559:12 *571:8 0.00022466
13 *559:12 *625:154 3.91102e-05
14 *559:12 *625:160 3.42479e-05
15 *559:12 *629:45 9.5877e-05
16 *559:30 *592:22 0.00155978
17 *559:30 *603:14 0
18 *559:30 *616:43 0.000136738
19 *559:30 *616:72 0.000362969
20 *559:30 *625:134 0.000314139
21 *559:30 *630:86 5.06619e-05
22 *559:30 *657:22 0.00169623
23 *559:30 *658:26 0.000140927
24 *559:30 *682:66 6.18419e-05
25 *559:48 *567:22 7.81955e-05
26 *559:48 *569:30 0.000227154
27 *559:48 *617:40 0.000225562
28 *559:48 *627:86 2.93335e-05
29 *559:48 *630:86 5.47597e-05
30 *559:61 *561:30 9.5877e-05
31 *559:61 *562:10 4.32384e-05
32 *559:61 *582:30 6.77278e-05
33 *559:76 *1614:GATE 5.67058e-05
34 *559:76 *560:32 0.000225587
35 *559:76 *657:8 4.36457e-05
36 *559:76 *682:22 0.000136738
37 *559:76 *686:28 1.94812e-05
38 *1640:D *559:48 0.000306344
39 *1754:A *559:48 0.000395597
40 *21:13 *559:12 5.56356e-05
41 *130:8 *559:48 0.000432225
42 *155:10 *559:48 0.00021677
43 *174:13 *559:76 0
44 *176:11 *559:48 0.000257103
45 *176:11 *559:76 0.00030373
46 *229:37 *559:61 0.00017127
47 *272:10 *559:48 2.18286e-05
48 *277:10 *559:30 4.13457e-05
49 *310:10 *559:48 0.000266896
50 *322:10 *559:12 2.26406e-05
51 *518:26 *559:12 5.02657e-05
52 *520:40 *559:30 0
53 *536:8 *559:61 9.5877e-05
54 *537:52 *559:48 0.000243241
55 *537:60 *559:48 1.09903e-05
56 *537:75 *559:48 8.45868e-05
57 *537:75 *559:76 7.48436e-05
58 *549:10 *559:48 0.000240974
59 *553:36 *559:30 4.82477e-05
*RES
1 *1834:X *559:12 48.3675 
2 *559:12 *559:30 47.2821 
3 *559:30 *559:48 32.8321 
4 *559:48 *1646:D 23 
5 *559:48 *559:61 33.7079 
6 *559:61 *1705:A 23 
7 *559:48 *559:76 37.4157 
8 *559:76 *1614:D 23 
*END

*D_NET *560 0.0144149
*CONN
*I *1990:A I *D sky130_fd_sc_hd__buf_2
*I *1779:X O *D sky130_fd_sc_hd__buf_1
*CAP
1 *1990:A 0
2 *1779:X 0.000567643
3 *560:32 0.000928844
4 *560:26 0.00260961
5 *560:20 0.00216554
6 *560:14 0.00105242
7 *560:14 *581:136 0.000469527
8 *560:14 *588:93 2.77941e-05
9 *560:14 *661:12 0
10 *560:20 *1680:A 5.50049e-05
11 *560:20 *574:22 0.00109166
12 *560:20 *628:8 0.00155575
13 *560:20 *631:34 4.27828e-05
14 *560:20 *631:38 0.000228158
15 *560:26 *1799:A 0
16 *560:26 *615:30 0.000228311
17 *560:26 *620:30 2.37295e-05
18 *560:26 *620:40 0.000177654
19 *560:26 *631:61 9.38911e-05
20 *560:26 *638:30 0.000947139
21 *560:26 *652:20 5.28712e-05
22 *560:26 *673:28 0.000187801
23 *560:32 *632:40 9.82846e-06
24 *560:32 *655:8 8.27131e-05
25 *560:32 *657:8 5.88848e-05
26 *560:32 *682:34 1.25898e-05
27 *560:32 *692:38 5.62433e-06
28 *1779:A *560:14 5.67058e-05
29 *67:15 *560:14 8.80603e-05
30 *177:13 *560:32 0.000226625
31 *229:37 *560:32 0
32 *229:71 *560:32 9.17884e-05
33 *271:28 *560:32 0.000297826
34 *419:24 *560:32 0.000442045
35 *421:10 *560:32 0
36 *464:38 *560:26 0.000159572
37 *478:12 *560:32 5.42272e-05
38 *491:22 *560:14 0
39 *547:26 *560:26 9.67261e-05
40 *559:76 *560:32 0.000225587
*RES
1 *1779:X *560:14 47.9221 
2 *560:14 *560:20 49.2021 
3 *560:20 *560:26 43.0264 
4 *560:26 *560:32 46.3436 
5 *560:32 *1990:A 23 
*END

*D_NET *561 0.0185294
*CONN
*I *1991:A I *D sky130_fd_sc_hd__buf_2
*I *1780:X O *D sky130_fd_sc_hd__buf_1
*CAP
1 *1991:A 0.000163948
2 *1780:X 0.00015897
3 *561:30 0.000660058
4 *561:22 0.00364689
5 *561:12 0.00330975
6 *1991:A *655:28 0.000321674
7 *1991:A *658:8 0.000140259
8 *1991:A *664:22 5.41288e-05
9 *561:12 *645:34 1.73738e-05
10 *561:12 *652:36 9.67842e-05
11 *561:12 *652:54 8.48502e-06
12 *561:22 *1463:A1 0
13 *561:22 *583:110 8.20563e-05
14 *561:22 *626:10 5.44704e-05
15 *561:22 *626:86 6.82206e-05
16 *561:22 *642:8 0.000413496
17 *561:22 *650:8 2.97116e-05
18 *561:22 *654:34 1.7975e-05
19 *561:22 *659:32 0.000931202
20 *561:22 *662:20 0.00265911
21 *561:22 *681:24 0.000176237
22 *561:30 *1992:A 0.000100061
23 *561:30 *564:10 7.38547e-05
24 *561:30 *587:145 0.00106023
25 *561:30 *658:12 5.99567e-06
26 *1703:A *561:30 5.3304e-05
27 *1749:A *561:30 5.3304e-05
28 *1780:A *561:12 6.17437e-06
29 *1989:A *1991:A 0.000234616
30 *173:17 *561:22 7.70383e-05
31 *178:9 *561:30 9.67842e-05
32 *229:85 *561:22 0.000153756
33 *269:14 *561:22 0.000340054
34 *273:14 *561:22 6.77129e-05
35 *273:24 *561:22 0.000649029
36 *304:10 *561:30 0.000145895
37 *411:8 *561:12 5.58975e-06
38 *468:18 *561:22 0.00148457
39 *475:16 *561:12 0
40 *515:48 *561:22 0.000147628
41 *536:8 *561:30 0.000368005
42 *538:18 *561:22 0.00029907
43 *558:42 *561:30 0
44 *559:61 *561:30 9.5877e-05
*RES
1 *1780:X *561:12 48.2475 
2 *561:12 *561:22 35.6945 
3 *561:22 *561:30 45.1421 
4 *561:30 *1991:A 43.4064 
*END

*D_NET *562 0.00173293
*CONN
*I *1992:A I *D sky130_fd_sc_hd__buf_2
*I *1781:X O *D sky130_fd_sc_hd__clkbuf_1
*CAP
1 *1992:A 2.16905e-05
2 *1781:X 0.000548039
3 *562:10 0.000569729
4 *562:10 *1644:GATE 2.93985e-05
5 *562:10 *1646:GATE 4.51797e-05
6 *562:10 *582:30 6.77694e-05
7 *562:10 *587:131 5.56279e-05
8 *562:10 *587:145 0
9 *562:10 *654:14 7.68979e-05
10 *562:10 *686:32 3.41998e-06
11 *229:37 *562:10 2.61501e-05
12 *419:24 *562:10 3.15373e-05
13 *536:8 *1992:A 0.000100061
14 *537:60 *562:10 1.41324e-05
15 *559:61 *562:10 4.32384e-05
16 *561:30 *1992:A 0.000100061
*RES
1 *1781:X *562:10 45.7264 
2 *562:10 *1992:A 39.0979 
*END

*D_NET *563 0.0129874
*CONN
*I *1993:A I *D sky130_fd_sc_hd__buf_2
*I *1782:X O *D sky130_fd_sc_hd__buf_1
*CAP
1 *1993:A 0.000265861
2 *1782:X 0.00101916
3 *563:36 0.00129668
4 *563:30 0.00151729
5 *563:14 0.000927558
6 *563:6 0.00146025
7 *1993:A *658:8 0.000437769
8 *1993:A *664:22 0.000249997
9 *563:6 *1686:A 8.56254e-05
10 *563:6 *586:93 0.000308946
11 *563:6 *626:43 6.27443e-05
12 *563:6 *638:30 0.000556764
13 *563:14 *1596:D 7.08904e-06
14 *563:14 *1628:D 0
15 *563:14 *590:118 5.81171e-05
16 *563:14 *638:30 2.30886e-05
17 *563:14 *676:16 0.000129465
18 *563:30 *1595:GATE 2.3313e-05
19 *563:30 *1628:D 3.68424e-05
20 *563:30 *627:124 6.10809e-05
21 *563:30 *668:16 8.10439e-05
22 *563:30 *668:30 0.00025474
23 *563:30 *672:14 0.000235636
24 *563:30 *692:30 0.000181331
25 *563:36 *626:86 0.000419253
26 *563:36 *642:8 7.40737e-05
27 *563:36 *648:28 0.000364826
28 *563:36 *650:16 0.000308039
29 *563:36 *656:20 0.000725556
30 *563:36 *664:22 0.000105947
31 *563:36 *668:30 2.44913e-05
32 *563:36 *692:30 0.00113365
33 *173:11 *1993:A 5.61255e-06
34 *176:11 *563:36 4.32486e-05
35 *178:9 *563:36 7.0699e-05
36 *180:15 *1993:A 2.34279e-05
37 *270:8 *563:30 0.000112538
38 *279:16 *563:14 0.000109762
39 *280:10 *563:30 3.78859e-05
40 *332:20 *563:30 0.000114604
41 *332:20 *563:36 3.3344e-05
*RES
1 *1782:X *563:6 36.9614 
2 *563:6 *563:14 36.3386 
3 *563:14 *563:30 41.5275 
4 *563:30 *563:36 41.6489 
5 *563:36 *1993:A 45.0014 
*END

*D_NET *564 0.00222752
*CONN
*I *1994:A I *D sky130_fd_sc_hd__buf_2
*I *1783:X O *D sky130_fd_sc_hd__clkbuf_1
*CAP
1 *1994:A 0
2 *1783:X 0.000376827
3 *564:20 0.000241303
4 *564:10 0.00061813
5 *564:10 *587:131 0.000100069
6 *564:10 *587:145 0.000139065
7 *564:20 *625:63 0.000196141
8 *564:20 *667:18 0.000196141
9 *148:8 *564:20 2.92728e-05
10 *272:10 *564:10 3.33763e-05
11 *304:10 *564:20 4.30882e-05
12 *533:38 *564:10 3.7294e-05
13 *537:48 *564:10 0.000108283
14 *558:42 *564:10 3.4673e-05
15 *561:30 *564:10 7.38547e-05
*RES
1 *1783:X *564:10 45.0532 
2 *564:10 *564:20 33.4813 
3 *564:20 *1994:A 23 
*END

*D_NET *565 0.00864911
*CONN
*I *1995:A I *D sky130_fd_sc_hd__buf_2
*I *1769:X O *D sky130_fd_sc_hd__clkbuf_1
*CAP
1 *1995:A 0
2 *1769:X 0.000802645
3 *565:28 0.00124717
4 *565:12 0.00204982
5 *565:12 *567:22 0.000259006
6 *565:12 *587:46 3.16908e-05
7 *565:12 *657:22 0.000720412
8 *565:28 *580:77 0.000200755
9 *565:28 *587:92 9.41704e-05
10 *565:28 *617:28 0.000199221
11 *565:28 *657:22 0.000544273
12 N4BEG[7] *565:28 0.00047277
13 *134:14 *565:28 4.67488e-05
14 *354:10 *565:12 3.52294e-05
15 *464:38 *565:12 0.000398024
16 *464:38 *565:28 0.00105733
17 *536:20 *565:28 0.000451537
18 *546:12 *565:28 3.83031e-05
*RES
1 *1769:X *565:12 49.872 
2 *565:12 *565:28 34.1206 
3 *565:28 *1995:A 23 
*END

*D_NET *566 0.010876
*CONN
*I *1996:A I *D sky130_fd_sc_hd__buf_2
*I *1770:X O *D sky130_fd_sc_hd__clkbuf_1
*CAP
1 *1996:A 0
2 *1770:X 0.00120027
3 *566:18 0.000949237
4 *566:12 0.00191118
5 *566:8 0.00216221
6 *566:8 *581:63 9.30054e-05
7 *566:8 *590:41 0.00113109
8 *566:12 *1530:A1 0.000176497
9 *566:12 *1569:A 6.08617e-05
10 *566:12 *581:63 9.41704e-05
11 *566:12 *590:41 0.000537037
12 *566:12 *602:10 0.000361188
13 *566:18 *1479:A3 3.89965e-05
14 *566:18 *580:48 0.000553614
15 *566:18 *587:92 9.84794e-05
16 *566:18 *592:34 9.84794e-05
17 *566:18 *617:40 8.18511e-05
18 *566:18 *625:88 1.51581e-05
19 *566:18 *630:66 0.000182657
20 *566:18 *682:58 1.98125e-05
21 N4BEG[11] *566:18 5.44149e-05
22 *1569:B *566:12 1.21972e-05
23 *1640:D *566:18 0.00022843
24 *1770:A *566:8 1.94812e-05
25 *376:52 *566:12 0.000432502
26 *482:41 *566:18 0.000150368
27 *521:14 *566:12 1.6458e-05
28 *534:28 *566:18 0.000196356
29 *554:16 *566:18 0
*RES
1 *1770:X *566:8 41.27 
2 *566:8 *566:12 33.7257 
3 *566:12 *566:18 33.85 
4 *566:18 *1996:A 23 
*END

*D_NET *567 0.011002
*CONN
*I *1997:A I *D sky130_fd_sc_hd__buf_2
*I *1771:X O *D sky130_fd_sc_hd__clkbuf_1
*CAP
1 *1997:A 0
2 *1771:X 0.000171414
3 *567:22 0.00236227
4 *567:10 0.00253369
5 *567:10 *587:46 0.000113263
6 *567:22 *588:41 0.000511951
7 *567:22 *592:58 0.000219753
8 *567:22 *603:14 0.000686251
9 *567:22 *625:134 0.000671983
10 *567:22 *638:14 0.000254862
11 *1754:A *567:22 4.03238e-05
12 *137:14 *567:22 1.92442e-05
13 *153:8 *567:22 5.56279e-05
14 *262:10 *567:22 9.65021e-05
15 *362:10 *567:10 4.23845e-05
16 *462:10 *567:10 0
17 *464:38 *567:22 0.00108621
18 *470:12 *567:22 0.000600145
19 *532:18 *567:22 6.52302e-05
20 *547:42 *567:22 0.00105197
21 *550:38 *567:22 5.90536e-05
22 *557:18 *567:22 2.26497e-05
23 *559:48 *567:22 7.81955e-05
24 *565:12 *567:22 0.000259006
*RES
1 *1771:X *567:10 49.4904 
2 *567:10 *567:22 37.8308 
3 *567:22 *1997:A 23 
*END

*D_NET *568 0.0285093
*CONN
*I *1998:A I *D sky130_fd_sc_hd__buf_2
*I *1772:X O *D sky130_fd_sc_hd__buf_1
*CAP
1 *1998:A 0
2 *1772:X 8.03379e-05
3 *568:54 0.000281524
4 *568:48 0.00238133
5 *568:32 0.00262427
6 *568:22 0.00514585
7 *568:10 0.00470173
8 *568:22 *574:22 0.000101071
9 *568:22 *577:44 0.00056688
10 *568:22 *584:90 0.00134304
11 *568:22 *594:10 3.03483e-05
12 *568:22 *614:34 0.00112236
13 *568:22 *632:124 5.34298e-05
14 *568:32 *572:34 0.00020593
15 *568:32 *581:108 0.000411263
16 *568:48 *586:45 9.13321e-05
17 *568:54 *592:58 3.27275e-05
18 *568:54 *638:14 0.000410901
19 N4BEG[14] *568:54 3.45866e-05
20 *1574:A2 *568:22 0
21 *1583:D *568:32 9.87348e-05
22 *1584:CLK *568:32 2.86868e-05
23 *133:12 *568:54 0.000399631
24 *156:14 *568:54 9.1288e-06
25 *249:41 *568:22 0.000194619
26 *415:50 *568:48 7.61883e-05
27 *436:24 *568:48 7.20213e-06
28 *449:34 *568:22 7.57281e-06
29 *458:30 *568:32 0
30 *458:30 *568:48 2.05503e-05
31 *461:42 *568:22 0
32 *464:38 *568:48 0.000828946
33 *464:54 *568:22 0.00335481
34 *471:16 *568:48 0.000851102
35 *487:18 *568:22 0.000977659
36 *488:24 *568:48 0
37 *496:12 *568:10 0.000179321
38 *511:16 *568:10 5.54472e-05
39 *531:26 *568:32 3.55939e-05
40 *536:20 *568:48 0.000262075
41 *538:30 *568:32 0.000651532
42 *544:30 *568:48 0.000665673
43 *548:62 *568:22 7.19883e-05
44 *549:26 *568:48 2.03036e-06
45 *556:28 *568:48 0.000111911
*RES
1 *1772:X *568:10 48.4339 
2 *568:10 *568:22 44.1399 
3 *568:22 *568:32 42.325 
4 *568:32 *568:48 45.6192 
5 *568:48 *568:54 30.0118 
6 *568:54 *1998:A 23 
*END

*D_NET *569 0.00689406
*CONN
*I *1999:A I *D sky130_fd_sc_hd__buf_2
*I *1773:X O *D sky130_fd_sc_hd__clkbuf_1
*CAP
1 *1999:A 0
2 *1773:X 0.000589132
3 *569:30 0.00157414
4 *569:12 0.00216327
5 *569:12 *643:10 6.08617e-05
6 *569:12 *644:10 9.28078e-06
7 *569:12 *645:10 0.000341983
8 *569:30 *644:10 0.000157023
9 *1612:D *569:30 6.53382e-05
10 *1754:A *569:30 5.56279e-05
11 *1773:A *569:12 1.59094e-05
12 *164:13 *569:12 1.91026e-05
13 *169:13 *569:12 5.61255e-06
14 *173:17 *569:30 0.000310358
15 *176:11 *569:30 0.000777986
16 *269:14 *569:30 1.47064e-05
17 *299:8 *569:30 4.24693e-05
18 *537:48 *569:30 0.000464106
19 *559:48 *569:30 0.000227154
*RES
1 *1773:X *569:12 46.1096 
2 *569:12 *569:30 41.7525 
3 *569:30 *1999:A 23 
*END

*D_NET *570 0.0172217
*CONN
*I *1680:A I *D sky130_fd_sc_hd__buf_1
*I *1621:D I *D sky130_fd_sc_hd__dlxtp_1
*I *1589:D I *D sky130_fd_sc_hd__dlxtp_1
*I *1835:X O *D sky130_fd_sc_hd__buf_1
*CAP
1 *1680:A 0.000195389
2 *1621:D 0
3 *1589:D 0
4 *1835:X 0.000131259
5 *570:35 0.000344077
6 *570:24 0.000730212
7 *570:12 0.0018994
8 *570:10 0.00131787
9 *570:8 0.000131259
10 *1680:A *1589:GATE 2.58484e-05
11 *1680:A *1621:GATE 3.80533e-05
12 *1680:A *612:20 0
13 *1680:A *631:38 5.50049e-05
14 *1680:A *631:61 7.71219e-06
15 *1680:A *694:8 0.000156386
16 *570:8 *579:24 0.000136609
17 *570:24 *579:62 9.2467e-06
18 *570:24 *694:8 0
19 *570:35 *694:8 0.000189392
20 VALUE_top1 *570:8 0
21 VALUE_top7 *570:12 0.000621402
22 *67:9 *570:12 0.000535675
23 *79:13 *570:24 3.56562e-05
24 *246:14 *570:24 1.52032e-05
25 *246:14 *570:35 0
26 *316:20 *570:24 5.83407e-05
27 *316:20 *570:35 1.76557e-05
28 *449:10 *570:24 0.000148797
29 *459:22 *570:12 0.00138283
30 *461:26 *570:24 0.000124075
31 *471:30 *570:12 0.0016589
32 *494:26 *570:12 0.000200278
33 *517:12 *570:24 0
34 *518:26 *570:8 0.00026824
35 *526:34 *570:12 7.45491e-05
36 *528:26 *570:12 0.00555468
37 *551:14 *570:12 0.00110269
38 *560:20 *1680:A 5.50049e-05
*RES
1 *1835:X *570:8 41.6664 
2 *570:8 *570:10 15 
3 *570:10 *570:12 74.4679 
4 *570:12 *570:24 39.8807 
5 *570:24 *1589:D 23 
6 *570:24 *570:35 18.2314 
7 *570:35 *1621:D 38 
8 *570:35 *1680:A 41.9357 
*END

*D_NET *571 0.0312724
*CONN
*I *1615:D I *D sky130_fd_sc_hd__dlxtp_1
*I *1706:A I *D sky130_fd_sc_hd__buf_1
*I *1647:D I *D sky130_fd_sc_hd__dlxtp_1
*I *1836:X O *D sky130_fd_sc_hd__buf_1
*CAP
1 *1615:D 1.36494e-05
2 *1706:A 0.000102451
3 *1647:D 0.000413239
4 *1836:X 0.000177485
5 *571:26 0.000744697
6 *571:22 0.000720154
7 *571:20 0.00548407
8 *571:8 0.00518406
9 *1615:D *670:16 5.50106e-05
10 *1615:D *686:24 2.30292e-05
11 *1647:D *1802:A 9.5877e-05
12 *1647:D *625:32 5.84732e-05
13 *1647:D *632:91 4.1662e-05
14 *1647:D *661:12 0
15 *1647:D *677:30 9.55851e-05
16 *1706:A *632:91 4.05745e-05
17 *1706:A *677:22 0.000136743
18 *571:20 *582:8 5.52299e-05
19 *571:20 *603:14 0.000349377
20 *571:20 *690:24 6.25481e-06
21 *571:22 *1615:GATE 2.16955e-05
22 *571:22 *1616:GATE 2.17052e-05
23 *571:22 *660:10 0.000139088
24 *571:26 *1615:GATE 1.05441e-05
25 *571:26 *686:16 2.7227e-05
26 *67:23 *1706:A 5.3304e-05
27 *182:13 *571:22 0.000274276
28 *466:22 *1706:A 8.56254e-05
29 *479:10 *571:26 9.9025e-06
30 *489:10 *1647:D 0.000171505
31 *489:10 *571:26 7.07866e-05
32 *515:12 *571:20 0.000561093
33 *515:18 *571:20 0.000100593
34 *518:26 *571:20 0
35 *520:40 *571:20 0.000158152
36 *527:34 *571:20 0.000620614
37 *529:40 *571:20 0.00286304
38 *540:20 *571:22 0.000499305
39 *540:30 *571:20 0.00702831
40 *542:38 *571:20 0.00453335
41 *559:12 *571:8 0.00022466
*RES
1 *1836:X *571:8 40.5271 
2 *571:8 *571:20 45.552 
3 *571:20 *571:22 9.47679 
4 *571:22 *571:26 3.93571 
5 *571:26 *1647:D 46.1407 
6 *571:26 *1706:A 40.5271 
7 *571:22 *1615:D 38.6214 
*END

*D_NET *572 0.0272209
*CONN
*I *2000:A I *D sky130_fd_sc_hd__buf_2
*I *1774:X O *D sky130_fd_sc_hd__buf_1
*CAP
1 *2000:A 0
2 *1774:X 2.32256e-05
3 *572:64 0.000867941
4 *572:50 0.00198206
5 *572:34 0.00575147
6 *572:10 0.00466057
7 *572:34 *625:234 0.0004358
8 *572:34 *654:34 0.00437479
9 *572:34 *662:20 0.000636805
10 *572:50 *1606:GATE 0.000131594
11 *572:50 *574:52 7.28722e-06
12 *572:50 *578:16 5.50049e-05
13 *572:50 *578:18 0.000129751
14 *572:50 *578:89 0.00022046
15 *572:50 *637:10 4.26455e-05
16 *572:50 *656:20 0.000158108
17 *572:50 *681:24 0.000254306
18 *572:50 *681:34 4.67746e-05
19 *572:64 *587:115 0.000135153
20 *572:64 *655:28 9.90504e-05
21 *572:64 *671:20 0.000300029
22 NN4BEG[3] *572:64 9.57227e-05
23 *1486:S *572:34 8.8898e-05
24 *1509:A1 *572:34 0
25 *1509:C1 *572:50 0.000103415
26 *1536:B1 *572:34 4.38756e-05
27 *1536:B1 *572:50 1.49686e-05
28 *1584:CLK *572:34 3.53516e-05
29 *1584:D *572:34 0.000232223
30 *144:12 *572:64 2.39291e-05
31 *154:8 *572:64 2.1801e-05
32 *157:8 *572:64 1.94693e-05
33 *229:33 *572:50 0
34 *328:14 *572:50 0.000148731
35 *329:14 *572:34 0.000736219
36 *405:6 *572:34 4.06849e-05
37 *415:30 *572:34 0
38 *421:16 *572:34 0.000309791
39 *433:10 *572:50 0.000105252
40 *461:42 *572:34 0.000209556
41 *464:38 *572:34 0.000970241
42 *464:38 *572:64 0.000360922
43 *468:18 *572:34 0
44 *470:22 *572:64 1.51127e-05
45 *481:24 *572:64 0.000418517
46 *501:10 *572:10 4.73652e-05
47 *511:16 *572:10 4.73652e-05
48 *528:22 *572:34 4.75766e-05
49 *531:26 *572:34 0.000959503
50 *537:38 *572:64 0.000303243
51 *539:20 *572:50 8.61904e-05
52 *544:30 *572:64 0.000177234
53 *556:28 *572:34 0.00103898
54 *568:32 *572:34 0.00020593
*RES
1 *1774:X *572:10 46.6732 
2 *572:10 *572:34 48.7245 
3 *572:34 *572:50 48.2016 
4 *572:50 *572:64 36.6529 
5 *572:64 *2000:A 23 
*END

*D_NET *573 0.00863074
*CONN
*I *2001:A I *D sky130_fd_sc_hd__buf_2
*I *1775:X O *D sky130_fd_sc_hd__clkbuf_1
*CAP
1 *2001:A 0.000390209
2 *1775:X 8.28469e-05
3 *573:22 0.0011746
4 *573:14 0.00191278
5 *573:8 0.00121124
6 *2001:A *592:75 0.00013007
7 *2001:A *655:28 0.000200375
8 *573:14 *578:89 0.000308995
9 *573:14 *589:106 0.000165076
10 *573:14 *589:120 2.98869e-05
11 *573:22 *574:52 0.000917702
12 *573:22 *578:89 0.000413566
13 *573:22 *587:131 9.10938e-05
14 NN4BEG[5] *2001:A 0.000224308
15 *1754:A *573:22 0.000137368
16 *2:14 *2001:A 0.000369808
17 *153:8 *573:22 6.17437e-06
18 *155:10 *573:22 3.06297e-05
19 *157:8 *2001:A 2.43944e-05
20 *158:8 *2001:A 0.000157938
21 *366:8 *573:8 1.05441e-05
22 *415:107 *573:8 9.28078e-06
23 *421:10 *573:8 2.72097e-05
24 *543:20 *573:14 0.000604644
25 *557:18 *573:22 0
*RES
1 *1775:X *573:8 39.2014 
2 *573:8 *573:14 46.82 
3 *573:14 *573:22 45.1007 
4 *573:22 *2001:A 47.0729 
*END

*D_NET *574 0.0249491
*CONN
*I *2002:A I *D sky130_fd_sc_hd__buf_2
*I *1776:X O *D sky130_fd_sc_hd__buf_1
*CAP
1 *2002:A 0
2 *1776:X 0.00124042
3 *574:52 0.00124844
4 *574:42 0.00280529
5 *574:32 0.00197279
6 *574:22 0.00141783
7 *574:8 0.0022423
8 *574:8 *584:125 0.000999381
9 *574:8 *584:140 9.30054e-05
10 *574:8 *588:128 2.09785e-05
11 *574:8 *628:108 5.49502e-05
12 *574:22 *1482:A1 2.2539e-05
13 *574:22 *1651:GATE 4.96717e-05
14 *574:22 *584:90 0.00015648
15 *574:22 *612:30 0.000158712
16 *574:22 *628:8 0.000427596
17 *574:22 *628:108 0.00119702
18 *574:22 *631:26 0.00135391
19 *574:22 *631:34 4.56219e-05
20 *574:32 *1591:D 5.3304e-05
21 *574:32 *583:124 0.000533556
22 *574:32 *586:51 5.02951e-05
23 *574:32 *586:66 0.000110139
24 *574:32 *612:24 0.000226891
25 *574:32 *627:10 9.45396e-05
26 *574:42 *578:28 2.00313e-05
27 *574:42 *597:10 5.58873e-06
28 *574:42 *627:30 9.39796e-05
29 *574:42 *628:76 0.000138943
30 *574:42 *654:34 0.00165424
31 *574:42 *662:20 0.00213499
32 *574:52 *1606:GATE 0.000348788
33 *574:52 *578:89 1.02219e-05
34 *574:52 *592:58 2.05503e-05
35 *574:52 *592:75 0.000281736
36 *574:52 *610:10 2.12347e-06
37 *574:52 *625:71 4.71774e-05
38 *574:52 *627:30 2.41841e-05
39 *574:52 *656:20 8.58256e-05
40 *574:52 *690:24 0.000242614
41 NN4BEG[3] *574:52 3.93904e-06
42 NN4BEG[5] *574:52 0.000147239
43 *1776:A *574:8 1.59094e-05
44 *1928:A *574:8 7.43025e-06
45 *155:10 *574:52 3.57828e-05
46 *229:8 *574:52 9.9437e-05
47 *328:14 *574:42 0.000479808
48 *415:30 *574:32 0.000125895
49 *556:28 *574:42 0.000229318
50 *560:20 *574:22 0.00109166
51 *568:22 *574:22 0.000101071
52 *572:50 *574:52 7.28722e-06
53 *573:22 *574:52 0.000917702
*RES
1 *1776:X *574:8 41.4979 
2 *574:8 *574:22 49.5307 
3 *574:22 *574:32 48.7196 
4 *574:32 *574:42 36.5508 
5 *574:42 *574:52 38.3657 
6 *574:52 *2002:A 38 
*END

*D_NET *575 0.00290783
*CONN
*I *2003:A I *D sky130_fd_sc_hd__buf_2
*I *1777:X O *D sky130_fd_sc_hd__clkbuf_1
*CAP
1 *2003:A 0.0002435
2 *1777:X 0.000720196
3 *575:12 0.000963696
4 *2003:A *1649:GATE 1.09358e-05
5 *2003:A *592:75 0.000138607
6 *2003:A *592:90 0.000172174
7 *2003:A *682:34 3.25675e-05
8 *575:12 *1469:A0 7.43264e-05
9 *575:12 *1649:GATE 4.21755e-05
10 *575:12 *625:63 6.83421e-05
11 *575:12 *625:71 0.000114656
12 *575:12 *630:58 6.86221e-06
13 *575:12 *637:10 2.8337e-05
14 *1493:A1 *575:12 5.56356e-05
15 *161:19 *2003:A 0
16 *161:19 *575:12 0
17 *360:12 *575:12 0
18 *536:8 *2003:A 5.3304e-05
19 *536:20 *2003:A 0.000182513
*RES
1 *1777:X *575:12 48.0257 
2 *575:12 *2003:A 43.2407 
*END

*D_NET *576 0.00240226
*CONN
*I *2004:A I *D sky130_fd_sc_hd__buf_2
*I *1512:X O *D sky130_fd_sc_hd__or2_1
*CAP
1 *2004:A 7.24027e-05
2 *1512:X 0.000706998
3 *576:10 0.000779401
4 *576:10 *586:45 7.57281e-06
5 *576:10 *628:51 3.13569e-05
6 *576:10 *675:42 9.18779e-05
7 *232:34 *576:10 0
8 *232:65 *576:10 5.25285e-05
9 *252:8 *576:10 5.83599e-05
10 *372:10 *576:10 5.50049e-05
11 *391:8 *2004:A 0.000102389
12 *392:10 *576:10 0.00015835
13 *449:78 *2004:A 9.70259e-06
14 *451:18 *2004:A 0.000232409
15 *451:18 *576:10 0
16 *457:50 *576:10 4.39092e-05
17 *471:20 *576:10 0
*RES
1 *1512:X *576:10 49.3307 
2 *576:10 *2004:A 40.5271 
*END

*D_NET *577 0.0321313
*CONN
*I *2005:A I *D sky130_fd_sc_hd__buf_1
*I *1784:X O *D sky130_fd_sc_hd__buf_2
*CAP
1 *2005:A 0.00037415
2 *1784:X 7.53423e-05
3 *577:44 0.00283417
4 *577:36 0.00318394
5 *577:24 0.00285471
6 *577:18 0.00374477
7 *577:10 0.00168932
8 *2005:A *1797:A 5.3304e-05
9 *2005:A *625:10 0.000261956
10 *2005:A *677:22 0.000269781
11 *577:10 *616:10 4.61693e-05
12 *577:18 *608:24 4.89546e-05
13 *577:18 *612:20 0.00361726
14 *577:18 *614:34 0.000453707
15 *577:24 *1455:A1 2.02872e-05
16 *577:24 *584:78 2.05503e-05
17 *577:36 *1621:GATE 0.000118658
18 *577:36 *612:20 8.35198e-05
19 *577:44 *1480:A2 4.36547e-05
20 *577:44 *584:90 0.000892271
21 *577:44 *586:93 0.000215188
22 *577:44 *614:76 0.00036889
23 *577:44 *683:26 4.90492e-05
24 *577:44 *688:14 0.000154291
25 *1503:A *577:36 1.37022e-05
26 *1503:B *577:36 9.41704e-05
27 *1586:CLK *577:24 2.2438e-05
28 *1673:D *577:10 6.06976e-05
29 *1790:A *577:24 2.43944e-05
30 *201:17 *2005:A 5.67058e-05
31 *229:150 *2005:A 0.000182832
32 *232:20 *577:24 0.000392317
33 *232:24 *577:24 0.000565806
34 *240:14 *577:10 1.14452e-05
35 *246:14 *577:36 2.18506e-05
36 *246:25 *577:36 1.03836e-05
37 *249:12 *577:24 0
38 *249:18 *577:36 7.44161e-06
39 *249:41 *577:36 0.000339766
40 *275:16 *577:44 0
41 *315:22 *577:36 0.000428019
42 *397:10 *577:10 7.1459e-05
43 *397:39 *577:18 0.00167843
44 *438:26 *577:18 0.000369757
45 *448:10 *577:36 0.000135037
46 *448:18 *577:24 9.28078e-06
47 *449:34 *577:36 0.000638491
48 *449:44 *577:24 3.39102e-05
49 *449:44 *577:36 0.000137651
50 *457:12 *577:24 9.24795e-06
51 *457:14 *577:24 0.000463703
52 *470:30 *2005:A 0.000270953
53 *487:18 *577:44 0.0023234
54 *489:22 *577:44 0.000288247
55 *489:28 *577:44 0.000472365
56 *490:28 *577:44 0.000763099
57 *551:20 *577:18 4.67137e-05
58 *552:24 *577:44 0.00014678
59 *568:22 *577:44 0.00056688
*RES
1 *1784:X *577:10 47.7296 
2 *577:10 *577:18 30.6844 
3 *577:18 *577:24 43.855 
4 *577:24 *577:36 46.3332 
5 *577:36 *577:44 48.6441 
6 *577:44 *2005:A 47.6943 
*END

*D_NET *578 0.0366616
*CONN
*I *2006:A I *D sky130_fd_sc_hd__buf_2
*I *1541:A1 I *D sky130_fd_sc_hd__o211a_1
*I *1479:A1 I *D sky130_fd_sc_hd__mux4_1
*I *1458:A1 I *D sky130_fd_sc_hd__mux2_1
*I *1518:A1 I *D sky130_fd_sc_hd__mux2_1
*I *1471:A1 I *D sky130_fd_sc_hd__mux2_1
*I *1654:Q O *D sky130_fd_sc_hd__dfxtp_2
*CAP
1 *2006:A 0
2 *1541:A1 4.47366e-05
3 *1479:A1 0
4 *1458:A1 0
5 *1518:A1 0
6 *1471:A1 0
7 *1654:Q 0.0017799
8 *578:144 0.00142823
9 *578:138 0.0018508
10 *578:119 0.00153852
11 *578:99 0.00053012
12 *578:89 0.00119294
13 *578:74 0.000764103
14 *578:55 0.00180771
15 *578:43 0.00223913
16 *578:32 0.0013031
17 *578:28 0.000341939
18 *578:18 0.00100967
19 *578:16 0.00102174
20 *578:8 0.00161795
21 *1541:A1 *584:52 1.30878e-05
22 *1541:A1 *623:113 0.000100061
23 *578:8 *1544:A1 0.000267178
24 *578:8 *579:52 1.94693e-05
25 *578:8 *579:62 1.3109e-05
26 *578:16 *1447:A 4.56089e-05
27 *578:16 *584:58 0.000275769
28 *578:28 *627:30 0.000440648
29 *578:32 *627:30 0.000273279
30 *578:32 *650:47 5.79559e-05
31 *578:43 *1482:A1 3.15611e-05
32 *578:43 *1591:GATE 0.000202457
33 *578:43 *586:66 5.30106e-05
34 *578:43 *597:28 0.000180218
35 *578:43 *615:30 0.000523405
36 *578:43 *615:47 0.000309363
37 *578:43 *626:10 5.50049e-05
38 *578:43 *627:12 0.000355739
39 *578:43 *627:30 0.000397192
40 *578:43 *627:107 0.000106986
41 *578:43 *641:20 4.10285e-05
42 *578:43 *650:47 5.79559e-05
43 *578:43 *675:32 0.000811643
44 *578:55 *1482:A2 9.11331e-05
45 *578:55 *581:108 0.000211884
46 *578:55 *581:136 0.000125488
47 *578:55 *641:20 0.000142686
48 *578:74 *579:130 0.000596287
49 *578:74 *581:136 5.22001e-05
50 *578:74 *661:12 0.00104935
51 *578:74 *688:14 5.3304e-05
52 *578:89 *589:106 0.000353428
53 *578:89 *631:90 6.25646e-05
54 *578:99 *585:87 0.000703905
55 *578:99 *617:28 6.77187e-05
56 *578:99 *681:34 0.00133601
57 *578:119 *584:52 4.49262e-05
58 *578:138 *1541:B1 0
59 *578:138 *600:32 2.41841e-05
60 *578:138 *608:24 5.04152e-05
61 *578:138 *623:113 0
62 *578:138 *624:106 0
63 *578:144 *579:16 0.00224185
64 *578:144 *579:24 0
65 *578:144 *617:12 0.000138645
66 VALUE_top6 *578:138 0
67 VALUE_top8 *578:144 0.000231776
68 *1453:S *578:55 1.24376e-05
69 *1482:S0 *578:55 5.3304e-05
70 *1500:B *578:16 0.000322974
71 *1536:A1 *578:16 2.64616e-05
72 *1536:B1 *578:16 5.37348e-06
73 *1544:A2 *578:8 4.34876e-05
74 *1544:A2 *578:119 0.000123948
75 *1571:A_N *578:8 2.72257e-05
76 *1654:D *578:119 0.000591247
77 *1670:D *578:119 7.81569e-05
78 *1790:A *578:16 0.000430654
79 *1791:A *578:16 0.000415005
80 *3:15 *578:144 1.13579e-05
81 *67:15 *578:74 0
82 *229:33 *578:89 5.43589e-05
83 *232:26 *578:16 1.47563e-05
84 *232:65 *578:16 3.9129e-05
85 *232:83 *578:16 1.09111e-05
86 *232:93 *578:16 7.59794e-05
87 *307:10 *578:74 0.000336499
88 *313:8 *578:99 4.56316e-05
89 *317:10 *578:55 2.46348e-05
90 *328:14 *578:32 5.50106e-05
91 *350:10 *578:16 0
92 *378:12 *578:138 0
93 *393:12 *578:138 0
94 *393:29 *1541:A1 7.72342e-05
95 *393:29 *578:119 0.000168409
96 *394:12 *578:138 0
97 *404:10 *578:18 0.000107218
98 *415:52 *578:16 0.000155107
99 *425:47 *578:89 1.09111e-05
100 *455:81 *578:138 0.000109377
101 *458:10 *578:18 0
102 *458:10 *578:89 0
103 *458:28 *578:28 3.41998e-06
104 *458:61 *578:18 6.02684e-06
105 *459:14 *578:144 0.000110386
106 *461:34 *578:74 5.50049e-05
107 *521:8 *578:89 0
108 *526:32 *578:144 7.47369e-05
109 *531:26 *578:28 0.000440648
110 *539:20 *578:99 0.000328826
111 *543:6 *578:43 5.5142e-05
112 *548:62 *578:16 0
113 *551:24 *578:99 6.69637e-06
114 *554:12 *578:8 5.03223e-05
115 *554:12 *578:119 0.000265521
116 *572:50 *578:16 5.50049e-05
117 *572:50 *578:18 0.000129751
118 *572:50 *578:89 0.00022046
119 *573:14 *578:89 0.000308995
120 *573:22 *578:89 0.000413566
121 *574:42 *578:28 2.00313e-05
122 *574:52 *578:89 1.02219e-05
*RES
1 *1654:Q *578:8 47.6736 
2 *578:8 *578:16 49.1193 
3 *578:16 *578:18 2.25786 
4 *578:18 *578:28 36.38 
5 *578:28 *578:32 18.0036 
6 *578:32 *1471:A1 23 
7 *578:32 *578:43 43.7721 
8 *578:43 *578:55 31.0743 
9 *578:55 *1518:A1 23 
10 *578:55 *578:74 48.0007 
11 *578:74 *1458:A1 23 
12 *578:18 *578:89 43.9304 
13 *578:89 *578:99 34.5715 
14 *578:99 *1479:A1 23 
15 *1654:Q *578:119 39.675 
16 *578:119 *1541:A1 24.5743 
17 *578:119 *578:138 36.3386 
18 *578:138 *578:144 46.465 
19 *578:144 *2006:A 38 
*END

*D_NET *579 0.0424539
*CONN
*I *1472:A1 I *D sky130_fd_sc_hd__mux2_1
*I *1480:A1 I *D sky130_fd_sc_hd__mux4_1
*I *1519:A1 I *D sky130_fd_sc_hd__mux2_1
*I *1457:A1 I *D sky130_fd_sc_hd__mux2_1
*I *1544:A1 I *D sky130_fd_sc_hd__o211a_1
*I *2007:A I *D sky130_fd_sc_hd__buf_2
*I *1655:Q O *D sky130_fd_sc_hd__dfxtp_2
*CAP
1 *1472:A1 0.000272466
2 *1480:A1 0
3 *1519:A1 0.000475207
4 *1457:A1 3.45092e-05
5 *1544:A1 0.000102619
6 *2007:A 0
7 *1655:Q 0
8 *579:144 0.000747672
9 *579:130 0.00124322
10 *579:115 0.001641
11 *579:107 0.00312928
12 *579:94 0.00152279
13 *579:92 0.000781403
14 *579:84 0.00206572
15 *579:80 0.000893976
16 *579:62 0.00263161
17 *579:52 0.00231691
18 *579:24 0.00021157
19 *579:16 0.00116426
20 *579:14 0.00122117
21 *579:10 0.000567626
22 *579:4 0.000734703
23 *1457:A1 *660:38 1.59094e-05
24 *579:10 *581:34 0
25 *579:10 *591:21 0.000167357
26 *579:14 *591:21 0.000181337
27 *579:16 *583:26 0.00256263
28 *579:16 *617:12 0.000192906
29 *579:80 *1458:A0 5.50049e-05
30 *579:80 *1573:A2 4.5051e-05
31 *579:80 *613:32 9.16557e-05
32 *579:80 *613:40 0.00126885
33 *579:107 *588:105 0
34 *579:107 *588:128 0
35 *579:107 *632:112 0.000711006
36 *579:107 *632:124 0.000220604
37 *579:107 *649:46 8.13852e-05
38 *579:107 *660:38 3.7122e-06
39 *579:107 *685:37 3.95711e-05
40 *579:107 *687:26 0
41 *579:107 *687:36 0
42 *579:115 *1609:GATE 0.000165808
43 *579:115 *586:106 0.000242347
44 *579:130 *1485:A1 0.000183705
45 *579:130 *626:41 2.64616e-05
46 *579:130 *635:18 0
47 *579:130 *660:22 0.000135904
48 *579:130 *661:12 0.000179806
49 VALUE_top1 *579:24 0
50 VALUE_top10 *579:14 0.000132749
51 VALUE_top11 *579:14 0
52 VALUE_top8 *579:16 0.000293796
53 *1464:S *579:115 0.000267587
54 *1519:S *579:115 0.000310647
55 *1519:S *579:144 2.93845e-05
56 *1544:A2 *1544:A1 0.000262286
57 *1571:A_N *579:62 0.000864968
58 *1575:A *579:80 5.50106e-05
59 *1609:D *579:115 6.74906e-05
60 *1655:D *579:52 0.000137651
61 *1746:A *579:115 5.3304e-05
62 *1757:A *579:107 9.84794e-05
63 *3:15 *579:24 0
64 *80:17 *579:92 0.000136486
65 *82:17 *579:80 0.000833756
66 *82:17 *579:92 0.00109149
67 *213:9 *579:16 0.000238653
68 *246:14 *579:62 0.000158146
69 *246:66 *579:80 1.03836e-05
70 *247:29 *579:62 0.000503533
71 *247:48 *579:62 9.75779e-05
72 *247:67 *579:62 0.000128723
73 *249:12 *579:62 2.64616e-05
74 *259:8 *1472:A1 0.000113153
75 *268:10 *579:107 0
76 *283:20 *579:62 6.00434e-05
77 *296:12 *579:115 6.99492e-05
78 *307:10 *579:84 6.38845e-05
79 *307:10 *579:130 0.000272605
80 *316:20 *579:62 0.000434153
81 *389:6 *579:62 5.73793e-05
82 *390:8 *579:80 2.18506e-05
83 *410:10 *579:107 5.89777e-05
84 *415:10 *579:107 0
85 *437:18 *579:10 1.02426e-05
86 *437:18 *579:14 5.33814e-05
87 *447:14 *579:80 0.00031495
88 *449:10 *579:62 0.000132539
89 *449:10 *579:80 0.000440169
90 *449:24 *579:62 0.000136738
91 *457:14 *579:10 2.93845e-05
92 *457:14 *579:52 0.000183088
93 *459:26 *579:14 0
94 *461:34 *579:80 0.000131372
95 *462:32 *579:16 0.000476738
96 *462:40 *579:16 9.13556e-05
97 *467:10 *1472:A1 0.000240173
98 *471:36 *579:84 0
99 *471:46 *579:107 0
100 *472:12 *579:16 0.000182832
101 *489:28 *579:130 0
102 *489:36 *1457:A1 2.64616e-05
103 *489:36 *579:107 0.000142513
104 *493:41 *579:52 5.54948e-05
105 *496:12 *1472:A1 0.000134574
106 *497:20 *579:115 0.000438759
107 *497:20 *579:144 3.23719e-05
108 *508:12 *579:130 6.79897e-05
109 *511:16 *1472:A1 0.000192759
110 *518:26 *579:24 2.71502e-05
111 *526:44 *579:92 0.000136486
112 *526:44 *579:107 0
113 *548:62 *579:52 0.000128492
114 *552:10 *579:107 4.9808e-05
115 *554:12 *1544:A1 1.5769e-05
116 *554:12 *579:52 1.93007e-05
117 *570:8 *579:24 0.000136609
118 *570:24 *579:62 9.2467e-06
119 *578:8 *1544:A1 0.000267178
120 *578:8 *579:52 1.94693e-05
121 *578:8 *579:62 1.3109e-05
122 *578:74 *579:130 0.000596287
123 *578:144 *579:16 0.00224185
124 *578:144 *579:24 0
*RES
1 *1655:Q *579:4 23 
2 *579:4 *579:10 18.2314 
3 *579:10 *579:14 20.075 
4 *579:14 *579:16 41.5943 
5 *579:16 *579:24 33.7079 
6 *579:24 *2007:A 23 
7 *579:10 *1544:A1 41.8529 
8 *579:4 *579:52 38.7621 
9 *579:52 *579:62 45.305 
10 *579:62 *579:80 43.5236 
11 *579:80 *579:84 15.8493 
12 *579:84 *579:92 43.9614 
13 *579:92 *579:94 15 
14 *579:94 *1457:A1 23.6214 
15 *579:94 *579:107 39.9814 
16 *579:107 *579:115 41.39 
17 *579:115 *1519:A1 23 
18 *579:84 *579:130 38.0136 
19 *579:130 *1480:A1 23 
20 *1519:A1 *579:144 43.8621 
21 *579:144 *1472:A1 45.4571 
*END

*D_NET *580 0.0212429
*CONN
*I *1481:A3 I *D sky130_fd_sc_hd__mux4_1
*I *1528:A1 I *D sky130_fd_sc_hd__mux2_1
*I *1531:A1 I *D sky130_fd_sc_hd__mux2_1
*I *1469:A1 I *D sky130_fd_sc_hd__mux2_1
*I *1570:A1 I *D sky130_fd_sc_hd__o211a_1
*I *2008:A I *D sky130_fd_sc_hd__buf_2
*I *1664:Q O *D sky130_fd_sc_hd__dfxtp_1
*CAP
1 *1481:A3 0
2 *1528:A1 0
3 *1531:A1 6.97044e-05
4 *1469:A1 0.000173888
5 *1570:A1 6.28221e-05
6 *2008:A 0
7 *1664:Q 0.000338066
8 *580:118 0.000479745
9 *580:95 0.000908711
10 *580:89 0.00104268
11 *580:77 0.00129614
12 *580:65 0.000974737
13 *580:48 0.00120029
14 *580:26 0.000783471
15 *580:18 0.0013932
16 *580:8 0.00154936
17 *1469:A1 *1469:A0 5.67058e-05
18 *1469:A1 *625:88 3.53115e-05
19 *1469:A1 *631:106 0.000104595
20 *1531:A1 *616:26 1.94812e-05
21 *580:8 *590:50 0.000178235
22 *580:8 *622:32 5.12254e-05
23 *580:18 *1535:B1 0.000133732
24 *580:18 *581:18 0.000129433
25 *580:18 *581:34 0.000229865
26 *580:18 *586:45 0.000431778
27 *580:18 *608:40 5.80071e-05
28 *580:18 *622:32 4.15283e-05
29 *580:26 *581:34 7.75517e-05
30 *580:26 *624:148 0
31 *580:48 *590:75 0
32 *580:48 *608:40 1.05984e-05
33 *580:48 *622:32 1.98354e-05
34 *580:48 *631:106 0.000210469
35 *580:65 *587:92 9.28078e-06
36 *580:65 *631:106 0.000243995
37 *580:77 *583:64 5.50049e-05
38 *580:77 *682:58 9.33067e-05
39 *580:118 *587:73 2.944e-05
40 *580:118 *682:66 0.000740755
41 HOLD_top *580:26 0
42 N1BEG[1] *580:118 4.36547e-05
43 N2BEG[1] *580:118 0.000298755
44 N2BEGb[0] *580:89 4.24694e-06
45 N2BEGb[1] *580:89 9.28078e-06
46 N2BEGb[2] *580:89 5.56356e-05
47 N4BEG[10] *580:89 0.000231337
48 N4BEG[12] *580:65 0.000155742
49 N4BEG[2] *580:89 2.88875e-05
50 N4BEG[4] *580:89 0.000157752
51 N4BEG[6] *580:77 0.000126391
52 N4BEG[7] *580:77 2.66004e-05
53 N4BEG[8] *580:89 0.000368732
54 N4BEG[9] *580:89 0.000303724
55 *1481:S0 *580:77 0.000352481
56 *1528:S *580:118 2.93845e-05
57 *1582:CLK *1570:A1 5.3304e-05
58 *1967:A *1531:A1 5.50049e-05
59 *111:10 *580:118 0
60 *121:12 *580:118 0.000109468
61 *123:14 *580:89 4.49877e-05
62 *136:12 *580:95 0.00039639
63 *138:10 *580:89 9.52056e-06
64 *142:10 *580:89 1.98354e-05
65 *237:39 *580:26 0.000536953
66 *314:24 *1469:A1 0
67 *371:8 *580:18 2.05503e-05
68 *371:8 *580:26 0.000346747
69 *374:14 *1570:A1 4.21281e-05
70 *376:12 *580:18 1.08015e-05
71 *376:52 *580:18 9.28078e-06
72 *376:52 *580:48 0.000249586
73 *379:8 *580:26 0.000107909
74 *388:10 *580:18 1.12695e-05
75 *388:10 *580:26 7.98243e-05
76 *432:20 *580:26 1.34487e-05
77 *436:24 *1570:A1 0.000135037
78 *436:43 *580:18 0.000344616
79 *437:18 *580:26 0
80 *493:41 *580:26 0.000333838
81 *504:24 *1531:A1 2.26406e-05
82 *504:24 *580:95 0.000104928
83 *517:18 *580:26 0
84 *519:12 *1469:A1 0.000143655
85 *522:10 *1531:A1 0.000136743
86 *530:12 *580:8 1.02175e-05
87 *533:58 *580:118 0.000108206
88 *534:28 *580:48 0.000197678
89 *534:28 *580:65 8.86025e-05
90 *534:38 *1531:A1 2.05503e-05
91 *534:38 *580:95 0.000118487
92 *537:26 *580:118 1.22822e-05
93 *537:38 *580:77 0.000107466
94 *538:42 *580:18 0.000130609
95 *542:38 *580:77 0.000216206
96 *545:30 *580:48 0.000135037
97 *546:12 *580:77 0.000202987
98 *548:62 *580:26 0
99 *549:26 *580:77 5.62433e-06
100 *549:34 *580:89 0.000175148
101 *551:36 *580:89 0.000164988
102 *553:36 *580:89 3.04247e-05
103 *565:28 *580:77 0.000200755
104 *566:18 *580:48 0.000553614
*RES
1 *1664:Q *580:8 42.4329 
2 *580:8 *580:18 24.5138 
3 *580:18 *580:26 32.4829 
4 *580:26 *2008:A 23 
5 *580:18 *1570:A1 39.5743 
6 *580:8 *580:48 42.9879 
7 *580:48 *1469:A1 41.7493 
8 *580:48 *580:65 21.8357 
9 *580:65 *580:77 43.5886 
10 *580:77 *580:89 47.0686 
11 *580:89 *580:95 21.1625 
12 *580:95 *1531:A1 39.8954 
13 *580:95 *580:118 35.1538 
14 *580:118 *1528:A1 23 
15 *580:65 *1481:A3 23 
*END

*D_NET *581 0.0282673
*CONN
*I *1482:A3 I *D sky130_fd_sc_hd__mux4_1
*I *1470:A1 I *D sky130_fd_sc_hd__mux2_1
*I *1535:B1 I *D sky130_fd_sc_hd__o31a_1
*I *1530:A1 I *D sky130_fd_sc_hd__mux2_1
*I *1529:A1 I *D sky130_fd_sc_hd__mux2_1
*I *2009:A I *D sky130_fd_sc_hd__buf_2
*I *1580:Q O *D sky130_fd_sc_hd__dfxtp_1
*CAP
1 *1482:A3 0
2 *1470:A1 0
3 *1535:B1 0.000115119
4 *1530:A1 3.53385e-05
5 *1529:A1 0
6 *2009:A 0
7 *1580:Q 0
8 *581:146 0.000403387
9 *581:136 0.00115614
10 *581:116 0.00110536
11 *581:108 0.00196487
12 *581:63 0.000309793
13 *581:53 0.000810632
14 *581:49 0.00171599
15 *581:34 0.00117229
16 *581:18 0.00251668
17 *581:16 0.00163127
18 *581:4 0.00303451
19 *1530:A1 *590:41 0.000148908
20 *1535:B1 *608:40 0.00013924
21 *581:16 *1511:A1 2.64616e-05
22 *581:16 *628:39 8.41224e-05
23 *581:16 *631:90 0.000336879
24 *581:16 *662:20 3.00529e-05
25 *581:18 *608:40 0.000136172
26 *581:34 *591:21 0
27 *581:34 *608:40 0.000161777
28 *581:49 *589:18 6.41868e-05
29 *581:53 *634:22 0.000630773
30 *581:63 *585:75 0.000137651
31 *581:63 *589:56 8.35508e-05
32 *581:63 *590:41 0.000136851
33 *581:63 *616:22 9.2467e-06
34 *581:108 *1453:A1 6.33017e-05
35 *581:108 *1482:A1 6.23386e-05
36 *581:108 *641:20 0.000138607
37 *581:108 *672:14 0.000200857
38 *581:116 *584:115 0.000167793
39 *581:116 *588:93 0.000266135
40 *581:116 *619:42 2.60252e-05
41 *581:136 *688:14 0.00038595
42 *581:146 *1643:GATE 4.05745e-05
43 *581:146 *645:34 4.97632e-05
44 *581:146 *687:36 0.000307132
45 *1453:S *581:108 3.12775e-05
46 *1482:S0 *581:108 5.3304e-05
47 *1488:B1 *581:146 9.84794e-05
48 *1499:A *581:49 0.00014379
49 *1499:C *581:49 5.56356e-05
50 *1500:C *581:16 0.000225697
51 *1511:B1 *581:16 3.65917e-05
52 *1513:A_N *581:108 0.000347315
53 *1513:B *581:108 2.32654e-05
54 *1580:D *581:16 5.99506e-06
55 *1583:CLK *581:16 3.22051e-05
56 *1583:CLK *581:108 2.93335e-05
57 *1583:D *581:108 5.52003e-05
58 *1653:D *581:49 0.000290916
59 *1678:D *581:49 0.000172468
60 *1779:A *581:136 4.41444e-05
61 *1818:A *581:49 0.00022143
62 *67:15 *581:136 0.000129902
63 *232:10 *581:108 7.03537e-05
64 *236:18 *581:49 3.91715e-05
65 *237:39 *581:34 0.000238177
66 *352:10 *581:108 9.58714e-05
67 *353:10 *581:63 0.000135008
68 *376:27 *581:49 0.000163466
69 *403:12 *1535:B1 9.5877e-05
70 *403:28 *581:34 6.77187e-05
71 *415:30 *581:116 4.60157e-05
72 *423:28 *581:49 0.000138518
73 *425:47 *581:16 0.000119769
74 *432:20 *581:34 5.62821e-05
75 *437:18 *581:34 9.45256e-05
76 *458:49 *581:16 8.94769e-05
77 *458:61 *581:16 0.000444952
78 *458:90 *1535:B1 9.5877e-05
79 *459:36 *581:16 0.000204089
80 *461:12 *581:63 2.24608e-05
81 *461:16 *581:63 1.40281e-05
82 *475:16 *581:146 3.39272e-05
83 *490:28 *581:136 0.000525417
84 *490:28 *581:146 0.00020072
85 *491:22 *581:136 0
86 *517:8 *581:108 1.13999e-05
87 *526:54 *581:146 0.000184415
88 *538:30 *581:16 2.17486e-05
89 *538:30 *581:108 0.00021004
90 *538:42 *581:34 0.000165177
91 *555:42 *581:53 0
92 *556:28 *581:16 0.000675569
93 *560:14 *581:136 0.000469527
94 *566:8 *581:63 9.30054e-05
95 *566:12 *1530:A1 0.000176497
96 *566:12 *581:63 9.41704e-05
97 *568:32 *581:108 0.000411263
98 *578:55 *581:108 0.000211884
99 *578:55 *581:136 0.000125488
100 *578:74 *581:136 5.22001e-05
101 *579:10 *581:34 0
102 *580:18 *1535:B1 0.000133732
103 *580:18 *581:18 0.000129433
104 *580:18 *581:34 0.000229865
105 *580:26 *581:34 7.75517e-05
*RES
1 *1580:Q *581:4 23 
2 *581:4 *581:16 48.8222 
3 *581:16 *581:18 2.08179 
4 *581:18 *581:34 49.045 
5 *581:34 *2009:A 23 
6 *581:18 *581:49 49.3679 
7 *581:49 *581:53 23.9486 
8 *581:53 *581:63 36.8357 
9 *581:63 *1529:A1 23 
10 *581:53 *1530:A1 25.0507 
11 *581:16 *1535:B1 41.1796 
12 *581:4 *581:108 33.2464 
13 *581:108 *581:116 37.6436 
14 *581:116 *581:136 49.575 
15 *581:136 *581:146 39.8186 
16 *581:146 *1470:A1 23 
17 *581:108 *1482:A3 23 
*END

*D_NET *582 0.0232631
*CONN
*I *1616:D I *D sky130_fd_sc_hd__dlxtp_1
*I *1707:A I *D sky130_fd_sc_hd__buf_1
*I *1648:D I *D sky130_fd_sc_hd__dlxtp_1
*I *1837:X O *D sky130_fd_sc_hd__buf_1
*CAP
1 *1616:D 6.61244e-05
2 *1707:A 0
3 *1648:D 0.000139255
4 *1837:X 0.000314906
5 *582:45 8.24336e-05
6 *582:30 0.0018507
7 *582:16 0.00389475
8 *582:14 0.00236096
9 *582:8 0.000476257
10 *1616:D *1616:GATE 5.54555e-05
11 *1616:D *664:14 3.42479e-05
12 *1616:D *678:12 0.000276214
13 *1648:D *617:74 0
14 *1648:D *630:227 1.7453e-05
15 *1648:D *669:12 1.25293e-05
16 *1648:D *670:8 0.000117782
17 *1648:D *676:12 0
18 *582:16 *583:96 0.0011929
19 *582:16 *655:44 0.00328265
20 *582:30 *617:53 0.000581055
21 *582:30 *647:22 8.42589e-05
22 *582:30 *667:18 0.000313957
23 *582:30 *675:26 0.000668878
24 *582:45 *670:8 1.28035e-05
25 N2BEGb[0] *582:16 0
26 N2BEGb[1] *582:16 5.85822e-06
27 N2BEGb[2] *582:16 1.61361e-05
28 N4BEG[13] *582:16 5.61255e-06
29 *27:11 *582:8 0
30 *123:14 *582:16 0.000222507
31 *148:8 *582:30 0.000300995
32 *149:8 *582:30 0.000134975
33 *161:11 *582:30 0.00017301
34 *162:9 *582:16 0.000326691
35 *162:9 *582:30 5.79489e-05
36 *229:37 *582:30 0.000159582
37 *229:45 *582:16 0.000350079
38 *271:28 *582:30 0.00143749
39 *504:28 *582:16 0.000840105
40 *515:12 *582:8 0.000162787
41 *515:18 *582:14 0
42 *515:18 *582:16 0
43 *533:38 *582:30 0.00117067
44 *534:38 *582:16 0.00187237
45 *559:61 *582:30 6.77278e-05
46 *562:10 *582:30 6.77694e-05
47 *571:20 *582:8 5.52299e-05
*RES
1 *1837:X *582:8 45.1879 
2 *582:8 *582:14 17.7861 
3 *582:14 *582:16 66.1304 
4 *582:16 *582:30 45.8379 
5 *582:30 *1648:D 40.4236 
6 *582:30 *582:45 15.3211 
7 *582:45 *1707:A 23 
8 *582:45 *1616:D 26.0036 
*END

*D_NET *583 0.040688
*CONN
*I *1473:A1 I *D sky130_fd_sc_hd__mux2_1
*I *1456:A1 I *D sky130_fd_sc_hd__mux2_1
*I *1520:A1 I *D sky130_fd_sc_hd__mux2_1
*I *1481:A1 I *D sky130_fd_sc_hd__mux4_1
*I *1547:A1 I *D sky130_fd_sc_hd__o211a_1
*I *2010:A I *D sky130_fd_sc_hd__buf_2
*I *1656:Q O *D sky130_fd_sc_hd__dfxtp_2
*CAP
1 *1473:A1 7.61724e-05
2 *1456:A1 8.22073e-05
3 *1520:A1 0.000227016
4 *1481:A1 0
5 *1547:A1 6.67273e-05
6 *2010:A 0
7 *1656:Q 0.000248719
8 *583:124 0.00156738
9 *583:118 0.00176361
10 *583:110 0.00145852
11 *583:96 0.00187692
12 *583:77 0.00129205
13 *583:64 0.000293967
14 *583:52 0.00361575
15 *583:26 0.000541886
16 *583:20 0.000913124
17 *583:16 0.000592384
18 *583:12 0.00328054
19 *1456:A1 *585:149 4.5051e-05
20 *1473:A1 *630:26 0.000177604
21 *1473:A1 *645:22 5.62507e-05
22 *1520:A1 *690:24 0.000234931
23 *1547:A1 *600:14 6.85548e-05
24 *1547:A1 *623:130 2.64616e-05
25 *583:12 *591:21 2.26497e-05
26 *583:12 *612:20 0.000513442
27 *583:12 *619:26 0.000152756
28 *583:16 *612:20 0.000305608
29 *583:16 *619:26 0.0001598
30 *583:20 *600:14 0.000338301
31 *583:20 *617:20 0
32 *583:26 *617:12 0.00256862
33 *583:52 *671:20 0.000349465
34 *583:64 *639:30 9.28078e-06
35 *583:77 *671:20 0.000903976
36 *583:110 *1604:GATE 0.000175903
37 *583:110 *587:147 0.000178517
38 *583:110 *587:164 0.000124306
39 *583:110 *642:8 4.97363e-05
40 *583:110 *664:14 2.80924e-06
41 *583:110 *690:24 0.000374046
42 *583:118 *625:34 0.000121976
43 *583:118 *630:26 0.000218476
44 *583:118 *645:22 4.67488e-05
45 *583:118 *673:43 0.000124066
46 *583:124 *586:66 4.62166e-06
47 *583:124 *613:32 0.000152116
48 *583:124 *627:10 2.39882e-05
49 *583:124 *648:28 0.000543342
50 *583:124 *659:32 0.000243832
51 *583:124 *684:18 7.4237e-05
52 N4BEG[11] *583:64 0.000207552
53 N4BEG[3] *583:52 0.000254783
54 N4BEG[7] *583:64 3.97709e-05
55 NN4BEG[11] *583:96 3.84903e-05
56 NN4BEG[3] *1520:A1 0.000283773
57 NN4BEG[3] *583:96 0.000285039
58 NN4BEG[4] *1520:A1 2.05503e-05
59 NN4BEG[4] *583:96 0.000292154
60 NN4BEG[5] *1520:A1 5.34094e-05
61 VALUE_top3 *583:26 0
62 VALUE_top8 *583:20 1.96198e-05
63 *1473:S *1473:A1 5.3304e-05
64 *1498:A *1547:A1 5.3304e-05
65 *1520:S *1520:A1 9.41704e-05
66 *1671:D *1547:A1 6.10136e-05
67 *1671:D *583:20 0.000363358
68 *1765:A *583:124 0.000136728
69 *1859:A *583:110 2.45831e-05
70 *134:14 *583:64 4.24761e-05
71 *146:8 *583:110 0.000167773
72 *162:9 *583:96 0.00123377
73 *163:11 *583:110 0.000106992
74 *173:11 *583:110 1.93817e-05
75 *173:17 *583:110 0.000326048
76 *178:9 *583:110 9.89529e-06
77 *180:15 *583:110 6.15475e-05
78 *229:37 *583:110 5.90541e-05
79 *229:45 *583:96 4.05745e-05
80 *251:8 *1456:A1 0.000313249
81 *315:10 *1456:A1 0.000399291
82 *376:12 *583:12 9.86551e-06
83 *419:10 *583:124 8.15379e-06
84 *462:32 *583:20 9.28078e-06
85 *462:32 *583:26 0.000190284
86 *487:18 *583:124 0.000814186
87 *488:24 *583:52 0.000258531
88 *492:22 *583:52 0.000180849
89 *504:28 *583:96 2.43944e-05
90 *515:26 *583:124 0.000714977
91 *520:40 *583:52 0.000346363
92 *520:40 *583:77 0.000898943
93 *520:40 *583:110 0.000721652
94 *528:12 *583:118 4.2062e-05
95 *528:32 *583:26 0.000221184
96 *533:58 *583:52 0.000269848
97 *547:26 *583:124 0
98 *553:24 *583:12 0.000201181
99 *561:22 *583:110 8.20563e-05
100 *574:32 *583:124 0.000533556
101 *579:16 *583:26 0.00256263
102 *580:77 *583:64 5.50049e-05
103 *582:16 *583:96 0.0011929
*RES
1 *1656:Q *583:12 47.3645 
2 *583:12 *583:16 8.61413 
3 *583:16 *583:20 22.7161 
4 *583:20 *583:26 46.2164 
5 *583:26 *2010:A 38 
6 *583:16 *1547:A1 39.6468 
7 *583:12 *583:52 23.6104 
8 *583:52 *583:64 27.8782 
9 *583:64 *1481:A1 23 
10 *583:52 *583:77 10.184 
11 *583:77 *1520:A1 43.2925 
12 *583:77 *583:96 49.5854 
13 *583:96 *583:110 47.3856 
14 *583:110 *583:118 34.4329 
15 *583:118 *583:124 46.2786 
16 *583:124 *1456:A1 42.4329 
17 *583:118 *1473:A1 25.0507 
*END

*D_NET *584 0.0334406
*CONN
*I *1474:A1 I *D sky130_fd_sc_hd__mux2_1
*I *1521:A1 I *D sky130_fd_sc_hd__mux2_1
*I *1482:A1 I *D sky130_fd_sc_hd__mux4_1
*I *1455:A1 I *D sky130_fd_sc_hd__mux2_1
*I *1550:A1 I *D sky130_fd_sc_hd__o211a_1
*I *2011:A I *D sky130_fd_sc_hd__buf_2
*I *1657:Q O *D sky130_fd_sc_hd__dfxtp_2
*CAP
1 *1474:A1 0
2 *1521:A1 0
3 *1482:A1 0.000292444
4 *1455:A1 0.000783548
5 *1550:A1 9.03345e-05
6 *2011:A 0
7 *1657:Q 0.000418209
8 *584:140 0.000394764
9 *584:125 0.00085212
10 *584:115 0.00236454
11 *584:90 0.00329178
12 *584:78 0.00180302
13 *584:58 0.000818118
14 *584:52 0.0021034
15 *584:28 0.000511745
16 *584:12 0.000905976
17 *584:10 0.00166186
18 *584:8 0.000418209
19 *1482:A1 *1591:GATE 3.10833e-05
20 *1482:A1 *1624:GATE 8.31153e-05
21 *1482:A1 *641:20 5.85486e-05
22 *1482:A1 *672:14 9.58714e-05
23 *1550:A1 *623:92 2.93104e-06
24 *584:8 *2015:A 0.000401009
25 *584:8 *588:52 1.38978e-05
26 *584:12 *623:88 1.57571e-05
27 *584:12 *623:92 0.000145784
28 *584:28 *622:183 7.44675e-05
29 *584:52 *608:24 4.98755e-05
30 *584:52 *623:92 0.000271975
31 *584:52 *623:113 9.33961e-05
32 *584:58 *590:58 2.93747e-05
33 *584:58 *617:20 0.000180218
34 *584:90 *1624:GATE 7.67827e-05
35 *584:90 *612:20 7.35164e-05
36 *584:90 *614:34 0.000108384
37 *584:90 *619:42 0
38 *584:90 *631:34 2.77188e-05
39 *584:90 *675:42 0.00114729
40 *584:115 *588:93 1.68097e-05
41 *584:115 *588:97 0.00115838
42 *584:115 *588:128 0.000601737
43 *584:125 *1466:A0 0.00022949
44 *584:125 *588:128 9.34937e-05
45 *584:125 *588:159 0.000278538
46 *584:125 *628:108 3.54728e-05
47 *584:125 *645:34 1.05743e-05
48 *584:140 *588:159 0.000275838
49 *584:140 *684:42 5.3304e-05
50 *584:140 *691:28 0.00019127
51 HOLD_top *584:58 5.6146e-05
52 VALUE_top4 *584:28 1.01436e-05
53 *1541:A1 *584:52 1.30878e-05
54 *1544:A2 *584:52 0.000185055
55 *1579:B *584:58 0.000270682
56 *1611:D *584:115 2.1819e-05
57 *1670:D *584:52 6.69604e-05
58 *1672:CLK *584:8 0
59 *1732:A *584:115 1.09903e-05
60 *1790:A *1455:A1 0.000221992
61 *1928:A *584:140 2.18409e-05
62 *232:24 *1455:A1 0.000181125
63 *232:26 *584:58 0.000238064
64 *232:34 *584:58 0.000135709
65 *237:18 *584:58 0.000135037
66 *237:39 *584:58 0.000803584
67 *246:37 *584:90 0.000589577
68 *249:12 *584:78 2.74365e-05
69 *381:10 *584:28 8.91468e-07
70 *396:10 *584:8 0.000138151
71 *396:26 *1550:A1 1.51276e-05
72 *396:26 *584:12 2.81406e-06
73 *407:26 *584:58 0.000103637
74 *415:30 *584:115 0.000128753
75 *437:10 *584:58 4.83626e-05
76 *439:10 *584:12 1.32939e-05
77 *443:8 *584:28 9.84794e-05
78 *443:12 *584:28 0.00017788
79 *448:18 *584:78 4.15283e-05
80 *455:65 *584:8 0
81 *455:75 *584:8 0
82 *457:8 *584:78 0.00073898
83 *462:18 *584:28 3.98818e-05
84 *463:38 *584:140 4.99125e-06
85 *484:10 *584:115 0.000403962
86 *493:41 *584:58 0.000693084
87 *499:14 *584:140 0.000567261
88 *518:8 *584:115 0.000317879
89 *526:61 *584:115 2.31687e-05
90 *548:62 *584:58 0
91 *551:20 *584:52 0.000108681
92 *552:24 *584:90 1.86684e-05
93 *568:22 *584:90 0.00134304
94 *574:8 *584:125 0.000999381
95 *574:8 *584:140 9.30054e-05
96 *574:22 *1482:A1 2.2539e-05
97 *574:22 *584:90 0.00015648
98 *577:24 *1455:A1 2.02872e-05
99 *577:24 *584:78 2.05503e-05
100 *577:44 *584:90 0.000892271
101 *578:16 *584:58 0.000275769
102 *578:43 *1482:A1 3.15611e-05
103 *578:119 *584:52 4.49262e-05
104 *581:108 *1482:A1 6.23386e-05
105 *581:116 *584:115 0.000167793
*RES
1 *1657:Q *584:8 46.5964 
2 *584:8 *584:10 15 
3 *584:10 *584:12 4.43286 
4 *584:12 *584:28 38.6793 
5 *584:28 *2011:A 23 
6 *584:12 *1550:A1 24.9679 
7 *584:10 *584:52 48.85 
8 *584:52 *584:58 36.7707 
9 *584:58 *1455:A1 40.5271 
10 *1455:A1 *584:78 48.3261 
11 *584:78 *584:90 25.2245 
12 *584:90 *1482:A1 43.7586 
13 *584:90 *584:115 49.2821 
14 *584:115 *584:125 44.21 
15 *584:125 *1521:A1 23 
16 *584:125 *584:140 40.5643 
17 *584:140 *1474:A1 23 
*END

*D_NET *585 0.0346376
*CONN
*I *1463:A1 I *D sky130_fd_sc_hd__mux2_1
*I *1454:A1 I *D sky130_fd_sc_hd__mux2_1
*I *1522:A1 I *D sky130_fd_sc_hd__mux2_1
*I *1479:A2 I *D sky130_fd_sc_hd__mux4_1
*I *1475:A1 I *D sky130_fd_sc_hd__mux2_1
*I *2012:A I *D sky130_fd_sc_hd__buf_2
*I *1553:A1 I *D sky130_fd_sc_hd__o211a_1
*I *1658:Q O *D sky130_fd_sc_hd__dfxtp_2
*CAP
1 *1463:A1 0.000492653
2 *1454:A1 8.59753e-05
3 *1522:A1 0
4 *1479:A2 6.48191e-05
5 *1475:A1 0.000365833
6 *2012:A 0
7 *1553:A1 2.47035e-06
8 *1658:Q 5.67095e-05
9 *585:149 0.00196113
10 *585:137 0.00259789
11 *585:128 0.000354471
12 *585:122 0.000588965
13 *585:106 0.000952868
14 *585:89 0.00055311
15 *585:87 0.000932561
16 *585:75 0.00212505
17 *585:52 0.00216709
18 *585:43 0.000516577
19 *585:26 0.0013418
20 *585:8 0.00148823
21 *1454:A1 *674:28 2.64616e-05
22 *1454:A1 *676:26 0.000273612
23 *1463:A1 *650:8 0.000127807
24 *1475:A1 *603:14 4.08427e-05
25 *1475:A1 *629:22 1.09043e-05
26 *1475:A1 *651:14 0
27 *1475:A1 *656:28 5.52001e-05
28 *1479:A2 *1479:A0 5.73314e-05
29 *585:26 *613:22 4.34973e-05
30 *585:26 *618:16 1.01436e-05
31 *585:26 *621:16 0.000215529
32 *585:43 *586:24 0.000605929
33 *585:52 *618:16 0.00111763
34 *585:52 *621:16 0.00112145
35 *585:75 *1526:A1 0.000740187
36 *585:75 *1529:A0 9.75779e-05
37 *585:75 *1598:D 4.21048e-05
38 *585:75 *1630:GATE 2.64616e-05
39 *585:75 *603:14 6.25481e-06
40 *585:75 *621:22 9.87964e-05
41 *585:75 *630:138 2.07242e-05
42 *585:75 *634:26 5.3304e-05
43 *585:75 *634:33 0.000514834
44 *585:75 *656:28 8.24407e-05
45 *585:75 *681:34 4.36401e-06
46 *585:87 *603:14 5.40684e-05
47 *585:87 *627:44 2.2324e-05
48 *585:87 *631:106 4.19902e-05
49 *585:87 *681:34 0.000205921
50 *585:106 *1479:A0 0.000367416
51 *585:106 *1491:A1 2.64616e-05
52 *585:106 *590:83 0.000316338
53 *585:106 *637:10 5.88461e-05
54 *585:106 *638:14 0.000736177
55 *585:106 *681:24 5.09512e-05
56 *585:122 *638:20 9.28078e-06
57 *585:122 *673:26 0.000161483
58 *585:122 *681:24 0.000285507
59 *585:122 *684:18 6.72824e-05
60 *585:128 *590:95 2.18506e-05
61 *585:128 *638:30 0.000310916
62 *585:137 *590:95 0.0008654
63 *585:137 *638:30 0.000384969
64 *585:149 *612:20 0.000322513
65 *585:149 *620:30 0.000112847
66 *585:149 *620:40 7.28722e-06
67 *585:149 *652:20 5.68422e-05
68 *585:149 *675:42 0.000420794
69 *1456:A1 *585:149 4.5051e-05
70 *1491:B1_N *585:106 0
71 *1522:S *585:128 2.82893e-05
72 *1526:S *585:75 0.000241703
73 *1529:S *585:75 3.22879e-05
74 *1553:B1 *585:26 0.000266637
75 *1553:B1 *585:43 5.61255e-06
76 *1674:CLK *585:8 1.59094e-05
77 *1735:A *585:106 0.000143655
78 *1775:A *585:137 0.000140259
79 *173:17 *1463:A1 5.08636e-05
80 *229:33 *585:106 5.86368e-05
81 *229:33 *585:122 0
82 *229:85 *1463:A1 9.67842e-05
83 *241:23 *585:26 2.93845e-05
84 *246:14 *585:149 0.000149532
85 *251:8 *585:149 0.000394405
86 *269:14 *1463:A1 6.69637e-06
87 *270:30 *585:122 8.11046e-05
88 *270:42 *585:106 7.34249e-05
89 *282:10 *585:75 9.67842e-05
90 *288:10 *1475:A1 1.12863e-05
91 *292:18 *585:122 2.05503e-05
92 *315:10 *1454:A1 0.000241904
93 *315:10 *585:149 5.56466e-05
94 *353:10 *585:75 5.3304e-05
95 *382:10 *585:26 2.93747e-05
96 *397:39 *1553:A1 1.33453e-05
97 *397:39 *585:43 8.86299e-05
98 *430:10 *585:149 9.75779e-05
99 *443:12 *585:43 0.000684938
100 *460:27 *585:106 0.000318039
101 *460:46 *585:128 0.000179473
102 *462:10 *585:75 1.05658e-05
103 *462:18 *585:43 6.1062e-05
104 *492:22 *585:87 0.000213892
105 *504:14 *585:75 9.8971e-06
106 *504:24 *585:75 0.000267614
107 *518:26 *585:26 3.90425e-05
108 *528:18 *1463:A1 0.000532861
109 *528:18 *585:149 0.000411527
110 *538:18 *585:149 6.95297e-05
111 *538:52 *585:87 6.64546e-05
112 *539:20 *585:87 0.00116879
113 *543:30 *585:122 2.39653e-05
114 *557:12 *1479:A2 8.6123e-05
115 *557:12 *585:75 1.36806e-05
116 *557:12 *585:106 0.000120867
117 *561:22 *1463:A1 0
118 *578:99 *585:87 0.000703905
119 *581:63 *585:75 0.000137651
*RES
1 *1658:Q *585:8 38.6214 
2 *585:8 *585:26 29.2411 
3 *585:26 *1553:A1 23.1761 
4 *585:26 *585:43 41.5689 
5 *585:43 *2012:A 23 
6 *585:8 *585:52 23.8154 
7 *585:52 *1475:A1 47.3303 
8 *585:52 *585:75 47.9446 
9 *585:75 *585:87 37.7097 
10 *585:87 *585:89 15 
11 *585:89 *1479:A2 24.8125 
12 *585:89 *585:106 46.7164 
13 *585:106 *585:122 35.9212 
14 *585:122 *585:128 18.9771 
15 *585:128 *1522:A1 23 
16 *585:128 *585:137 24.6736 
17 *585:137 *585:149 47.0036 
18 *585:149 *1454:A1 26.48 
19 *585:137 *1463:A1 46.99 
*END

*D_NET *586 0.0463232
*CONN
*I *1476:A1 I *D sky130_fd_sc_hd__mux2_1
*I *1556:A1 I *D sky130_fd_sc_hd__o211a_1
*I *1523:A1 I *D sky130_fd_sc_hd__mux2_1
*I *1464:A1 I *D sky130_fd_sc_hd__mux2_1
*I *1480:A2 I *D sky130_fd_sc_hd__mux4_1
*I *1453:A1 I *D sky130_fd_sc_hd__mux2_1
*I *2013:A I *D sky130_fd_sc_hd__buf_2
*I *1659:Q O *D sky130_fd_sc_hd__dfxtp_2
*CAP
1 *1476:A1 0
2 *1556:A1 0
3 *1523:A1 0
4 *1464:A1 0
5 *1480:A2 4.33392e-05
6 *1453:A1 5.51969e-05
7 *2013:A 0
8 *1659:Q 0
9 *586:139 0.000516797
10 *586:125 0.0011586
11 *586:112 0.00169012
12 *586:106 0.00231495
13 *586:93 0.00145103
14 *586:76 0.00127654
15 *586:66 0.0016843
16 *586:51 0.00203048
17 *586:45 0.00312945
18 *586:24 0.000758723
19 *586:12 0.00367496
20 *586:6 0.00112656
21 *1480:A2 *1480:A3 4.5745e-05
22 *586:12 *587:26 0
23 *586:12 *616:22 0.000693528
24 *586:12 *622:119 0.000382635
25 *586:24 *587:32 7.74339e-05
26 *586:24 *623:82 0.000364535
27 *586:24 *623:88 0.000145801
28 *586:45 *588:83 0.00241303
29 *586:45 *613:22 0.000672639
30 *586:45 *616:22 0.000744948
31 *586:45 *620:30 0.000796219
32 *586:45 *628:39 1.31766e-05
33 *586:51 *1591:GATE 3.39352e-05
34 *586:51 *588:83 3.48678e-05
35 *586:51 *620:30 0.00151437
36 *586:66 *1533:A1 0.00069075
37 *586:66 *589:120 0.000305431
38 *586:66 *626:22 0.0001332
39 *586:66 *627:10 0.000151657
40 *586:66 *627:107 4.1651e-05
41 *586:66 *641:20 0
42 *586:66 *659:32 0.000116537
43 *586:66 *675:26 8.04879e-05
44 *586:76 *590:118 0.000300123
45 *586:76 *619:50 0.000259842
46 *586:76 *669:28 7.07113e-06
47 *586:76 *669:34 1.37136e-05
48 *586:93 *1480:A3 3.77305e-05
49 *586:93 *590:118 6.92122e-05
50 *586:93 *626:43 0.000222467
51 *586:93 *685:16 0.000177604
52 *586:106 *1609:GATE 0.000165808
53 *586:112 *1637:D 5.29672e-05
54 *586:112 *1637:GATE 5.41385e-05
55 *586:112 *632:187 0.00012103
56 *586:125 *587:10 0
57 *586:125 *613:14 0.000135037
58 *586:125 *622:119 8.3004e-05
59 *586:139 *605:8 0.000118772
60 *586:139 *606:14 4.35008e-05
61 *586:139 *613:14 0.000229326
62 *586:139 *623:53 5.63264e-05
63 *586:139 *629:10 0.000287221
64 FrameData_O[15] *586:112 8.62876e-05
65 FrameData_O[17] *586:112 4.75766e-05
66 *1453:S *1453:A1 5.3304e-05
67 *1464:S *586:93 0.000100403
68 *1464:S *586:106 1.65153e-05
69 *1480:S1 *1480:A2 2.35426e-05
70 *1556:A2 *586:139 5.12055e-06
71 *1556:B1 *586:139 7.11824e-06
72 *1609:D *586:106 0.000178517
73 *1660:D *586:125 0.000230553
74 *1746:A *586:106 5.3304e-05
75 *2024:A *586:112 5.30077e-05
76 *2025:A *586:112 0.000325642
77 *67:23 *586:76 9.51908e-05
78 *213:32 *586:12 0.000690321
79 *213:32 *586:45 0.0022103
80 *232:65 *586:45 4.56255e-05
81 *232:83 *586:45 0.000207422
82 *234:25 *586:45 0.000162344
83 *241:23 *586:12 4.02909e-05
84 *274:8 *586:51 3.39102e-05
85 *274:8 *586:66 0.000160624
86 *383:10 *586:139 8.13001e-05
87 *384:8 *586:125 3.83778e-05
88 *397:39 *586:24 9.29393e-05
89 *399:18 *586:12 0
90 *399:18 *586:125 0
91 *415:50 *586:45 0.000157484
92 *436:24 *586:45 6.86109e-05
93 *443:12 *586:24 0.000142807
94 *456:6 *586:125 5.38291e-05
95 *456:22 *586:125 4.05745e-05
96 *456:22 *586:139 6.72184e-06
97 *462:10 *586:125 3.02231e-05
98 *462:18 *586:24 6.50143e-05
99 *464:54 *586:51 0.000577795
100 *468:18 *586:76 0.000888804
101 *469:14 *586:112 4.27854e-05
102 *471:16 *586:12 1.05243e-05
103 *489:22 *586:93 4.29508e-05
104 *493:12 *586:24 1.21972e-05
105 *498:14 *586:112 0.000162778
106 *499:14 *586:106 0.000187986
107 *513:12 *586:106 0.000188926
108 *518:26 *586:139 0
109 *533:6 *586:106 0.00115357
110 *535:14 *586:45 7.45978e-05
111 *535:14 *586:51 0.00215779
112 *538:18 *586:76 1.36509e-05
113 *538:42 *586:45 0.000125453
114 *548:62 *586:45 2.24814e-05
115 *548:76 *586:93 2.94414e-05
116 *563:6 *586:93 0.000308946
117 *568:48 *586:45 9.13321e-05
118 *574:32 *586:51 5.02951e-05
119 *574:32 *586:66 0.000110139
120 *576:10 *586:45 7.57281e-06
121 *577:44 *1480:A2 4.36547e-05
122 *577:44 *586:93 0.000215188
123 *578:43 *586:66 5.30106e-05
124 *579:115 *586:106 0.000242347
125 *580:18 *586:45 0.000431778
126 *581:108 *1453:A1 6.33017e-05
127 *583:124 *586:66 4.62166e-06
128 *585:43 *586:24 0.000605929
*RES
1 *1659:Q *586:6 38 
2 *586:6 *586:12 14.5951 
3 *586:12 *586:24 38.4425 
4 *586:24 *2013:A 23 
5 *586:12 *586:45 46.3654 
6 *586:45 *586:51 13.8214 
7 *586:51 *1453:A1 39.0979 
8 *586:51 *586:66 35.9007 
9 *586:66 *586:76 34.065 
10 *586:76 *1480:A2 38.9477 
11 *586:76 *586:93 31.1468 
12 *586:93 *1464:A1 23 
13 *586:93 *586:106 47.5243 
14 *586:106 *586:112 38.1171 
15 *586:112 *1523:A1 38 
16 *586:6 *586:125 24.3007 
17 *586:125 *586:139 40.1707 
18 *586:139 *1556:A1 23 
19 *586:125 *1476:A1 23 
*END

*D_NET *587 0.0325289
*CONN
*I *1524:A1 I *D sky130_fd_sc_hd__mux2_1
*I *1465:A1 I *D sky130_fd_sc_hd__mux2_1
*I *1481:A2 I *D sky130_fd_sc_hd__mux4_1
*I *1452:A1 I *D sky130_fd_sc_hd__mux2_1
*I *1477:A1 I *D sky130_fd_sc_hd__mux2_1
*I *1559:A1 I *D sky130_fd_sc_hd__o211a_1
*I *2014:A I *D sky130_fd_sc_hd__buf_2
*I *1660:Q O *D sky130_fd_sc_hd__dfxtp_2
*CAP
1 *1524:A1 0
2 *1465:A1 0
3 *1481:A2 0
4 *1452:A1 0.000192795
5 *1477:A1 0.000130624
6 *1559:A1 0
7 *2014:A 0
8 *1660:Q 3.41136e-05
9 *587:164 0.000336446
10 *587:147 0.000420768
11 *587:145 0.00111186
12 *587:131 0.00168815
13 *587:115 0.0012527
14 *587:92 0.00121463
15 *587:75 0.00081533
16 *587:73 0.00245031
17 *587:46 0.00332254
18 *587:32 0.000589237
19 *587:26 0.00129138
20 *587:10 0.000864131
21 *587:8 0.000937704
22 *1452:A1 *592:34 6.24793e-05
23 *587:26 *598:16 0.000175796
24 *587:26 *607:14 0.000385457
25 *587:26 *623:64 0
26 *587:26 *634:22 0.00055415
27 *587:32 *2015:A 0
28 *587:32 *623:82 7.29215e-05
29 *587:32 *623:88 0.000417328
30 *587:46 *681:34 2.50994e-05
31 *587:73 *592:22 0
32 *587:73 *655:48 0
33 *587:73 *682:66 4.04176e-05
34 *587:92 *592:34 0.000225837
35 *587:92 *682:58 1.33707e-05
36 *587:115 *617:53 0.000166617
37 *587:115 *667:18 0.000169525
38 *587:115 *682:42 6.19919e-05
39 *587:115 *682:58 0.000126667
40 *587:131 *1644:GATE 7.51453e-06
41 *587:131 *639:12 0.000519521
42 *587:145 *1646:GATE 7.21606e-05
43 *587:145 *664:14 0.000264564
44 *587:147 *664:14 3.50539e-05
45 *587:164 *643:10 9.41704e-05
46 *587:164 *645:10 4.34973e-05
47 *587:164 *664:14 1.61361e-05
48 N2BEG[1] *587:73 2.80036e-05
49 N2BEGb[4] *587:73 0.00036197
50 N2BEGb[7] *587:73 0.000169754
51 N4BEG[0] *587:73 0.000134303
52 N4BEG[12] *587:92 0.000225193
53 N4BEG[3] *587:73 0.000422754
54 N4BEG[4] *587:73 0.000142217
55 N4BEG[5] *587:73 0.000684625
56 VALUE_top5 *587:32 0.000103637
57 *1465:S *587:147 6.17437e-06
58 *1465:S *587:164 2.64616e-05
59 *1749:A *587:145 3.7681e-05
60 *1856:A *587:164 5.81505e-05
61 *1861:A *587:164 7.65141e-05
62 *1957:A *1477:A1 0.000183733
63 *1976:A *587:92 5.3304e-05
64 *2:8 *587:131 9.88259e-05
65 *118:8 *587:73 0.000101766
66 *132:10 *587:92 0.000309007
67 *144:12 *587:115 6.6663e-06
68 *161:19 *587:131 1.59071e-05
69 *162:15 *587:92 1.40087e-05
70 *163:19 *587:131 5.84246e-05
71 *164:13 *587:164 9.31932e-05
72 *169:13 *587:164 1.32314e-05
73 *175:19 *587:164 0.000251759
74 *255:8 *587:46 5.56306e-05
75 *262:10 *587:115 4.67137e-05
76 *271:45 *587:131 5.61255e-06
77 *304:10 *587:145 5.56356e-05
78 *354:10 *587:46 0
79 *362:10 *587:46 0
80 *384:8 *587:10 3.39096e-05
81 *385:10 *587:26 0.000107218
82 *396:10 *587:32 0
83 *396:26 *587:32 0.000358466
84 *399:18 *587:10 2.2539e-05
85 *399:18 *587:26 0.000237374
86 *400:22 *587:26 1.01065e-05
87 *400:22 *587:32 4.94435e-05
88 *419:24 *587:131 1.34995e-05
89 *455:65 *587:32 1.78655e-05
90 *455:75 *587:32 0.000138055
91 *456:6 *587:8 5.12254e-05
92 *456:60 *587:26 0.000154773
93 *460:10 *587:8 9.67842e-05
94 *462:10 *587:46 0
95 *464:38 *587:115 5.10545e-05
96 *493:12 *587:32 3.17634e-05
97 *520:40 *587:73 0.00162255
98 *528:46 *587:26 0.000139352
99 *529:40 *587:73 0.000106556
100 *531:52 *587:10 0.000105743
101 *531:52 *587:26 9.45814e-05
102 *531:52 *587:46 0.00047877
103 *531:52 *587:73 0.000163993
104 *533:38 *587:164 2.11157e-05
105 *533:58 *587:73 0.00106789
106 *534:28 *587:92 4.52006e-05
107 *535:26 *587:26 0.000213686
108 *536:20 *587:115 4.57342e-05
109 *537:38 *587:92 1.6318e-05
110 *537:38 *587:115 0.000146931
111 *542:38 *587:73 2.61501e-05
112 *543:30 *587:131 5.68443e-05
113 *544:30 *587:115 0.000268572
114 *551:24 *587:73 0.000153212
115 *561:30 *587:145 0.00106023
116 *562:10 *587:131 5.56279e-05
117 *562:10 *587:145 0
118 *564:10 *587:131 0.000100069
119 *564:10 *587:145 0.000139065
120 *565:12 *587:46 3.16908e-05
121 *565:28 *587:92 9.41704e-05
122 *566:18 *587:92 9.84794e-05
123 *567:10 *587:46 0.000113263
124 *572:64 *587:115 0.000135153
125 *573:22 *587:131 9.10938e-05
126 *580:65 *587:92 9.28078e-06
127 *580:118 *587:73 2.944e-05
128 *583:110 *587:147 0.000178517
129 *583:110 *587:164 0.000124306
130 *586:12 *587:26 0
131 *586:24 *587:32 7.74339e-05
132 *586:125 *587:10 0
*RES
1 *1660:Q *587:8 39.0979 
2 *587:8 *587:10 3.31429 
3 *587:10 *587:26 47.2446 
4 *587:26 *587:32 28.9925 
5 *587:32 *2014:A 23 
6 *587:10 *1559:A1 38 
7 *587:8 *587:46 14.5829 
8 *587:46 *1477:A1 40.0507 
9 *587:46 *587:73 49.5058 
10 *587:73 *587:75 15 
11 *587:75 *1452:A1 26.0036 
12 *587:75 *587:92 42.8946 
13 *587:92 *1481:A2 23 
14 *587:92 *587:115 45.4904 
15 *587:115 *587:131 35.8118 
16 *587:131 *587:145 49.8029 
17 *587:145 *587:147 2.05071 
18 *587:147 *1465:A1 23 
19 *587:147 *587:164 37.7886 
20 *587:164 *1524:A1 23 
*END

*D_NET *588 0.0477516
*CONN
*I *1525:A1 I *D sky130_fd_sc_hd__mux2_1
*I *1482:A2 I *D sky130_fd_sc_hd__mux4_1
*I *1466:A1 I *D sky130_fd_sc_hd__mux2_1
*I *1451:A1 I *D sky130_fd_sc_hd__mux2_1
*I *2015:A I *D sky130_fd_sc_hd__buf_2
*I *1478:A1 I *D sky130_fd_sc_hd__mux2_1
*I *1562:A1 I *D sky130_fd_sc_hd__o211a_1
*I *1661:Q O *D sky130_fd_sc_hd__dfxtp_2
*CAP
1 *1525:A1 0
2 *1482:A2 9.04987e-05
3 *1466:A1 0.000287621
4 *1451:A1 8.07593e-05
5 *2015:A 0.000472828
6 *1478:A1 5.16801e-05
7 *1562:A1 0
8 *1661:Q 0
9 *588:163 0.000824578
10 *588:159 0.0011122
11 *588:128 0.000734114
12 *588:105 0.00152565
13 *588:97 0.00256439
14 *588:93 0.000941965
15 *588:83 0.00428664
16 *588:52 0.00424562
17 *588:41 0.00150109
18 *588:29 0.00181498
19 *588:18 3.12557e-05
20 *588:12 0.000355224
21 *588:4 0.000556305
22 *1451:A1 *670:16 9.5877e-05
23 *1478:A1 *625:134 0.000229801
24 *1482:A2 *676:16 4.35681e-06
25 *2015:A *624:22 9.82661e-05
26 *588:12 *598:16 9.2467e-06
27 *588:12 *623:37 4.08664e-05
28 *588:12 *623:39 4.17736e-05
29 *588:12 *623:41 0.000180218
30 *588:12 *623:82 0.000179993
31 *588:12 *624:28 0.000154386
32 *588:29 *607:14 2.18506e-05
33 *588:29 *624:28 0.000307132
34 *588:41 *1629:D 2.00313e-05
35 *588:41 *589:56 4.08537e-05
36 *588:41 *618:26 2.31202e-05
37 *588:41 *621:22 7.57281e-06
38 *588:41 *623:31 6.16439e-05
39 *588:41 *623:37 0.000262086
40 *588:41 *624:22 1.75427e-05
41 *588:41 *630:113 5.48289e-05
42 *588:41 *630:138 5.09205e-05
43 *588:52 *624:22 0.000216191
44 *588:83 *613:22 0.000729542
45 *588:83 *620:30 0.00189781
46 *588:93 *661:12 4.30119e-05
47 *588:93 *676:16 2.57253e-05
48 *588:97 *614:76 5.3304e-05
49 *588:105 *1607:GATE 0.000225615
50 *588:105 *1797:A 0.000594431
51 *588:105 *652:28 0.000256787
52 *588:105 *662:20 0.00035844
53 *588:105 *685:16 0.000784674
54 *588:105 *685:20 1.19831e-05
55 *588:105 *687:26 0
56 *588:128 *1466:A0 0.000235961
57 *588:128 *628:108 0.000185371
58 *588:159 *1466:A0 5.79559e-05
59 *588:159 *691:28 8.4047e-05
60 *699:DIODE *588:163 0.00106712
61 *1478:S *1478:A1 0.000229801
62 *1515:A1 *588:105 3.87473e-05
63 *1565:A2 *588:41 0.000128489
64 *1645:D *588:105 1.60389e-05
65 *1677:D *588:41 4.98755e-05
66 *1744:A *588:105 1.30346e-05
67 *1928:A *588:159 0.00039238
68 *253:10 *588:41 1.19831e-05
69 *281:10 *588:41 5.63702e-05
70 *396:10 *588:29 5.50049e-05
71 *396:10 *588:41 9.28078e-06
72 *396:10 *588:52 7.75695e-05
73 *400:43 *588:18 5.79466e-05
74 *414:10 *588:105 0
75 *415:10 *588:105 1.90943e-05
76 *415:30 *588:83 0.00013721
77 *415:50 *588:83 0.00034821
78 *455:75 *2015:A 0
79 *461:12 *588:41 0
80 *461:16 *2015:A 0.000591555
81 *461:16 *588:41 0.000123676
82 *463:38 *588:159 2.24973e-05
83 *464:38 *588:83 0.000613173
84 *464:54 *588:83 0.000843949
85 *491:22 *588:93 9.28078e-06
86 *491:34 *588:97 0.000319473
87 *491:34 *588:128 6.51763e-05
88 *504:24 *588:41 0
89 *508:26 *588:105 0.000113144
90 *526:44 *588:105 0
91 *526:46 *588:128 0.00035673
92 *526:61 *588:128 8.52481e-05
93 *528:46 *588:18 6.01687e-05
94 *531:10 *588:105 0
95 *531:26 *588:83 0.00266467
96 *532:18 *588:41 0.000575467
97 *535:14 *588:83 0.000206089
98 *535:26 *588:41 0.000253715
99 *548:68 *588:105 0
100 *548:76 *588:105 3.9307e-05
101 *552:60 *588:83 0.00249465
102 *553:36 *588:41 0.000259285
103 *560:14 *588:93 2.77941e-05
104 *567:22 *588:41 0.000511951
105 *574:8 *588:128 2.09785e-05
106 *578:55 *1482:A2 9.11331e-05
107 *579:107 *588:105 0
108 *579:107 *588:128 0
109 *581:116 *588:93 0.000266135
110 *584:8 *2015:A 0.000401009
111 *584:8 *588:52 1.38978e-05
112 *584:115 *588:93 1.68097e-05
113 *584:115 *588:97 0.00115838
114 *584:115 *588:128 0.000601737
115 *584:125 *588:128 9.34937e-05
116 *584:125 *588:159 0.000278538
117 *584:140 *588:159 0.000275838
118 *586:45 *588:83 0.00241303
119 *586:51 *588:83 3.48678e-05
120 *587:32 *2015:A 0
*RES
1 *1661:Q *588:4 23 
2 *588:4 *588:12 35.6136 
3 *588:12 *588:18 30.8493 
4 *588:18 *1562:A1 23 
5 *588:4 *588:29 19.4536 
6 *588:29 *588:41 41.1534 
7 *588:41 *1478:A1 40.5271 
8 *588:29 *588:52 3.13821 
9 *588:52 *2015:A 49.2996 
10 *588:52 *588:83 46.3099 
11 *588:83 *588:93 38.1925 
12 *588:93 *588:97 28.0086 
13 *588:97 *588:105 43.1507 
14 *588:105 *1451:A1 39.0979 
15 *588:97 *588:128 46.6543 
16 *588:128 *1466:A1 23 
17 *588:83 *1482:A2 40.1336 
18 *1466:A1 *588:159 46.8864 
19 *588:159 *588:163 27.0557 
20 *588:163 *1525:A1 23 
*END

*D_NET *589 0.0307271
*CONN
*I *1533:A1 I *D sky130_fd_sc_hd__mux2_1
*I *1467:A1 I *D sky130_fd_sc_hd__mux2_1
*I *1479:A3 I *D sky130_fd_sc_hd__mux4_1
*I *1526:A1 I *D sky130_fd_sc_hd__mux2_1
*I *1565:A1 I *D sky130_fd_sc_hd__o211a_1
*I *2016:A I *D sky130_fd_sc_hd__buf_2
*I *1662:Q O *D sky130_fd_sc_hd__dfxtp_1
*CAP
1 *1533:A1 0.000495642
2 *1467:A1 0
3 *1479:A3 0.000126344
4 *1526:A1 0.000518414
5 *1565:A1 6.78318e-05
6 *2016:A 0
7 *1662:Q 0.000109023
8 *589:134 0.00062545
9 *589:120 0.00243982
10 *589:106 0.00223353
11 *589:77 0.00224692
12 *589:56 0.00108944
13 *589:35 0.000706846
14 *589:28 0.00073269
15 *589:18 0.00137247
16 *589:10 0.0018866
17 *1479:A3 *1479:A0 3.3577e-05
18 *1533:A1 *1687:A 5.56356e-05
19 *1533:A1 *626:22 5.56356e-05
20 *1533:A1 *626:41 0.00024012
21 *1533:A1 *632:78 3.05574e-05
22 *589:10 *623:31 5.61255e-06
23 *589:28 *622:46 0.000564868
24 *589:28 *622:48 0.000153598
25 *589:28 *622:72 0.000261813
26 *589:56 *590:41 4.52872e-05
27 *589:56 *616:22 5.02231e-05
28 *589:77 *590:75 0.000114273
29 *589:77 *617:28 0.000589111
30 *589:77 *662:20 0.000913015
31 *589:77 *680:26 0.000133847
32 *589:77 *683:26 0.000378317
33 *589:106 *590:75 0.000496115
34 *589:106 *604:20 0.000183236
35 *589:106 *622:14 0.000181125
36 *589:106 *622:205 0.000156083
37 *589:106 *683:26 0.00051865
38 *589:120 *604:10 4.21158e-05
39 *589:120 *604:20 0.000397
40 *589:120 *626:22 0.001275
41 *589:120 *641:20 7.19826e-05
42 *589:134 *632:78 0
43 *589:134 *641:20 0.00039573
44 *589:134 *668:30 9.94357e-05
45 *589:134 *668:49 4.09864e-05
46 *589:134 *692:26 7.07673e-05
47 VALUE_top6 *589:28 0.00010018
48 *1495:C *589:120 1.95448e-05
49 *1510:A *589:106 9.2018e-06
50 *1533:S *1533:A1 9.01952e-05
51 *1534:A *589:106 1.21972e-05
52 *1534:B *589:106 5.50049e-05
53 *1581:D *589:106 1.64354e-05
54 *1610:D *1533:A1 1.40183e-05
55 *1610:D *589:120 1.17256e-05
56 *1662:D *1565:A1 0
57 *1664:D *589:106 6.17437e-06
58 *1678:D *589:18 1.53528e-06
59 *1743:A *589:106 0.000268503
60 *1789:A *589:28 0.000309947
61 *1789:A *589:35 0.000132743
62 *1789:A *589:56 0.000188148
63 *1822:A *589:18 3.82058e-06
64 *229:14 *589:106 1.41129e-05
65 *229:33 *589:106 9.41704e-05
66 *230:8 *589:120 0.000143535
67 *232:93 *589:106 5.56279e-05
68 *236:18 *589:18 1.01436e-05
69 *244:21 *589:18 1.70542e-05
70 *314:10 *589:77 0.000205907
71 *425:47 *589:106 0
72 *432:12 *589:106 3.21574e-05
73 *444:8 *1565:A1 1.89095e-05
74 *445:16 *1565:A1 4.67488e-05
75 *445:16 *589:10 0.000190955
76 *446:8 *589:77 0.00013321
77 *455:75 *589:28 2.18506e-05
78 *456:80 *1565:A1 3.17027e-05
79 *456:88 *589:28 0.000262228
80 *456:88 *589:35 0.000123529
81 *456:88 *589:56 2.40336e-05
82 *456:95 *1565:A1 5.3304e-05
83 *456:106 *589:10 4.57742e-05
84 *460:46 *589:120 0.000529797
85 *461:12 *589:56 3.35885e-06
86 *461:16 *589:28 0.00100245
87 *461:16 *589:56 0.00027157
88 *493:24 *589:28 1.13589e-05
89 *494:20 *589:77 7.16228e-05
90 *521:8 *589:106 2.41841e-05
91 *530:12 *589:106 8.99655e-05
92 *531:46 *589:77 0.000441552
93 *531:52 *589:77 0.00024459
94 *534:12 *589:134 3.78016e-05
95 *543:20 *589:120 0.000283347
96 *552:60 *589:10 4.30894e-05
97 *552:60 *589:18 3.04439e-05
98 *555:42 *589:10 3.76475e-05
99 *555:42 *589:18 7.17297e-05
100 *557:12 *1479:A3 5.12254e-05
101 *566:18 *1479:A3 3.89965e-05
102 *573:14 *589:106 0.000165076
103 *573:14 *589:120 2.98869e-05
104 *578:89 *589:106 0.000353428
105 *581:49 *589:18 6.41868e-05
106 *581:63 *589:56 8.35508e-05
107 *585:75 *1526:A1 0.000740187
108 *586:66 *1533:A1 0.00069075
109 *586:66 *589:120 0.000305431
110 *588:41 *589:56 4.08537e-05
*RES
1 *1662:Q *589:10 40.7239 
2 *589:10 *589:18 37.3639 
3 *589:18 *589:28 34.9686 
4 *589:28 *2016:A 23 
5 *589:18 *589:35 1.90571 
6 *589:35 *1565:A1 39.595 
7 *589:35 *589:56 39.6114 
8 *589:56 *1526:A1 46.2443 
9 *589:10 *589:77 35.1986 
10 *589:77 *1479:A3 48.4754 
11 *589:77 *589:106 42.2136 
12 *589:106 *589:120 45.0927 
13 *589:120 *589:134 40.5539 
14 *589:134 *1467:A1 38 
15 *589:120 *1533:A1 49.7968 
*END

*D_NET *590 0.0331519
*CONN
*I *1468:A1 I *D sky130_fd_sc_hd__mux2_1
*I *1480:A3 I *D sky130_fd_sc_hd__mux4_1
*I *1532:A1 I *D sky130_fd_sc_hd__mux2_1
*I *2017:A I *D sky130_fd_sc_hd__buf_2
*I *1527:A1 I *D sky130_fd_sc_hd__mux2_1
*I *1568:A1 I *D sky130_fd_sc_hd__o211a_1
*I *1663:Q O *D sky130_fd_sc_hd__dfxtp_2
*CAP
1 *1468:A1 0
2 *1480:A3 4.05357e-05
3 *1532:A1 0
4 *2017:A 0
5 *1527:A1 0
6 *1568:A1 0.000217888
7 *1663:Q 2.52923e-05
8 *590:137 0.00160323
9 *590:118 0.00250027
10 *590:95 0.00211446
11 *590:83 0.00255925
12 *590:75 0.0019304
13 *590:58 0.00105433
14 *590:50 0.00181234
15 *590:41 0.00117991
16 *590:10 0.00158422
17 *590:6 0.000340613
18 *1568:A1 *623:12 4.93812e-05
19 *1568:A1 *627:34 4.82567e-05
20 *590:41 *1569:A 0.000221707
21 *590:41 *627:34 0.000221307
22 *590:41 *659:40 0.000527025
23 *590:58 *623:130 2.31202e-05
24 *590:75 *622:32 5.99567e-06
25 *590:75 *680:26 0.000747443
26 *590:75 *683:26 6.94148e-05
27 *590:83 *638:30 0.00057294
28 *590:83 *650:47 1.36069e-05
29 *590:83 *692:38 2.76611e-06
30 *590:95 *638:30 0.00062906
31 *590:118 *1596:D 1.98016e-05
32 *590:118 *1628:D 1.17256e-05
33 *590:118 *619:50 0.000557692
34 *590:118 *620:57 4.25801e-05
35 *590:118 *638:30 0.000346114
36 *1480:A2 *1480:A3 4.5745e-05
37 *1480:S1 *590:137 6.70361e-05
38 *1487:A1 *590:137 8.06804e-06
39 *1487:A2 *590:137 0.000236933
40 *1487:B1 *590:137 0.000282782
41 *1487:C1 *590:137 0.000140259
42 *1515:A1 *590:137 5.3304e-05
43 *1527:S *590:41 3.40195e-05
44 *1530:A1 *590:41 0.000148908
45 *1765:A *590:95 2.82257e-05
46 *1807:A *1568:A1 0.000157811
47 *1807:A *590:41 0.00022976
48 *279:16 *590:118 1.6532e-05
49 *319:10 *590:137 0.000136743
50 *342:12 *590:95 0.000159509
51 *344:10 *590:41 5.50106e-05
52 *359:10 *590:137 9.75779e-05
53 *376:12 *590:58 5.72021e-05
54 *403:22 *590:58 5.79413e-06
55 *419:10 *590:95 0.000180224
56 *421:10 *590:83 0
57 *437:10 *590:58 5.67058e-05
58 *459:26 *590:58 0.000111403
59 *460:20 *590:75 0.000176491
60 *460:20 *590:83 0.000565579
61 *460:27 *590:83 5.60845e-05
62 *460:46 *590:83 1.17256e-05
63 *489:22 *1480:A3 8.57069e-05
64 *489:22 *590:118 5.99983e-05
65 *493:24 *590:58 9.28078e-06
66 *494:20 *1568:A1 0.000183788
67 *498:14 *590:137 9.91895e-05
68 *515:48 *590:95 2.43944e-05
69 *521:8 *590:75 2.05503e-05
70 *530:12 *590:10 0.000261206
71 *530:12 *590:50 0.000257636
72 *538:18 *590:118 0.00110924
73 *553:24 *590:58 0.00112326
74 *554:16 *590:58 0.00128191
75 *554:16 *590:75 5.42005e-05
76 *556:28 *1568:A1 5.23737e-05
77 *563:14 *590:118 5.81171e-05
78 *566:8 *590:41 0.00113109
79 *566:12 *590:41 0.000537037
80 *580:8 *590:50 0.000178235
81 *580:48 *590:75 0
82 *581:63 *590:41 0.000136851
83 *584:58 *590:58 2.93747e-05
84 *585:106 *590:83 0.000316338
85 *585:128 *590:95 2.18506e-05
86 *585:137 *590:95 0.0008654
87 *586:76 *590:118 0.000300123
88 *586:93 *1480:A3 3.77305e-05
89 *586:93 *590:118 6.92122e-05
90 *589:56 *590:41 4.52872e-05
91 *589:77 *590:75 0.000114273
92 *589:106 *590:75 0.000496115
*RES
1 *1663:Q *590:6 23.4971 
2 *590:6 *590:10 18.0036 
3 *590:10 *1568:A1 43.2614 
4 *590:10 *590:41 47.3143 
5 *590:41 *1527:A1 23 
6 *590:6 *590:50 18.0036 
7 *590:50 *590:58 38.5729 
8 *590:58 *2017:A 23 
9 *590:50 *590:75 37.2977 
10 *590:75 *590:83 48.85 
11 *590:83 *590:95 26.1 
12 *590:95 *1532:A1 23 
13 *590:95 *590:118 40.5562 
14 *590:118 *1480:A3 39.2014 
15 *590:118 *590:137 41.0586 
16 *590:137 *1468:A1 23 
*END

*D_NET *591 0.00545187
*CONN
*I *1444:A I *D sky130_fd_sc_hd__inv_2
*I *1561:A I *D sky130_fd_sc_hd__and2_1
*I *1805:X O *D sky130_fd_sc_hd__dlygate4sd3_1
*CAP
1 *1444:A 0
2 *1561:A 0.000502608
3 *1805:X 0.000124016
4 *591:21 0.000668377
5 *591:6 0.001295
6 *1561:A *1546:B 1.64699e-05
7 *1561:A *1561:B 1.00493e-05
8 *1561:A *624:6 0.000362139
9 *1561:A *624:140 0.000589795
10 *591:21 *608:40 7.81764e-05
11 *1805:A *1561:A 1.41129e-05
12 *376:12 *591:21 0.00019938
13 *423:18 *1561:A 3.7122e-06
14 *453:6 *1561:A 0.000861612
15 *453:37 *1561:A 0.000141215
16 *453:37 *591:6 0.000213869
17 *579:10 *591:21 0.000167357
18 *579:14 *591:21 0.000181337
19 *581:34 *591:21 0
20 *583:12 *591:21 2.26497e-05
*RES
1 *1805:X *591:6 25.5271 
2 *591:6 *1561:A 36.9821 
3 *591:6 *591:21 42.1179 
4 *591:21 *1444:A 23 
*END

*D_NET *592 0.01759
*CONN
*I *1649:D I *D sky130_fd_sc_hd__dlxtp_1
*I *1617:D I *D sky130_fd_sc_hd__dlxtp_1
*I *1708:A I *D sky130_fd_sc_hd__buf_1
*I *1838:X O *D sky130_fd_sc_hd__buf_1
*CAP
1 *1649:D 0
2 *1617:D 0.000121744
3 *1708:A 1.94238e-05
4 *1838:X 0.000829075
5 *592:90 0.000200964
6 *592:75 0.000874309
7 *592:58 0.00132932
8 *592:34 0.00195707
9 *592:22 0.00212407
10 *592:10 0.00175438
11 *1708:A *639:12 5.3304e-05
12 *592:22 *616:26 4.40114e-05
13 *592:22 *616:43 3.9015e-05
14 *592:22 *682:66 0.00117736
15 *592:34 *638:8 0.000107611
16 *592:58 *1649:GATE 2.12347e-06
17 *592:58 *630:58 1.74874e-06
18 *592:58 *638:14 0.000192932
19 *592:75 *1649:GATE 1.34487e-05
20 *592:75 *682:42 0.000107611
21 *592:90 *628:76 4.52304e-05
22 *592:90 *682:34 4.98399e-06
23 NN4BEG[5] *592:75 9.28078e-06
24 *1452:A1 *592:34 6.24793e-05
25 *1736:A *592:22 0.000140935
26 *1737:A *592:10 0.000135949
27 *1976:A *592:34 1.59094e-05
28 *2001:A *592:75 0.00013007
29 *2003:A *592:75 0.000138607
30 *2003:A *592:90 0.000172174
31 *2:14 *592:75 2.79972e-05
32 *134:14 *592:34 9.5877e-05
33 *143:14 *592:34 2.04458e-05
34 *144:12 *592:58 0.000401943
35 *154:8 *592:34 4.57742e-05
36 *156:14 *592:58 3.7506e-05
37 *161:19 *592:90 3.02865e-05
38 *281:10 *592:22 9.64028e-05
39 *318:8 *592:58 6.72648e-05
40 *321:8 *592:22 7.07958e-05
41 *339:10 *592:34 0.000124902
42 *354:10 *592:10 2.05503e-05
43 *462:8 *592:10 0.000300203
44 *462:10 *592:10 6.12496e-06
45 *470:12 *592:58 0.000409561
46 *481:12 *592:75 7.0261e-05
47 *520:40 *592:22 0
48 *522:10 *592:22 9.67842e-05
49 *536:8 *1617:D 0.00018304
50 *536:8 *592:75 1.41129e-05
51 *537:26 *592:10 5.26733e-06
52 *537:26 *592:22 0.000545244
53 *537:38 *592:22 4.21062e-05
54 *537:38 *592:58 2.24608e-05
55 *543:30 *1708:A 5.56356e-05
56 *547:42 *592:58 0.000411884
57 *552:74 *592:22 0.000109664
58 *553:36 *592:22 9.23705e-06
59 *557:18 *592:58 2.47015e-05
60 *559:30 *592:22 0.00155978
61 *566:18 *592:34 9.84794e-05
62 *567:22 *592:58 0.000219753
63 *568:54 *592:58 3.27275e-05
64 *574:52 *592:58 2.05503e-05
65 *574:52 *592:75 0.000281736
66 *587:73 *592:22 0
67 *587:92 *592:34 0.000225837
*RES
1 *1838:X *592:10 48.4711 
2 *592:10 *592:22 43.5973 
3 *592:22 *592:34 48.2907 
4 *592:34 *592:58 43.2217 
5 *592:58 *1708:A 38.6214 
6 *592:58 *592:75 25.2329 
7 *592:75 *1617:D 25.5479 
8 *592:75 *592:90 32.9621 
9 *592:90 *1649:D 23 
*END

*D_NET *593 0.000221016
*CONN
*I *1511:A1 I *D sky130_fd_sc_hd__o21a_1
*I *1816:X O *D sky130_fd_sc_hd__dlygate4sd3_1
*CAP
1 *1511:A1 5.0192e-05
2 *1816:X 5.0192e-05
3 *1511:B1 *1511:A1 9.41704e-05
4 *581:16 *1511:A1 2.64616e-05
*RES
1 *1816:X *1511:A1 47.0979 
*END

*D_NET *594 0.00103866
*CONN
*I *1508:A1 I *D sky130_fd_sc_hd__o21a_1
*I *1817:X O *D sky130_fd_sc_hd__dlygate4sd3_1
*CAP
1 *1508:A1 5.0725e-05
2 *1817:X 0.000194254
3 *594:10 0.000244979
4 *1507:B *1508:A1 2.4754e-05
5 *1508:A2 *1508:A1 5.67058e-05
6 *1513:A_N *594:10 2.93845e-05
7 *249:41 *594:10 3.41998e-06
8 *415:32 *1508:A1 9.84851e-05
9 *415:34 *1508:A1 0.000141954
10 *415:107 *594:10 5.6478e-05
11 *430:36 *1508:A1 0.000107168
12 *568:22 *594:10 3.03483e-05
*RES
1 *1817:X *594:10 40.8793 
2 *594:10 *1508:A1 40.5271 
*END

*D_NET *595 0.0034623
*CONN
*I *1447:A I *D sky130_fd_sc_hd__inv_2
*I *1818:X O *D sky130_fd_sc_hd__dlygate4sd3_1
*CAP
1 *1447:A 0.000293372
2 *1818:X 0.000705924
3 *595:8 0.000999295
4 *1500:B *1447:A 7.89883e-05
5 *1506:A *1447:A 5.50049e-05
6 *1512:B *1447:A 0.000136743
7 *1585:D *595:8 5.73018e-05
8 *232:83 *1447:A 0.000341032
9 *232:93 *595:8 0.0001262
10 *234:10 *1447:A 4.34745e-05
11 *372:10 *1447:A 0.000112598
12 *376:27 *595:8 5.67058e-05
13 *415:52 *1447:A 0.000161779
14 *425:6 *595:8 4.68021e-06
15 *425:18 *595:8 0.000181174
16 *458:78 *595:8 2.02872e-05
17 *458:80 *595:8 4.21281e-05
18 *578:16 *1447:A 4.56089e-05
*RES
1 *1818:X *595:8 46.7207 
2 *595:8 *1447:A 45.1257 
*END

*D_NET *596 0.00321333
*CONN
*I *1538:A I *D sky130_fd_sc_hd__nand2_1
*I *1819:X O *D sky130_fd_sc_hd__dlygate4sd3_1
*CAP
1 *1538:A 0
2 *1819:X 0.0011519
3 *596:12 0.000100388
4 *596:6 0.00125228
5 *596:6 *1553:C1 1.21972e-05
6 *596:6 *624:14 2.71828e-05
7 *596:6 *624:22 8.37133e-05
8 *596:12 *607:14 0.000153122
9 *1553:B1 *596:6 0.000175903
10 *396:14 *596:6 1.72719e-06
11 *396:26 *596:6 6.52627e-05
12 *397:39 *596:6 5.89166e-05
13 *455:34 *596:12 0.000130733
*RES
1 *1819:X *596:6 36.485 
2 *596:6 *596:12 32.2579 
3 *596:12 *1538:A 23 
*END

*D_NET *597 0.00282378
*CONN
*I *1495:A I *D sky130_fd_sc_hd__and3_1
*I *1446:A I *D sky130_fd_sc_hd__inv_2
*I *1820:X O *D sky130_fd_sc_hd__dlygate4sd3_1
*CAP
1 *1495:A 0
2 *1446:A 0
3 *1820:X 0.000875398
4 *597:28 0.000254768
5 *597:10 0.00062063
6 *597:10 *627:30 3.88766e-05
7 *597:10 *628:76 0
8 *421:10 *597:28 3.41998e-06
9 *421:16 *597:28 4.75593e-05
10 *458:28 *597:10 0.000143989
11 *458:30 *597:10 1.14452e-05
12 *468:10 *597:28 9.47911e-06
13 *528:18 *597:10 0.000227208
14 *531:26 *597:10 0.000405204
15 *574:42 *597:10 5.58873e-06
16 *578:43 *597:28 0.000180218
*RES
1 *1820:X *597:10 48.0257 
2 *597:10 *1446:A 38 
3 *1820:X *597:28 41.6043 
4 *597:28 *1495:A 38 
*END

*D_NET *598 0.00430252
*CONN
*I *1561:B I *D sky130_fd_sc_hd__and2_1
*I *1563:A I *D sky130_fd_sc_hd__nand2_1
*I *1821:X O *D sky130_fd_sc_hd__dlygate4sd3_1
*CAP
1 *1561:B 0.000167192
2 *1563:A 0
3 *1821:X 0
4 *598:16 0.00075435
5 *598:4 0.000921542
6 *598:16 *1566:B 9.28078e-06
7 *598:16 *623:82 2.16042e-05
8 *598:16 *624:28 0.00020326
9 *598:16 *624:37 0.000190075
10 *598:16 *624:90 5.43589e-05
11 *1561:A *1561:B 1.00493e-05
12 *400:14 *1561:B 0.000226575
13 *400:14 *598:16 0.000624074
14 *400:22 *598:16 4.6318e-06
15 *423:18 *1561:B 6.47898e-05
16 *444:8 *598:16 5.3304e-05
17 *453:6 *1561:B 0.000412887
18 *453:6 *598:16 0.000181125
19 *456:80 *598:16 5.3304e-05
20 *535:26 *598:16 0.00016507
21 *587:26 *598:16 0.000175796
22 *588:12 *598:16 9.2467e-06
*RES
1 *1821:X *598:4 23 
2 *598:4 *598:16 46.3021 
3 *598:16 *1563:A 23 
4 *598:4 *1561:B 28.9036 
*END

*D_NET *599 0.000752515
*CONN
*I *1566:A I *D sky130_fd_sc_hd__nand2_1
*I *1564:B I *D sky130_fd_sc_hd__and2_1
*I *1822:X O *D sky130_fd_sc_hd__dlygate4sd3_1
*CAP
1 *1566:A 0
2 *1564:B 7.06965e-05
3 *1822:X 0.000146152
4 *599:20 7.54559e-05
5 *1564:B *623:37 0.000139357
6 *599:20 *623:37 0.00016124
7 *535:26 *599:20 0.000159613
*RES
1 *1822:X *1564:B 47.5743 
2 *1822:X *599:20 40.2579 
3 *599:20 *1566:A 38 
*END

*D_NET *600 0.00534113
*CONN
*I *1542:A I *D sky130_fd_sc_hd__nand2_1
*I *1540:B I *D sky130_fd_sc_hd__and2_1
*I *1823:X O *D sky130_fd_sc_hd__dlygate4sd3_1
*CAP
1 *1542:A 0
2 *1540:B 3.82096e-05
3 *1823:X 0.000436838
4 *600:32 0.000429816
5 *600:14 0.000928413
6 *600:8 0.000973644
7 *1540:B *1543:A 5.3304e-05
8 *1540:B *622:72 3.04295e-05
9 *600:8 *608:8 0.000341983
10 *600:8 *624:14 2.45549e-06
11 *600:14 *608:24 6.23967e-05
12 *600:14 *617:20 7.71219e-06
13 *600:32 *1543:A 2.38985e-05
14 *600:32 *624:106 2.75733e-06
15 VALUE_top6 *600:32 0
16 *1547:A1 *600:14 6.85548e-05
17 *1671:CLK *600:14 0.000101764
18 *1671:CLK *600:32 5.50106e-05
19 *1671:D *600:14 0.000157879
20 *1823:A *600:8 4.05745e-05
21 *1823:A *600:14 9.66726e-05
22 *225:10 *600:32 6.12496e-06
23 *235:8 *600:14 0.000269511
24 *237:18 *600:14 0.000113727
25 *378:12 *600:32 0
26 *394:12 *600:32 1.79215e-05
27 *395:12 *600:14 0.000122532
28 *437:10 *600:14 0.000152648
29 *437:10 *600:32 7.53384e-06
30 *455:75 *1540:B 4.9662e-05
31 *462:32 *600:32 0.000101947
32 *493:24 *600:32 0.000284729
33 *578:138 *600:32 2.41841e-05
34 *583:20 *600:14 0.000338301
*RES
1 *1823:X *600:8 43.3857 
2 *600:8 *600:14 27.8014 
3 *600:14 *600:32 35.0098 
4 *600:32 *1540:B 39.0979 
5 *600:14 *1542:A 23 
*END

*D_NET *601 0.00124488
*CONN
*I *1554:A I *D sky130_fd_sc_hd__nand2_1
*I *1552:B I *D sky130_fd_sc_hd__and2_1
*I *1806:X O *D sky130_fd_sc_hd__dlygate4sd3_1
*CAP
1 *1554:A 6.45909e-05
2 *1552:B 0.000240652
3 *1806:X 8.4123e-05
4 *601:8 0.000389366
5 *1552:B *624:61 5.56356e-05
6 *1552:B *624:67 0.000179498
7 *601:8 *1555:B 5.11621e-05
8 *1556:A2 *1552:B 0
9 *1857:A *1552:B 1.53128e-05
10 *1857:A *1554:A 4.41619e-05
11 *526:28 *1552:B 4.07835e-05
12 *526:28 *1554:A 6.48356e-05
13 *548:46 *1552:B 1.47563e-05
*RES
1 *1806:X *601:8 39.0979 
2 *601:8 *1552:B 43.4064 
3 *601:8 *1554:A 39.9057 
*END

*D_NET *602 0.00213562
*CONN
*I *1569:A I *D sky130_fd_sc_hd__nand2_1
*I *1567:B I *D sky130_fd_sc_hd__and2_1
*I *1807:X O *D sky130_fd_sc_hd__dlygate4sd3_1
*CAP
1 *1569:A 0.000128759
2 *1567:B 0
3 *1807:X 0.000477482
4 *602:10 0.000348723
5 *1569:A *659:40 0.000308662
6 *1663:CLK *602:10 1.05441e-05
7 *521:14 *1569:A 2.02872e-05
8 *538:52 *602:10 3.7786e-05
9 *552:60 *602:10 0.00015962
10 *566:12 *1569:A 6.08617e-05
11 *566:12 *602:10 0.000361188
12 *590:41 *1569:A 0.000221707
*RES
1 *1807:X *602:10 44.2143 
2 *602:10 *1567:B 38 
3 *1807:X *1569:A 49.9564 
*END

*D_NET *603 0.0324388
*CONN
*I *1709:A I *D sky130_fd_sc_hd__clkbuf_1
*I *1650:D I *D sky130_fd_sc_hd__dlxtp_1
*I *1618:D I *D sky130_fd_sc_hd__dlxtp_1
*I *1839:X O *D sky130_fd_sc_hd__dlymetal6s2s_1
*CAP
1 *1709:A 0
2 *1650:D 0.000308569
3 *1618:D 9.75662e-05
4 *1839:X 0.000258701
5 *603:31 0.000435223
6 *603:14 0.00690886
7 *603:8 0.00694334
8 *1618:D *628:135 0.000167281
9 *1618:D *628:150 1.01436e-05
10 *1650:D *632:146 0.000125837
11 *603:14 *1691:A 0
12 *603:14 *621:22 0.000903357
13 *603:14 *625:160 0.000183516
14 *603:14 *629:22 0
15 *603:14 *630:42 4.49071e-05
16 *603:14 *632:40 0.000471246
17 *603:14 *643:24 0.0011584
18 *603:14 *649:24 0.00055261
19 *603:14 *657:22 0
20 *603:14 *681:24 0.000445019
21 *603:14 *681:34 7.18547e-05
22 *1475:A1 *603:14 4.08427e-05
23 *137:14 *603:14 5.31675e-05
24 *466:38 *603:14 0.00106033
25 *466:38 *603:31 6.33958e-05
26 *474:20 *1650:D 1.05441e-05
27 *474:20 *603:14 0.00012144
28 *474:20 *603:31 2.33476e-05
29 *485:18 *1650:D 0.00023231
30 *485:18 *603:31 1.28035e-05
31 *486:28 *1650:D 5.25011e-05
32 *492:22 *603:14 6.92597e-05
33 *509:34 *1618:D 0.000169521
34 *514:10 *1650:D 0
35 *515:12 *603:14 0.000215075
36 *518:26 *603:14 0
37 *532:18 *603:14 0.000648917
38 *533:22 *603:14 0.00256359
39 *537:16 *603:8 0.000254737
40 *539:20 *603:14 0.00417323
41 *544:30 *603:14 2.37708e-05
42 *547:42 *603:14 0.000474276
43 *550:38 *603:14 0.00191343
44 *558:28 *603:14 5.79083e-05
45 *558:28 *603:31 2.20686e-05
46 *559:30 *603:14 0
47 *567:22 *603:14 0.000686251
48 *571:20 *603:14 0.000349377
49 *585:75 *603:14 6.25481e-06
50 *585:87 *603:14 5.40684e-05
*RES
1 *1839:X *603:8 43.3857 
2 *603:8 *603:14 41.3526 
3 *603:14 *1618:D 48.4339 
4 *603:14 *603:31 8.63467 
5 *603:31 *1650:D 43.8414 
6 *603:31 *1709:A 38 
*END

*D_NET *604 0.00355217
*CONN
*I *1539:A I *D sky130_fd_sc_hd__nor2_1
*I *1808:X O *D sky130_fd_sc_hd__dlygate4sd3_1
*CAP
1 *1539:A 0
2 *1808:X 0.000142887
3 *604:20 0.000951987
4 *604:10 0.00109487
5 *604:10 *650:47 7.98243e-05
6 *604:20 *610:10 9.6094e-05
7 *1534:A *604:20 0
8 *1581:D *604:20 1.64354e-05
9 *1743:A *604:20 0.000112966
10 *229:14 *604:20 0.000182081
11 *229:33 *604:20 4.34559e-05
12 *292:18 *604:10 1.62061e-05
13 *460:46 *604:10 5.56356e-05
14 *543:20 *604:10 0.000137368
15 *589:106 *604:20 0.000183236
16 *589:120 *604:10 4.21158e-05
17 *589:120 *604:20 0.000397
*RES
1 *1808:X *604:10 40.7757 
2 *604:10 *604:20 29.6243 
3 *604:20 *1539:A 23 
*END

*D_NET *605 0.00250946
*CONN
*I *1557:A I *D sky130_fd_sc_hd__nand2_1
*I *1555:B I *D sky130_fd_sc_hd__and2_1
*I *1809:X O *D sky130_fd_sc_hd__dlygate4sd3_1
*CAP
1 *1557:A 0.000192187
2 *1555:B 0.000239813
3 *1809:X 0.000142232
4 *605:8 0.000574232
5 *1555:B *606:14 0.000130689
6 *1555:B *624:61 0.000141888
7 *1555:B *634:12 0.000113176
8 *1557:A *606:14 0.000280442
9 *1557:A *624:53 5.3304e-05
10 *1557:A *624:61 0.000248653
11 *1557:A *651:8 5.12254e-05
12 *605:8 *623:53 1.16471e-05
13 *442:10 *1557:A 1.21972e-05
14 *471:16 *1557:A 9.23705e-06
15 *526:28 *1555:B 0.000138607
16 *586:139 *605:8 0.000118772
17 *601:8 *1555:B 5.11621e-05
*RES
1 *1809:X *605:8 40.0507 
2 *605:8 *1555:B 43.8621 
3 *605:8 *1557:A 43.1164 
*END

*D_NET *606 0.00588312
*CONN
*I *1560:A I *D sky130_fd_sc_hd__nand2_1
*I *1558:B I *D sky130_fd_sc_hd__and2_1
*I *1810:X O *D sky130_fd_sc_hd__dlygate4sd3_1
*CAP
1 *1560:A 0
2 *1558:B 0
3 *1810:X 0
4 *606:27 0.000134155
5 *606:14 0.00177542
6 *606:4 0.00190958
7 *606:14 *1551:A 1.76557e-05
8 *606:14 *1551:B 2.3191e-05
9 *606:14 *607:8 0.000655835
10 *606:14 *615:10 2.33476e-05
11 *606:14 *616:10 0.000600061
12 *606:14 *619:10 2.03806e-05
13 *606:14 *624:61 0
14 *606:14 *629:10 0.000157382
15 *606:27 *622:183 7.19812e-05
16 *1555:B *606:14 0.000130689
17 *1557:A *606:14 0.000280442
18 *1806:A *606:14 3.33934e-05
19 *1843:A *606:14 6.10551e-06
20 *518:26 *606:14 0
21 *526:32 *606:14 0
22 *586:139 *606:14 4.35008e-05
*RES
1 *1810:X *606:4 23 
2 *606:4 *606:14 46.8793 
3 *606:14 *1558:B 38 
4 *606:4 *606:27 32.2579 
5 *606:27 *1560:A 23 
*END

*D_NET *607 0.00519122
*CONN
*I *1551:A I *D sky130_fd_sc_hd__nand2_1
*I *1549:B I *D sky130_fd_sc_hd__and2_1
*I *1811:X O *D sky130_fd_sc_hd__dlygate4sd3_1
*CAP
1 *1551:A 8.09492e-06
2 *1549:B 0
3 *1811:X 0.000287117
4 *607:14 0.000746828
5 *607:8 0.00102585
6 *1551:A *1551:B 5.67058e-05
7 *607:8 *1551:B 8.95826e-05
8 *607:14 *622:183 0.000191502
9 *607:14 *624:28 0.000262858
10 *607:14 *634:22 9.00923e-05
11 *1661:CLK *607:14 6.18486e-05
12 *1811:A *607:8 0.000230604
13 *1811:A *607:14 0
14 *381:10 *607:8 2.45549e-06
15 *381:10 *607:14 0.000500718
16 *400:43 *607:14 0.000157161
17 *443:12 *607:14 9.80838e-05
18 *455:34 *607:14 0.000122661
19 *456:60 *607:14 1.58587e-05
20 *528:46 *607:14 9.28078e-06
21 *587:26 *607:14 0.000385457
22 *588:29 *607:14 2.18506e-05
23 *596:12 *607:14 0.000153122
24 *606:14 *1551:A 1.76557e-05
25 *606:14 *607:8 0.000655835
*RES
1 *1811:X *607:8 46.7207 
2 *607:8 *607:14 33.4564 
3 *607:14 *1549:B 23 
4 *1811:X *1551:A 46.6214 
*END

*D_NET *608 0.00849281
*CONN
*I *1545:A I *D sky130_fd_sc_hd__nand2_1
*I *1543:B I *D sky130_fd_sc_hd__and2_1
*I *1812:X O *D sky130_fd_sc_hd__dlygate4sd3_1
*CAP
1 *1545:A 0
2 *1543:B 0
3 *1812:X 0.000371033
4 *608:40 0.000965301
5 *608:36 0.000965301
6 *608:24 0.000881153
7 *608:8 0.00125219
8 *608:8 *624:140 4.75206e-05
9 *608:24 *615:18 0.00024843
10 *608:40 *631:106 3.61511e-05
11 *1510:A *608:40 2.88933e-05
12 *1535:B1 *608:40 0.00013924
13 *1654:CLK *608:24 0.00017336
14 *1669:CLK *608:24 0.000182498
15 *1823:A *608:8 0.000596022
16 *235:8 *608:24 3.26202e-05
17 *314:24 *608:40 1.84049e-05
18 *374:14 *608:40 7.98243e-05
19 *376:12 *608:40 0
20 *376:27 *608:40 2.67894e-05
21 *376:38 *608:40 2.12347e-05
22 *376:52 *608:40 0.000249586
23 *403:28 *608:40 1.55328e-05
24 *438:12 *608:40 6.77278e-05
25 *458:90 *608:40 0.000174312
26 *493:24 *608:24 0.000778419
27 *551:20 *608:24 0.000142917
28 *577:18 *608:24 4.89546e-05
29 *578:138 *608:24 5.04152e-05
30 *580:18 *608:40 5.80071e-05
31 *580:48 *608:40 1.05984e-05
32 *581:18 *608:40 0.000136172
33 *581:34 *608:40 0.000161777
34 *584:52 *608:24 4.98755e-05
35 *591:21 *608:40 7.81764e-05
36 *600:8 *608:8 0.000341983
37 *600:14 *608:24 6.23967e-05
*RES
1 *1812:X *608:8 46.2443 
2 *608:8 *608:24 41.6714 
3 *608:24 *1543:B 23 
4 *1812:X *608:36 38 
5 *608:36 *608:40 31.3436 
6 *608:40 *1545:A 23 
*END

*D_NET *609 0.00730595
*CONN
*I *1546:B I *D sky130_fd_sc_hd__and2_1
*I *1548:A I *D sky130_fd_sc_hd__nand2_1
*I *1813:X O *D sky130_fd_sc_hd__dlygate4sd3_1
*CAP
1 *1546:B 0.00180104
2 *1548:A 0
3 *1813:X 0
4 *609:14 0.000465203
5 *609:4 0.00226624
6 *1546:B *624:6 4.93812e-05
7 *609:14 *619:26 1.02561e-05
8 *609:14 *622:46 4.95487e-06
9 *609:14 *622:48 4.83909e-05
10 *609:14 *622:72 2.76611e-06
11 *609:14 *623:92 5.67058e-05
12 *609:14 *624:106 1.82589e-05
13 *1496:C *609:14 0.000332452
14 *1561:A *1546:B 1.64699e-05
15 *1786:A *1546:B 5.54294e-05
16 *1788:A *609:14 0.000162103
17 *1796:A *1546:B 8.79613e-05
18 *395:6 *1546:B 0.0011446
19 *423:18 *1546:B 0.000565861
20 *423:18 *609:14 5.3304e-05
21 *435:24 *609:14 0.000125835
22 *439:10 *609:14 1.24376e-05
23 *453:37 *1546:B 2.62931e-05
*RES
1 *1813:X *609:4 23 
2 *609:4 *609:14 38.7829 
3 *609:14 *1548:A 23 
4 *609:4 *1546:B 49.5764 
*END

*D_NET *610 0.000776145
*CONN
*I *1445:A I *D sky130_fd_sc_hd__inv_1
*I *1814:X O *D sky130_fd_sc_hd__dlygate4sd3_1
*CAP
1 *1445:A 4.57518e-05
2 *1814:X 0.000169827
3 *610:10 0.000215578
4 *610:10 *627:30 6.77187e-05
5 *610:10 *631:90 0.00013007
6 *1791:A *610:10 9.28078e-06
7 *433:10 *1445:A 3.48973e-05
8 *531:46 *610:10 4.80423e-06
9 *574:52 *610:10 2.12347e-06
10 *604:20 *610:10 9.6094e-05
*RES
1 *1814:X *610:10 41.0036 
2 *610:10 *1445:A 38.7509 
*END

*D_NET *611 0.00222552
*CONN
*I *1573:A2 I *D sky130_fd_sc_hd__o21a_1
*I *1815:X O *D sky130_fd_sc_hd__dlygate4sd3_1
*CAP
1 *1573:A2 0.000134622
2 *1815:X 0.000299506
3 *611:10 0.000434127
4 *246:14 *1573:A2 0.000226306
5 *246:14 *611:10 0.000299384
6 *246:66 *1573:A2 0.000265682
7 *447:14 *1573:A2 0.000397596
8 *449:24 *611:10 6.78191e-05
9 *517:12 *611:10 5.54299e-05
10 *579:80 *1573:A2 4.5051e-05
*RES
1 *1815:X *611:10 42.9921 
2 *611:10 *1573:A2 43.8829 
*END

*D_NET *612 0.0219653
*CONN
*I *1682:A I *D sky130_fd_sc_hd__buf_1
*I *1591:D I *D sky130_fd_sc_hd__dlxtp_1
*I *1623:D I *D sky130_fd_sc_hd__dlxtp_1
*I *1840:X O *D sky130_fd_sc_hd__buf_1
*CAP
1 *1682:A 0
2 *1591:D 7.74141e-05
3 *1623:D 0
4 *1840:X 1.44765e-05
5 *612:30 0.000126078
6 *612:24 0.000321654
7 *612:20 0.00520795
8 *612:10 0.00510426
9 *612:20 *1621:GATE 9.36629e-06
10 *612:20 *614:34 0.000340362
11 *612:20 *615:18 0.000600122
12 *612:20 *619:26 0.000229905
13 *612:20 *631:61 3.11661e-05
14 *612:20 *675:42 0.00192328
15 *612:30 *613:32 0
16 *1680:A *612:20 0
17 *1843:A *612:20 9.02537e-05
18 *1844:A *612:10 4.89546e-05
19 *1844:A *612:20 6.6326e-05
20 *246:14 *612:20 3.94582e-05
21 *397:39 *612:20 2.24903e-05
22 *415:30 *1591:D 8.06804e-06
23 *415:30 *612:20 0.000285385
24 *415:30 *612:24 1.03955e-05
25 *438:26 *612:20 0.000236031
26 *484:10 *1591:D 8.17328e-05
27 *484:10 *612:24 0.000184324
28 *548:46 *612:10 5.16001e-05
29 *552:24 *612:20 0.000533451
30 *553:24 *612:20 0.000965992
31 *574:22 *612:30 0.000158712
32 *574:32 *1591:D 5.3304e-05
33 *574:32 *612:24 0.000226891
34 *577:18 *612:20 0.00361726
35 *577:36 *612:20 8.35198e-05
36 *583:12 *612:20 0.000513442
37 *583:16 *612:20 0.000305608
38 *584:90 *612:20 7.35164e-05
39 *585:149 *612:20 0.000322513
*RES
1 *1840:X *612:10 46.6732 
2 *612:10 *612:20 49.7284 
3 *612:20 *612:24 3.50071 
4 *612:24 *612:30 32.2579 
5 *612:30 *1623:D 23 
6 *612:24 *1591:D 24.595 
7 *612:20 *1682:A 23 
*END

*D_NET *613 0.0343598
*CONN
*I *1619:D I *D sky130_fd_sc_hd__dlxtp_1
*I *1651:D I *D sky130_fd_sc_hd__dlxtp_1
*I *1710:A I *D sky130_fd_sc_hd__buf_1
*I *1587:D I *D sky130_fd_sc_hd__dlxtp_1
*I *1841:X O *D sky130_fd_sc_hd__clkbuf_2
*CAP
1 *1619:D 1.70457e-05
2 *1651:D 0.000144556
3 *1710:A 0.00035895
4 *1587:D 0
5 *1841:X 0.000209381
6 *613:53 0.000503506
7 *613:51 0.000204723
8 *613:44 0.000320067
9 *613:40 0.000785202
10 *613:32 0.00144295
11 *613:22 0.00509814
12 *613:14 0.0054222
13 *613:8 0.00132358
14 *1619:D *1619:GATE 4.2573e-05
15 *1651:D *614:76 0.000233233
16 *1710:A *1619:GATE 0.000147993
17 *1710:A *614:76 5.80693e-05
18 *613:8 *614:16 1.83408e-05
19 *613:14 *614:16 0
20 *613:14 *651:14 0.000121561
21 *613:14 *673:10 2.33476e-05
22 *613:14 *684:10 9.47227e-05
23 *613:22 *616:22 0.000479061
24 *613:22 *618:16 0.000715942
25 *613:22 *620:30 0.00137015
26 *613:22 *628:39 0.000169091
27 *613:22 *631:61 0.00113896
28 *613:32 *1589:GATE 0
29 *613:32 *614:46 0.00033508
30 *613:32 *636:8 1.32314e-05
31 *613:40 *636:8 1.56665e-05
32 *613:40 *661:12 0.000187014
33 *613:51 *1619:GATE 0.000262858
34 *613:51 *636:35 0.000136738
35 *1575:C *613:32 1.14452e-05
36 *1825:A *613:14 0
37 *1838:A *613:14 7.69452e-05
38 *1851:A *613:32 0
39 *9:11 *613:14 4.08379e-06
40 *13:11 *613:14 0
41 *16:13 *613:14 0
42 *22:11 *613:14 7.45199e-05
43 *67:15 *613:40 0
44 *79:13 *613:32 1.83667e-05
45 *247:67 *613:32 3.34818e-06
46 *307:10 *613:44 4.96717e-05
47 *307:10 *613:51 9.16459e-05
48 *349:8 *613:32 9.2467e-06
49 *456:22 *613:14 0.000138607
50 *460:8 *613:14 0.000103881
51 *461:34 *613:40 0.00122538
52 *471:16 *613:14 0.000237763
53 *484:14 *1619:D 1.94812e-05
54 *484:14 *1710:A 2.05898e-05
55 *484:14 *613:44 7.73003e-05
56 *484:14 *613:51 0.000119436
57 *487:18 *613:32 7.56293e-06
58 *488:28 *1651:D 0
59 *488:28 *1710:A 0
60 *515:12 *613:14 0.00023363
61 *518:26 *613:22 0.000815431
62 *526:12 *613:14 0
63 *535:14 *613:22 0.00608391
64 *548:62 *613:22 0.000137836
65 *551:12 *613:32 0
66 *553:10 *613:32 2.2154e-05
67 *555:12 *613:32 6.09632e-05
68 *579:80 *613:32 9.16557e-05
69 *579:80 *613:40 0.00126885
70 *583:124 *613:32 0.000152116
71 *585:26 *613:22 4.34973e-05
72 *586:45 *613:22 0.000672639
73 *586:125 *613:14 0.000135037
74 *586:139 *613:14 0.000229326
75 *588:83 *613:22 0.000729542
76 *612:30 *613:32 0
*RES
1 *1841:X *613:8 41.48 
2 *613:8 *613:14 39.5671 
3 *613:14 *613:22 48.7191 
4 *613:22 *613:32 37.1375 
5 *613:32 *613:40 35.3621 
6 *613:40 *613:44 17.5271 
7 *613:44 *1587:D 23 
8 *613:44 *613:51 5.38571 
9 *613:51 *613:53 15 
10 *613:53 *1710:A 43.655 
11 *613:53 *1651:D 41.3143 
12 *613:51 *1619:D 23.6214 
*END

*D_NET *614 0.0344101
*CONN
*I *1711:A I *D sky130_fd_sc_hd__buf_1
*I *1652:D I *D sky130_fd_sc_hd__dlxtp_1
*I *1620:D I *D sky130_fd_sc_hd__dlxtp_1
*I *1588:D I *D sky130_fd_sc_hd__dlxtp_1
*I *1842:X O *D sky130_fd_sc_hd__clkbuf_2
*CAP
1 *1711:A 0
2 *1652:D 0
3 *1620:D 0
4 *1588:D 0
5 *1842:X 0.000514051
6 *614:89 0.000220377
7 *614:76 0.000426294
8 *614:68 0.000661939
9 *614:61 0.000155106
10 *614:46 0.00128301
11 *614:34 0.00615061
12 *614:16 0.00552149
13 *614:34 *620:10 2.5343e-05
14 *614:34 *620:30 0.00522158
15 *614:34 *622:139 3.34818e-06
16 *614:34 *624:67 3.75036e-05
17 *614:34 *640:8 0.000443986
18 *614:34 *675:42 0.000128488
19 *614:46 *635:12 0.000113124
20 *614:61 *635:12 6.47418e-05
21 *614:61 *635:18 5.3304e-05
22 *614:61 *660:38 0.000121366
23 *614:68 *660:38 2.93747e-05
24 *614:89 *660:38 0.000294299
25 *1457:S *614:89 0.000103637
26 *1651:D *614:76 0.000233233
27 *1710:A *614:76 5.80693e-05
28 *1758:A *614:46 5.50049e-05
29 *1826:A *614:34 7.76035e-05
30 *1829:A *614:34 7.76035e-05
31 *1831:A *614:16 1.98982e-05
32 *1831:A *614:34 6.37057e-05
33 *1844:A *614:34 1.42921e-05
34 *1846:A *614:34 1.96186e-05
35 *1857:A *614:34 0.000183171
36 *1868:A *614:34 3.84556e-05
37 *1890:A *614:34 0.000103854
38 *1910:A *614:34 4.9808e-05
39 *7:11 *614:34 4.77164e-06
40 *13:11 *614:16 5.31385e-05
41 *13:11 *614:34 1.5037e-05
42 *18:13 *614:16 0.000108339
43 *20:11 *614:16 4.65943e-05
44 *21:13 *614:16 0.000101689
45 *22:11 *614:16 2.59902e-05
46 *30:13 *614:34 8.90275e-06
47 *33:13 *614:34 0.000169293
48 *34:13 *614:34 0.000204095
49 *80:17 *614:89 0.000183687
50 *246:37 *614:34 0.000795225
51 *275:16 *614:76 1.53559e-05
52 *316:10 *614:46 0.000719692
53 *349:8 *614:46 0.000112619
54 *397:39 *614:34 0.000880965
55 *438:26 *614:34 0.000406302
56 *488:28 *614:89 0.000183687
57 *489:28 *614:76 5.38934e-05
58 *489:36 *614:61 3.71369e-05
59 *489:36 *614:68 1.76557e-05
60 *489:36 *614:89 0.000133986
61 *491:34 *614:76 1.59094e-05
62 *508:8 *614:46 0.000370795
63 *508:8 *614:61 3.22879e-05
64 *526:12 *614:34 0.000147041
65 *526:28 *614:34 0
66 *537:8 *614:16 2.29167e-05
67 *548:16 *614:16 5.90856e-07
68 *548:16 *614:34 4.69135e-05
69 *548:30 *614:34 0.000621233
70 *548:46 *614:34 0.000274182
71 *548:62 *614:34 0.00313234
72 *552:24 *614:89 0.000100139
73 *568:22 *614:34 0.00112236
74 *577:18 *614:34 0.000453707
75 *577:44 *614:76 0.00036889
76 *584:90 *614:34 0.000108384
77 *588:97 *614:76 5.3304e-05
78 *612:20 *614:34 0.000340362
79 *613:8 *614:16 1.83408e-05
80 *613:14 *614:16 0
81 *613:32 *614:46 0.00033508
*RES
1 *1842:X *614:16 48.5539 
2 *614:16 *614:34 49.9144 
3 *614:34 *614:46 47.2668 
4 *614:46 *1588:D 23 
5 *614:46 *614:61 4.64 
6 *614:61 *1620:D 23 
7 *614:61 *614:68 0.621429 
8 *614:68 *614:76 38.8657 
9 *614:76 *1652:D 23 
10 *614:68 *614:89 38.4721 
11 *614:89 *1711:A 23 
*END

*D_NET *615 0.022077
*CONN
*I *1683:A I *D sky130_fd_sc_hd__buf_1
*I *1624:D I *D sky130_fd_sc_hd__dlxtp_1
*I *1592:D I *D sky130_fd_sc_hd__dlxtp_1
*I *1843:X O *D sky130_fd_sc_hd__buf_1
*CAP
1 *1683:A 0
2 *1624:D 0
3 *1592:D 0
4 *1843:X 6.97177e-06
5 *615:47 0.000335411
6 *615:30 0.00064345
7 *615:22 0.000932202
8 *615:18 0.00475879
9 *615:10 0.00414159
10 *615:10 *619:10 2.46922e-05
11 *615:18 *619:26 0.00423338
12 *615:18 *619:42 0.000624793
13 *615:22 *652:20 9.91895e-05
14 *615:30 *627:12 0.000393293
15 *615:47 *641:20 0.000113633
16 *615:47 *652:20 0.000226977
17 *615:47 *684:22 7.63099e-05
18 *1504:A *615:18 6.10551e-06
19 *1584:D *615:22 0.000185434
20 *1666:D *615:18 1.28019e-05
21 *232:10 *615:18 3.64467e-05
22 *232:20 *615:18 0.000377562
23 *233:10 *615:22 0.000401322
24 *247:29 *615:18 0
25 *407:10 *615:18 8.30566e-06
26 *415:107 *615:18 0
27 *421:16 *615:22 2.13733e-05
28 *493:24 *615:18 6.81191e-05
29 *528:22 *615:18 0.00095611
30 *543:6 *615:47 2.02872e-05
31 *547:26 *615:30 0.000127678
32 *547:26 *615:47 2.62931e-05
33 *553:24 *615:18 0.000587285
34 *555:24 *615:18 0.000685888
35 *556:10 *615:30 1.22851e-05
36 *560:26 *615:30 0.000228311
37 *578:43 *615:30 0.000523405
38 *578:43 *615:47 0.000309363
39 *606:14 *615:10 2.33476e-05
40 *608:24 *615:18 0.00024843
41 *612:20 *615:18 0.000600122
*RES
1 *1843:X *615:10 46.3211 
2 *615:10 *615:18 49.3896 
3 *615:18 *615:22 12.5529 
4 *615:22 *615:30 39.1764 
5 *615:30 *1592:D 23 
6 *615:30 *615:47 37.7886 
7 *615:47 *1624:D 23 
8 *615:22 *1683:A 23 
*END

*D_NET *616 0.0156612
*CONN
*I *1593:D I *D sky130_fd_sc_hd__dlxtp_1
*I *1625:D I *D sky130_fd_sc_hd__dlxtp_1
*I *1684:A I *D sky130_fd_sc_hd__clkbuf_2
*I *1844:X O *D sky130_fd_sc_hd__clkbuf_1
*CAP
1 *1593:D 0
2 *1625:D 0
3 *1684:A 2.29089e-05
4 *1844:X 0.000530119
5 *616:72 0.000368366
6 *616:49 0.000422849
7 *616:43 0.00042016
8 *616:26 0.000724496
9 *616:22 0.00297207
10 *616:10 0.00316627
11 *616:10 *621:10 3.91683e-06
12 *616:22 *1529:A0 2.05503e-05
13 *616:22 *1630:GATE 6.10781e-05
14 *616:22 *618:48 0.00039357
15 *616:22 *620:30 0
16 *616:22 *630:113 0.00035999
17 *616:22 *634:22 7.19391e-05
18 *616:72 *1593:GATE 0.000129231
19 *616:72 *630:86 0.00019027
20 *1496:C *616:22 0.000143802
21 *1531:A1 *616:26 1.94812e-05
22 *1673:CLK *616:10 0.000138628
23 *1673:D *616:10 3.28774e-05
24 *1736:A *616:26 7.43209e-05
25 *1789:A *616:22 0.000289688
26 *1806:A *616:10 0.000205064
27 *125:16 *616:43 8.4047e-05
28 *126:10 *616:49 5.64492e-05
29 *127:10 *616:49 0
30 *135:10 *616:72 0.000100993
31 *240:14 *616:10 0.000214286
32 *244:21 *616:22 3.3746e-05
33 *281:10 *616:22 0.000119264
34 *353:10 *616:22 0.000135008
35 *461:12 *616:22 0.000104908
36 *471:16 *616:22 9.31734e-05
37 *504:24 *616:22 2.53684e-05
38 *522:10 *616:26 1.54983e-05
39 *526:32 *616:10 0
40 *535:14 *616:22 0.000272745
41 *552:74 *1684:A 2.93104e-06
42 *552:74 *616:43 0.000110428
43 *553:36 *616:22 0.000190875
44 *557:8 *616:22 0.000133889
45 *559:30 *616:43 0.000136738
46 *559:30 *616:72 0.000362969
47 *577:10 *616:10 4.61693e-05
48 *581:63 *616:22 9.2467e-06
49 *586:12 *616:22 0.000693528
50 *586:45 *616:22 0.000744948
51 *589:56 *616:22 5.02231e-05
52 *592:22 *616:26 4.40114e-05
53 *592:22 *616:43 3.9015e-05
54 *606:14 *616:10 0.000600061
55 *613:22 *616:22 0.000479061
*RES
1 *1844:X *616:10 49.9004 
2 *616:10 *616:22 46.877 
3 *616:22 *616:26 19.4329 
4 *616:26 *1684:A 23.4971 
5 *616:26 *616:43 35.3029 
6 *616:43 *616:49 30.8493 
7 *616:49 *1625:D 23 
8 *616:49 *616:72 38.9486 
9 *616:72 *1593:D 23 
*END

*D_NET *617 0.0357537
*CONN
*I *1626:D I *D sky130_fd_sc_hd__dlxtp_1
*I *1685:A I *D sky130_fd_sc_hd__buf_1
*I *1594:D I *D sky130_fd_sc_hd__dlxtp_1
*I *1845:X O *D sky130_fd_sc_hd__dlymetal6s2s_1
*CAP
1 *1626:D 0
2 *1685:A 4.44005e-05
3 *1594:D 0
4 *1845:X 0.000123931
5 *617:74 0.00077334
6 *617:53 0.00360338
7 *617:40 0.000203582
8 *617:28 0.0049064
9 *617:22 0.00191718
10 *617:20 0.000291971
11 *617:12 0.00124619
12 *617:10 0.000954221
13 *617:8 0.000123931
14 *1685:A *670:16 5.3304e-05
15 *1685:A *676:16 2.05503e-05
16 *1685:A *686:24 1.94693e-05
17 *617:28 *667:18 2.19144e-05
18 *617:28 *682:66 0.000328879
19 *617:40 *630:86 9.40516e-05
20 *617:40 *639:30 2.44522e-05
21 *617:53 *628:76 0.000166331
22 *617:53 *647:22 1.407e-05
23 *617:53 *657:22 0.00080099
24 *617:53 *667:18 0.000567741
25 *617:53 *682:22 0.00235934
26 *617:74 *670:16 0.000850676
27 *617:74 *676:16 4.45839e-05
28 N4BEG[11] *617:40 3.06963e-05
29 N4BEG[7] *617:28 2.30472e-05
30 *1537:B *617:28 8.37638e-05
31 *1640:D *617:40 9.28078e-06
32 *1648:D *617:74 0
33 *1:11 *617:8 0
34 *30:13 *617:8 1.01436e-05
35 *213:13 *617:28 0.000620431
36 *213:32 *617:28 0.000370878
37 *237:18 *617:20 2.18506e-05
38 *271:28 *617:53 0.00144481
39 *313:8 *617:28 2.79972e-05
40 *314:10 *617:28 7.37814e-06
41 *337:10 *617:74 5.64492e-05
42 *434:22 *617:28 0.000274603
43 *437:10 *617:20 9.65573e-05
44 *459:22 *617:12 0.00338306
45 *459:26 *617:28 0.000119473
46 *462:32 *617:12 0.000141954
47 *462:32 *617:20 3.87221e-06
48 *463:28 *617:12 0.000164818
49 *494:20 *617:28 0.000119554
50 *494:26 *617:28 0.00098004
51 *526:34 *617:12 0
52 *533:38 *617:53 0.000155626
53 *533:58 *617:28 0.000373716
54 *533:58 *617:53 0.00154515
55 *546:12 *617:28 0.000549114
56 *547:16 *617:74 5.64492e-05
57 *548:46 *617:8 0.000245575
58 *550:26 *617:53 3.04182e-05
59 *551:20 *617:20 0.000118717
60 *551:24 *617:28 0
61 *554:16 *617:28 0.000134202
62 *559:48 *617:40 0.000225562
63 *565:28 *617:28 0.000199221
64 *566:18 *617:40 8.18511e-05
65 *578:99 *617:28 6.77187e-05
66 *578:144 *617:12 0.000138645
67 *579:16 *617:12 0.000192906
68 *582:30 *617:53 0.000581055
69 *583:20 *617:20 0
70 *583:26 *617:12 0.00256862
71 *584:58 *617:20 0.000180218
72 *587:115 *617:53 0.000166617
73 *589:77 *617:28 0.000589111
74 *600:14 *617:20 7.71219e-06
*RES
1 *1845:X *617:8 41.3143 
2 *617:8 *617:10 15 
3 *617:10 *617:12 43.0236 
4 *617:12 *617:20 36.1936 
5 *617:20 *617:22 15 
6 *617:22 *617:28 47.0954 
7 *617:28 *617:40 28.0232 
8 *617:40 *1594:D 23 
9 *617:28 *617:53 17.9531 
10 *617:53 *1685:A 38.9425 
11 *617:53 *617:74 41.1961 
12 *617:74 *1626:D 38 
*END

*D_NET *618 0.0118734
*CONN
*I *1599:D I *D sky130_fd_sc_hd__dlxtp_1
*I *1631:D I *D sky130_fd_sc_hd__dlxtp_1
*I *1690:A I *D sky130_fd_sc_hd__clkbuf_2
*I *1846:X O *D sky130_fd_sc_hd__buf_1
*CAP
1 *1599:D 0
2 *1631:D 0
3 *1690:A 0
4 *1846:X 0.000864659
5 *618:48 0.000468685
6 *618:33 0.000550999
7 *618:26 0.000138815
8 *618:18 0.000330963
9 *618:16 0.00109352
10 *618:8 0.00184834
11 *618:8 *624:61 0.000186096
12 *618:16 *1632:GATE 0.000101295
13 *618:16 *1633:GATE 0.000138718
14 *618:16 *621:16 1.35518e-05
15 *618:16 *625:172 0.00017902
16 *618:16 *630:148 0.000276786
17 *618:16 *651:21 5.3304e-05
18 *618:16 *651:34 5.3304e-05
19 *618:18 *630:148 0.000243257
20 *618:33 *630:142 2.93845e-05
21 *618:33 *630:148 4.6595e-05
22 *618:48 *625:134 9.17998e-05
23 *1674:CLK *618:8 1.94812e-05
24 *1674:D *618:8 0.000135959
25 *1956:A *618:26 5.3304e-05
26 *115:12 *618:26 2.64616e-05
27 *253:10 *618:33 3.7122e-06
28 *253:10 *618:48 4.01634e-05
29 *324:8 *618:16 0.000189672
30 *461:12 *618:48 0.000147441
31 *482:16 *618:16 0.000901958
32 *482:16 *618:18 1.56762e-05
33 *504:24 *618:48 0.000108399
34 *518:26 *618:16 0.000141934
35 *519:20 *618:18 0.00039759
36 *519:20 *618:33 0.000226306
37 *519:20 *618:48 0.000136738
38 *521:32 *618:48 5.79715e-05
39 *532:18 *618:26 0.000120426
40 *535:26 *618:26 0.000180694
41 *585:26 *618:16 1.01436e-05
42 *585:52 *618:16 0.00111763
43 *588:41 *618:26 2.31202e-05
44 *613:22 *618:16 0.000715942
45 *616:22 *618:48 0.00039357
*RES
1 *1846:X *618:8 49.1029 
2 *618:8 *618:16 45.16 
3 *618:16 *618:18 4.90929 
4 *618:18 *618:26 33.2314 
5 *618:26 *1690:A 23 
6 *618:18 *618:33 2.52714 
7 *618:33 *1631:D 23 
8 *618:33 *618:48 39.4043 
9 *618:48 *1599:D 23 
*END

*D_NET *619 0.0313861
*CONN
*I *1595:D I *D sky130_fd_sc_hd__dlxtp_1
*I *1686:A I *D sky130_fd_sc_hd__buf_1
*I *1627:D I *D sky130_fd_sc_hd__dlxtp_1
*I *1847:X O *D sky130_fd_sc_hd__dlymetal6s2s_1
*CAP
1 *1595:D 0
2 *1686:A 0.000180249
3 *1627:D 0
4 *1847:X 0.000482241
5 *619:76 0.000232275
6 *619:52 0.000180249
7 *619:50 0.00078878
8 *619:42 0.00325162
9 *619:26 0.00634279
10 *619:10 0.00412991
11 *1686:A *626:43 0.000135037
12 *1686:A *638:30 0.000221992
13 *619:26 *622:72 0
14 *619:26 *624:106 0.000207636
15 *619:42 *1624:GATE 0
16 *619:42 *627:124 0.000531453
17 *619:42 *631:34 0
18 *619:42 *635:12 0.000148499
19 *619:42 *672:14 0.000607883
20 *619:42 *674:28 4.56255e-05
21 *619:50 *649:24 0.000255141
22 *619:50 *661:12 3.97623e-05
23 *619:50 *669:28 5.7959e-05
24 *619:76 *1627:GATE 7.07958e-05
25 *619:76 *661:12 2.63212e-05
26 *619:76 *669:28 4.42221e-05
27 *619:76 *680:26 0.000134646
28 *619:76 *683:26 0.000250451
29 *1572:A1 *619:26 0.000108499
30 *3:15 *619:26 3.59647e-05
31 *67:23 *619:76 7.33982e-05
32 *232:111 *619:26 5.00156e-05
33 *263:10 *619:42 1.85275e-05
34 *279:16 *1686:A 7.86537e-05
35 *295:8 *619:42 0.000108106
36 *306:12 *619:42 0
37 *316:10 *619:42 0.000123655
38 *351:10 *619:42 0
39 *415:30 *619:42 2.2954e-05
40 *462:18 *619:26 0.000100139
41 *462:32 *619:26 0.000128381
42 *463:28 *619:26 0
43 *468:18 *619:50 0.000123809
44 *484:10 *619:42 0.00027799
45 *492:22 *619:42 0
46 *493:8 *619:10 4.08641e-05
47 *493:24 *619:26 0.000211399
48 *518:20 *619:26 0
49 *518:20 *619:42 4.75035e-05
50 *518:26 *619:10 0
51 *526:32 *619:10 3.335e-05
52 *538:18 *619:50 9.22439e-05
53 *548:46 *619:26 0
54 *552:24 *619:42 0.000755374
55 *553:24 *619:26 0.00184349
56 *553:24 *619:42 0.00143775
57 *555:24 *619:42 0.000923354
58 *563:6 *1686:A 8.56254e-05
59 *581:116 *619:42 2.60252e-05
60 *583:12 *619:26 0.000152756
61 *583:16 *619:26 0.0001598
62 *584:90 *619:42 0
63 *586:76 *619:50 0.000259842
64 *590:118 *619:50 0.000557692
65 *606:14 *619:10 2.03806e-05
66 *609:14 *619:26 1.02561e-05
67 *612:20 *619:26 0.000229905
68 *615:10 *619:10 2.46922e-05
69 *615:18 *619:26 0.00423338
70 *615:18 *619:42 0.000624793
*RES
1 *1847:X *619:10 45.8196 
2 *619:10 *619:26 47.7904 
3 *619:26 *619:42 43.7445 
4 *619:42 *619:50 19.5975 
5 *619:50 *619:52 15 
6 *619:52 *1627:D 23 
7 *619:52 *1686:A 27.4329 
8 *619:50 *619:76 34.2403 
9 *619:76 *1595:D 23 
*END

*D_NET *620 0.0263701
*CONN
*I *1596:D I *D sky130_fd_sc_hd__dlxtp_1
*I *1628:D I *D sky130_fd_sc_hd__dlxtp_1
*I *1687:A I *D sky130_fd_sc_hd__buf_1
*I *1848:X O *D sky130_fd_sc_hd__dlymetal6s2s_1
*CAP
1 *1596:D 5.40344e-05
2 *1628:D 0.000267975
3 *1687:A 6.90852e-05
4 *1848:X 5.98317e-06
5 *620:57 0.000482187
6 *620:42 0.000229263
7 *620:40 0.00102942
8 *620:30 0.00514058
9 *620:10 0.00411714
10 *1628:D *1595:GATE 0.000120476
11 *1628:D *633:16 6.55396e-06
12 *1687:A *626:41 5.3304e-05
13 *1687:A *627:124 8.42746e-05
14 *620:30 *628:39 0
15 *620:30 *628:51 4.46698e-05
16 *620:30 *631:69 6.56284e-05
17 *620:40 *626:22 0.000857906
18 *620:40 *626:41 0.000110482
19 *620:40 *652:20 0.000394297
20 *620:57 *1595:GATE 3.51551e-05
21 *620:57 *627:124 4.82717e-05
22 *1533:A1 *1687:A 5.56356e-05
23 *279:16 *1687:A 0
24 *279:16 *620:57 0
25 *297:14 *620:40 4.34973e-05
26 *464:38 *620:30 6.95499e-05
27 *491:10 *1687:A 2.7557e-05
28 *535:14 *620:30 2.17681e-05
29 *543:20 *620:40 0.000646332
30 *548:46 *620:10 2.33476e-05
31 *548:62 *620:30 0.00100072
32 *560:26 *620:30 2.37295e-05
33 *560:26 *620:40 0.000177654
34 *563:14 *1596:D 7.08904e-06
35 *563:14 *1628:D 0
36 *563:30 *1628:D 3.68424e-05
37 *585:149 *620:30 0.000112847
38 *585:149 *620:40 7.28722e-06
39 *586:45 *620:30 0.000796219
40 *586:51 *620:30 0.00151437
41 *588:83 *620:30 0.00189781
42 *590:118 *1596:D 1.98016e-05
43 *590:118 *1628:D 1.17256e-05
44 *590:118 *620:57 4.25801e-05
45 *613:22 *620:30 0.00137015
46 *614:34 *620:10 2.5343e-05
47 *614:34 *620:30 0.00522158
48 *616:22 *620:30 0
*RES
1 *1848:X *620:10 46.3211 
2 *620:10 *620:30 47.4178 
3 *620:30 *620:40 36.7396 
4 *620:40 *620:42 15 
5 *620:42 *1687:A 39.8229 
6 *620:42 *620:57 2.87929 
7 *620:57 *1628:D 42.9093 
8 *620:57 *1596:D 38.8338 
*END

*D_NET *621 0.0138202
*CONN
*I *1629:D I *D sky130_fd_sc_hd__dlxtp_1
*I *1688:A I *D sky130_fd_sc_hd__clkbuf_2
*I *1597:D I *D sky130_fd_sc_hd__dlxtp_1
*I *1849:X O *D sky130_fd_sc_hd__buf_1
*CAP
1 *1629:D 9.08689e-05
2 *1688:A 0
3 *1597:D 0
4 *1849:X 0.000872025
5 *621:40 0.000310182
6 *621:28 0.000535982
7 *621:22 0.00128893
8 *621:16 0.00184902
9 *621:10 0.00174879
10 *1629:D *630:113 9.17084e-05
11 *621:16 *1633:GATE 0.0001264
12 *621:22 *630:113 0.000216483
13 *621:22 *656:28 0
14 *621:22 *681:34 0.00077112
15 *621:40 *1597:GATE 6.08248e-05
16 *621:40 *630:94 0.000265521
17 *1673:CLK *621:10 0.000277396
18 *126:10 *621:40 4.50096e-05
19 *239:8 *621:10 0.000137651
20 *440:8 *621:16 0.000126192
21 *463:18 *621:16 0.00141956
22 *518:26 *621:16 0
23 *524:12 *621:16 0.000120104
24 *538:52 *621:40 5.3304e-05
25 *545:30 *621:28 0.000260962
26 *545:30 *621:40 0.000573998
27 *553:36 *1629:D 1.65946e-06
28 *553:36 *621:22 0.000155635
29 *553:36 *621:40 1.44086e-05
30 *555:42 *621:40 2.23143e-05
31 *585:26 *621:16 0.000215529
32 *585:52 *621:16 0.00112145
33 *585:75 *621:22 9.87964e-05
34 *588:41 *1629:D 2.00313e-05
35 *588:41 *621:22 7.57281e-06
36 *603:14 *621:22 0.000903357
37 *616:10 *621:10 3.91683e-06
38 *618:16 *621:16 1.35518e-05
*RES
1 *1849:X *621:10 35.6979 
2 *621:10 *621:16 46.9146 
3 *621:16 *621:22 14.6289 
4 *621:22 *621:28 18.5007 
5 *621:28 *621:40 38.7829 
6 *621:40 *1597:D 23 
7 *621:28 *1688:A 23 
8 *621:22 *1629:D 39.4707 
*END

*D_NET *622 0.0270332
*CONN
*I *1545:B I *D sky130_fd_sc_hd__nand2_1
*I *1538:B I *D sky130_fd_sc_hd__nand2_1
*I *1560:B I *D sky130_fd_sc_hd__nand2_1
*I *1566:B I *D sky130_fd_sc_hd__nand2_1
*I *1563:B I *D sky130_fd_sc_hd__nand2_1
*I *1557:B I *D sky130_fd_sc_hd__nand2_1
*I *1554:B I *D sky130_fd_sc_hd__nand2_1
*I *1551:B I *D sky130_fd_sc_hd__nand2_1
*I *1548:B I *D sky130_fd_sc_hd__nand2_1
*I *1542:B I *D sky130_fd_sc_hd__nand2_1
*I *1794:X O *D sky130_fd_sc_hd__buf_2
*CAP
1 *1545:B 0
2 *1538:B 1.9921e-05
3 *1560:B 0
4 *1566:B 0.000104408
5 *1563:B 1.38655e-05
6 *1557:B 0
7 *1554:B 0
8 *1551:B 0.000367008
9 *1548:B 2.01521e-05
10 *1542:B 0
11 *1794:X 0.000234922
12 *622:205 0.000190278
13 *622:183 0.000316809
14 *622:151 0.00041633
15 *622:139 0.000327202
16 *622:127 0.00100841
17 *622:119 0.00164961
18 *622:102 0.00123972
19 *622:94 0.000536131
20 *622:90 0.000602482
21 *622:72 0.000573399
22 *622:48 0.000676875
23 *622:46 0.00129674
24 *622:40 0.00127314
25 *622:32 0.00138011
26 *622:14 0.00101524
27 *622:10 0.000305094
28 *1548:B *623:92 9.84851e-05
29 *1566:B *624:90 4.15283e-06
30 *1566:B *662:20 0.000176699
31 *1566:B *673:26 6.35063e-05
32 *622:40 *634:22 3.41998e-06
33 *622:46 *634:22 3.82561e-05
34 *622:72 *1543:A 0.000158487
35 *622:127 *662:20 0.00106608
36 *622:127 *673:26 0.000296568
37 *622:139 *623:53 3.85196e-05
38 *622:139 *629:10 7.58527e-05
39 *622:139 *651:8 7.58527e-05
40 *622:151 *662:20 0.000773307
41 *622:151 *673:26 0.000275228
42 *622:205 *631:106 0.000148641
43 VALUE_top6 *622:72 2.4754e-05
44 *1497:D *1551:B 4.98399e-06
45 *1497:D *622:119 5.82202e-05
46 *1510:A *622:205 0.000119711
47 *1540:B *622:72 3.04295e-05
48 *1551:A *1551:B 5.67058e-05
49 *1556:B1 *622:139 2.93335e-05
50 *1570:C1 *622:32 0.000125896
51 *1570:C1 *622:40 0.000339369
52 *1664:CLK *622:32 5.50049e-05
53 *1664:D *622:14 8.48502e-06
54 *1664:D *622:32 9.95066e-05
55 *1669:D *622:40 0.000448464
56 *1671:CLK *622:72 6.5888e-05
57 *1673:CLK *1538:B 1.09903e-05
58 *1673:CLK *622:94 1.32314e-05
59 *1673:CLK *622:102 0.000225613
60 *1677:D *622:46 7.80495e-06
61 *1788:A *622:46 0.000477406
62 *1789:A *622:46 7.12679e-05
63 *1810:A *1551:B 3.31683e-05
64 *1811:A *622:183 0
65 *7:11 *622:139 0.000205044
66 *9:11 *622:127 4.07138e-06
67 *225:10 *622:72 0.000112587
68 *232:93 *622:10 2.31765e-05
69 *236:18 *622:40 0.000270953
70 *236:18 *622:46 1.59094e-05
71 *236:26 *622:40 8.4447e-05
72 *241:23 *622:119 0
73 *242:8 *622:102 0.000140259
74 *244:21 *622:40 3.19892e-06
75 *245:25 *622:40 0.00096097
76 *245:25 *622:46 2.80924e-06
77 *376:12 *622:32 0.000103021
78 *376:52 *622:32 5.04789e-05
79 *394:12 *622:72 3.07028e-05
80 *400:32 *622:102 8.29289e-05
81 *403:22 *622:32 1.80828e-05
82 *425:47 *622:10 9.1946e-06
83 *432:12 *622:10 0.000291597
84 *433:10 *622:10 5.3304e-05
85 *435:12 *622:90 0.000246878
86 *436:10 *622:10 0.000203823
87 *436:43 *622:32 0.000344616
88 *439:10 *1548:B 9.84851e-05
89 *443:12 *622:183 4.26048e-06
90 *452:10 *622:119 0.000146277
91 *455:6 *622:90 4.6595e-05
92 *455:8 *622:90 3.22879e-05
93 *455:8 *622:94 2.4754e-05
94 *455:63 *622:90 0.000177604
95 *455:75 *622:72 0.000246788
96 *456:47 *1563:B 2.33476e-05
97 *460:20 *622:205 4.21281e-05
98 *462:10 *1551:B 6.46431e-05
99 *462:10 *622:119 0.000489787
100 *471:16 *622:127 8.22421e-06
101 *493:24 *622:72 5.58534e-05
102 *526:28 *622:127 2.12347e-06
103 *526:28 *622:139 6.25338e-05
104 *530:12 *622:14 0.000221992
105 *530:12 *622:32 0.000148384
106 *531:46 *622:32 0.000153577
107 *535:26 *1566:B 2.26406e-05
108 *553:24 *622:32 1.17e-05
109 *555:24 *622:40 4.75206e-05
110 *555:32 *622:40 5.52985e-05
111 *580:8 *622:32 5.12254e-05
112 *580:18 *622:32 4.15283e-05
113 *580:48 *622:32 1.98354e-05
114 *584:28 *622:183 7.44675e-05
115 *586:12 *622:119 0.000382635
116 *586:125 *622:119 8.3004e-05
117 *589:28 *622:46 0.000564868
118 *589:28 *622:48 0.000153598
119 *589:28 *622:72 0.000261813
120 *589:106 *622:14 0.000181125
121 *589:106 *622:205 0.000156083
122 *590:75 *622:32 5.99567e-06
123 *598:16 *1566:B 9.28078e-06
124 *606:14 *1551:B 2.3191e-05
125 *606:27 *622:183 7.19812e-05
126 *607:8 *1551:B 8.95826e-05
127 *607:14 *622:183 0.000191502
128 *609:14 *622:46 4.95487e-06
129 *609:14 *622:48 4.83909e-05
130 *609:14 *622:72 2.76611e-06
131 *614:34 *622:139 3.34818e-06
132 *619:26 *622:72 0
*RES
1 *1794:X *622:10 42.9921 
2 *622:10 *622:14 17.5271 
3 *622:14 *622:32 45.1836 
4 *622:32 *622:40 46.9443 
5 *622:40 *622:46 27.2007 
6 *622:46 *622:48 2.25786 
7 *622:48 *622:72 28.3607 
8 *622:72 *1542:B 23 
9 *622:48 *1548:B 39.0979 
10 *622:46 *622:90 25.15 
11 *622:90 *622:94 1.11857 
12 *622:94 *622:102 19.5986 
13 *622:102 *1551:B 44.8357 
14 *622:102 *622:119 23.1111 
15 *622:119 *622:127 25.4379 
16 *622:127 *622:139 37.0843 
17 *622:139 *1554:B 23 
18 *622:127 *1557:B 23 
19 *622:119 *622:151 1.51573 
20 *622:151 *1563:B 46.3211 
21 *622:151 *1566:B 46.7205 
22 *622:94 *622:183 36.6493 
23 *622:183 *1560:B 23 
24 *622:90 *1538:B 23.4971 
25 *622:14 *622:205 34.3293 
26 *622:205 *1545:B 23 
*END

*D_NET *623 0.0195164
*CONN
*I *1565:C1 I *D sky130_fd_sc_hd__o211a_1
*I *1553:C1 I *D sky130_fd_sc_hd__o211a_1
*I *1550:C1 I *D sky130_fd_sc_hd__o211a_1
*I *1544:C1 I *D sky130_fd_sc_hd__o211a_1
*I *1547:C1 I *D sky130_fd_sc_hd__o211a_1
*I *1541:B1 I *D sky130_fd_sc_hd__o211a_1
*I *1562:C1 I *D sky130_fd_sc_hd__o211a_1
*I *1559:C1 I *D sky130_fd_sc_hd__o211a_1
*I *1556:C1 I *D sky130_fd_sc_hd__o211a_1
*I *1568:C1 I *D sky130_fd_sc_hd__o211a_1
*I *1795:X O *D sky130_fd_sc_hd__buf_2
*CAP
1 *1565:C1 0
2 *1553:C1 3.99029e-05
3 *1550:C1 0
4 *1544:C1 0
5 *1547:C1 4.32077e-05
6 *1541:B1 2.84863e-05
7 *1562:C1 2.52923e-05
8 *1559:C1 0
9 *1556:C1 0
10 *1568:C1 2.43615e-05
11 *1795:X 0.000167104
12 *623:130 0.000982174
13 *623:113 0.00157646
14 *623:92 0.00090827
15 *623:88 0.000589441
16 *623:82 0.000655458
17 *623:64 0.000136039
18 *623:53 0.000915573
19 *623:41 0.00117697
20 *623:39 0.000167914
21 *623:37 0.000672287
22 *623:31 0.00124917
23 *623:12 0.00114043
24 *623:53 *629:10 0.000265233
25 *623:82 *624:28 9.18156e-06
26 *623:113 *624:106 0
27 *1496:A *623:113 2.76611e-06
28 *1498:A *623:113 4.43142e-05
29 *1498:A *623:130 7.73655e-05
30 *1498:D_N *623:113 2.05664e-05
31 *1541:A1 *623:113 0.000100061
32 *1544:A2 *623:130 0.000310363
33 *1547:A1 *623:130 2.64616e-05
34 *1548:B *623:92 9.84851e-05
35 *1550:A1 *623:92 2.93104e-06
36 *1556:A2 *623:53 0.000102036
37 *1556:B1 *623:53 2.01003e-05
38 *1564:B *623:37 0.000139357
39 *1568:A1 *623:12 4.93812e-05
40 *1568:A2 *623:12 5.95262e-05
41 *1656:D *623:130 0.000164747
42 *1675:CLK *623:53 2.64616e-05
43 *1809:A *623:53 4.67488e-05
44 *237:18 *623:113 7.15126e-05
45 *241:23 *623:53 0.000375091
46 *376:12 *623:130 0.000121976
47 *378:12 *623:113 0.000102162
48 *383:10 *623:53 0.000100069
49 *385:10 *623:53 9.41704e-05
50 *393:29 *623:113 0.000204076
51 *397:39 *1553:C1 6.17437e-06
52 *397:39 *623:88 9.29393e-05
53 *399:18 *623:53 1.74843e-05
54 *400:22 *623:82 9.10621e-05
55 *401:8 *623:37 9.84851e-05
56 *435:24 *1541:B1 5.12055e-06
57 *435:24 *623:92 2.18409e-05
58 *439:10 *623:88 5.3304e-05
59 *439:10 *623:92 0.000262475
60 *442:18 *623:64 5.43589e-05
61 *443:12 *623:82 4.36885e-05
62 *445:16 *1568:C1 6.57416e-05
63 *445:16 *623:12 3.7122e-06
64 *445:16 *623:31 9.41704e-05
65 *455:81 *623:113 3.41998e-06
66 *456:47 *623:37 2.93845e-05
67 *456:47 *623:39 2.93747e-05
68 *456:47 *623:41 0.000135287
69 *456:47 *623:53 2.02872e-05
70 *456:60 *623:64 5.72853e-05
71 *456:80 *623:31 0.000223698
72 *456:95 *623:31 5.62507e-05
73 *456:106 *623:31 0.000608379
74 *457:14 *623:130 0.000189421
75 *462:10 *623:53 4.01325e-05
76 *463:18 *623:53 8.88736e-05
77 *494:10 *623:31 0
78 *494:20 *623:12 0.000142634
79 *528:46 *623:64 0.000260411
80 *531:52 *623:64 6.77462e-05
81 *535:26 *623:31 2.21151e-05
82 *535:26 *623:37 4.167e-05
83 *538:42 *1568:C1 4.84129e-06
84 *538:42 *623:12 0.000316802
85 *538:52 *623:12 2.38508e-05
86 *538:52 *623:31 5.56216e-05
87 *553:24 *623:130 6.56284e-05
88 *554:12 *623:130 0.000308039
89 *578:138 *1541:B1 0
90 *578:138 *623:113 0
91 *584:12 *623:88 1.57571e-05
92 *584:12 *623:92 0.000145784
93 *584:52 *623:92 0.000271975
94 *584:52 *623:113 9.33961e-05
95 *586:24 *623:82 0.000364535
96 *586:24 *623:88 0.000145801
97 *586:139 *623:53 5.63264e-05
98 *587:26 *623:64 0
99 *587:32 *623:82 7.29215e-05
100 *587:32 *623:88 0.000417328
101 *588:12 *623:37 4.08664e-05
102 *588:12 *623:39 4.17736e-05
103 *588:12 *623:41 0.000180218
104 *588:12 *623:82 0.000179993
105 *588:41 *623:31 6.16439e-05
106 *588:41 *623:37 0.000262086
107 *589:10 *623:31 5.61255e-06
108 *590:58 *623:130 2.31202e-05
109 *596:6 *1553:C1 1.21972e-05
110 *598:16 *623:82 2.16042e-05
111 *599:20 *623:37 0.00016124
112 *605:8 *623:53 1.16471e-05
113 *609:14 *623:92 5.67058e-05
114 *622:139 *623:53 3.85196e-05
*RES
1 *1795:X *623:12 42.9507 
2 *623:12 *1568:C1 38.6214 
3 *623:12 *623:31 43.7543 
4 *623:31 *623:37 22.1464 
5 *623:37 *623:39 0.621429 
6 *623:39 *623:41 3.00357 
7 *623:41 *623:53 48.5393 
8 *623:53 *1556:C1 23 
9 *623:41 *623:64 33.6664 
10 *623:64 *1559:C1 23 
11 *623:39 *1562:C1 23.4971 
12 *623:37 *623:82 23.3375 
13 *623:82 *623:88 21.5768 
14 *623:88 *623:92 9.21786 
15 *623:92 *1541:B1 23.4971 
16 *623:92 *623:113 39.5079 
17 *623:113 *1547:C1 23.8493 
18 *623:113 *623:130 45.0593 
19 *623:130 *1544:C1 23 
20 *623:88 *1550:C1 23 
21 *623:82 *1553:C1 38.6214 
22 *623:31 *1565:C1 38 
*END

*D_NET *624 0.0222523
*CONN
*I *1500:A I *D sky130_fd_sc_hd__and3_1
*I *1546:A I *D sky130_fd_sc_hd__and2_1
*I *1540:A I *D sky130_fd_sc_hd__and2_1
*I *1543:A I *D sky130_fd_sc_hd__and2_1
*I *1549:A I *D sky130_fd_sc_hd__and2_1
*I *1567:A I *D sky130_fd_sc_hd__and2_1
*I *1558:A I *D sky130_fd_sc_hd__and2_1
*I *1552:A I *D sky130_fd_sc_hd__and2_1
*I *1555:A I *D sky130_fd_sc_hd__and2_1
*I *1564:A I *D sky130_fd_sc_hd__and2_1
*I *1796:X O *D sky130_fd_sc_hd__clkbuf_2
*CAP
1 *1500:A 0
2 *1546:A 0
3 *1540:A 0
4 *1543:A 0.000221239
5 *1549:A 0
6 *1567:A 0
7 *1558:A 0
8 *1552:A 0
9 *1555:A 0
10 *1564:A 0
11 *1796:X 7.19812e-05
12 *624:148 0.000163284
13 *624:140 0.000993049
14 *624:106 0.000654223
15 *624:90 0.000668663
16 *624:67 8.89264e-05
17 *624:61 0.000535039
18 *624:53 0.00139724
19 *624:37 0.00169879
20 *624:28 0.000334959
21 *624:22 0.000784696
22 *624:14 0.00167063
23 *624:6 0.00161066
24 *624:28 *634:22 2.61526e-05
25 *624:148 *1622:GATE 9.47911e-06
26 *624:148 *631:90 1.59538e-05
27 *1496:A *624:106 0
28 *1496:C *624:106 1.85275e-05
29 *1499:A *624:14 1.75427e-05
30 *1500:C *624:140 6.44826e-05
31 *1500:C *624:148 0.000132345
32 *1540:B *1543:A 5.3304e-05
33 *1546:B *624:6 4.93812e-05
34 *1552:B *624:61 5.56356e-05
35 *1552:B *624:67 0.000179498
36 *1555:B *624:61 0.000141888
37 *1556:A2 *624:61 8.30905e-05
38 *1557:A *624:53 5.3304e-05
39 *1557:A *624:61 0.000248653
40 *1559:A2 *624:53 5.09744e-05
41 *1561:A *624:6 0.000362139
42 *1561:A *624:140 0.000589795
43 *1566:B *624:90 4.15283e-06
44 *1659:D *624:53 0.000133936
45 *1669:CLK *624:14 7.68685e-05
46 *1674:D *624:61 9.5877e-05
47 *1677:D *624:28 6.17437e-06
48 *1789:A *624:90 5.50106e-05
49 *1796:A *624:6 0.000273273
50 *1796:A *624:140 0.000125213
51 *1805:A *624:140 0.000464582
52 *1806:A *624:61 9.28945e-05
53 *1819:A *624:14 5.50106e-05
54 *1823:A *624:140 7.72343e-05
55 *2015:A *624:22 9.82661e-05
56 *236:26 *624:106 0.000234092
57 *238:25 *624:14 0.000314473
58 *238:25 *624:22 1.32314e-05
59 *244:21 *624:106 0.000162823
60 *369:10 *624:14 0.000102389
61 *376:12 *624:140 0.000178622
62 *393:12 *1543:A 0
63 *393:12 *624:106 0.000159613
64 *393:29 *624:106 2.54221e-05
65 *395:12 *624:14 0.000133543
66 *397:10 *624:61 4.93812e-05
67 *399:10 *624:53 0.000452468
68 *430:36 *624:148 2.78332e-05
69 *435:24 *624:106 5.35429e-05
70 *442:10 *624:53 0.000651485
71 *442:18 *624:53 5.3304e-05
72 *444:8 *624:53 5.3304e-05
73 *453:37 *624:148 9.58714e-05
74 *455:75 *1543:A 2.812e-05
75 *456:41 *624:90 0.000112619
76 *456:47 *624:37 0.000162236
77 *456:47 *624:90 7.05435e-05
78 *461:16 *624:22 0.000351428
79 *471:16 *624:61 0.000221686
80 *493:43 *624:140 0.000142254
81 *526:32 *624:61 0.000188926
82 *528:46 *624:90 0
83 *530:22 *624:90 0.00103702
84 *535:26 *624:90 4.20402e-05
85 *548:46 *624:67 0.000138708
86 *553:24 *624:140 0.000180778
87 *578:138 *624:106 0
88 *580:26 *624:148 0
89 *588:12 *624:28 0.000154386
90 *588:29 *624:28 0.000307132
91 *588:41 *624:22 1.75427e-05
92 *588:52 *624:22 0.000216191
93 *596:6 *624:14 2.71828e-05
94 *596:6 *624:22 8.37133e-05
95 *598:16 *624:28 0.00020326
96 *598:16 *624:37 0.000190075
97 *598:16 *624:90 5.43589e-05
98 *600:8 *624:14 2.45549e-06
99 *600:32 *1543:A 2.38985e-05
100 *600:32 *624:106 2.75733e-06
101 *606:14 *624:61 0
102 *607:14 *624:28 0.000262858
103 *608:8 *624:140 4.75206e-05
104 *609:14 *624:106 1.82589e-05
105 *614:34 *624:67 3.75036e-05
106 *618:8 *624:61 0.000186096
107 *619:26 *624:106 0.000207636
108 *622:72 *1543:A 0.000158487
109 *623:82 *624:28 9.18156e-06
110 *623:113 *624:106 0
*RES
1 *1796:X *624:6 26.9564 
2 *624:6 *624:14 42.76 
3 *624:14 *624:22 39.5079 
4 *624:22 *624:28 21.9186 
5 *624:28 *1564:A 38 
6 *624:28 *624:37 2.61 
7 *624:37 *624:53 36.1286 
8 *624:53 *624:61 42.2007 
9 *624:61 *624:67 32.9621 
10 *624:67 *1555:A 23 
11 *624:61 *1552:A 23 
12 *624:53 *1558:A 23 
13 *624:37 *624:90 30.0386 
14 *624:90 *1567:A 23 
15 *624:22 *1549:A 23 
16 *624:14 *624:106 24.4457 
17 *624:106 *1543:A 41.8114 
18 *624:106 *1540:A 38 
19 *624:6 *624:140 48.1457 
20 *624:140 *624:148 33.3557 
21 *624:148 *1546:A 23 
22 *624:140 *1500:A 23 
*END

*D_NET *625 0.0471379
*CONN
*I *1605:GATE I *D sky130_fd_sc_hd__dlxtp_1
*I *1603:GATE I *D sky130_fd_sc_hd__dlxtp_1
*I *1599:GATE I *D sky130_fd_sc_hd__dlxtp_1
*I *1600:GATE I *D sky130_fd_sc_hd__dlxtp_1
*I *1602:GATE I *D sky130_fd_sc_hd__dlxtp_1
*I *1601:GATE I *D sky130_fd_sc_hd__dlxtp_1
*I *1593:GATE I *D sky130_fd_sc_hd__dlxtp_1
*I *1608:GATE I *D sky130_fd_sc_hd__dlxtp_1
*I *1606:GATE I *D sky130_fd_sc_hd__dlxtp_1
*I *1604:GATE I *D sky130_fd_sc_hd__dlxtp_1
*I *1797:X O *D sky130_fd_sc_hd__buf_2
*CAP
1 *1605:GATE 5.80856e-05
2 *1603:GATE 0
3 *1599:GATE 1.86147e-05
4 *1600:GATE 2.02433e-05
5 *1602:GATE 0.000212234
6 *1601:GATE 6.02035e-05
7 *1593:GATE 0.00041243
8 *1608:GATE 0
9 *1606:GATE 0.000245738
10 *1604:GATE 0.000144128
11 *1797:X 0.00034571
12 *625:234 0.000329042
13 *625:222 0.000831112
14 *625:220 0.00253188
15 *625:172 0.000392144
16 *625:160 0.000870672
17 *625:154 0.00141069
18 *625:140 0.0011392
19 *625:134 0.00118054
20 *625:103 0.00178562
21 *625:92 0.000289296
22 *625:88 0.000544605
23 *625:71 0.000893323
24 *625:63 0.00218824
25 *625:34 0.0026694
26 *625:32 0.00213799
27 *625:12 0.00374586
28 *625:10 0.00034571
29 *1602:GATE *651:14 1.94812e-05
30 *1602:GATE *651:21 3.17516e-05
31 *1604:GATE *1695:A 9.67842e-05
32 *1604:GATE *664:14 2.42041e-05
33 *1605:GATE *652:54 4.67488e-05
34 *625:10 *688:14 3.98546e-05
35 *625:32 *1802:A 9.5877e-05
36 *625:32 *630:14 5.74063e-05
37 *625:32 *631:8 0.000129734
38 *625:32 *641:10 0.000487177
39 *625:32 *677:30 2.03764e-06
40 *625:34 *673:28 5.87176e-05
41 *625:34 *673:43 1.0402e-05
42 *625:63 *628:76 0.000467004
43 *625:63 *630:42 0.000327384
44 *625:63 *637:10 3.19892e-06
45 *625:63 *667:18 0.000812956
46 *625:63 *671:20 0.0018579
47 *625:63 *673:43 1.12487e-05
48 *625:63 *678:26 0.000129077
49 *625:71 *1469:A0 0.000315104
50 *625:88 *1469:A0 0.000541026
51 *625:103 *627:86 0.000136738
52 *625:134 *630:94 0.000101536
53 *625:154 *1600:D 1.83327e-05
54 *625:154 *629:45 0.000117587
55 *625:160 *629:22 0
56 *625:160 *651:14 2.72055e-05
57 *625:172 *1633:D 0.000298464
58 *625:172 *651:14 4.23714e-05
59 *625:222 *632:187 0.000233089
60 *625:234 *632:187 0.00017708
61 *1467:S *625:32 0.000137301
62 *1469:A1 *625:88 3.53115e-05
63 *1477:S *625:154 0.000319454
64 *1478:A1 *625:134 0.000229801
65 *1478:S *625:134 4.50193e-05
66 *1493:A1 *625:71 9.77405e-05
67 *1647:D *625:32 5.84732e-05
68 *1766:A *1599:GATE 5.20401e-05
69 *1766:A *625:134 2.18409e-05
70 *1766:A *625:154 9.29065e-05
71 *1957:A *625:154 0.00014514
72 *1961:A *625:154 0.000123934
73 *2005:A *625:10 0.000261956
74 *125:16 *625:134 4.29458e-05
75 *135:10 *1593:GATE 5.39469e-05
76 *141:8 *625:103 3.22879e-05
77 *229:93 *625:32 2.97422e-05
78 *258:10 *625:63 2.17492e-05
79 *264:14 *625:222 0.000237781
80 *288:10 *625:160 4.6318e-06
81 *288:10 *625:172 6.6869e-05
82 *327:10 *1605:GATE 2.64616e-05
83 *332:10 *625:32 9.41704e-05
84 *355:8 *625:222 0.000140949
85 *417:8 *625:63 1.17256e-05
86 *418:20 *625:63 3.41998e-06
87 *463:14 *1601:GATE 9.41704e-05
88 *464:38 *625:134 0.000672274
89 *468:18 *625:234 0
90 *470:12 *625:88 7.09211e-05
91 *474:12 *625:10 8.35502e-05
92 *475:20 *625:220 0.00185293
93 *476:12 *625:63 4.62763e-05
94 *477:12 *625:220 0.000626248
95 *482:10 *1602:GATE 3.04595e-05
96 *482:41 *625:88 3.51334e-05
97 *489:22 *625:32 0.000768926
98 *498:14 *625:234 1.05658e-05
99 *502:10 *625:222 0.000244509
100 *502:10 *625:234 8.72599e-05
101 *504:14 *625:172 0.000189009
102 *508:26 *625:10 2.97675e-05
103 *508:26 *625:32 0.000301215
104 *508:26 *625:220 2.25809e-05
105 *509:22 *625:234 2.26406e-05
106 *509:30 *1605:GATE 1.46594e-05
107 *515:26 *625:34 8.12052e-05
108 *518:26 *625:172 0.00017902
109 *519:12 *625:88 0.000314679
110 *521:32 *1599:GATE 4.17736e-05
111 *521:32 *625:134 0.000157264
112 *521:32 *625:154 0.000517306
113 *527:12 *625:222 0.000113846
114 *530:32 *625:134 9.41704e-05
115 *530:32 *625:154 1.21972e-05
116 *532:6 *625:88 0.000100803
117 *532:18 *625:140 7.83863e-05
118 *534:22 *625:88 0.000867525
119 *535:26 *625:140 8.04857e-05
120 *537:38 *1593:GATE 3.0538e-05
121 *545:30 *625:92 9.94357e-05
122 *545:30 *625:103 0.000127587
123 *547:26 *625:34 6.94806e-05
124 *550:26 *625:34 0.000233883
125 *550:26 *625:63 0.000384116
126 *550:38 *625:63 0.000339273
127 *550:38 *625:88 2.74082e-05
128 *551:24 *1593:GATE 0.000374892
129 *552:74 *625:134 3.14237e-05
130 *554:16 *625:88 4.14659e-05
131 *558:10 *625:222 9.86551e-06
132 *558:28 *625:32 0.00032037
133 *559:12 *625:154 3.91102e-05
134 *559:12 *625:160 3.42479e-05
135 *559:30 *625:134 0.000314139
136 *564:20 *625:63 0.000196141
137 *566:18 *625:88 1.51581e-05
138 *567:22 *625:134 0.000671983
139 *572:34 *625:234 0.0004358
140 *572:50 *1606:GATE 0.000131594
141 *574:52 *1606:GATE 0.000348788
142 *574:52 *625:71 4.71774e-05
143 *575:12 *625:63 6.83421e-05
144 *575:12 *625:71 0.000114656
145 *583:110 *1604:GATE 0.000175903
146 *583:118 *625:34 0.000121976
147 *603:14 *625:160 0.000183516
148 *616:72 *1593:GATE 0.000129231
149 *618:16 *625:172 0.00017902
150 *618:48 *625:134 9.17998e-05
*RES
1 *1797:X *625:10 43.2614 
2 *625:10 *625:12 15 
3 *625:12 *625:32 46.6514 
4 *625:32 *625:34 8.59643 
5 *625:34 *1604:GATE 41.0243 
6 *625:34 *625:63 42.1481 
7 *625:63 *625:71 34.3293 
8 *625:71 *1606:GATE 43.075 
9 *625:71 *625:88 45.37 
10 *625:88 *625:92 16.0979 
11 *625:92 *1608:GATE 23 
12 *625:92 *625:103 19.93 
13 *625:103 *1593:GATE 45.6229 
14 *625:103 *625:134 46.7508 
15 *625:134 *625:140 31.2014 
16 *625:140 *625:154 20.1757 
17 *625:154 *625:160 22.2293 
18 *625:160 *625:172 38.9693 
19 *625:172 *1601:GATE 39.0979 
20 *625:160 *1602:GATE 41.6664 
21 *625:154 *1600:GATE 23.4971 
22 *625:140 *1599:GATE 23.6214 
23 *625:12 *625:220 45.8229 
24 *625:220 *625:222 10.7093 
25 *625:222 *625:234 34.5838 
26 *625:234 *1603:GATE 23 
27 *625:222 *1605:GATE 39.0979 
*END

*D_NET *626 0.0163899
*CONN
*I *1612:GATE I *D sky130_fd_sc_hd__dlxtp_1
*I *1614:GATE I *D sky130_fd_sc_hd__dlxtp_1
*I *1613:GATE I *D sky130_fd_sc_hd__dlxtp_1
*I *1797:A I *D sky130_fd_sc_hd__buf_2
*I *1607:GATE I *D sky130_fd_sc_hd__dlxtp_1
*I *1610:GATE I *D sky130_fd_sc_hd__dlxtp_1
*I *1798:X O *D sky130_fd_sc_hd__dlymetal6s2s_1
*CAP
1 *1612:GATE 0
2 *1614:GATE 0.000249975
3 *1613:GATE 0
4 *1797:A 0.000368134
5 *1607:GATE 0.000431821
6 *1610:GATE 0
7 *1798:X 0.000160864
8 *626:105 0.000109284
9 *626:86 0.00107807
10 *626:45 0.000799955
11 *626:43 0.000367682
12 *626:41 0.00107576
13 *626:22 0.00121233
14 *626:10 0.00138392
15 *1607:GATE *649:38 0.000171646
16 *1607:GATE *652:28 0.000314029
17 *1607:GATE *684:32 6.89956e-05
18 *1614:GATE *686:28 6.72662e-05
19 *626:10 *627:12 5.67058e-05
20 *626:10 *656:20 2.12347e-06
21 *626:41 *638:34 0.000153898
22 *626:86 *642:8 1.6279e-05
23 *626:86 *656:20 0.000127262
24 *626:86 *681:24 0.000581292
25 *626:86 *686:28 6.70361e-05
26 *626:105 *656:20 0.000178825
27 *1463:S *1614:GATE 0
28 *1480:S1 *626:41 0.000479329
29 *1533:A1 *626:22 5.56356e-05
30 *1533:A1 *626:41 0.00024012
31 *1533:S *626:41 0.000175903
32 *1686:A *626:43 0.000135037
33 *1687:A *626:41 5.3304e-05
34 *1744:A *1607:GATE 9.28078e-06
35 *2005:A *1797:A 5.3304e-05
36 *174:13 *626:105 0.000181047
37 *279:16 *626:43 2.18506e-05
38 *341:10 *626:41 1.05235e-05
39 *359:10 *1607:GATE 0.000132743
40 *359:10 *1797:A 2.46384e-05
41 *412:10 *1607:GATE 0.000135904
42 *419:24 *1614:GATE 2.36336e-05
43 *421:16 *626:10 0
44 *468:10 *626:10 4.73652e-05
45 *470:30 *1797:A 5.3304e-05
46 *474:12 *1607:GATE 3.2719e-05
47 *474:12 *1797:A 0.000130417
48 *477:8 *1797:A 0.000126993
49 *491:10 *626:41 5.56279e-05
50 *508:12 *626:41 4.83846e-05
51 *508:26 *1797:A 0.00015083
52 *520:8 *626:43 0.000469804
53 *520:20 *626:41 3.39102e-05
54 *538:18 *626:10 1.53931e-05
55 *543:20 *626:22 0.000220769
56 *548:76 *626:43 6.70361e-05
57 *559:76 *1614:GATE 5.67058e-05
58 *561:22 *626:10 5.44704e-05
59 *561:22 *626:86 6.82206e-05
60 *563:6 *626:43 6.27443e-05
61 *563:36 *626:86 0.000419253
62 *578:43 *626:10 5.50049e-05
63 *579:130 *626:41 2.64616e-05
64 *586:66 *626:22 0.0001332
65 *586:93 *626:43 0.000222467
66 *588:105 *1607:GATE 0.000225615
67 *588:105 *1797:A 0.000594431
68 *589:120 *626:22 0.001275
69 *620:40 *626:22 0.000857906
70 *620:40 *626:41 0.000110482
*RES
1 *1798:X *626:10 41.2314 
2 *626:10 *626:22 33.1043 
3 *626:22 *1610:GATE 23 
4 *626:22 *626:41 45.9293 
5 *626:41 *626:43 8.72071 
6 *626:43 *626:45 15 
7 *626:45 *1607:GATE 48.4607 
8 *626:45 *1797:A 47.2179 
9 *626:43 *1613:GATE 23 
10 *626:10 *626:86 29.1064 
11 *626:86 *1614:GATE 27.9714 
12 *626:86 *626:105 32.61 
13 *626:105 *1612:GATE 23 
*END

*D_NET *627 0.0224825
*CONN
*I *1595:GATE I *D sky130_fd_sc_hd__dlxtp_1
*I *1596:GATE I *D sky130_fd_sc_hd__dlxtp_1
*I *1591:GATE I *D sky130_fd_sc_hd__dlxtp_1
*I *1592:GATE I *D sky130_fd_sc_hd__dlxtp_1
*I *1798:A I *D sky130_fd_sc_hd__dlymetal6s2s_1
*I *1594:GATE I *D sky130_fd_sc_hd__dlxtp_1
*I *1597:GATE I *D sky130_fd_sc_hd__dlxtp_1
*I *1598:GATE I *D sky130_fd_sc_hd__dlxtp_1
*I *1799:X O *D sky130_fd_sc_hd__clkbuf_2
*CAP
1 *1595:GATE 0.000454729
2 *1596:GATE 0
3 *1591:GATE 0.000250303
4 *1592:GATE 0
5 *1798:A 0
6 *1594:GATE 0
7 *1597:GATE 0.000359458
8 *1598:GATE 0
9 *1799:X 0
10 *627:124 0.00134436
11 *627:107 0.00124663
12 *627:86 0.000253294
13 *627:55 0.0010177
14 *627:44 0.000162482
15 *627:34 0.000862921
16 *627:30 0.00163355
17 *627:12 0.00174646
18 *627:10 0.000510955
19 *627:4 0.000209244
20 *1595:GATE *633:27 5.01469e-05
21 *1595:GATE *669:24 6.17437e-06
22 *627:30 *659:32 0.00145886
23 *627:30 *673:26 0.00157084
24 *627:34 *659:40 8.49387e-06
25 *627:44 *1598:D 0.000142173
26 *627:86 *630:86 2.64616e-05
27 *627:107 *652:20 0.000139352
28 *627:107 *684:22 0.000137651
29 *627:124 *652:20 0.000582522
30 *627:124 *672:14 2.45318e-05
31 *1471:S *627:30 0.000144501
32 *1482:A1 *1591:GATE 3.10833e-05
33 *1568:A1 *627:34 4.82567e-05
34 *1628:D *1595:GATE 0.000120476
35 *1687:A *627:124 8.42746e-05
36 *135:10 *627:55 0.000134081
37 *137:14 *627:55 2.26406e-05
38 *270:8 *1595:GATE 0.000132912
39 *274:8 *1591:GATE 0.000180002
40 *306:12 *627:124 1.09562e-05
41 *328:14 *627:30 0.000540371
42 *433:10 *627:30 9.8971e-06
43 *458:28 *627:30 9.67842e-05
44 *482:24 *627:55 3.73918e-05
45 *491:10 *627:124 4.03206e-05
46 *494:10 *627:44 9.93575e-05
47 *515:67 *627:124 9.88449e-05
48 *528:18 *627:12 0.0004687
49 *528:18 *627:30 0.000394988
50 *531:26 *627:30 0.000188915
51 *531:46 *627:30 0.000269994
52 *536:20 *627:55 1.02219e-05
53 *545:30 *1597:GATE 2.17486e-05
54 *545:30 *627:86 0.000225279
55 *546:12 *627:86 0.000175148
56 *547:26 *627:12 0.000190835
57 *547:42 *627:86 4.36547e-05
58 *551:24 *627:34 0
59 *551:24 *627:55 7.31442e-05
60 *551:24 *627:86 5.63449e-05
61 *553:24 *627:30 6.94148e-05
62 *556:28 *627:34 0.000250092
63 *556:28 *627:44 2.02946e-05
64 *556:28 *627:55 4.24694e-06
65 *557:12 *627:44 2.13733e-05
66 *559:48 *627:86 2.93335e-05
67 *563:30 *1595:GATE 2.3313e-05
68 *563:30 *627:124 6.10809e-05
69 *574:32 *627:10 9.45396e-05
70 *574:42 *627:30 9.39796e-05
71 *574:52 *627:30 2.41841e-05
72 *578:28 *627:30 0.000440648
73 *578:32 *627:30 0.000273279
74 *578:43 *1591:GATE 0.000202457
75 *578:43 *627:12 0.000355739
76 *578:43 *627:30 0.000397192
77 *578:43 *627:107 0.000106986
78 *583:124 *627:10 2.39882e-05
79 *585:87 *627:44 2.2324e-05
80 *586:51 *1591:GATE 3.39352e-05
81 *586:66 *627:10 0.000151657
82 *586:66 *627:107 4.1651e-05
83 *590:41 *627:34 0.000221307
84 *597:10 *627:30 3.88766e-05
85 *610:10 *627:30 6.77187e-05
86 *615:30 *627:12 0.000393293
87 *619:42 *627:124 0.000531453
88 *620:57 *1595:GATE 3.51551e-05
89 *620:57 *627:124 4.82717e-05
90 *621:40 *1597:GATE 6.08248e-05
91 *625:103 *627:86 0.000136738
92 *626:10 *627:12 5.67058e-05
*RES
1 *1799:X *627:4 23 
2 *627:4 *627:10 32.2579 
3 *627:10 *627:12 12.5321 
4 *627:12 *627:30 48.0111 
5 *627:30 *627:34 14.3075 
6 *627:34 *627:44 48.3764 
7 *627:44 *1598:GATE 23 
8 *627:34 *627:55 21.7529 
9 *627:55 *1597:GATE 29.5871 
10 *627:55 *627:86 36.2557 
11 *627:86 *1594:GATE 23 
12 *627:12 *1798:A 23 
13 *627:10 *1592:GATE 23 
14 *627:4 *627:107 18.1279 
15 *627:107 *1591:GATE 42.7229 
16 *627:107 *627:124 46.1157 
17 *627:124 *1596:GATE 38 
18 *627:124 *1595:GATE 45.2086 
*END

*D_NET *628 0.0391965
*CONN
*I *1611:GATE I *D sky130_fd_sc_hd__dlxtp_1
*I *1713:A I *D sky130_fd_sc_hd__clkbuf_1
*I *1616:GATE I *D sky130_fd_sc_hd__dlxtp_1
*I *1615:GATE I *D sky130_fd_sc_hd__dlxtp_1
*I *1618:GATE I *D sky130_fd_sc_hd__dlxtp_1
*I *1609:GATE I *D sky130_fd_sc_hd__dlxtp_1
*I *1799:A I *D sky130_fd_sc_hd__clkbuf_2
*I *1617:GATE I *D sky130_fd_sc_hd__dlxtp_1
*I *1590:GATE I *D sky130_fd_sc_hd__dlxtp_1
*I *1589:GATE I *D sky130_fd_sc_hd__dlxtp_1
*I *1800:X O *D sky130_fd_sc_hd__buf_2
*CAP
1 *1611:GATE 4.62059e-05
2 *1713:A 0
3 *1616:GATE 0.000395978
4 *1615:GATE 6.36966e-05
5 *1618:GATE 5.07659e-05
6 *1609:GATE 0.000117642
7 *1799:A 0.00055041
8 *1617:GATE 0
9 *1590:GATE 0
10 *1589:GATE 0.000314272
11 *1800:X 0
12 *628:162 0.00129829
13 *628:150 0.000974335
14 *628:135 0.000536509
15 *628:120 0.00120219
16 *628:108 0.00179888
17 *628:76 0.00218394
18 *628:51 0.000526054
19 *628:41 0.00271
20 *628:39 0.00107932
21 *628:8 0.00343515
22 *628:4 0.0025093
23 *1589:GATE *694:8 0.000336564
24 *1611:GATE *645:34 5.64582e-05
25 *1615:GATE *676:12 4.6318e-06
26 *1615:GATE *676:16 0
27 *1616:GATE *676:12 7.83153e-05
28 *1616:GATE *678:12 4.4553e-05
29 *1618:GATE *663:32 3.86588e-05
30 *1799:A *652:20 9.17998e-05
31 *628:39 *631:61 0.0011704
32 *628:51 *631:69 3.41998e-06
33 *628:76 *659:32 4.96824e-05
34 *628:76 *667:18 0.000166289
35 *628:76 *673:26 4.51815e-05
36 *628:108 *645:34 0.000109018
37 *628:150 *689:20 4.08664e-05
38 *628:162 *689:20 0.000275875
39 *1509:B1 *628:76 5.79413e-06
40 *1583:CLK *628:39 6.73613e-05
41 *1586:CLK *628:39 0.000119533
42 *1611:D *628:120 0.000135037
43 *1616:D *1616:GATE 5.54555e-05
44 *1618:D *628:135 0.000167281
45 *1618:D *628:150 1.01436e-05
46 *1680:A *1589:GATE 2.58484e-05
47 *1851:A *1589:GATE 1.05441e-05
48 *1898:A *628:162 8.49387e-06
49 *161:19 *628:76 1.81712e-05
50 *266:8 *628:120 0.000159781
51 *275:12 *628:108 0.000230604
52 *315:22 *1589:GATE 0.000179752
53 *352:10 *1799:A 5.35429e-05
54 *372:10 *628:51 0.000268339
55 *373:8 *628:76 0.000216572
56 *404:10 *628:76 0
57 *458:30 *628:76 0
58 *458:49 *628:39 0.000227208
59 *461:42 *628:120 0.000222097
60 *470:36 *1618:GATE 9.41704e-05
61 *471:20 *628:51 0.00028153
62 *471:20 *628:76 0.000153646
63 *479:10 *1615:GATE 9.85586e-06
64 *479:18 *628:162 0.00203472
65 *480:12 *1616:GATE 2.05503e-05
66 *480:20 *628:162 0.00203698
67 *485:18 *628:120 0.000382995
68 *486:12 *628:120 0.000803363
69 *486:12 *628:135 0.000280201
70 *487:18 *1589:GATE 2.66478e-05
71 *487:18 *1799:A 9.31277e-05
72 *491:34 *628:120 2.42041e-05
73 *507:10 *628:162 0.000111029
74 *509:34 *628:120 0.000368747
75 *509:34 *628:135 0.000425118
76 *509:34 *628:150 8.56839e-05
77 *510:26 *628:135 0.000257657
78 *510:26 *628:150 0.000229742
79 *512:18 *628:150 6.17437e-06
80 *528:22 *628:39 3.09416e-05
81 *538:30 *628:39 2.31687e-05
82 *540:20 *1616:GATE 0.000139131
83 *544:30 *628:76 0.000114862
84 *548:62 *628:39 0.00146454
85 *550:12 *628:150 6.0174e-05
86 *550:26 *628:76 2.48388e-05
87 *552:60 *628:51 0.000124902
88 *560:20 *628:8 0.00155575
89 *560:26 *1799:A 0
90 *571:22 *1615:GATE 2.16955e-05
91 *571:22 *1616:GATE 2.17052e-05
92 *571:26 *1615:GATE 1.05441e-05
93 *574:8 *628:108 5.49502e-05
94 *574:22 *628:8 0.000427596
95 *574:22 *628:108 0.00119702
96 *574:42 *628:76 0.000138943
97 *576:10 *628:51 3.13569e-05
98 *579:115 *1609:GATE 0.000165808
99 *581:16 *628:39 8.41224e-05
100 *584:125 *628:108 3.54728e-05
101 *586:45 *628:39 1.31766e-05
102 *586:106 *1609:GATE 0.000165808
103 *588:128 *628:108 0.000185371
104 *592:90 *628:76 4.52304e-05
105 *597:10 *628:76 0
106 *613:22 *628:39 0.000169091
107 *613:32 *1589:GATE 0
108 *617:53 *628:76 0.000166331
109 *620:30 *628:39 0
110 *620:30 *628:51 4.46698e-05
111 *625:63 *628:76 0.000467004
*RES
1 *1800:X *628:4 23 
2 *628:4 *628:8 37.5371 
3 *628:8 *1589:GATE 44.6596 
4 *628:8 *628:39 44.9998 
5 *628:39 *628:41 15 
6 *628:41 *628:51 39.28 
7 *628:51 *1590:GATE 38 
8 *628:41 *628:76 43.1446 
9 *628:76 *1617:GATE 38 
10 *628:8 *1799:A 47.0625 
11 *628:4 *628:108 35.6107 
12 *628:108 *628:120 48.3529 
13 *628:120 *1609:GATE 41.48 
14 *628:120 *628:135 9.36286 
15 *628:135 *1618:GATE 39.0979 
16 *628:135 *628:150 18.9357 
17 *628:150 *628:162 38.9489 
18 *628:162 *1615:GATE 39.0254 
19 *628:162 *1616:GATE 45.1154 
20 *628:150 *1713:A 23 
21 *628:108 *1611:GATE 38.8493 
*END

*D_NET *629 0.00709062
*CONN
*I *1691:A I *D sky130_fd_sc_hd__clkbuf_2
*I *1632:D I *D sky130_fd_sc_hd__dlxtp_1
*I *1600:D I *D sky130_fd_sc_hd__dlxtp_1
*I *1857:X O *D sky130_fd_sc_hd__buf_1
*CAP
1 *1691:A 0.000104197
2 *1632:D 0
3 *1600:D 2.06787e-05
4 *1857:X 0.000621478
5 *629:45 0.000273704
6 *629:24 0.000294382
7 *629:22 0.00100252
8 *629:10 0.0015198
9 *629:10 *651:14 9.44066e-05
10 *629:10 *684:10 2.05503e-05
11 *629:22 *640:46 0
12 *629:22 *656:28 0.000134848
13 *629:22 *684:18 0.000285971
14 *629:45 *1632:GATE 2.70469e-05
15 *1475:A1 *629:22 1.09043e-05
16 *1556:B1 *629:10 6.58415e-06
17 *1957:A *629:45 2.93747e-05
18 *287:10 *629:22 6.92144e-05
19 *322:10 *629:45 3.20252e-05
20 *323:8 *629:10 2.26406e-05
21 *456:22 *629:10 0
22 *456:22 *629:22 0
23 *462:8 *629:45 5.3304e-05
24 *463:8 *629:22 0
25 *471:16 *629:10 0
26 *518:26 *1691:A 0.000160915
27 *518:26 *629:22 0.000870711
28 *523:14 *629:45 0.000156025
29 *524:12 *629:45 0.000206224
30 *559:12 *1600:D 5.56279e-05
31 *559:12 *629:45 9.5877e-05
32 *586:139 *629:10 0.000287221
33 *603:14 *1691:A 0
34 *603:14 *629:22 0
35 *606:14 *629:10 0.000157382
36 *622:139 *629:10 7.58527e-05
37 *623:53 *629:10 0.000265233
38 *625:154 *1600:D 1.83327e-05
39 *625:154 *629:45 0.000117587
40 *625:160 *629:22 0
*RES
1 *1857:X *629:10 48.8646 
2 *629:10 *629:22 30.688 
3 *629:22 *629:24 15 
4 *629:24 *1600:D 23.6214 
5 *629:24 *629:45 37.2293 
6 *629:45 *1632:D 23 
7 *629:22 *1691:A 40.2579 
*END

*D_NET *630 0.0274869
*CONN
*I *1648:GATE I *D sky130_fd_sc_hd__dlxtp_1
*I *1636:GATE I *D sky130_fd_sc_hd__dlxtp_1
*I *1649:GATE I *D sky130_fd_sc_hd__dlxtp_1
*I *1625:GATE I *D sky130_fd_sc_hd__dlxtp_1
*I *1631:GATE I *D sky130_fd_sc_hd__dlxtp_1
*I *1632:GATE I *D sky130_fd_sc_hd__dlxtp_1
*I *1633:GATE I *D sky130_fd_sc_hd__dlxtp_1
*I *1634:GATE I *D sky130_fd_sc_hd__dlxtp_1
*I *1630:GATE I *D sky130_fd_sc_hd__dlxtp_1
*I *1629:GATE I *D sky130_fd_sc_hd__dlxtp_1
*I *1801:X O *D sky130_fd_sc_hd__buf_2
*CAP
1 *1648:GATE 0
2 *1636:GATE 2.52923e-05
3 *1649:GATE 0.000284344
4 *1625:GATE 3.87734e-05
5 *1631:GATE 2.0995e-05
6 *1632:GATE 0.000348844
7 *1633:GATE 5.77484e-05
8 *1634:GATE 0.000183779
9 *1630:GATE 6.43981e-05
10 *1629:GATE 2.52923e-05
11 *1801:X 0.000511054
12 *630:227 0.000351098
13 *630:159 0.000406593
14 *630:148 0.00107805
15 *630:142 0.000966252
16 *630:138 0.000403423
17 *630:113 0.000850162
18 *630:94 0.000743175
19 *630:86 0.00143746
20 *630:66 0.00130471
21 *630:58 0.000881352
22 *630:42 0.00252522
23 *630:26 0.00213776
24 *630:16 0.000913468
25 *630:14 0.000511054
26 *1632:GATE *651:34 0.000159793
27 *1634:GATE *651:21 4.03039e-05
28 *630:14 *632:78 2.91406e-05
29 *630:14 *649:8 0
30 *630:14 *672:14 0.000198477
31 *630:26 *1636:D 5.3304e-05
32 *630:26 *645:22 0.000416884
33 *630:42 *632:40 3.75521e-05
34 *630:42 *654:34 4.51815e-05
35 *630:42 *681:24 0.00029764
36 *630:58 *637:10 9.28078e-06
37 *630:58 *639:12 0.000229576
38 *630:66 *639:12 0.00015088
39 *630:138 *1529:A0 2.62931e-05
40 *630:148 *651:21 3.7122e-06
41 *630:148 *651:34 1.21972e-05
42 *630:227 *645:22 8.08917e-05
43 *630:227 *669:12 4.99198e-05
44 *630:227 *670:16 0.000117233
45 *630:227 *686:24 2.45549e-06
46 *1473:A1 *630:26 0.000177604
47 *1629:D *630:113 9.17084e-05
48 *1640:D *630:86 4.67488e-05
49 *1648:D *630:227 1.7453e-05
50 *1856:A *630:42 3.24136e-05
51 *2003:A *1649:GATE 1.09358e-05
52 *2:14 *1649:GATE 8.64431e-05
53 *125:16 *630:94 9.9437e-05
54 *126:10 *630:94 5.3304e-05
55 *173:17 *630:42 9.33656e-05
56 *229:93 *630:14 0.000153188
57 *253:10 *630:138 7.55717e-05
58 *258:10 *630:26 0.000300203
59 *271:16 *630:26 0.000431787
60 *281:10 *630:113 1.01436e-05
61 *294:10 *630:58 1.24376e-05
62 *322:10 *1632:GATE 0.000129757
63 *324:8 *1632:GATE 7.46267e-05
64 *345:10 *1649:GATE 9.28078e-06
65 *470:12 *630:42 8.64901e-05
66 *504:24 *630:138 9.58714e-05
67 *518:26 *1632:GATE 8.30618e-05
68 *523:14 *1632:GATE 0.000158247
69 *524:12 *1632:GATE 9.93122e-05
70 *524:12 *1633:GATE 3.35885e-06
71 *528:12 *630:26 5.20028e-05
72 *528:12 *630:42 2.81066e-05
73 *528:18 *630:42 0.000142037
74 *534:28 *630:66 0.000180425
75 *536:20 *1649:GATE 2.26497e-05
76 *543:30 *630:58 0.000267361
77 *545:30 *630:58 3.66496e-05
78 *545:30 *630:66 0.00026626
79 *545:30 *630:94 3.90662e-05
80 *545:30 *630:113 2.85839e-05
81 *547:42 *630:42 0.00161119
82 *550:38 *630:42 7.38689e-05
83 *553:36 *630:113 2.11631e-05
84 *557:8 *1630:GATE 5.88461e-05
85 *557:8 *630:113 1.01436e-05
86 *557:12 *1630:GATE 6.17437e-06
87 *558:28 *630:14 5.56356e-05
88 *558:42 *630:14 0
89 *558:42 *630:42 0.000651175
90 *559:12 *1632:GATE 1.13589e-05
91 *559:30 *630:86 5.06619e-05
92 *559:48 *630:86 5.47597e-05
93 *566:18 *630:66 0.000182657
94 *575:12 *1649:GATE 4.21755e-05
95 *575:12 *630:58 6.86221e-06
96 *583:118 *630:26 0.000218476
97 *585:75 *1630:GATE 2.64616e-05
98 *585:75 *630:138 2.07242e-05
99 *588:41 *630:113 5.48289e-05
100 *588:41 *630:138 5.09205e-05
101 *592:58 *1649:GATE 2.12347e-06
102 *592:58 *630:58 1.74874e-06
103 *592:75 *1649:GATE 1.34487e-05
104 *603:14 *630:42 4.49071e-05
105 *616:22 *1630:GATE 6.10781e-05
106 *616:22 *630:113 0.00035999
107 *616:72 *630:86 0.00019027
108 *617:40 *630:86 9.40516e-05
109 *618:16 *1632:GATE 0.000101295
110 *618:16 *1633:GATE 0.000138718
111 *618:16 *630:148 0.000276786
112 *618:18 *630:148 0.000243257
113 *618:33 *630:142 2.93845e-05
114 *618:33 *630:148 4.6595e-05
115 *621:16 *1633:GATE 0.0001264
116 *621:22 *630:113 0.000216483
117 *621:40 *630:94 0.000265521
118 *625:32 *630:14 5.74063e-05
119 *625:63 *630:42 0.000327384
120 *625:134 *630:94 0.000101536
121 *627:86 *630:86 2.64616e-05
122 *629:45 *1632:GATE 2.70469e-05
*RES
1 *1801:X *630:14 46.3479 
2 *630:14 *630:16 15 
3 *630:16 *630:26 14.645 
4 *630:26 *630:42 39.7856 
5 *630:42 *630:58 40.6782 
6 *630:58 *630:66 35.6136 
7 *630:66 *630:86 31.1779 
8 *630:86 *630:94 35.51 
9 *630:94 *1629:GATE 23.4971 
10 *630:94 *630:113 24.0936 
11 *630:113 *1630:GATE 39.4707 
12 *630:113 *630:138 49.9714 
13 *630:138 *630:142 1.11857 
14 *630:142 *630:148 16.0329 
15 *630:148 *1634:GATE 25.4236 
16 *630:148 *630:159 15 
17 *630:159 *1633:GATE 39.9057 
18 *630:159 *1632:GATE 47.3007 
19 *630:142 *1631:GATE 23.4971 
20 *630:86 *1625:GATE 23.8493 
21 *630:42 *1649:GATE 42.3811 
22 *630:26 *1636:GATE 23.4971 
23 *630:16 *630:227 36.9186 
24 *630:227 *1648:GATE 23 
*END

*D_NET *631 0.0332461
*CONN
*I *1626:GATE I *D sky130_fd_sc_hd__dlxtp_1
*I *1650:GATE I *D sky130_fd_sc_hd__dlxtp_1
*I *1652:GATE I *D sky130_fd_sc_hd__dlxtp_1
*I *1651:GATE I *D sky130_fd_sc_hd__dlxtp_1
*I *1624:GATE I *D sky130_fd_sc_hd__dlxtp_1
*I *1623:GATE I *D sky130_fd_sc_hd__dlxtp_1
*I *1638:GATE I *D sky130_fd_sc_hd__dlxtp_1
*I *1640:GATE I *D sky130_fd_sc_hd__dlxtp_1
*I *1622:GATE I *D sky130_fd_sc_hd__dlxtp_1
*I *1621:GATE I *D sky130_fd_sc_hd__dlxtp_1
*I *1802:X O *D sky130_fd_sc_hd__buf_2
*CAP
1 *1626:GATE 0.000221987
2 *1650:GATE 0
3 *1652:GATE 0
4 *1651:GATE 5.66191e-05
5 *1624:GATE 0.000731732
6 *1623:GATE 0
7 *1638:GATE 0.000622958
8 *1640:GATE 0
9 *1622:GATE 0.000101174
10 *1621:GATE 0.000164748
11 *1802:X 0.000383405
12 *631:170 0.000907148
13 *631:106 0.00107219
14 *631:90 0.00244132
15 *631:71 0.000847342
16 *631:69 0.000776643
17 *631:61 0.00167532
18 *631:38 0.00130379
19 *631:34 0.000574452
20 *631:26 0.00184376
21 *631:22 0.000979301
22 *631:18 0.000970352
23 *631:10 0.00192779
24 *631:8 0.000800427
25 *1624:GATE *641:20 0.000245789
26 *1624:GATE *652:20 0.000102389
27 *1624:GATE *672:14 0
28 *1624:GATE *684:22 3.66555e-05
29 *1626:GATE *666:16 0.000202044
30 *631:18 *1800:A 0
31 *631:18 *660:32 0.000674304
32 *631:22 *1800:A 1.40183e-05
33 *631:22 *660:32 3.92995e-05
34 *631:170 *632:93 0.000584198
35 *631:170 *632:106 0.000101922
36 *631:170 *632:146 0.000311534
37 *1469:A1 *631:106 0.000104595
38 *1482:A1 *1624:GATE 8.31153e-05
39 *1500:C *631:90 1.8497e-05
40 *1590:D *631:69 0.000279206
41 *1645:D *631:170 5.3304e-05
42 *1680:A *1621:GATE 3.80533e-05
43 *1680:A *631:38 5.50049e-05
44 *1680:A *631:61 7.71219e-06
45 *1750:A *631:170 0.000137651
46 *1790:A *1622:GATE 8.19146e-05
47 *1790:A *631:90 0.000151657
48 *1791:A *631:90 0.000521194
49 *249:12 *631:69 1.74874e-06
50 *263:10 *631:26 0.00011812
51 *268:10 *631:170 0.000183733
52 *292:18 *1638:GATE 2.93335e-05
53 *295:8 *1624:GATE 0
54 *311:10 *631:18 0.000302982
55 *311:10 *631:170 2.64616e-05
56 *314:24 *631:106 0.000131655
57 *315:22 *631:38 0.000265472
58 *372:10 *631:61 0.000273645
59 *415:44 *631:61 0.000241069
60 *425:47 *631:90 0.000452375
61 *425:47 *631:106 0.000174869
62 *430:36 *631:90 0.000103852
63 *432:12 *631:106 0.000140259
64 *451:8 *631:69 4.38068e-06
65 *460:20 *1638:GATE 0.000102488
66 *460:20 *631:106 3.64394e-05
67 *460:27 *1638:GATE 0.000207663
68 *470:30 *1626:GATE 0.000176437
69 *471:20 *631:69 1.27408e-05
70 *489:28 *631:18 0.000152656
71 *489:28 *631:22 0.000203025
72 *493:43 *631:69 4.67488e-05
73 *508:12 *631:10 0.000238065
74 *508:12 *631:18 0.000451406
75 *508:26 *631:8 5.3304e-05
76 *520:20 *1626:GATE 5.4398e-05
77 *520:20 *631:10 1.13579e-05
78 *528:22 *631:61 2.05503e-05
79 *534:28 *631:106 0.000439583
80 *547:16 *1626:GATE 4.97831e-05
81 *547:16 *631:10 0.000109834
82 *547:16 *631:18 0.000267894
83 *548:62 *1622:GATE 1.88129e-05
84 *552:34 *631:69 7.43845e-05
85 *560:20 *631:34 4.27828e-05
86 *560:20 *631:38 0.000228158
87 *560:26 *631:61 9.38911e-05
88 *574:22 *1651:GATE 4.96717e-05
89 *574:22 *631:26 0.00135391
90 *574:22 *631:34 4.56219e-05
91 *577:36 *1621:GATE 0.000118658
92 *578:89 *631:90 6.25646e-05
93 *580:48 *631:106 0.000210469
94 *580:65 *631:106 0.000243995
95 *581:16 *631:90 0.000336879
96 *584:90 *1624:GATE 7.67827e-05
97 *584:90 *631:34 2.77188e-05
98 *585:87 *631:106 4.19902e-05
99 *608:40 *631:106 3.61511e-05
100 *610:10 *631:90 0.00013007
101 *612:20 *1621:GATE 9.36629e-06
102 *612:20 *631:61 3.11661e-05
103 *613:22 *631:61 0.00113896
104 *619:42 *1624:GATE 0
105 *619:42 *631:34 0
106 *620:30 *631:69 6.56284e-05
107 *622:205 *631:106 0.000148641
108 *624:148 *1622:GATE 9.47911e-06
109 *624:148 *631:90 1.59538e-05
110 *625:32 *631:8 0.000129734
111 *628:39 *631:61 0.0011704
112 *628:51 *631:69 3.41998e-06
*RES
1 *1802:X *631:8 42.9093 
2 *631:8 *631:10 4.01857 
3 *631:10 *631:18 18.9121 
4 *631:18 *631:22 17.9621 
5 *631:22 *631:26 32.7729 
6 *631:26 *631:34 20.1786 
7 *631:34 *631:38 20.8621 
8 *631:38 *1621:GATE 40.61 
9 *631:38 *631:61 41.4677 
10 *631:61 *631:69 40.3986 
11 *631:69 *631:71 15 
12 *631:71 *1622:GATE 39.8229 
13 *631:71 *631:90 31.4057 
14 *631:90 *631:106 35.2586 
15 *631:106 *1640:GATE 38 
16 *631:90 *1638:GATE 32.8807 
17 *631:34 *1623:GATE 23 
18 *631:26 *1624:GATE 49.2686 
19 *631:22 *1651:GATE 24.0979 
20 *631:18 *1652:GATE 38 
21 *631:10 *631:170 33.4357 
22 *631:170 *1650:GATE 23 
23 *631:8 *1626:GATE 42.7229 
*END

*D_NET *632 0.0348765
*CONN
*I *1641:GATE I *D sky130_fd_sc_hd__dlxtp_1
*I *1637:GATE I *D sky130_fd_sc_hd__dlxtp_1
*I *1635:GATE I *D sky130_fd_sc_hd__dlxtp_1
*I *1712:A I *D sky130_fd_sc_hd__clkbuf_1
*I *1643:GATE I *D sky130_fd_sc_hd__dlxtp_1
*I *1639:GATE I *D sky130_fd_sc_hd__dlxtp_1
*I *1645:GATE I *D sky130_fd_sc_hd__dlxtp_1
*I *1642:GATE I *D sky130_fd_sc_hd__dlxtp_1
*I *1646:GATE I *D sky130_fd_sc_hd__dlxtp_1
*I *1644:GATE I *D sky130_fd_sc_hd__dlxtp_1
*I *1803:X O *D sky130_fd_sc_hd__buf_2
*CAP
1 *1641:GATE 0.00013219
2 *1637:GATE 3.16954e-05
3 *1635:GATE 0
4 *1712:A 0
5 *1643:GATE 5.74872e-05
6 *1639:GATE 0
7 *1645:GATE 0
8 *1642:GATE 0
9 *1646:GATE 0.000306653
10 *1644:GATE 2.90111e-05
11 *1803:X 0
12 *632:187 0.000423753
13 *632:179 0.000915783
14 *632:166 0.000528966
15 *632:158 0.000992062
16 *632:150 0.00123508
17 *632:146 0.000890292
18 *632:124 0.000753752
19 *632:112 0.00137468
20 *632:106 0.00188709
21 *632:93 0.00126459
22 *632:91 0.00128691
23 *632:78 0.000970736
24 *632:40 0.000991843
25 *632:20 0.00192853
26 *632:8 0.00253808
27 *632:4 0.000930136
28 *1637:GATE *1637:D 1.32314e-05
29 *632:8 *1803:A 5.79559e-05
30 *632:8 *633:10 9.5877e-05
31 *632:20 *653:8 9.41704e-05
32 *632:20 *659:32 0.000109377
33 *632:20 *675:26 0.000107212
34 *632:20 *677:30 0.000969749
35 *632:20 *677:46 2.51031e-05
36 *632:40 *648:38 1.74932e-05
37 *632:40 *654:14 8.00606e-05
38 *632:40 *654:34 4.8098e-05
39 *632:40 *677:46 0.000135037
40 *632:40 *686:32 2.07944e-05
41 *632:78 *641:20 0
42 *632:78 *652:20 4.96207e-05
43 *632:78 *668:49 0.000192005
44 *632:78 *672:14 0.000935461
45 *632:78 *684:22 4.67488e-05
46 *632:91 *661:12 1.49994e-05
47 *632:91 *677:22 0.000221992
48 *632:106 *687:26 0
49 *632:179 *679:36 0
50 *632:179 *689:26 0.0003731
51 *1487:C1 *632:112 0.000587618
52 *1533:A1 *632:78 3.05574e-05
53 *1641:D *1641:GATE 0.000136738
54 *1645:D *632:106 1.59094e-05
55 *1647:D *632:91 4.1662e-05
56 *1650:D *632:146 0.000125837
57 *1706:A *632:91 4.05745e-05
58 *1750:A *632:106 3.3577e-05
59 *67:23 *632:8 9.59638e-05
60 *67:23 *632:91 2.15728e-05
61 *174:13 *632:40 1.58785e-05
62 *229:71 *632:40 6.82416e-05
63 *229:85 *632:20 0.000518759
64 *229:93 *632:78 0.000128559
65 *229:109 *632:91 0.000111952
66 *268:10 *632:112 0
67 *273:10 *632:146 3.41998e-06
68 *273:10 *632:150 1.75737e-05
69 *276:10 *632:112 3.54739e-05
70 *276:10 *632:124 0.000133316
71 *280:10 *632:78 0.000151079
72 *311:10 *632:93 8.41122e-05
73 *335:8 *632:106 2.24973e-05
74 *360:6 *632:40 0.000139357
75 *419:24 *1644:GATE 0.000100061
76 *419:32 *632:40 7.7501e-06
77 *461:42 *632:124 8.46364e-06
78 *464:54 *632:124 0.000169227
79 *466:22 *632:8 6.47117e-05
80 *466:22 *632:20 1.21972e-05
81 *466:38 *632:158 0.000464582
82 *466:48 *1637:GATE 8.48502e-06
83 *474:28 *632:158 0.000336788
84 *474:28 *632:166 0.000140259
85 *474:28 *632:179 0.000137651
86 *475:16 *632:106 0.000135277
87 *475:16 *632:112 0.000300629
88 *477:12 *632:166 0.000141954
89 *477:12 *632:179 0.000125213
90 *485:18 *632:146 1.35764e-05
91 *486:28 *1641:GATE 0.000132374
92 *486:28 *632:146 5.76984e-06
93 *486:28 *632:150 0.000161478
94 *490:28 *1643:GATE 0.000136743
95 *495:8 *632:166 1.01436e-05
96 *498:14 *1637:GATE 4.17736e-05
97 *498:14 *632:187 0.000226306
98 *498:20 *632:158 0.000261323
99 *502:10 *632:166 2.96051e-05
100 *502:10 *632:187 5.45906e-05
101 *503:10 *632:158 0.000259092
102 *504:55 *1641:GATE 5.50106e-05
103 *510:18 *632:187 0.000559361
104 *514:10 *632:124 2.26497e-05
105 *514:10 *632:146 2.06058e-05
106 *515:54 *632:78 0
107 *526:54 *1643:GATE 5.50106e-05
108 *526:54 *632:124 2.90256e-05
109 *527:12 *632:166 1.34354e-05
110 *527:12 *632:179 7.88066e-05
111 *527:12 *632:187 1.87077e-05
112 *535:14 *632:124 0.000850117
113 *537:60 *1646:GATE 0.000209058
114 *537:60 *632:40 9.28078e-06
115 *538:10 *632:112 0.000179321
116 *547:42 *632:40 0.000341866
117 *560:32 *632:40 9.82846e-06
118 *562:10 *1644:GATE 2.93985e-05
119 *562:10 *1646:GATE 4.51797e-05
120 *568:22 *632:124 5.34298e-05
121 *579:107 *632:112 0.000711006
122 *579:107 *632:124 0.000220604
123 *581:146 *1643:GATE 4.05745e-05
124 *586:112 *1637:GATE 5.41385e-05
125 *586:112 *632:187 0.00012103
126 *587:131 *1644:GATE 7.51453e-06
127 *587:145 *1646:GATE 7.21606e-05
128 *589:134 *632:78 0
129 *603:14 *632:40 0.000471246
130 *625:222 *632:187 0.000233089
131 *625:234 *632:187 0.00017708
132 *630:14 *632:78 2.91406e-05
133 *630:42 *632:40 3.75521e-05
134 *631:170 *632:93 0.000584198
135 *631:170 *632:106 0.000101922
136 *631:170 *632:146 0.000311534
*RES
1 *1803:X *632:4 23 
2 *632:4 *632:8 5.40643 
3 *632:8 *632:20 49.9686 
4 *632:20 *632:40 39.6618 
5 *632:40 *1644:GATE 39.0979 
6 *632:40 *1646:GATE 43.2614 
7 *632:8 *632:78 48.9743 
8 *632:78 *1642:GATE 23 
9 *632:4 *632:91 39.1557 
10 *632:91 *632:93 12.0557 
11 *632:93 *1645:GATE 23 
12 *632:93 *632:106 24.0936 
13 *632:106 *632:112 14.2929 
14 *632:112 *632:124 36.2326 
15 *632:124 *1639:GATE 23 
16 *632:112 *1643:GATE 39.5743 
17 *632:106 *632:146 39.4457 
18 *632:146 *632:150 18.48 
19 *632:150 *632:158 43.8164 
20 *632:158 *632:166 32.4236 
21 *632:166 *1712:A 23 
22 *632:166 *632:179 40.1707 
23 *632:179 *632:187 41.1236 
24 *632:187 *1635:GATE 23 
25 *632:179 *1637:GATE 24.0979 
26 *632:150 *1641:GATE 26.0036 
*END

*D_NET *633 0.00436913
*CONN
*I *1803:A I *D sky130_fd_sc_hd__buf_2
*I *1801:A I *D sky130_fd_sc_hd__buf_2
*I *1802:A I *D sky130_fd_sc_hd__buf_2
*I *1647:GATE I *D sky130_fd_sc_hd__dlxtp_1
*I *1627:GATE I *D sky130_fd_sc_hd__dlxtp_1
*I *1628:GATE I *D sky130_fd_sc_hd__dlxtp_1
*I *1804:X O *D sky130_fd_sc_hd__clkbuf_2
*CAP
1 *1803:A 7.94007e-06
2 *1801:A 5.89509e-05
3 *1802:A 3.28208e-05
4 *1647:GATE 0
5 *1627:GATE 0.000213783
6 *1628:GATE 4.32077e-05
7 *1804:X 0.000174102
8 *633:46 0.000257261
9 *633:27 0.000769147
10 *633:16 0.000618358
11 *633:10 0.00046934
12 *1627:GATE *638:30 5.50106e-05
13 *1627:GATE *669:28 5.08636e-05
14 *633:10 *692:26 0.000125566
15 *633:16 *668:16 9.03851e-06
16 *633:16 *692:26 0.000151025
17 *633:27 *669:24 1.17164e-05
18 *1595:GATE *633:27 5.01469e-05
19 *1628:D *633:16 6.55396e-06
20 *1647:D *1802:A 9.5877e-05
21 *67:23 *1627:GATE 8.03141e-05
22 *67:23 *1803:A 5.79559e-05
23 *67:23 *633:46 0.000111506
24 *229:93 *1801:A 0.000135037
25 *270:8 *633:16 8.48124e-05
26 *279:16 *1627:GATE 2.51896e-05
27 *489:10 *633:46 5.64492e-05
28 *533:22 *633:10 0.000118526
29 *533:22 *633:16 4.30894e-05
30 *558:28 *1801:A 0.000135037
31 *619:76 *1627:GATE 7.07958e-05
32 *625:32 *1802:A 9.5877e-05
33 *632:8 *1803:A 5.79559e-05
34 *632:8 *633:10 9.5877e-05
*RES
1 *1804:X *633:10 41.0036 
2 *633:10 *633:16 18.8321 
3 *633:16 *1628:GATE 23.8493 
4 *633:16 *633:27 18.9564 
5 *633:27 *1627:GATE 42.2879 
6 *633:27 *633:46 18.0243 
7 *633:46 *1647:GATE 23 
8 *633:46 *1802:A 24.0979 
9 *633:10 *1801:A 39.5743 
10 *1804:X *1803:A 46.6214 
*END

*D_NET *634 0.0108027
*CONN
*I *1598:D I *D sky130_fd_sc_hd__dlxtp_1
*I *1689:A I *D sky130_fd_sc_hd__buf_1
*I *1630:D I *D sky130_fd_sc_hd__dlxtp_1
*I *1850:X O *D sky130_fd_sc_hd__buf_1
*CAP
1 *1598:D 0.000105091
2 *1689:A 0
3 *1630:D 0
4 *1850:X 0.000947052
5 *634:33 0.00027169
6 *634:26 0.000196656
7 *634:22 0.00183001
8 *634:12 0.00274701
9 *1555:B *634:12 0.000113176
10 *1661:D *634:22 5.92579e-05
11 *1677:D *634:22 0.000162133
12 *244:21 *634:22 0.000107218
13 *245:25 *634:22 9.41704e-05
14 *344:10 *634:22 0.000132912
15 *398:8 *634:12 0.000143264
16 *452:10 *634:12 0.000310005
17 *494:10 *1598:D 2.36123e-05
18 *526:28 *634:12 0.000140927
19 *528:46 *634:12 0.000221997
20 *528:46 *634:22 0.000125034
21 *548:30 *634:12 5.3304e-05
22 *553:36 *634:22 0.000562123
23 *555:42 *634:22 0
24 *557:12 *1598:D 8.92013e-05
25 *557:12 *634:26 1.59094e-05
26 *557:12 *634:33 0.000183765
27 *581:53 *634:22 0.000630773
28 *585:75 *1598:D 4.21048e-05
29 *585:75 *634:26 5.3304e-05
30 *585:75 *634:33 0.000514834
31 *587:26 *634:22 0.00055415
32 *607:14 *634:22 9.00923e-05
33 *616:22 *634:22 7.19391e-05
34 *622:40 *634:22 3.41998e-06
35 *622:46 *634:22 3.82561e-05
36 *624:28 *634:22 2.61526e-05
37 *627:44 *1598:D 0.000142173
*RES
1 *1850:X *634:12 40.2343 
2 *634:12 *634:22 45.9886 
3 *634:22 *634:26 15.6214 
4 *634:26 *1630:D 23 
5 *634:26 *634:33 5.86214 
6 *634:33 *1689:A 23 
7 *634:33 *1598:D 26.0036 
*END

*D_NET *635 0.00706165
*CONN
*I *1620:GATE I *D sky130_fd_sc_hd__dlxtp_1
*I *1800:A I *D sky130_fd_sc_hd__buf_2
*I *1619:GATE I *D sky130_fd_sc_hd__dlxtp_1
*I *1851:X O *D sky130_fd_sc_hd__buf_1
*CAP
1 *1620:GATE 0
2 *1800:A 0.000194309
3 *1619:GATE 0.000226965
4 *1851:X 0.0010656
5 *635:18 0.000557977
6 *635:12 0.0012023
7 *1800:A *636:35 5.43589e-05
8 *1800:A *660:32 0.000174029
9 *1800:A *660:38 5.774e-05
10 *635:18 *1588:GATE 1.05441e-05
11 *635:18 *636:35 0.000181614
12 *635:18 *660:38 0.000109377
13 *1619:D *1619:GATE 4.2573e-05
14 *1710:A *1619:GATE 0.000147993
15 *316:10 *635:12 0.00137572
16 *484:14 *1619:GATE 4.99329e-05
17 *489:28 *1800:A 5.78077e-05
18 *551:8 *635:12 0.000710837
19 *555:12 *635:12 0.000185434
20 *579:130 *635:18 0
21 *613:51 *1619:GATE 0.000262858
22 *614:46 *635:12 0.000113124
23 *614:61 *635:12 6.47418e-05
24 *614:61 *635:18 5.3304e-05
25 *619:42 *635:12 0.000148499
26 *631:18 *1800:A 0
27 *631:22 *1800:A 1.40183e-05
*RES
1 *1851:X *635:12 47.505 
2 *635:12 *635:18 18.2314 
3 *635:18 *1619:GATE 43.5514 
4 *635:18 *1800:A 42.4329 
5 *635:12 *1620:GATE 23 
*END

*D_NET *636 0.00612869
*CONN
*I *1714:A I *D sky130_fd_sc_hd__clkbuf_1
*I *1587:GATE I *D sky130_fd_sc_hd__dlxtp_1
*I *1588:GATE I *D sky130_fd_sc_hd__dlxtp_1
*I *1852:X O *D sky130_fd_sc_hd__buf_1
*CAP
1 *1714:A 2.66892e-05
2 *1587:GATE 0
3 *1588:GATE 1.3172e-05
4 *1852:X 0.000684274
5 *636:35 0.000285947
6 *636:14 0.00074656
7 *636:10 0.00064824
8 *636:8 0.000858383
9 *1800:A *636:35 5.43589e-05
10 *67:15 *1714:A 1.88129e-05
11 *67:15 *636:10 0.000111204
12 *347:10 *1714:A 3.76475e-05
13 *347:10 *636:10 0.000124169
14 *461:34 *636:8 0.000922757
15 *484:14 *636:35 6.99492e-05
16 *489:28 *636:35 0.000238518
17 *492:22 *636:14 0
18 *492:22 *636:35 0
19 *518:20 *636:10 0
20 *552:24 *636:14 0.000805646
21 *552:24 *636:35 0.000124564
22 *613:32 *636:8 1.32314e-05
23 *613:40 *636:8 1.56665e-05
24 *613:51 *636:35 0.000136738
25 *635:18 *1588:GATE 1.05441e-05
26 *635:18 *636:35 0.000181614
*RES
1 *1852:X *636:8 48.6264 
2 *636:8 *636:10 3.49036 
3 *636:10 *636:14 9.51573 
4 *636:14 *1588:GATE 46.3211 
5 *636:14 *636:35 28.2924 
6 *636:35 *1587:GATE 23 
7 *636:10 *1714:A 38.6732 
*END

*D_NET *637 0.00550339
*CONN
*I *1491:A1 I *D sky130_fd_sc_hd__o21ba_1
*I *1479:A0 I *D sky130_fd_sc_hd__mux4_1
*I *1853:X O *D sky130_fd_sc_hd__buf_1
*CAP
1 *1491:A1 0.000240052
2 *1479:A0 0.00114366
3 *1853:X 0.000353122
4 *637:12 0.00138371
5 *637:10 0.000353122
6 *1491:A1 *638:14 1.81397e-05
7 *1491:A1 *650:32 0.000199169
8 *637:10 *681:24 6.85548e-05
9 *1450:A *1491:A1 5.12055e-06
10 *1479:A2 *1479:A0 5.73314e-05
11 *1479:A3 *1479:A0 3.3577e-05
12 *1479:S0 *1479:A0 6.12282e-05
13 *1491:B1_N *1491:A1 0.00014251
14 *1735:A *1479:A0 0.000143655
15 *229:33 *1491:A1 0.000489773
16 *270:42 *1491:A1 1.28818e-05
17 *417:8 *637:10 0.000182152
18 *534:22 *637:10 1.7915e-05
19 *543:30 *637:10 5.56356e-05
20 *557:12 *1479:A0 5.88607e-06
21 *572:50 *637:10 4.26455e-05
22 *575:12 *637:10 2.8337e-05
23 *585:106 *1479:A0 0.000367416
24 *585:106 *1491:A1 2.64616e-05
25 *585:106 *637:10 5.88461e-05
26 *625:63 *637:10 3.19892e-06
27 *630:58 *637:10 9.28078e-06
*RES
1 *1853:X *637:10 44.0486 
2 *637:10 *637:12 15 
3 *637:12 *1479:A0 40.835 
4 *637:12 *1491:A1 30.5037 
*END

*D_NET *638 0.0167298
*CONN
*I *1480:A0 I *D sky130_fd_sc_hd__mux4_1
*I *1485:A1 I *D sky130_fd_sc_hd__o21ba_1
*I *1854:X O *D sky130_fd_sc_hd__buf_1
*CAP
1 *1480:A0 0
2 *1485:A1 0.000245551
3 *1854:X 0.000217014
4 *638:34 0.000392186
5 *638:30 0.00167451
6 *638:20 0.00176358
7 *638:14 0.0015873
8 *638:8 0.00156861
9 *1485:A1 *649:30 0.000389777
10 *1485:A1 *660:22 1.05984e-05
11 *1485:A1 *669:34 0.000391473
12 *638:14 *650:32 0.000274229
13 *638:30 *692:38 5.67058e-05
14 *638:34 *660:22 0.000212651
15 *1491:A1 *638:14 1.81397e-05
16 *1491:B1_N *638:20 2.00313e-05
17 *1627:GATE *638:30 5.50106e-05
18 *1686:A *638:30 0.000221992
19 *1765:A *638:30 5.68576e-05
20 *1775:A *638:30 0.000140259
21 *133:12 *638:14 2.07642e-05
22 *270:16 *638:30 0.000515869
23 *270:42 *638:14 6.39489e-06
24 *272:20 *638:20 9.28078e-06
25 *279:16 *638:30 9.71587e-05
26 *294:10 *638:14 0.000149532
27 *460:27 *638:30 0.000100803
28 *460:46 *638:30 0.000201755
29 *508:12 *1485:A1 5.57841e-05
30 *508:12 *638:34 5.95625e-06
31 *515:36 *638:30 0.000180218
32 *520:20 *638:34 1.75427e-05
33 *543:30 *638:20 3.39755e-05
34 *557:12 *638:14 9.84851e-05
35 *557:18 *638:14 0.000119408
36 *560:26 *638:30 0.000947139
37 *563:6 *638:30 0.000556764
38 *563:14 *638:30 2.30886e-05
39 *567:22 *638:14 0.000254862
40 *568:54 *638:14 0.000410901
41 *579:130 *1485:A1 0.000183705
42 *585:106 *638:14 0.000736177
43 *585:122 *638:20 9.28078e-06
44 *585:128 *638:30 0.000310916
45 *585:137 *638:30 0.000384969
46 *590:83 *638:30 0.00057294
47 *590:95 *638:30 0.00062906
48 *590:118 *638:30 0.000346114
49 *592:34 *638:8 0.000107611
50 *592:58 *638:14 0.000192932
51 *626:41 *638:34 0.000153898
*RES
1 *1854:X *638:8 40.5271 
2 *638:8 *638:14 39.8779 
3 *638:14 *638:20 32.9621 
4 *638:20 *638:30 43.355 
5 *638:30 *638:34 18.3143 
6 *638:34 *1485:A1 45.395 
7 *638:34 *1480:A0 38 
*END

*D_NET *639 0.00435501
*CONN
*I *1481:A0 I *D sky130_fd_sc_hd__mux4_1
*I *1855:X O *D sky130_fd_sc_hd__clkbuf_1
*CAP
1 *1481:A0 0
2 *1855:X 0.000693077
3 *639:30 0.000388656
4 *639:12 0.00108173
5 N4BEG[11] *639:30 0.000130211
6 N4BEG[7] *639:30 4.46398e-05
7 *1608:D *639:12 1.94693e-05
8 *1640:D *639:30 0.000133966
9 *1708:A *639:12 5.3304e-05
10 *131:8 *639:12 0.000480005
11 *161:19 *639:12 0.000102389
12 *163:19 *639:12 1.75562e-05
13 *294:10 *639:12 1.03836e-05
14 *543:30 *639:12 0.00022565
15 *545:30 *639:12 4.02637e-05
16 *583:64 *639:30 9.28078e-06
17 *587:131 *639:12 0.000519521
18 *617:40 *639:30 2.44522e-05
19 *630:58 *639:12 0.000229576
20 *630:66 *639:12 0.00015088
*RES
1 *1855:X *639:12 40.3586 
2 *639:12 *639:30 36.7529 
3 *639:30 *1481:A0 23 
*END

*D_NET *640 0.00568329
*CONN
*I *1601:D I *D sky130_fd_sc_hd__dlxtp_1
*I *1633:D I *D sky130_fd_sc_hd__dlxtp_1
*I *1692:A I *D sky130_fd_sc_hd__clkbuf_2
*I *1868:X O *D sky130_fd_sc_hd__buf_1
*CAP
1 *1601:D 0
2 *1633:D 0.000429796
3 *1692:A 0
4 *1868:X 0.000269688
5 *640:46 0.00028807
6 *640:19 0.000753282
7 *640:12 0.000351951
8 *640:8 0.000586223
9 *1633:D *1475:A0 0.000388146
10 *640:8 *662:10 2.5343e-05
11 *640:46 *651:14 0.000194318
12 *1738:A *640:46 9.67842e-05
13 *1890:A *640:8 0.000103854
14 *1910:A *640:8 4.9808e-05
15 *7:11 *640:8 7.19183e-05
16 *287:10 *640:46 0.000122244
17 *323:8 *640:46 1.58805e-05
18 *463:8 *640:46 0.000135547
19 *463:14 *640:46 0.00028988
20 *504:14 *1633:D 7.34747e-05
21 *504:14 *640:12 0.000155178
22 *504:14 *640:19 1.59094e-05
23 *526:12 *640:8 0.000523547
24 *526:28 *640:8 0
25 *614:34 *640:8 0.000443986
26 *625:172 *1633:D 0.000298464
27 *629:22 *640:46 0
*RES
1 *1868:X *640:8 48.005 
2 *640:8 *640:12 20.3857 
3 *640:12 *1692:A 23 
4 *640:12 *640:19 0.621429 
5 *640:19 *1633:D 31.9279 
6 *640:19 *640:46 37.685 
7 *640:46 *1601:D 23 
*END

*D_NET *641 0.00576234
*CONN
*I *1482:A0 I *D sky130_fd_sc_hd__mux4_1
*I *1856:X O *D sky130_fd_sc_hd__clkbuf_1
*CAP
1 *1482:A0 0
2 *1856:X 0.00039337
3 *641:20 0.00107655
4 *641:10 0.00146992
5 *641:10 *677:30 0.000422948
6 *641:20 *1492:A1 4.24694e-06
7 *1467:S *641:10 5.3304e-05
8 *1482:A1 *641:20 5.85486e-05
9 *1610:D *641:20 4.62166e-06
10 *1624:GATE *641:20 0.000245789
11 *297:14 *641:20 0.000487036
12 *515:48 *641:20 3.25753e-05
13 *515:54 *641:20 3.00007e-05
14 *534:12 *641:20 9.25823e-05
15 *543:12 *641:20 0
16 *578:43 *641:20 4.10285e-05
17 *578:55 *641:20 0.000142686
18 *581:108 *641:20 0.000138607
19 *586:66 *641:20 0
20 *589:120 *641:20 7.19826e-05
21 *589:134 *641:20 0.00039573
22 *615:47 *641:20 0.000113633
23 *625:32 *641:10 0.000487177
24 *632:78 *641:20 0
*RES
1 *1856:X *641:10 47.6943 
2 *641:10 *641:20 49.8236 
3 *641:20 *1482:A0 38 
*END

*D_NET *642 0.00193007
*CONN
*I *1463:A0 I *D sky130_fd_sc_hd__mux2_1
*I *1858:X O *D sky130_fd_sc_hd__clkbuf_1
*CAP
1 *1463:A0 8.2426e-05
2 *1858:X 0.000407435
3 *642:8 0.000489861
4 *1463:A0 *686:28 4.01634e-05
5 *1463:S *1463:A0 2.64616e-05
6 *178:9 *642:8 0.00015083
7 *229:85 *1463:A0 0.000179311
8 *561:22 *642:8 0.000413496
9 *563:36 *642:8 7.40737e-05
10 *583:110 *642:8 4.97363e-05
11 *626:86 *642:8 1.6279e-05
*RES
1 *1858:X *642:8 45.8921 
2 *642:8 *1463:A0 40.0507 
*END

*D_NET *643 0.013834
*CONN
*I *1464:A0 I *D sky130_fd_sc_hd__mux2_1
*I *1859:X O *D sky130_fd_sc_hd__clkbuf_1
*CAP
1 *1464:A0 0
2 *1859:X 0.000236407
3 *643:24 0.00241724
4 *643:10 0.00265365
5 *643:10 *644:10 2.64616e-05
6 *643:10 *645:10 9.41704e-05
7 *643:24 *673:28 0.00042326
8 *643:24 *673:43 1.41324e-05
9 *643:24 *683:26 2.49562e-05
10 *643:24 *692:26 0.000111455
11 *1856:A *643:24 0
12 *1859:A *643:10 5.3304e-05
13 *1860:A *643:10 1.41077e-05
14 *1861:A *643:10 4.34876e-05
15 *175:19 *643:24 0.000560313
16 *229:101 *643:24 0.000520305
17 *229:131 *643:24 0.00123451
18 *258:10 *643:24 0.000322098
19 *475:16 *643:24 0.000273641
20 *533:22 *643:24 0.00274281
21 *534:22 *643:24 0.000171799
22 *539:10 *643:24 6.94806e-05
23 *544:30 *643:24 0.000160507
24 *558:28 *643:24 0.000352526
25 *569:12 *643:10 6.08617e-05
26 *587:164 *643:10 9.41704e-05
27 *603:14 *643:24 0.0011584
*RES
1 *1859:X *643:10 42.8057 
2 *643:10 *643:24 38.854 
3 *643:24 *1464:A0 38 
*END

*D_NET *644 0.000573804
*CONN
*I *1465:A0 I *D sky130_fd_sc_hd__mux2_1
*I *1860:X O *D sky130_fd_sc_hd__clkbuf_1
*CAP
1 *1465:A0 0
2 *1860:X 0.000148492
3 *644:10 0.000148492
4 *1856:A *644:10 4.75292e-05
5 *164:13 *644:10 3.7473e-07
6 *299:8 *644:10 3.61511e-05
7 *569:12 *644:10 9.28078e-06
8 *569:30 *644:10 0.000157023
9 *643:10 *644:10 2.64616e-05
*RES
1 *1860:X *644:10 40.8793 
2 *644:10 *1465:A0 38 
*END

*D_NET *645 0.016747
*CONN
*I *1466:A0 I *D sky130_fd_sc_hd__mux2_1
*I *1861:X O *D sky130_fd_sc_hd__buf_1
*CAP
1 *1466:A0 0.000180408
2 *1861:X 0.000386001
3 *645:34 0.00286047
4 *645:22 0.0033988
5 *645:10 0.00110473
6 *645:22 *669:12 5.62433e-06
7 *645:22 *670:16 2.92911e-06
8 *645:22 *686:24 1.44895e-05
9 *645:22 *692:26 0.000101973
10 *645:34 *663:32 0.000140203
11 *645:34 *669:24 0.000242691
12 *645:34 *681:24 0.0019078
13 *645:34 *682:22 0.000266342
14 *645:34 *692:26 0.000632187
15 *1473:A1 *645:22 5.62507e-05
16 *1473:S *645:22 5.50049e-05
17 *1484:B *645:34 1.10532e-05
18 *1611:GATE *645:34 5.64582e-05
19 *169:13 *645:10 5.61579e-05
20 *357:8 *645:34 0.000124073
21 *466:38 *645:34 0.000387923
22 *471:46 *645:34 0.000408619
23 *471:86 *645:34 0.000248501
24 *475:16 *645:34 0
25 *479:18 *645:34 9.84155e-05
26 *486:12 *645:34 5.36851e-05
27 *510:26 *645:34 0.000911254
28 *515:26 *645:10 0.000393478
29 *528:12 *645:22 0.00051147
30 *533:22 *645:34 0
31 *550:26 *645:10 0.000395709
32 *561:12 *645:34 1.73738e-05
33 *569:12 *645:10 0.000341983
34 *581:146 *645:34 4.97632e-05
35 *583:118 *645:22 4.67488e-05
36 *584:125 *1466:A0 0.00022949
37 *584:125 *645:34 1.05743e-05
38 *587:164 *645:10 4.34973e-05
39 *588:128 *1466:A0 0.000235961
40 *588:159 *1466:A0 5.79559e-05
41 *628:108 *645:34 0.000109018
42 *630:26 *645:22 0.000416884
43 *630:227 *645:22 8.08917e-05
44 *643:10 *645:10 9.41704e-05
*RES
1 *1861:X *645:10 47.7357 
2 *645:10 *645:22 43.9511 
3 *645:22 *645:34 47.6498 
4 *645:34 *1466:A0 43.3857 
*END

*D_NET *646 0.00326519
*CONN
*I *1467:A0 I *D sky130_fd_sc_hd__mux2_1
*I *1492:A1 I *D sky130_fd_sc_hd__mux2_1
*I *1862:X O *D sky130_fd_sc_hd__clkbuf_1
*CAP
1 *1467:A0 9.63036e-05
2 *1492:A1 0.000269626
3 *1862:X 0.000481416
4 *646:8 0.000847346
5 *1467:A0 *677:30 0.00014196
6 *1492:A1 *1492:A0 0.000397897
7 *646:8 *1473:A0 0.000274076
8 *646:8 *1492:A0 7.48331e-05
9 *646:8 *649:8 4.22148e-05
10 *646:8 *659:32 7.31452e-06
11 *646:8 *675:26 6.64088e-05
12 *172:19 *646:8 0.000135901
13 *188:17 *646:8 0.000124075
14 *190:15 *646:8 3.34818e-06
15 *270:16 *1492:A1 1.14452e-05
16 *297:14 *1492:A1 0.000106623
17 *332:20 *1492:A1 5.64492e-05
18 *466:10 *646:8 0.000123708
19 *558:42 *1492:A1 0
20 *641:20 *1492:A1 4.24694e-06
*RES
1 *1862:X *646:8 47.6529 
2 *646:8 *1492:A1 43.7793 
3 *646:8 *1467:A0 39.5743 
*END

*D_NET *647 0.0141418
*CONN
*I *1468:A0 I *D sky130_fd_sc_hd__mux2_1
*I *1486:A1 I *D sky130_fd_sc_hd__mux2_1
*I *1863:X O *D sky130_fd_sc_hd__buf_1
*CAP
1 *1468:A0 2.32701e-05
2 *1486:A1 5.60995e-05
3 *1863:X 0.0002363
4 *647:22 0.00312867
5 *647:10 0.0032856
6 *1486:A1 *691:28 0.000109443
7 *647:10 *648:18 5.3304e-05
8 *647:10 *659:16 0.000101311
9 *647:10 *668:8 5.3304e-05
10 *647:10 *668:16 0.000119044
11 *647:10 *671:12 4.98399e-06
12 *647:22 *671:20 2.97925e-05
13 *647:22 *675:14 0.000328409
14 *647:22 *675:26 0.000114621
15 *647:22 *679:32 0.000675795
16 *647:22 *682:22 1.8071e-05
17 *647:22 *687:14 7.95009e-05
18 *647:22 *690:16 0.000323353
19 *647:22 *690:24 6.84154e-05
20 *647:22 *691:12 0.000648659
21 *647:22 *691:28 0.00121288
22 *102:12 *647:22 0.000103362
23 *189:11 *647:10 0.000359813
24 *193:13 *647:10 0.000143013
25 *479:18 *647:22 0.000286375
26 *480:20 *647:22 0.000702469
27 *497:20 *647:22 4.80423e-06
28 *498:14 *1468:A0 5.3304e-05
29 *500:8 *1486:A1 0.000109443
30 *500:8 *647:22 0.00121803
31 *508:26 *647:22 9.65356e-05
32 *510:18 *1468:A0 5.3304e-05
33 *520:20 *647:22 0.000242207
34 *582:30 *647:22 8.42589e-05
35 *617:53 *647:22 1.407e-05
*RES
1 *1863:X *647:10 44.0382 
2 *647:10 *647:22 40.8175 
3 *647:22 *1486:A1 39.5536 
4 *647:22 *1468:A0 38.6214 
*END

*D_NET *648 0.0113984
*CONN
*I *1489:A0 I *D sky130_fd_sc_hd__mux4_1
*I *1469:A0 I *D sky130_fd_sc_hd__mux2_1
*I *1864:X O *D sky130_fd_sc_hd__buf_1
*CAP
1 *1489:A0 0
2 *1469:A0 0.000533291
3 *1864:X 0.000613682
4 *648:38 0.000750609
5 *648:28 0.00131494
6 *648:18 0.0017113
7 *1469:A0 *1489:A1 9.5877e-05
8 *648:18 *659:32 2.76126e-05
9 *648:18 *678:26 4.51797e-05
10 *648:28 *650:16 0.000931395
11 *648:28 *659:32 0.000441149
12 *648:28 *668:30 0.00106451
13 *648:38 *1489:A1 9.94357e-05
14 *648:38 *1516:A0 0.000127143
15 *648:38 *650:32 3.87221e-06
16 *1469:A1 *1469:A0 5.67058e-05
17 *1489:S0 *648:38 0.000187692
18 *1493:A1 *1469:A0 6.24014e-05
19 *1493:B2 *1469:A0 1.4006e-05
20 *1494:A2 *648:28 9.5877e-05
21 *1773:A *648:18 7.53384e-06
22 *169:13 *648:18 3.98929e-05
23 *170:11 *648:18 1.62112e-05
24 *172:19 *648:18 0
25 *188:17 *648:18 0
26 *189:11 *648:18 9.55825e-05
27 *271:16 *648:18 2.05503e-05
28 *290:8 *648:18 3.20954e-05
29 *290:8 *648:28 4.51797e-05
30 *360:6 *648:38 6.23499e-05
31 *418:20 *1469:A0 0.000153266
32 *419:32 *1469:A0 8.21826e-05
33 *420:6 *1469:A0 0.000153074
34 *420:6 *648:38 4.03448e-05
35 *515:26 *648:18 0.000336369
36 *515:26 *648:28 9.9699e-06
37 *519:12 *1469:A0 8.71791e-05
38 *534:22 *1469:A0 0.00013055
39 *563:36 *648:28 0.000364826
40 *575:12 *1469:A0 7.43264e-05
41 *583:124 *648:28 0.000543342
42 *625:71 *1469:A0 0.000315104
43 *625:88 *1469:A0 0.000541026
44 *632:40 *648:38 1.74932e-05
45 *647:10 *648:18 5.3304e-05
*RES
1 *1864:X *648:18 49.2168 
2 *648:18 *648:28 42.3118 
3 *648:28 *648:38 35.5307 
4 *648:38 *1469:A0 39.0329 
5 *648:38 *1489:A0 23 
*END

*D_NET *649 0.0119998
*CONN
*I *1483:A0 I *D sky130_fd_sc_hd__mux4_1
*I *1470:A0 I *D sky130_fd_sc_hd__mux2_1
*I *1865:X O *D sky130_fd_sc_hd__buf_1
*CAP
1 *1483:A0 0
2 *1470:A0 0
3 *1865:X 0.000359546
4 *649:46 0.000183056
5 *649:38 0.000765259
6 *649:30 0.00124714
7 *649:24 0.00200473
8 *649:8 0.00169934
9 *649:8 *667:10 1.05441e-05
10 *649:8 *672:14 0
11 *649:24 *674:28 0.000677539
12 *649:24 *676:16 0.000189656
13 *649:24 *681:24 0.000255361
14 *649:30 *660:32 0.000264559
15 *649:30 *669:34 0.000200886
16 *649:38 *652:28 4.9662e-05
17 *649:38 *684:32 1.55224e-05
18 *649:46 *684:32 6.37748e-05
19 *649:46 *684:42 0.000225282
20 *1470:S *649:46 0.000225282
21 *1485:A1 *649:30 0.000389777
22 *1607:GATE *649:38 0.000171646
23 *273:34 *649:30 5.3304e-05
24 *275:27 *649:30 0.000213055
25 *279:16 *649:24 2.05503e-05
26 *326:10 *649:8 1.37136e-05
27 *410:10 *649:46 3.36819e-05
28 *412:10 *649:30 0.000141052
29 *466:10 *649:8 0.000291107
30 *468:18 *649:24 0.000265623
31 *471:86 *649:38 9.13769e-05
32 *471:86 *649:46 0.000102655
33 *474:12 *649:38 3.04247e-05
34 *491:10 *649:24 0
35 *491:22 *649:30 0.000308039
36 *543:6 *649:30 0.000305431
37 *558:42 *649:8 0.000199896
38 *579:107 *649:46 8.13852e-05
39 *603:14 *649:24 0.00055261
40 *619:50 *649:24 0.000255141
41 *630:14 *649:8 0
42 *646:8 *649:8 4.22148e-05
*RES
1 *1865:X *649:8 44.6596 
2 *649:8 *649:24 38.1498 
3 *649:24 *649:30 30.8879 
4 *649:30 *649:38 37.6436 
5 *649:38 *649:46 35.1579 
6 *649:46 *1470:A0 23 
7 *649:30 *1483:A0 23 
*END

*D_NET *650 0.00635373
*CONN
*I *1471:A0 I *D sky130_fd_sc_hd__mux2_1
*I *1490:A_N I *D sky130_fd_sc_hd__nand2b_1
*I *1866:X O *D sky130_fd_sc_hd__clkbuf_1
*CAP
1 *1471:A0 0
2 *1490:A_N 0
3 *1866:X 0.000104247
4 *650:47 0.000605886
5 *650:32 0.000419376
6 *650:16 0.00135761
7 *650:8 0.000436594
8 *650:16 *692:30 7.04136e-05
9 *650:47 *1516:A0 2.56066e-05
10 *1463:A1 *650:8 0.000127807
11 *1489:S0 *650:32 2.41841e-05
12 *1491:A1 *650:32 0.000199169
13 *1491:B1_N *650:32 0.000140814
14 *1808:A *650:47 0
15 *174:13 *650:16 9.67842e-05
16 *229:33 *650:32 1.85475e-05
17 *229:37 *650:47 5.10946e-06
18 *270:30 *650:47 5.56078e-05
19 *272:20 *650:32 0.000265749
20 *272:20 *650:47 7.71219e-06
21 *292:18 *650:47 2.75733e-06
22 *358:10 *650:16 1.3523e-05
23 *358:10 *650:32 0.000100069
24 *409:10 *650:16 0.00024367
25 *409:10 *650:32 2.62863e-05
26 *420:14 *650:16 5.50106e-05
27 *460:46 *650:47 0.00019461
28 *561:22 *650:8 2.97116e-05
29 *563:36 *650:16 0.000308039
30 *578:32 *650:47 5.79559e-05
31 *578:43 *650:47 5.79559e-05
32 *590:83 *650:47 1.36069e-05
33 *604:10 *650:47 7.98243e-05
34 *638:14 *650:32 0.000274229
35 *648:28 *650:16 0.000931395
36 *648:38 *650:32 3.87221e-06
*RES
1 *1866:X *650:8 39.9057 
2 *650:8 *650:16 26.745 
3 *650:16 *650:32 40.2536 
4 *650:32 *1490:A_N 23 
5 *650:16 *650:47 39.4871 
6 *650:47 *1471:A0 23 
*END

*D_NET *651 0.00378259
*CONN
*I *1693:A I *D sky130_fd_sc_hd__clkbuf_2
*I *1634:D I *D sky130_fd_sc_hd__dlxtp_1
*I *1602:D I *D sky130_fd_sc_hd__dlxtp_1
*I *1879:X O *D sky130_fd_sc_hd__buf_1
*CAP
1 *1693:A 0
2 *1634:D 0
3 *1602:D 0
4 *1879:X 0.000272523
5 *651:34 0.000116594
6 *651:21 0.000350253
7 *651:14 0.000670459
8 *651:8 0.000709323
9 *651:14 *684:10 2.24608e-05
10 *1475:A1 *651:14 0
11 *1557:A *651:8 5.12254e-05
12 *1602:GATE *651:14 1.94812e-05
13 *1602:GATE *651:21 3.17516e-05
14 *1632:GATE *651:34 0.000159793
15 *1634:GATE *651:21 4.03039e-05
16 *288:10 *651:21 6.36464e-05
17 *323:8 *651:14 3.55515e-05
18 *442:10 *651:8 2.92911e-06
19 *471:16 *651:14 0.000162307
20 *482:10 *651:14 5.50106e-05
21 *482:10 *651:21 3.49686e-05
22 *482:16 *651:21 0.000232655
23 *524:12 *651:34 7.31162e-05
24 *613:14 *651:14 0.000121561
25 *618:16 *651:21 5.3304e-05
26 *618:16 *651:34 5.3304e-05
27 *622:139 *651:8 7.58527e-05
28 *625:160 *651:14 2.72055e-05
29 *625:172 *651:14 4.23714e-05
30 *629:10 *651:14 9.44066e-05
31 *630:148 *651:21 3.7122e-06
32 *630:148 *651:34 1.21972e-05
33 *640:46 *651:14 0.000194318
*RES
1 *1879:X *651:8 41.48 
2 *651:8 *651:14 26.3307 
3 *651:14 *1602:D 23 
4 *651:14 *651:21 5.86214 
5 *651:21 *1634:D 23 
6 *651:21 *651:34 32.8793 
7 *651:34 *1693:A 23 
*END

*D_NET *652 0.0163687
*CONN
*I *1484:A_N I *D sky130_fd_sc_hd__nand2b_1
*I *1472:A0 I *D sky130_fd_sc_hd__mux2_1
*I *1867:X O *D sky130_fd_sc_hd__buf_1
*CAP
1 *1484:A_N 0
2 *1472:A0 0
3 *1867:X 0.000337487
4 *652:54 0.00188058
5 *652:36 0.00266998
6 *652:28 0.00155056
7 *652:20 0.00228182
8 *652:8 0.00185814
9 *652:8 *692:30 0.000434159
10 *652:20 *673:28 0
11 *652:20 *684:22 0.000279358
12 *652:28 *684:22 0.00051184
13 *652:28 *684:32 2.45032e-05
14 *652:36 *685:37 1.16872e-05
15 *652:54 *1486:A0 8.6806e-05
16 *652:54 *1605:D 4.93223e-05
17 *652:54 *693:22 4.38638e-05
18 *1472:S *652:54 0.00022706
19 *1484:B *652:36 7.01246e-05
20 *1486:S *652:54 2.93747e-05
21 *1605:GATE *652:54 4.67488e-05
22 *1607:GATE *652:28 0.000314029
23 *1624:GATE *652:20 0.000102389
24 *1744:A *652:28 5.50049e-05
25 *1780:A *652:54 5.30121e-05
26 *1799:A *652:20 9.17998e-05
27 *265:10 *652:20 0.000249342
28 *265:10 *652:28 6.09861e-06
29 *275:27 *652:36 0.000123275
30 *275:42 *652:36 5.6061e-05
31 *327:10 *652:54 0.000155722
32 *410:10 *652:36 2.67261e-05
33 *487:8 *652:20 0.000186019
34 *509:30 *652:54 0.000314111
35 *528:18 *652:20 0.000228316
36 *560:26 *652:20 5.28712e-05
37 *561:12 *652:36 9.67842e-05
38 *561:12 *652:54 8.48502e-06
39 *585:149 *652:20 5.68422e-05
40 *588:105 *652:28 0.000256787
41 *615:22 *652:20 9.91895e-05
42 *615:47 *652:20 0.000226977
43 *620:40 *652:20 0.000394297
44 *627:107 *652:20 0.000139352
45 *627:124 *652:20 0.000582522
46 *632:78 *652:20 4.96207e-05
47 *649:38 *652:28 4.9662e-05
*RES
1 *1867:X *652:8 42.9093 
2 *652:8 *652:20 49.0232 
3 *652:20 *652:28 46.4368 
4 *652:28 *652:36 11.2893 
5 *652:36 *652:54 29.145 
6 *652:54 *1472:A0 23 
7 *652:36 *1484:A_N 23 
*END

*D_NET *653 0.00337776
*CONN
*I *1473:A0 I *D sky130_fd_sc_hd__mux2_1
*I *1492:A0 I *D sky130_fd_sc_hd__mux2_1
*I *1869:X O *D sky130_fd_sc_hd__clkbuf_1
*CAP
1 *1473:A0 0.000164454
2 *1492:A0 0.00026228
3 *1869:X 0.000385788
4 *653:8 0.000812522
5 *1473:A0 *675:26 0.000261691
6 *1492:A0 *675:26 0.000475891
7 *1492:A1 *1492:A0 0.000397897
8 *229:85 *653:8 0.000174154
9 *632:20 *653:8 9.41704e-05
10 *646:8 *1473:A0 0.000274076
11 *646:8 *1492:A0 7.48331e-05
*RES
1 *1869:X *653:8 42.9093 
2 *653:8 *1492:A0 44.8357 
3 *653:8 *1473:A0 42.0186 
*END

*D_NET *654 0.0195909
*CONN
*I *1486:A0 I *D sky130_fd_sc_hd__mux2_1
*I *1474:A0 I *D sky130_fd_sc_hd__mux2_1
*I *701:DIODE I *D sky130_fd_sc_hd__diode_2
*I *700:DIODE I *D sky130_fd_sc_hd__diode_2
*I *1870:X O *D sky130_fd_sc_hd__buf_1
*CAP
1 *1486:A0 6.44593e-05
2 *1474:A0 9.67827e-05
3 *701:DIODE 0.000113806
4 *700:DIODE 0.00031212
5 *1870:X 0.000245366
6 *654:34 0.00430235
7 *654:14 0.00428304
8 *700:DIODE *684:42 7.51868e-05
9 *1474:A0 *684:42 0.000223692
10 *654:14 *686:32 7.48641e-05
11 *654:34 *662:20 0.000867221
12 *1486:S *654:34 4.40119e-05
13 *229:160 *701:DIODE 7.70737e-05
14 *229:160 *654:34 5.05059e-05
15 *273:14 *654:34 0.000160359
16 *273:24 *654:34 0.000172991
17 *289:8 *1474:A0 4.9662e-05
18 *503:10 *701:DIODE 2.5415e-05
19 *503:10 *654:34 1.28274e-05
20 *509:30 *1486:A0 0.0002263
21 *537:52 *654:14 1.24376e-05
22 *537:60 *654:14 0.000152741
23 *537:75 *654:14 4.08664e-05
24 *556:28 *654:34 0.00152282
25 *561:22 *654:34 1.7975e-05
26 *562:10 *654:14 7.68979e-05
27 *572:34 *654:34 0.00437479
28 *574:42 *654:34 0.00165424
29 *630:42 *654:34 4.51815e-05
30 *632:40 *654:14 8.00606e-05
31 *632:40 *654:34 4.8098e-05
32 *652:54 *1486:A0 8.6806e-05
*RES
1 *1870:X *654:14 43.0025 
2 *654:14 *654:34 47.0801 
3 *654:34 *700:DIODE 41.0036 
4 *654:34 *701:DIODE 39.2014 
5 *700:DIODE *1474:A0 48.5271 
6 *701:DIODE *1486:A0 48.5271 
*END

*D_NET *655 0.01936
*CONN
*I *1475:A0 I *D sky130_fd_sc_hd__mux2_1
*I *1871:X O *D sky130_fd_sc_hd__buf_1
*CAP
1 *1475:A0 0.000379167
2 *1871:X 4.79336e-05
3 *655:48 0.00122817
4 *655:44 0.00195738
5 *655:42 0.00120186
6 *655:36 0.0004954
7 *655:28 0.00146156
8 *655:8 0.00110758
9 *655:28 *658:8 0.000693341
10 N4BEG[10] *655:42 0.000107676
11 N4BEG[11] *655:42 0.000156538
12 N4BEG[13] *655:36 0.000218476
13 NN4BEG[0] *655:36 5.55534e-05
14 NN4BEG[1] *655:36 5.43589e-05
15 NN4BEG[2] *655:36 0.000129459
16 NN4BEG[3] *655:36 2.02028e-05
17 NN4BEG[6] *655:36 0.000135037
18 *1633:D *1475:A0 0.000388146
19 *1960:A *655:48 0
20 *1989:A *655:28 0.000173044
21 *1991:A *655:28 0.000321674
22 *2001:A *655:28 0.000200375
23 *116:8 *655:48 0
24 *144:12 *655:36 3.39102e-05
25 *154:8 *655:28 0.000223973
26 *157:8 *655:28 5.61255e-06
27 *158:8 *655:28 0.000147092
28 *162:9 *655:36 8.7769e-05
29 *345:10 *655:28 0.000235739
30 *462:10 *655:48 0.000844023
31 *478:12 *655:8 8.27131e-05
32 *504:14 *1475:A0 2.92911e-06
33 *504:28 *655:44 0.00195837
34 *520:40 *655:48 0
35 *524:12 *655:48 0.00110212
36 *529:30 *655:36 0.00059411
37 *529:30 *655:42 1.88944e-05
38 *529:40 *655:48 0
39 *537:16 *655:48 2.54046e-05
40 *560:32 *655:8 8.27131e-05
41 *572:64 *655:28 9.90504e-05
42 *582:16 *655:44 0.00328265
43 *587:73 *655:48 0
*RES
1 *1871:X *655:8 39.2014 
2 *655:8 *655:28 36.5221 
3 *655:28 *655:36 40.1293 
4 *655:36 *655:42 32.2579 
5 *655:42 *655:44 36.83 
6 *655:44 *655:48 35.9214 
7 *655:48 *1475:A0 42.9093 
*END

*D_NET *656 0.0207145
*CONN
*I *1476:A0 I *D sky130_fd_sc_hd__mux2_1
*I *1872:X O *D sky130_fd_sc_hd__buf_1
*CAP
1 *1476:A0 0
2 *1872:X 4.99221e-05
3 *656:28 0.00279967
4 *656:20 0.00496486
5 *656:8 0.00221511
6 *656:20 *659:32 0.00029911
7 *656:20 *668:30 6.61938e-05
8 *656:20 *673:26 0.000612421
9 *656:20 *677:46 5.43589e-05
10 *656:20 *684:18 0.00164734
11 *656:28 *680:26 0.00394507
12 *656:28 *681:34 4.77741e-05
13 *656:28 *684:18 0.00134031
14 *1475:A1 *656:28 5.52001e-05
15 *174:13 *656:20 0.000129853
16 *176:11 *656:20 9.9437e-05
17 *229:71 *656:20 0
18 *287:10 *656:28 2.56295e-05
19 *314:24 *656:28 0.000716047
20 *323:8 *656:28 0
21 *328:14 *656:20 7.57281e-06
22 *421:10 *656:20 7.23962e-05
23 *456:22 *656:28 1.05441e-05
24 *468:10 *656:20 3.41998e-06
25 *518:26 *656:28 3.93904e-06
26 *536:8 *656:8 5.3304e-05
27 *563:36 *656:20 0.000725556
28 *572:50 *656:20 0.000158108
29 *574:52 *656:20 8.58256e-05
30 *585:75 *656:28 8.24407e-05
31 *621:22 *656:28 0
32 *626:10 *656:20 2.12347e-06
33 *626:86 *656:20 0.000127262
34 *626:105 *656:20 0.000178825
35 *629:22 *656:28 0.000134848
*RES
1 *1872:X *656:8 38.6214 
2 *656:8 *656:20 46.7149 
3 *656:20 *656:28 35.2874 
4 *656:28 *1476:A0 23 
*END

*D_NET *657 0.0166569
*CONN
*I *1477:A0 I *D sky130_fd_sc_hd__mux2_1
*I *1873:X O *D sky130_fd_sc_hd__buf_1
*CAP
1 *1477:A0 0
2 *1873:X 0.000268411
3 *657:22 0.00328901
4 *657:8 0.00355743
5 *657:22 *682:66 0.000198625
6 N2BEGb[6] *657:22 9.09571e-05
7 N2BEGb[7] *657:22 2.50806e-05
8 *1703:A *657:8 0.000161527
9 *174:13 *657:8 2.70783e-05
10 *177:13 *657:8 0.000156081
11 *354:10 *657:22 4.5745e-05
12 *462:10 *657:22 1.35629e-05
13 *476:12 *657:8 1.27321e-05
14 *533:58 *657:22 0.00209043
15 *536:20 *657:22 0.00199469
16 *537:75 *657:8 4.51887e-05
17 *547:42 *657:22 2.33927e-05
18 *550:26 *657:22 0.000728429
19 *558:42 *657:22 6.41106e-05
20 *559:30 *657:22 0.00169623
21 *559:76 *657:8 4.36457e-05
22 *560:32 *657:8 5.88848e-05
23 *565:12 *657:22 0.000720412
24 *565:28 *657:22 0.000544273
25 *603:14 *657:22 0
26 *617:53 *657:22 0.00080099
*RES
1 *1873:X *657:8 43.2511 
2 *657:8 *657:22 42.9591 
3 *657:22 *1477:A0 23 
*END

*D_NET *658 0.0127489
*CONN
*I *1478:A0 I *D sky130_fd_sc_hd__mux2_1
*I *1874:X O *D sky130_fd_sc_hd__clkbuf_1
*CAP
1 *1478:A0 0
2 *1874:X 0.000416895
3 *658:26 0.000841515
4 *658:16 0.00171462
5 *658:12 0.00119868
6 *658:8 0.000742463
7 *658:8 *664:22 0.000136802
8 N2BEGb[3] *658:26 2.10909e-05
9 N2BEGb[4] *658:26 4.51887e-05
10 N2BEGb[5] *658:26 0.00062382
11 N4BEG[2] *658:16 0.000479607
12 NN4BEG[12] *658:12 0.000390949
13 NN4BEG[13] *658:12 0.000292116
14 *1991:A *658:8 0.000140259
15 *1993:A *658:8 0.000437769
16 *139:12 *658:26 6.82841e-05
17 *163:19 *658:12 1.73244e-05
18 *229:45 *658:12 7.16984e-05
19 *504:28 *658:16 0.00272011
20 *515:22 *658:16 0.00119288
21 *552:74 *658:26 0.000109377
22 *555:42 *658:26 0.000192865
23 *558:42 *658:12 5.43589e-05
24 *559:30 *658:26 0.000140927
25 *561:30 *658:12 5.99567e-06
26 *655:28 *658:8 0.000693341
*RES
1 *1874:X *658:8 49.1029 
2 *658:8 *658:12 22.1879 
3 *658:12 *658:16 45.6364 
4 *658:16 *658:26 29.7071 
5 *658:26 *1478:A0 23 
*END

*D_NET *659 0.0202746
*CONN
*I *1530:A0 I *D sky130_fd_sc_hd__mux2_1
*I *1875:X O *D sky130_fd_sc_hd__buf_1
*CAP
1 *1530:A0 0
2 *1875:X 0.000301307
3 *659:40 0.000506704
4 *659:32 0.00363889
5 *659:16 0.0034335
6 *659:16 *667:18 0.000337285
7 *659:16 *671:20 9.53023e-05
8 *659:32 *662:20 0.00289123
9 *659:32 *673:26 0.000409143
10 *659:32 *675:26 0.000564744
11 *659:32 *678:26 1.58785e-05
12 *659:32 *684:18 1.86684e-05
13 *1569:A *659:40 0.000308662
14 *1807:A *659:40 0.00031686
15 *172:19 *659:16 0.00016096
16 *188:17 *659:32 2.64672e-05
17 *190:15 *659:16 6.92184e-05
18 *191:15 *659:16 1.38939e-05
19 *193:13 *659:16 0
20 *290:8 *659:32 0.000146614
21 *332:10 *659:32 0.000111615
22 *468:18 *659:32 4.89323e-05
23 *515:36 *659:32 0.000128487
24 *521:14 *659:40 0.000614548
25 *531:46 *659:32 0.000974523
26 *551:24 *659:40 0.000360134
27 *553:24 *659:32 0.000459566
28 *561:22 *659:32 0.000931202
29 *583:124 *659:32 0.000243832
30 *586:66 *659:32 0.000116537
31 *590:41 *659:40 0.000527025
32 *627:30 *659:32 0.00145886
33 *627:34 *659:40 8.49387e-06
34 *628:76 *659:32 4.96824e-05
35 *632:20 *659:32 0.000109377
36 *646:8 *659:32 7.31452e-06
37 *647:10 *659:16 0.000101311
38 *648:18 *659:32 2.76126e-05
39 *648:28 *659:32 0.000441149
40 *656:20 *659:32 0.00029911
*RES
1 *1875:X *659:16 49.4017 
2 *659:16 *659:32 46.1314 
3 *659:32 *659:40 37.9246 
4 *659:40 *1530:A0 23 
*END

*D_NET *660 0.0108416
*CONN
*I *1457:A0 I *D sky130_fd_sc_hd__mux2_1
*I *1876:X O *D sky130_fd_sc_hd__clkbuf_1
*CAP
1 *1457:A0 0
2 *1876:X 0.00032454
3 *660:38 0.000793729
4 *660:32 0.00165994
5 *660:22 0.00169301
6 *660:10 0.00115133
7 *660:10 *661:12 0.000133478
8 *660:10 *664:10 5.50106e-05
9 *660:22 *661:12 0.00108437
10 *660:22 *670:16 0.000137651
11 *660:22 *686:24 3.7122e-06
12 *1457:A1 *660:38 1.59094e-05
13 *1485:A1 *660:22 1.05984e-05
14 *1800:A *660:32 0.000174029
15 *1800:A *660:38 5.774e-05
16 *229:122 *660:22 0.000271835
17 *302:10 *660:22 2.81066e-05
18 *466:22 *660:22 5.62433e-06
19 *489:36 *660:38 2.80924e-06
20 *508:12 *660:32 0.00102855
21 *508:12 *660:38 7.07344e-05
22 *520:20 *660:22 0.000114941
23 *571:22 *660:10 0.000139088
24 *579:107 *660:38 3.7122e-06
25 *579:130 *660:22 0.000135904
26 *614:61 *660:38 0.000121366
27 *614:68 *660:38 2.93747e-05
28 *614:89 *660:38 0.000294299
29 *631:18 *660:32 0.000674304
30 *631:22 *660:32 3.92995e-05
31 *635:18 *660:38 0.000109377
32 *638:34 *660:22 0.000212651
33 *649:30 *660:32 0.000264559
*RES
1 *1876:X *660:10 43.3443 
2 *660:10 *660:22 48.6843 
3 *660:22 *660:32 48.3839 
4 *660:32 *660:38 27.1075 
5 *660:38 *1457:A0 23 
*END

*D_NET *661 0.00815005
*CONN
*I *1458:A0 I *D sky130_fd_sc_hd__mux2_1
*I *1877:X O *D sky130_fd_sc_hd__clkbuf_1
*CAP
1 *1458:A0 1.08768e-05
2 *1877:X 0
3 *661:12 0.00209979
4 *661:6 0.00208891
5 *661:12 *665:10 2.36738e-05
6 *661:12 *669:34 0
7 *1647:D *661:12 0
8 *67:15 *661:12 0
9 *229:109 *661:12 0.000263265
10 *229:122 *661:12 3.81083e-05
11 *302:10 *661:12 0.000128282
12 *341:10 *661:12 0.000135008
13 *461:34 *1458:A0 5.67058e-05
14 *491:22 *661:12 0.000379352
15 *540:10 *661:12 0.000112958
16 *560:14 *661:12 0
17 *578:74 *661:12 0.00104935
18 *579:80 *1458:A0 5.50049e-05
19 *579:130 *661:12 0.000179806
20 *588:93 *661:12 4.30119e-05
21 *613:40 *661:12 0.000187014
22 *619:50 *661:12 3.97623e-05
23 *619:76 *661:12 2.63212e-05
24 *632:91 *661:12 1.49994e-05
25 *660:10 *661:12 0.000133478
26 *660:22 *661:12 0.00108437
*RES
1 *1877:X *661:6 38 
2 *661:6 *661:12 42.4643 
3 *661:12 *1458:A0 38.6214 
*END

*D_NET *662 0.0374741
*CONN
*I *1603:D I *D sky130_fd_sc_hd__dlxtp_1
*I *1694:A I *D sky130_fd_sc_hd__clkbuf_1
*I *1635:D I *D sky130_fd_sc_hd__dlxtp_1
*I *1890:X O *D sky130_fd_sc_hd__clkbuf_2
*CAP
1 *1603:D 0.000219112
2 *1694:A 9.74145e-05
3 *1635:D 0
4 *1890:X 5.98317e-06
5 *662:26 0.000113714
6 *662:22 0.000235412
7 *662:20 0.00794893
8 *662:10 0.00795492
9 *662:20 *673:26 0.00014453
10 *1566:B *662:20 0.000176699
11 *2021:A *1694:A 0.000226295
12 *7:11 *662:10 2.33476e-05
13 *7:11 *662:20 2.91384e-05
14 *9:11 *662:20 0.000192498
15 *273:24 *662:20 7.57281e-06
16 *329:14 *662:20 0.000297343
17 *414:10 *662:20 8.90342e-05
18 *415:30 *662:20 4.67748e-05
19 *458:61 *662:20 0.000721283
20 *459:36 *662:20 0.00057309
21 *461:42 *662:20 0.00167592
22 *463:38 *1694:A 6.51763e-05
23 *464:58 *1694:A 0.000395895
24 *471:16 *662:20 0.000324312
25 *498:14 *1603:D 0.000175097
26 *498:14 *662:26 2.12347e-06
27 *510:18 *1603:D 0
28 *510:18 *662:26 9.85586e-06
29 *527:12 *1603:D 1.61755e-05
30 *531:46 *662:20 0.00103394
31 *531:52 *662:20 0.000481961
32 *535:14 *662:20 0.000186971
33 *553:24 *662:20 0.00153657
34 *556:28 *662:20 0.000111451
35 *561:22 *662:20 0.00265911
36 *572:34 *662:20 0.000636805
37 *574:42 *662:20 0.00213499
38 *581:16 *662:20 3.00529e-05
39 *588:105 *662:20 0.00035844
40 *589:77 *662:20 0.000913015
41 *622:127 *662:20 0.00106608
42 *622:151 *662:20 0.000773307
43 *640:8 *662:10 2.5343e-05
44 *654:34 *662:20 0.000867221
45 *659:32 *662:20 0.00289123
*RES
1 *1890:X *662:10 46.3211 
2 *662:10 *662:20 47.7198 
3 *662:20 *662:22 8 
4 *662:22 *662:26 15.3211 
5 *662:26 *1635:D 23 
6 *662:26 *1694:A 27.4329 
7 *662:22 *1603:D 41.5318 
*END

*D_NET *663 0.0067167
*CONN
*I *1459:A0 I *D sky130_fd_sc_hd__mux2_1
*I *1878:X O *D sky130_fd_sc_hd__clkbuf_1
*CAP
1 *1459:A0 0
2 *1878:X 0.000174617
3 *663:32 0.00175727
4 *663:14 0.00193189
5 *663:14 *664:10 1.94812e-05
6 *663:14 *665:10 9.24795e-06
7 *663:14 *666:16 1.03876e-05
8 *663:32 *666:16 3.88476e-05
9 *663:32 *686:8 3.53136e-05
10 *663:32 *686:16 0.000141954
11 *1459:S *663:32 0.00012103
12 *1618:GATE *663:32 3.86588e-05
13 *1880:A *663:14 5.50106e-05
14 *184:17 *663:14 2.02517e-05
15 *185:15 *663:14 2.73782e-05
16 *186:13 *663:14 3.70094e-05
17 *208:11 *663:14 0.000180218
18 *211:9 *663:14 1.35518e-05
19 *211:9 *663:32 0.000363589
20 *214:8 *663:32 5.50049e-05
21 *337:10 *663:32 0.000323692
22 *346:10 *663:32 4.27248e-05
23 *470:30 *663:32 0.000507792
24 *470:36 *663:32 0.00063627
25 *542:26 *663:14 3.53115e-05
26 *645:34 *663:32 0.000140203
*RES
1 *1878:X *663:14 42.6711 
2 *663:14 *663:32 48.4846 
3 *663:32 *1459:A0 23 
*END

*D_NET *664 0.00939556
*CONN
*I *1460:A0 I *D sky130_fd_sc_hd__mux2_1
*I *1880:X O *D sky130_fd_sc_hd__clkbuf_1
*CAP
1 *1460:A0 0
2 *1880:X 0.000499929
3 *664:22 0.000654978
4 *664:14 0.00238971
5 *664:10 0.00223466
6 *664:10 *665:10 0.000136743
7 *664:10 *670:8 2.29836e-05
8 *664:10 *674:12 2.26497e-05
9 *664:10 *675:14 0.000115096
10 *664:10 *676:12 9.67842e-05
11 *664:14 *1695:A 9.27614e-05
12 *664:14 *678:12 5.61255e-06
13 *664:14 *678:26 0.000859013
14 NN4BEG[15] *664:22 0.000191255
15 *1465:S *664:14 2.64616e-05
16 *1604:GATE *664:14 2.42041e-05
17 *1616:D *664:14 3.42479e-05
18 *1877:A *664:10 8.1796e-05
19 *1887:A *664:10 6.17437e-06
20 *1991:A *664:22 5.41288e-05
21 *1993:A *664:22 0.000249997
22 *165:15 *664:22 1.40087e-05
23 *173:11 *664:22 0.000306382
24 *176:11 *664:22 0.000178722
25 *178:9 *664:22 7.45306e-06
26 *184:17 *664:10 4.50569e-05
27 *196:19 *664:10 0.000408953
28 *520:20 *664:10 0
29 *563:36 *664:22 0.000105947
30 *583:110 *664:14 2.80924e-06
31 *587:145 *664:14 0.000264564
32 *587:147 *664:14 3.50539e-05
33 *587:164 *664:14 1.61361e-05
34 *658:8 *664:22 0.000136802
35 *660:10 *664:10 5.50106e-05
36 *663:14 *664:10 1.94812e-05
*RES
1 *1880:X *664:10 49.2271 
2 *664:10 *664:14 37.5371 
3 *664:14 *664:22 43.7129 
4 *664:22 *1460:A0 23 
*END

*D_NET *665 0.00113185
*CONN
*I *1461:A0 I *D sky130_fd_sc_hd__mux2_1
*I *1881:X O *D sky130_fd_sc_hd__clkbuf_1
*CAP
1 *1461:A0 0
2 *1881:X 0.000322953
3 *665:10 0.000322953
4 *470:30 *665:10 4.15283e-06
5 *520:20 *665:10 0.00017196
6 *540:10 *665:10 4.25895e-05
7 *542:26 *665:10 9.75779e-05
8 *661:12 *665:10 2.36738e-05
9 *663:14 *665:10 9.24795e-06
10 *664:10 *665:10 0.000136743
*RES
1 *1881:X *665:10 43.6136 
2 *665:10 *1461:A0 38 
*END

*D_NET *666 0.00273348
*CONN
*I *1462:A0 I *D sky130_fd_sc_hd__mux2_1
*I *1882:X O *D sky130_fd_sc_hd__clkbuf_1
*CAP
1 *1462:A0 0.000108527
2 *1882:X 0.000607632
3 *666:16 0.000716159
4 *1462:A0 *677:22 0.000261956
5 *1462:A0 *686:16 8.27123e-05
6 *1626:GATE *666:16 0.000202044
7 *185:15 *666:16 3.28227e-05
8 *337:10 *666:16 2.0057e-05
9 *470:30 *1462:A0 9.58714e-05
10 *470:30 *666:16 0.000117315
11 *542:26 *666:16 9.58714e-05
12 *547:16 *666:16 0.000343273
13 *663:14 *666:16 1.03876e-05
14 *663:32 *666:16 3.88476e-05
*RES
1 *1882:X *666:16 48.8543 
2 *666:16 *1462:A0 41.0036 
*END

*D_NET *667 0.0160757
*CONN
*I *1531:A0 I *D sky130_fd_sc_hd__mux2_1
*I *1883:X O *D sky130_fd_sc_hd__buf_1
*CAP
1 *1531:A0 0
2 *1883:X 8.9632e-05
3 *667:18 0.00345128
4 *667:10 0.00354091
5 *667:18 *671:20 0.000106295
6 *667:18 *675:26 0.000303695
7 *667:18 *678:26 0.000293806
8 *667:18 *682:66 0.00174807
9 *172:19 *667:10 5.95625e-06
10 *190:15 *667:10 2.05503e-05
11 *281:10 *667:18 1.40087e-05
12 *476:12 *667:18 5.45304e-05
13 *488:14 *667:18 0.00116282
14 *533:38 *667:18 0.0016131
15 *533:58 *667:18 0.000124809
16 *534:38 *667:18 4.56316e-05
17 *537:38 *667:18 0.000570174
18 *544:30 *667:18 0.000334099
19 *564:20 *667:18 0.000196141
20 *582:30 *667:18 0.000313957
21 *587:115 *667:18 0.000169525
22 *617:28 *667:18 2.19144e-05
23 *617:53 *667:18 0.000567741
24 *625:63 *667:18 0.000812956
25 *628:76 *667:18 0.000166289
26 *649:8 *667:10 1.05441e-05
27 *659:16 *667:18 0.000337285
*RES
1 *1883:X *667:10 47.3775 
2 *667:10 *667:18 35.3212 
3 *667:18 *1531:A0 23 
*END

*D_NET *668 0.0114669
*CONN
*I *1532:A0 I *D sky130_fd_sc_hd__mux2_1
*I *1489:A1 I *D sky130_fd_sc_hd__mux4_1
*I *1884:X O *D sky130_fd_sc_hd__clkbuf_1
*CAP
1 *1532:A0 0
2 *1489:A1 0.000157423
3 *1884:X 9.16087e-05
4 *668:49 0.000171045
5 *668:30 0.00189607
6 *668:16 0.00269753
7 *668:8 0.000879444
8 *668:16 *669:12 0.0001275
9 *668:16 *670:8 1.44029e-05
10 *668:16 *671:12 4.6318e-06
11 *668:16 *672:14 0.000666837
12 *668:16 *675:26 0.000104906
13 *668:16 *692:26 8.72483e-06
14 *668:49 *692:26 6.85548e-05
15 *1469:A0 *1489:A1 9.5877e-05
16 *1489:S0 *1489:A1 2.17548e-05
17 *174:13 *668:30 6.82841e-05
18 *189:11 *668:8 2.02872e-05
19 *193:13 *668:16 1.6662e-05
20 *270:8 *668:16 8.04817e-05
21 *332:20 *668:30 0.000175903
22 *360:6 *1489:A1 4.65317e-05
23 *419:32 *1489:A1 9.5877e-05
24 *533:22 *668:16 0.000248042
25 *539:20 *668:30 0.000794193
26 *543:30 *1489:A1 9.1946e-06
27 *544:30 *668:30 0.000800858
28 *563:30 *668:16 8.10439e-05
29 *563:30 *668:30 0.00025474
30 *563:36 *668:30 2.44913e-05
31 *589:134 *668:30 9.94357e-05
32 *589:134 *668:49 4.09864e-05
33 *632:78 *668:49 0.000192005
34 *633:16 *668:16 9.03851e-06
35 *647:10 *668:8 5.3304e-05
36 *647:10 *668:16 0.000119044
37 *648:28 *668:30 0.00106451
38 *648:38 *1489:A1 9.94357e-05
39 *656:20 *668:30 6.61938e-05
*RES
1 *1884:X *668:8 39.0979 
2 *668:8 *668:16 30.0179 
3 *668:16 *668:30 44.5184 
4 *668:30 *1489:A1 49.4282 
5 *668:16 *668:49 33.3143 
6 *668:49 *1532:A0 23 
*END

*D_NET *669 0.00800169
*CONN
*I *1533:A0 I *D sky130_fd_sc_hd__mux2_1
*I *1483:A1 I *D sky130_fd_sc_hd__mux4_1
*I *1885:X O *D sky130_fd_sc_hd__clkbuf_1
*CAP
1 *1533:A0 0
2 *1483:A1 0
3 *1885:X 0.000337805
4 *669:34 0.000530221
5 *669:28 0.000855434
6 *669:24 0.00119172
7 *669:12 0.00120431
8 *669:12 *670:8 0.000109739
9 *669:12 *672:8 5.56279e-05
10 *669:12 *676:16 0
11 *669:12 *678:26 4.40271e-05
12 *669:12 *692:26 5.69011e-05
13 *669:24 *676:16 0.000530726
14 *669:24 *681:24 4.33041e-05
15 *669:24 *682:22 2.08137e-05
16 *669:24 *686:24 7.57281e-06
17 *669:24 *692:26 0.00028199
18 *1485:A1 *669:34 0.000391473
19 *1595:GATE *669:24 6.17437e-06
20 *1627:GATE *669:28 5.08636e-05
21 *1648:D *669:12 1.25293e-05
22 *67:15 *669:34 1.19519e-05
23 *67:23 *669:28 0
24 *67:23 *669:34 0
25 *193:13 *669:12 9.91024e-05
26 *229:101 *669:24 0.000164847
27 *273:34 *669:34 0.000272687
28 *275:27 *669:34 0.000137651
29 *312:8 *669:28 1.62061e-05
30 *341:10 *669:34 3.29044e-05
31 *474:6 *669:34 0.000127609
32 *491:22 *669:34 8.51239e-05
33 *547:16 *669:34 0.000561067
34 *586:76 *669:28 7.07113e-06
35 *586:76 *669:34 1.37136e-05
36 *619:50 *669:28 5.7959e-05
37 *619:76 *669:28 4.42221e-05
38 *630:227 *669:12 4.99198e-05
39 *633:27 *669:24 1.17164e-05
40 *645:22 *669:12 5.62433e-06
41 *645:34 *669:24 0.000242691
42 *649:30 *669:34 0.000200886
43 *661:12 *669:34 0
44 *668:16 *669:12 0.0001275
*RES
1 *1885:X *669:12 45.2189 
2 *669:12 *669:24 42.3767 
3 *669:24 *669:28 20.075 
4 *669:28 *669:34 29.5414 
5 *669:34 *1483:A1 23 
6 *669:28 *1533:A0 38 
*END

*D_NET *670 0.00497926
*CONN
*I *1451:A0 I *D sky130_fd_sc_hd__mux2_1
*I *1886:X O *D sky130_fd_sc_hd__clkbuf_1
*CAP
1 *1451:A0 0
2 *1886:X 0.000293783
3 *670:16 0.00101491
4 *670:8 0.0013087
5 *670:8 *671:12 3.39192e-05
6 *670:8 *675:26 4.31493e-05
7 *670:16 *683:18 0.000221927
8 *670:16 *686:24 6.92406e-05
9 *1451:A1 *670:16 9.5877e-05
10 *1615:D *670:16 5.50106e-05
11 *1648:D *670:8 0.000117782
12 *1685:A *670:16 5.3304e-05
13 *211:9 *670:16 0.000349818
14 *302:10 *670:16 3.75094e-05
15 *489:10 *670:16 1.59094e-05
16 *582:45 *670:8 1.28035e-05
17 *617:74 *670:16 0.000850676
18 *630:227 *670:16 0.000117233
19 *645:22 *670:16 2.92911e-06
20 *660:22 *670:16 0.000137651
21 *664:10 *670:8 2.29836e-05
22 *668:16 *670:8 1.44029e-05
23 *669:12 *670:8 0.000109739
*RES
1 *1886:X *670:8 42.3707 
2 *670:8 *670:16 35.7971 
3 *670:16 *1451:A0 23 
*END

*D_NET *671 0.0157472
*CONN
*I *1452:A0 I *D sky130_fd_sc_hd__mux2_1
*I *1887:X O *D sky130_fd_sc_hd__clkbuf_1
*CAP
1 *1452:A0 0
2 *1887:X 0.000126765
3 *671:20 0.0029087
4 *671:12 0.00303546
5 *671:20 *674:12 4.74508e-05
6 *671:20 *675:14 8.35126e-06
7 *671:20 *675:26 2.3938e-05
8 *671:20 *678:26 0.00010884
9 *671:20 *690:24 0.00370905
10 N4BEG[3] *671:20 4.81059e-05
11 *1887:A *671:12 3.16784e-05
12 *129:16 *671:20 7.71219e-06
13 *143:14 *671:20 2.2154e-05
14 *172:19 *671:20 0.000159445
15 *488:14 *671:20 1.48022e-05
16 *520:40 *671:20 0.000227044
17 *533:58 *671:20 0.000337165
18 *537:38 *671:20 6.27727e-05
19 *544:30 *671:20 0.0011815
20 *572:64 *671:20 0.000300029
21 *583:52 *671:20 0.000349465
22 *583:77 *671:20 0.000903976
23 *625:63 *671:20 0.0018579
24 *647:10 *671:12 4.98399e-06
25 *647:22 *671:20 2.97925e-05
26 *659:16 *671:20 9.53023e-05
27 *667:18 *671:20 0.000106295
28 *668:16 *671:12 4.6318e-06
29 *670:8 *671:12 3.39192e-05
*RES
1 *1887:X *671:12 47.7711 
2 *671:12 *671:20 34.3767 
3 *671:20 *1452:A0 23 
*END

*D_NET *672 0.00633262
*CONN
*I *1453:A0 I *D sky130_fd_sc_hd__mux2_1
*I *1888:X O *D sky130_fd_sc_hd__clkbuf_1
*CAP
1 *1453:A0 0
2 *1888:X 4.3417e-05
3 *672:14 0.00151413
4 *672:8 0.00155755
5 *1482:A1 *672:14 9.58714e-05
6 *1624:GATE *672:14 0
7 *229:93 *672:14 8.30566e-06
8 *270:8 *672:14 3.48671e-05
9 *280:10 *672:14 0.000153169
10 *326:10 *672:14 0
11 *563:30 *672:14 0.000235636
12 *581:108 *672:14 0.000200857
13 *619:42 *672:14 0.000607883
14 *627:124 *672:14 2.45318e-05
15 *630:14 *672:14 0.000198477
16 *632:78 *672:14 0.000935461
17 *649:8 *672:14 0
18 *668:16 *672:14 0.000666837
19 *669:12 *672:8 5.56279e-05
*RES
1 *1888:X *672:8 38.6214 
2 *672:8 *672:14 45.0771 
3 *672:14 *1453:A0 23 
*END

*D_NET *673 0.0249303
*CONN
*I *1695:A I *D sky130_fd_sc_hd__buf_1
*I *1604:D I *D sky130_fd_sc_hd__dlxtp_1
*I *1636:D I *D sky130_fd_sc_hd__dlxtp_1
*I *1901:X O *D sky130_fd_sc_hd__buf_1
*CAP
1 *1695:A 0.000282171
2 *1604:D 0
3 *1636:D 3.00574e-05
4 *1901:X 1.55081e-05
5 *673:43 0.000445617
6 *673:28 0.000892517
7 *673:26 0.00480455
8 *673:10 0.00412104
9 *1695:A *678:26 7.4416e-05
10 *673:26 *681:24 4.43852e-05
11 *673:26 *684:18 0.00686054
12 *1566:B *673:26 6.35063e-05
13 *1604:GATE *1695:A 9.67842e-05
14 *9:11 *673:10 2.59524e-05
15 *229:33 *673:26 0
16 *258:10 *673:43 0.000127807
17 *270:30 *673:26 0.00151396
18 *292:18 *673:26 3.87221e-06
19 *373:8 *673:26 8.11914e-06
20 *471:16 *673:10 1.29942e-05
21 *528:12 *1636:D 1.59094e-05
22 *528:18 *673:28 0
23 *543:30 *673:26 9.63938e-05
24 *547:26 *673:28 0.000636079
25 *553:24 *673:26 0.000243661
26 *560:26 *673:28 0.000187801
27 *583:118 *673:43 0.000124066
28 *585:122 *673:26 0.000161483
29 *613:14 *673:10 2.33476e-05
30 *622:127 *673:26 0.000296568
31 *622:151 *673:26 0.000275228
32 *625:34 *673:28 5.87176e-05
33 *625:34 *673:43 1.0402e-05
34 *625:63 *673:43 1.12487e-05
35 *627:30 *673:26 0.00157084
36 *628:76 *673:26 4.51815e-05
37 *630:26 *1636:D 5.3304e-05
38 *643:24 *673:28 0.00042326
39 *643:24 *673:43 1.41324e-05
40 *652:20 *673:28 0
41 *656:20 *673:26 0.000612421
42 *659:32 *673:26 0.000409143
43 *662:20 *673:26 0.00014453
44 *664:14 *1695:A 9.27614e-05
*RES
1 *1901:X *673:10 46.6732 
2 *673:10 *673:26 41.5496 
3 *673:26 *673:28 13.3504 
4 *673:28 *1636:D 38.6214 
5 *673:28 *673:43 18.2314 
6 *673:43 *1604:D 23 
7 *673:43 *1695:A 27.9093 
*END

*D_NET *674 0.00822193
*CONN
*I *1454:A0 I *D sky130_fd_sc_hd__mux2_1
*I *1889:X O *D sky130_fd_sc_hd__clkbuf_1
*CAP
1 *1454:A0 0
2 *1889:X 0.000161051
3 *674:28 0.00324211
4 *674:12 0.00340316
5 *674:12 *675:14 0.000284772
6 *674:12 *690:24 9.80768e-05
7 *1454:A1 *674:28 2.64616e-05
8 *315:10 *674:28 5.3304e-05
9 *487:18 *674:28 8.95118e-05
10 *518:20 *674:28 1.58785e-05
11 *552:24 *674:28 5.43386e-05
12 *619:42 *674:28 4.56255e-05
13 *649:24 *674:28 0.000677539
14 *664:10 *674:12 2.26497e-05
15 *671:20 *674:12 4.74508e-05
*RES
1 *1889:X *674:12 46.8493 
2 *674:12 *674:28 47.136 
3 *674:28 *1454:A0 23 
*END

*D_NET *675 0.0177852
*CONN
*I *1455:A0 I *D sky130_fd_sc_hd__mux2_1
*I *1891:X O *D sky130_fd_sc_hd__buf_1
*CAP
1 *1455:A0 0
2 *1891:X 0.000309847
3 *675:42 0.00184865
4 *675:32 0.00249261
5 *675:26 0.00196043
6 *675:14 0.00162632
7 *675:14 *676:12 0
8 *675:14 *690:24 1.21923e-05
9 *1473:A0 *675:26 0.000261691
10 *1492:A0 *675:26 0.000475891
11 *1513:B *675:42 2.2324e-05
12 *232:26 *675:42 1.36144e-05
13 *233:10 *675:42 7.44586e-06
14 *246:14 *675:42 0.000184733
15 *246:37 *675:42 0.000100483
16 *270:16 *675:26 1.34727e-05
17 *270:30 *675:26 6.69637e-06
18 *332:10 *675:26 0.000107218
19 *342:12 *675:26 9.02668e-05
20 *428:10 *675:42 4.79458e-06
21 *430:10 *675:42 0.000365066
22 *457:50 *675:42 3.55303e-05
23 *515:36 *675:26 0.000129465
24 *515:48 *675:26 9.91442e-06
25 *517:12 *675:42 2.61014e-05
26 *538:18 *675:42 0.000167546
27 *543:12 *675:26 0.00017486
28 *576:10 *675:42 9.18779e-05
29 *578:43 *675:32 0.000811643
30 *582:30 *675:26 0.000668878
31 *584:90 *675:42 0.00114729
32 *585:149 *675:42 0.000420794
33 *586:66 *675:26 8.04879e-05
34 *612:20 *675:42 0.00192328
35 *614:34 *675:42 0.000128488
36 *632:20 *675:26 0.000107212
37 *646:8 *675:26 6.64088e-05
38 *647:22 *675:14 0.000328409
39 *647:22 *675:26 0.000114621
40 *659:32 *675:26 0.000564744
41 *664:10 *675:14 0.000115096
42 *667:18 *675:26 0.000303695
43 *668:16 *675:26 0.000104906
44 *670:8 *675:26 4.31493e-05
45 *671:20 *675:14 8.35126e-06
46 *671:20 *675:26 2.3938e-05
47 *674:12 *675:14 0.000284772
*RES
1 *1891:X *675:14 48.7803 
2 *675:14 *675:26 45.5301 
3 *675:26 *675:32 39.1971 
4 *675:32 *675:42 35.8847 
5 *675:42 *1455:A0 38 
*END

*D_NET *676 0.00897873
*CONN
*I *1456:A0 I *D sky130_fd_sc_hd__mux2_1
*I *1892:X O *D sky130_fd_sc_hd__clkbuf_1
*CAP
1 *1456:A0 0
2 *1892:X 0.000426508
3 *676:26 0.00044285
4 *676:16 0.00211235
5 *676:12 0.002096
6 *676:16 *686:24 1.06173e-05
7 *1454:A1 *676:26 0.000273612
8 *1482:A2 *676:16 4.35681e-06
9 *1615:GATE *676:12 4.6318e-06
10 *1615:GATE *676:16 0
11 *1616:GATE *676:12 7.83153e-05
12 *1648:D *676:12 0
13 *1685:A *676:16 2.05503e-05
14 *67:15 *676:16 0.000362538
15 *67:23 *676:16 0.000952473
16 *279:16 *676:16 3.71796e-05
17 *306:12 *676:16 0
18 *315:10 *676:26 0.000295569
19 *317:10 *676:16 0.000178879
20 *351:10 *676:26 0.000100069
21 *479:10 *676:16 6.61965e-05
22 *480:12 *676:12 2.24608e-05
23 *484:14 *676:26 0.000444896
24 *489:10 *676:16 7.45306e-06
25 *518:20 *676:16 0
26 *520:20 *676:12 1.02561e-05
27 *540:20 *676:12 1.40281e-05
28 *563:14 *676:16 0.000129465
29 *588:93 *676:16 2.57253e-05
30 *617:74 *676:16 4.45839e-05
31 *649:24 *676:16 0.000189656
32 *664:10 *676:12 9.67842e-05
33 *669:12 *676:16 0
34 *669:24 *676:16 0.000530726
35 *675:14 *676:12 0
*RES
1 *1892:X *676:12 44.0382 
2 *676:12 *676:16 46.6618 
3 *676:16 *676:26 41.02 
4 *676:26 *1456:A0 23 
*END

*D_NET *677 0.0112677
*CONN
*I *1514:A0 I *D sky130_fd_sc_hd__mux2_1
*I *1489:A2 I *D sky130_fd_sc_hd__mux4_1
*I *1893:X O *D sky130_fd_sc_hd__buf_1
*CAP
1 *1514:A0 0
2 *1489:A2 0
3 *1893:X 0.000571979
4 *677:46 0.000404523
5 *677:30 0.00170785
6 *677:22 0.00185588
7 *677:10 0.00112453
8 *677:10 *688:14 7.03003e-05
9 *677:10 *692:12 7.57281e-06
10 *677:22 *686:16 4.56101e-05
11 *1462:A0 *677:22 0.000261956
12 *1467:A0 *677:30 0.00014196
13 *1467:S *677:30 1.87814e-05
14 *1647:D *677:30 9.55851e-05
15 *1706:A *677:22 0.000136743
16 *2005:A *677:22 0.000269781
17 *67:23 *677:22 0.000109377
18 *173:17 *677:30 0.000137651
19 *174:13 *677:46 5.64582e-05
20 *200:15 *677:10 9.20311e-06
21 *207:15 *677:10 6.95156e-05
22 *210:13 *677:10 6.95156e-05
23 *211:9 *677:10 0
24 *229:71 *677:30 2.02872e-05
25 *229:71 *677:46 0.000315249
26 *229:93 *677:30 0.000476238
27 *229:109 *677:22 5.3304e-05
28 *229:122 *677:22 9.41704e-05
29 *360:6 *677:46 0.000106835
30 *420:6 *677:46 0.000198591
31 *466:22 *677:22 4.45594e-05
32 *470:30 *677:22 0.000455036
33 *489:10 *677:22 0.000107212
34 *508:26 *677:10 0.000134472
35 *542:26 *677:10 0.000137651
36 *558:28 *677:30 0.000128081
37 *625:32 *677:30 2.03764e-06
38 *632:20 *677:30 0.000969749
39 *632:20 *677:46 2.51031e-05
40 *632:40 *677:46 0.000135037
41 *632:91 *677:22 0.000221992
42 *641:10 *677:30 0.000422948
43 *656:20 *677:46 5.43589e-05
*RES
1 *1893:X *677:10 47.4664 
2 *677:10 *677:22 44.7279 
3 *677:22 *677:30 39.6086 
4 *677:30 *677:46 39.1868 
5 *677:46 *1489:A2 23 
6 *677:30 *1514:A0 23 
*END

*D_NET *678 0.00784588
*CONN
*I *1524:A0 I *D sky130_fd_sc_hd__mux2_1
*I *1894:X O *D sky130_fd_sc_hd__clkbuf_1
*CAP
1 *1524:A0 0
2 *1894:X 0.00154638
3 *678:26 0.000582761
4 *678:12 0.00212914
5 *678:12 *680:16 9.41704e-05
6 *1461:S *678:12 0.000106833
7 *1616:D *678:12 0.000276214
8 *1616:GATE *678:12 4.4553e-05
9 *1695:A *678:26 7.4416e-05
10 *1753:A *678:12 5.08033e-05
11 *1902:A *678:12 1.76557e-05
12 *188:17 *678:26 0.000153964
13 *190:15 *678:26 0.000185368
14 *193:13 *678:26 5.12254e-05
15 *200:15 *678:12 5.61255e-06
16 *212:15 *678:12 0.000222476
17 *258:10 *678:26 4.66474e-05
18 *480:12 *678:12 0.000314525
19 *540:10 *678:12 0.000306338
20 *540:20 *678:12 0.000100724
21 *550:26 *678:26 3.46451e-05
22 *625:63 *678:26 0.000129077
23 *648:18 *678:26 4.51797e-05
24 *659:32 *678:26 1.58785e-05
25 *664:14 *678:12 5.61255e-06
26 *664:14 *678:26 0.000859013
27 *667:18 *678:26 0.000293806
28 *669:12 *678:26 4.40271e-05
29 *671:20 *678:26 0.00010884
*RES
1 *1894:X *678:12 47.4843 
2 *678:12 *678:26 43.9998 
3 *678:26 *1524:A0 38 
*END

*D_NET *679 0.0107408
*CONN
*I *1525:A0 I *D sky130_fd_sc_hd__mux2_1
*I *1895:X O *D sky130_fd_sc_hd__clkbuf_1
*CAP
1 *1525:A0 0
2 *1895:X 0.000384542
3 *679:36 0.00143571
4 *679:32 0.00243423
5 *679:20 0.00138306
6 *679:20 *680:16 5.3304e-05
7 *679:20 *691:24 0.000178441
8 *679:20 *693:6 0.000529852
9 *679:36 *1637:D 0
10 *679:36 *689:26 0
11 *679:36 *693:22 0.000292659
12 *1894:A *679:20 5.3304e-05
13 *1938:A *679:32 6.53382e-05
14 *1949:A *679:20 3.7681e-05
15 *102:12 *679:32 2.64715e-05
16 *200:15 *679:20 7.9338e-05
17 *257:10 *679:36 6.6869e-05
18 *462:46 *679:36 0.000437377
19 *476:28 *679:36 0
20 *478:38 *679:36 0
21 *479:18 *679:32 5.64569e-05
22 *480:28 *679:32 0.000988907
23 *481:28 *679:32 0.000863693
24 *497:12 *679:36 0.000266245
25 *498:14 *679:36 0
26 *499:14 *679:32 2.26406e-05
27 *509:22 *679:36 0.000155432
28 *509:34 *679:20 4.51797e-05
29 *510:26 *679:20 0.000142577
30 *511:30 *679:20 4.51797e-05
31 *513:12 *679:32 2.05503e-05
32 *527:12 *679:36 0
33 *632:179 *679:36 0
34 *647:22 *679:32 0.000675795
*RES
1 *1895:X *679:20 48.5746 
2 *679:20 *679:32 44.1973 
3 *679:32 *679:36 43.6686 
4 *679:36 *1525:A0 38 
*END

*D_NET *680 0.0280572
*CONN
*I *1526:A0 I *D sky130_fd_sc_hd__mux2_1
*I *1896:X O *D sky130_fd_sc_hd__buf_1
*CAP
1 *1526:A0 0
2 *1896:X 0.000641643
3 *680:26 0.00536099
4 *680:16 0.00600264
5 *680:16 *685:16 4.03151e-05
6 *680:26 *681:10 4.5745e-05
7 *680:26 *681:24 0.00170398
8 *680:26 *681:34 0.000279834
9 *680:26 *683:26 0.00113851
10 *680:26 *684:18 8.94664e-06
11 *680:26 *685:16 0.000168519
12 *1515:A1 *680:26 0.000257056
13 *1645:D *680:26 0.000171483
14 *1894:A *680:16 6.53382e-05
15 *200:15 *680:16 4.59164e-05
16 *201:17 *680:16 0.000421778
17 *201:17 *680:26 1.05887e-05
18 *229:150 *680:16 0
19 *229:150 *680:26 0.000100401
20 *270:30 *680:26 5.1924e-05
21 *270:42 *680:26 1.29348e-05
22 *419:24 *680:26 0.00130216
23 *528:46 *680:26 0
24 *531:52 *680:26 0.000130212
25 *538:18 *680:26 0.00354606
26 *542:16 *680:16 0.000271015
27 *544:30 *680:26 0.000990187
28 *558:28 *680:26 0.00018058
29 *589:77 *680:26 0.000133847
30 *590:75 *680:26 0.000747443
31 *619:76 *680:26 0.000134646
32 *656:28 *680:26 0.00394507
33 *678:12 *680:16 9.41704e-05
34 *679:20 *680:16 5.3304e-05
*RES
1 *1896:X *680:16 49.3514 
2 *680:16 *680:26 44.3239 
3 *680:26 *1526:A0 38 
*END

*D_NET *681 0.0281118
*CONN
*I *1527:A0 I *D sky130_fd_sc_hd__mux2_1
*I *1897:X O *D sky130_fd_sc_hd__buf_1
*CAP
1 *1527:A0 0
2 *1897:X 3.25752e-05
3 *681:34 0.00223608
4 *681:24 0.00563591
5 *681:10 0.00343241
6 *681:10 *687:26 7.56293e-06
7 *681:24 *682:22 2.46318e-06
8 *681:24 *684:18 6.757e-05
9 *681:34 *683:26 0.00301546
10 *229:33 *681:24 1.35514e-05
11 *229:85 *681:24 0.00015083
12 *229:150 *681:10 1.05441e-05
13 *255:8 *681:34 8.85189e-05
14 *256:8 *681:34 1.02561e-05
15 *270:30 *681:24 0.000903846
16 *462:10 *681:34 0
17 *466:38 *681:24 0.00104564
18 *492:22 *681:34 0.000428339
19 *533:38 *681:24 0.001342
20 *539:20 *681:34 4.78668e-05
21 *547:42 *681:24 0.000638957
22 *558:42 *681:24 5.25433e-05
23 *561:22 *681:24 0.000176237
24 *572:50 *681:24 0.000254306
25 *572:50 *681:34 4.67746e-05
26 *578:99 *681:34 0.00133601
27 *585:75 *681:34 4.36401e-06
28 *585:87 *681:34 0.000205921
29 *585:106 *681:24 5.09512e-05
30 *585:122 *681:24 0.000285507
31 *587:46 *681:34 2.50994e-05
32 *603:14 *681:24 0.000445019
33 *603:14 *681:34 7.18547e-05
34 *621:22 *681:34 0.00077112
35 *626:86 *681:24 0.000581292
36 *630:42 *681:24 0.00029764
37 *637:10 *681:24 6.85548e-05
38 *645:34 *681:24 0.0019078
39 *649:24 *681:24 0.000255361
40 *656:28 *681:34 4.77741e-05
41 *669:24 *681:24 4.33041e-05
42 *673:26 *681:24 4.43852e-05
43 *680:26 *681:10 4.5745e-05
44 *680:26 *681:24 0.00170398
45 *680:26 *681:34 0.000279834
*RES
1 *1897:X *681:10 46.6732 
2 *681:10 *681:24 46.8506 
3 *681:24 *681:34 41.7331 
4 *681:34 *1527:A0 23 
*END

*D_NET *682 0.0264447
*CONN
*I *1528:A0 I *D sky130_fd_sc_hd__mux2_1
*I *1898:X O *D sky130_fd_sc_hd__buf_1
*CAP
1 *1528:A0 0
2 *1898:X 2.01965e-05
3 *682:66 0.0015275
4 *682:58 0.00221956
5 *682:42 0.00128967
6 *682:34 0.00168069
7 *682:22 0.00319382
8 *682:10 0.00213094
9 *682:22 *692:26 0.00146222
10 N2BEGb[6] *682:66 9.1212e-05
11 N2BEGb[7] *682:66 4.51815e-05
12 N4BEG[11] *682:58 4.89546e-05
13 NN4BEG[3] *682:42 1.09111e-05
14 NN4BEG[9] *682:34 1.01436e-05
15 *1520:S *682:42 0.000110533
16 *1612:D *682:22 5.3304e-05
17 *2003:A *682:34 3.25675e-05
18 *111:10 *682:66 2.33476e-05
19 *144:12 *682:42 8.57757e-05
20 *161:19 *682:34 0
21 *174:13 *682:22 2.05503e-05
22 *176:11 *682:22 3.44001e-05
23 *229:37 *682:34 6.14523e-05
24 *269:14 *682:22 9.75779e-05
25 *271:28 *682:34 3.83407e-05
26 *345:10 *682:34 0.000135997
27 *479:18 *682:22 0.00186546
28 *531:52 *682:66 2.5343e-05
29 *533:38 *682:22 6.51882e-05
30 *533:58 *682:66 0.000103612
31 *536:8 *682:34 0.000939652
32 *536:20 *682:34 3.55458e-05
33 *537:38 *682:58 2.81406e-06
34 *537:75 *682:22 0.000108086
35 *550:26 *682:22 0.00103809
36 *558:42 *682:22 0.000296021
37 *559:30 *682:66 6.18419e-05
38 *559:76 *682:22 0.000136738
39 *560:32 *682:34 1.25898e-05
40 *566:18 *682:58 1.98125e-05
41 *580:77 *682:58 9.33067e-05
42 *580:118 *682:66 0.000740755
43 *587:73 *682:66 4.04176e-05
44 *587:92 *682:58 1.33707e-05
45 *587:115 *682:42 6.19919e-05
46 *587:115 *682:58 0.000126667
47 *592:22 *682:66 0.00117736
48 *592:75 *682:42 0.000107611
49 *592:90 *682:34 4.98399e-06
50 *617:28 *682:66 0.000328879
51 *617:53 *682:22 0.00235934
52 *645:34 *682:22 0.000266342
53 *647:22 *682:22 1.8071e-05
54 *657:22 *682:66 0.000198625
55 *667:18 *682:66 0.00174807
56 *669:24 *682:22 2.08137e-05
57 *681:24 *682:22 2.46318e-06
*RES
1 *1898:X *682:10 46.3211 
2 *682:10 *682:22 49.7097 
3 *682:22 *682:34 45.8879 
4 *682:34 *682:42 37.54 
5 *682:42 *682:58 47.5804 
6 *682:58 *682:66 28.7867 
7 *682:66 *1528:A0 23 
*END

*D_NET *683 0.0247417
*CONN
*I *1529:A0 I *D sky130_fd_sc_hd__mux2_1
*I *1899:X O *D sky130_fd_sc_hd__buf_1
*CAP
1 *1529:A0 5.30539e-05
2 *1899:X 0.000890099
3 *683:26 0.00489796
4 *683:18 0.005735
5 *683:18 *689:20 1.03836e-05
6 *683:18 *692:12 2.18506e-05
7 *683:26 *686:8 0
8 *683:26 *692:26 0.000350051
9 *1451:S *683:18 0.000214756
10 *1763:A *683:18 7.73568e-05
11 *1899:A *683:18 0.000140259
12 *211:9 *683:18 0.000325695
13 *270:42 *683:26 0.000480713
14 *337:10 *683:26 8.04817e-05
15 *419:24 *683:26 0.000688687
16 *461:12 *1529:A0 2.24608e-05
17 *489:22 *683:26 7.6085e-05
18 *504:24 *1529:A0 7.53384e-06
19 *534:22 *683:26 0.00290743
20 *539:20 *683:26 2.16606e-05
21 *542:16 *683:18 4.46353e-05
22 *544:30 *683:26 0.000250125
23 *547:16 *683:26 0.000545431
24 *558:28 *683:26 0.00108879
25 *577:44 *683:26 4.90492e-05
26 *585:75 *1529:A0 9.75779e-05
27 *589:77 *683:26 0.000378317
28 *589:106 *683:26 0.00051865
29 *590:75 *683:26 6.94148e-05
30 *616:22 *1529:A0 2.05503e-05
31 *619:76 *683:26 0.000250451
32 *630:138 *1529:A0 2.62931e-05
33 *643:24 *683:26 2.49562e-05
34 *670:16 *683:18 0.000221927
35 *680:26 *683:26 0.00113851
36 *681:34 *683:26 0.00301546
*RES
1 *1899:X *683:18 38.6393 
2 *683:18 *683:26 45.9791 
3 *683:26 *1529:A0 47.4189 
*END

*D_NET *684 0.034761
*CONN
*I *1637:D I *D sky130_fd_sc_hd__dlxtp_1
*I *1605:D I *D sky130_fd_sc_hd__dlxtp_1
*I *1696:A I *D sky130_fd_sc_hd__clkbuf_1
*I *1910:X O *D sky130_fd_sc_hd__clkbuf_2
*CAP
1 *1637:D 0.000171551
2 *1605:D 5.01467e-05
3 *1696:A 0.000148825
4 *1910:X 0.000254596
5 *684:57 0.000303523
6 *684:42 0.00169916
7 *684:32 0.00217225
8 *684:22 0.00283366
9 *684:18 0.00620484
10 *684:10 0.00432952
11 *684:42 *1517:A0 0.000270029
12 *700:DIODE *684:42 7.51868e-05
13 *1470:S *684:42 4.93812e-05
14 *1474:A0 *684:42 0.000223692
15 *1517:A1 *684:42 0.000275932
16 *1517:S *684:42 1.56542e-05
17 *1607:GATE *684:32 6.89956e-05
18 *1624:GATE *684:22 3.66555e-05
19 *1637:GATE *1637:D 1.32314e-05
20 *1740:A *684:42 0.000178733
21 *1744:A *684:32 5.70935e-05
22 *2024:A *1637:D 0.00010018
23 *270:30 *684:18 9.59978e-05
24 *289:8 *684:42 0.000303822
25 *314:24 *684:18 0.000228764
26 *327:10 *1605:D 0.000139346
27 *329:14 *684:42 5.3304e-05
28 *438:12 *684:18 0.000272639
29 *460:8 *684:10 0.000355006
30 *466:48 *1637:D 3.28409e-05
31 *468:18 *684:18 0.000838009
32 *471:86 *684:32 9.80004e-05
33 *487:8 *684:22 9.89912e-05
34 *498:14 *1637:D 0.000148503
35 *498:14 *684:57 0.000164282
36 *509:22 *1637:D 2.71291e-05
37 *509:22 *1696:A 1.94812e-05
38 *509:22 *684:57 7.91493e-05
39 *527:8 *684:42 8.89399e-05
40 *531:10 *684:32 1.14452e-05
41 *547:26 *684:18 6.14962e-05
42 *548:68 *684:32 5.53016e-05
43 *556:10 *684:18 1.05441e-05
44 *583:124 *684:18 7.4237e-05
45 *584:140 *684:42 5.3304e-05
46 *585:122 *684:18 6.72824e-05
47 *586:112 *1637:D 5.29672e-05
48 *613:14 *684:10 9.47227e-05
49 *615:47 *684:22 7.63099e-05
50 *627:107 *684:22 0.000137651
51 *629:10 *684:10 2.05503e-05
52 *629:22 *684:18 0.000285971
53 *632:78 *684:22 4.67488e-05
54 *649:38 *684:32 1.55224e-05
55 *649:46 *684:32 6.37748e-05
56 *649:46 *684:42 0.000225282
57 *651:14 *684:10 2.24608e-05
58 *652:20 *684:22 0.000279358
59 *652:28 *684:22 0.00051184
60 *652:28 *684:32 2.45032e-05
61 *652:54 *1605:D 4.93223e-05
62 *656:20 *684:18 0.00164734
63 *656:28 *684:18 0.00134031
64 *659:32 *684:18 1.86684e-05
65 *673:26 *684:18 0.00686054
66 *679:36 *1637:D 0
67 *680:26 *684:18 8.94664e-06
68 *681:24 *684:18 6.757e-05
*RES
1 *1910:X *684:10 43.7068 
2 *684:10 *684:18 36.162 
3 *684:18 *684:22 43.7307 
4 *684:22 *684:32 40.1707 
5 *684:32 *684:42 27.3843 
6 *684:42 *1696:A 25.9207 
7 *684:42 *684:57 17.2579 
8 *684:57 *1605:D 39.5743 
9 *684:57 *1637:D 42.3293 
*END

*D_NET *685 0.00561385
*CONN
*I *1483:A2 I *D sky130_fd_sc_hd__mux4_1
*I *1515:A0 I *D sky130_fd_sc_hd__mux2_1
*I *1900:X O *D sky130_fd_sc_hd__clkbuf_1
*CAP
1 *1483:A2 0
2 *1515:A0 2.86541e-05
3 *1900:X 0.000126469
4 *685:37 0.000174591
5 *685:20 0.000344818
6 *685:16 0.000988236
7 *685:8 0.000973132
8 *685:16 *691:12 4.84484e-05
9 *685:20 *687:26 0.000306535
10 *685:37 *687:26 0.000158146
11 *685:37 *687:36 1.05441e-05
12 *1487:A2 *1515:A0 5.50049e-05
13 *1487:A2 *685:37 0.000137651
14 *1515:A1 *685:20 0.000267942
15 *1645:D *685:16 0.000138727
16 *275:27 *685:37 2.50451e-05
17 *414:10 *685:37 9.41704e-05
18 *508:26 *685:16 0.000228414
19 *542:16 *685:16 0.00013793
20 *542:26 *685:8 0.000135037
21 *579:107 *685:37 3.95711e-05
22 *586:93 *685:16 0.000177604
23 *588:105 *685:16 0.000784674
24 *588:105 *685:20 1.19831e-05
25 *652:36 *685:37 1.16872e-05
26 *680:16 *685:16 4.03151e-05
27 *680:26 *685:16 0.000168519
*RES
1 *1900:X *685:8 39.5743 
2 *685:8 *685:16 47.3379 
3 *685:16 *685:20 19.3707 
4 *685:20 *1515:A0 23.6214 
5 *685:20 *685:37 34.1066 
6 *685:37 *1483:A2 23 
*END

*D_NET *686 0.0117469
*CONN
*I *1489:A3 I *D sky130_fd_sc_hd__mux4_1
*I *1516:A0 I *D sky130_fd_sc_hd__mux2_1
*I *1902:X O *D sky130_fd_sc_hd__buf_1
*CAP
1 *1489:A3 0
2 *1516:A0 0.000227236
3 *1902:X 0.000255447
4 *686:32 0.000404979
5 *686:28 0.00243328
6 *686:24 0.00275864
7 *686:16 0.000872535
8 *686:8 0.00062488
9 *686:8 *688:14 0.000294985
10 *1462:A0 *686:16 8.27123e-05
11 *1463:A0 *686:28 4.01634e-05
12 *1463:S *686:28 9.58714e-05
13 *1614:GATE *686:28 6.72662e-05
14 *1615:D *686:24 2.30292e-05
15 *1685:A *686:24 1.94693e-05
16 *1751:A *686:28 3.53115e-05
17 *175:19 *686:28 4.67488e-05
18 *211:9 *686:8 5.04651e-05
19 *229:33 *1516:A0 5.56279e-05
20 *229:37 *1516:A0 0.000245833
21 *229:37 *686:32 0.000248892
22 *229:54 *1516:A0 5.50106e-05
23 *229:85 *686:28 0.000249679
24 *302:10 *686:16 0.000103653
25 *337:10 *686:16 0.000218476
26 *409:10 *1516:A0 9.5877e-05
27 *419:24 *686:28 4.73952e-05
28 *466:22 *686:16 0.00021677
29 *466:22 *686:28 0.000734474
30 *470:30 *686:16 0.000392374
31 *489:10 *686:24 5.3304e-05
32 *559:76 *686:28 1.94812e-05
33 *562:10 *686:32 3.41998e-06
34 *571:26 *686:16 2.7227e-05
35 *626:86 *686:28 6.70361e-05
36 *630:227 *686:24 2.45549e-06
37 *632:40 *686:32 2.07944e-05
38 *645:22 *686:24 1.44895e-05
39 *648:38 *1516:A0 0.000127143
40 *650:47 *1516:A0 2.56066e-05
41 *654:14 *686:32 7.48641e-05
42 *660:22 *686:24 3.7122e-06
43 *663:32 *686:8 3.53136e-05
44 *663:32 *686:16 0.000141954
45 *669:24 *686:24 7.57281e-06
46 *670:16 *686:24 6.92406e-05
47 *676:16 *686:24 1.06173e-05
48 *677:22 *686:16 4.56101e-05
49 *683:26 *686:8 0
*RES
1 *1902:X *686:8 42.3707 
2 *686:8 *686:16 39.3214 
3 *686:16 *686:24 36.5871 
4 *686:24 *686:28 44.2071 
5 *686:28 *686:32 18.6664 
6 *686:32 *1516:A0 42.7643 
7 *686:32 *1489:A3 38 
*END

*D_NET *687 0.00879384
*CONN
*I *1483:A3 I *D sky130_fd_sc_hd__mux4_1
*I *1517:A0 I *D sky130_fd_sc_hd__mux2_1
*I *1903:X O *D sky130_fd_sc_hd__clkbuf_1
*CAP
1 *1483:A3 0
2 *1517:A0 0.000257073
3 *1903:X 0.000173552
4 *687:36 0.000845876
5 *687:26 0.00175981
6 *687:14 0.00134456
7 *687:14 *690:16 0.000159445
8 *687:26 *689:12 0.000328785
9 UserCLKo *687:26 0.0004533
10 *1470:S *1517:A0 0.000273281
11 *1487:C1 *687:36 0.000172737
12 *1515:A1 *687:26 7.97457e-05
13 *1517:S *1517:A0 5.3304e-05
14 *201:17 *687:14 2.05503e-05
15 *201:17 *687:26 2.78893e-05
16 *229:150 *687:26 0.000109859
17 *268:10 *687:26 0.000349487
18 *329:14 *687:36 2.05503e-05
19 *335:8 *687:26 0
20 *410:10 *687:36 0.000279803
21 *414:10 *687:26 0.000124437
22 *414:10 *687:36 0.000356289
23 *471:86 *1517:A0 0.000327583
24 *475:16 *687:26 0
25 *475:16 *687:36 5.90175e-05
26 *542:16 *687:14 2.24608e-05
27 *542:26 *687:14 5.50049e-05
28 *579:107 *687:26 0
29 *579:107 *687:36 0
30 *581:146 *687:36 0.000307132
31 *588:105 *687:26 0
32 *632:106 *687:26 0
33 *647:22 *687:14 7.95009e-05
34 *681:10 *687:26 7.56293e-06
35 *684:42 *1517:A0 0.000270029
36 *685:20 *687:26 0.000306535
37 *685:37 *687:26 0.000158146
38 *685:37 *687:36 1.05441e-05
*RES
1 *1903:X *687:14 47.7325 
2 *687:14 *687:26 30.9825 
3 *687:26 *687:36 41.165 
4 *687:36 *1517:A0 45.3329 
5 *687:26 *1483:A3 38 
*END

*D_NET *688 0.0056763
*CONN
*I *1518:A0 I *D sky130_fd_sc_hd__mux2_1
*I *1904:X O *D sky130_fd_sc_hd__clkbuf_1
*CAP
1 *1518:A0 0
2 *1904:X 7.42997e-05
3 *688:14 0.00176055
4 *688:8 0.00183485
5 *688:14 *692:12 2.26497e-05
6 *1704:A *688:14 5.15971e-05
7 *1902:A *688:8 2.93845e-05
8 *1904:A *688:8 7.53384e-06
9 *212:15 *688:8 1.22822e-05
10 *273:34 *688:14 5.43589e-05
11 *275:16 *688:14 0.000355322
12 *319:10 *688:14 9.84519e-05
13 *474:12 *688:14 0
14 *490:28 *688:14 0.000290314
15 *548:68 *688:14 8.60326e-05
16 *577:44 *688:14 0.000154291
17 *578:74 *688:14 5.3304e-05
18 *581:136 *688:14 0.00038595
19 *625:10 *688:14 3.98546e-05
20 *677:10 *688:14 7.03003e-05
21 *686:8 *688:14 0.000294985
*RES
1 *1904:X *688:8 39.0979 
2 *688:8 *688:14 46.5064 
3 *688:14 *1518:A0 23 
*END

*D_NET *689 0.00825853
*CONN
*I *1519:A0 I *D sky130_fd_sc_hd__mux2_1
*I *1905:X O *D sky130_fd_sc_hd__clkbuf_1
*CAP
1 *1519:A0 0
2 *1905:X 0.000453321
3 *689:26 0.000385294
4 *689:20 0.00133068
5 *689:12 0.0013987
6 *689:12 *690:16 5.3304e-05
7 UserCLKo *689:12 4.15283e-06
8 *1763:A *689:20 5.67058e-05
9 *1898:A *689:20 5.67058e-05
10 *1899:A *689:20 9.61128e-05
11 *199:13 *689:12 0.000157379
12 *203:13 *689:12 2.78989e-05
13 *209:21 *689:12 1.21972e-05
14 *476:28 *689:26 4.62457e-05
15 *483:14 *689:20 0.00130543
16 *496:18 *689:20 0.00118022
17 *507:10 *689:20 1.1674e-05
18 *511:30 *689:20 0.000123537
19 *512:18 *689:20 3.41817e-05
20 *527:12 *689:26 0.000354849
21 *550:8 *689:20 0.000140935
22 *628:150 *689:20 4.08664e-05
23 *628:162 *689:20 0.000275875
24 *632:179 *689:26 0.0003731
25 *679:36 *689:26 0
26 *683:18 *689:20 1.03836e-05
27 *687:26 *689:12 0.000328785
*RES
1 *1905:X *689:12 45.2707 
2 *689:12 *689:20 41.5143 
3 *689:20 *689:26 40.005 
4 *689:26 *1519:A0 23 
*END

*D_NET *690 0.0148828
*CONN
*I *1520:A0 I *D sky130_fd_sc_hd__mux2_1
*I *1906:X O *D sky130_fd_sc_hd__clkbuf_1
*CAP
1 *1520:A0 0
2 *1906:X 0.000950301
3 *690:24 0.00276619
4 *690:16 0.00371649
5 NN4BEG[3] *690:24 1.15883e-05
6 NN4BEG[5] *690:24 2.12347e-06
7 UserCLKo *690:16 2.11157e-05
8 *1520:A1 *690:24 0.000234931
9 *199:13 *690:16 8.22421e-06
10 *209:21 *690:16 0.000313074
11 *476:22 *690:16 0
12 *508:26 *690:16 0.000342607
13 *520:20 *690:16 0.000361042
14 *520:20 *690:24 5.50885e-05
15 *520:40 *690:24 0.00104346
16 *540:30 *690:24 9.81333e-06
17 *542:38 *690:16 0
18 *571:20 *690:24 6.25481e-06
19 *574:52 *690:24 0.000242614
20 *583:110 *690:24 0.000374046
21 *647:22 *690:16 0.000323353
22 *647:22 *690:24 6.84154e-05
23 *671:20 *690:24 0.00370905
24 *674:12 *690:24 9.80768e-05
25 *675:14 *690:24 1.21923e-05
26 *687:14 *690:16 0.000159445
27 *689:12 *690:16 5.3304e-05
*RES
1 *1906:X *690:16 49.9721 
2 *690:16 *690:24 35.3564 
3 *690:24 *1520:A0 23 
*END

*D_NET *691 0.0104503
*CONN
*I *1521:A0 I *D sky130_fd_sc_hd__mux2_1
*I *1907:X O *D sky130_fd_sc_hd__clkbuf_1
*CAP
1 *1521:A0 4.57773e-05
2 *1907:X 0.000240401
3 *691:28 0.00115205
4 *691:24 0.00154246
5 *691:12 0.000676588
6 *691:24 *693:6 8.48502e-06
7 FrameStrobe_O[4] *691:24 2.02872e-05
8 *1486:A1 *691:28 0.000109443
9 *1486:S *691:28 2.11066e-05
10 *1928:A *1521:A0 5.50106e-05
11 *1932:A *691:24 0.000139969
12 *1936:A *691:24 5.50049e-05
13 *1939:A *691:24 8.27123e-05
14 *1949:A *691:24 9.59004e-05
15 *331:8 *691:28 3.62219e-05
16 *463:38 *691:28 0.000293776
17 *480:20 *691:12 0.00064524
18 *480:20 *691:24 4.60157e-05
19 *480:28 *691:24 0.000885085
20 *495:16 *691:24 0.000284543
21 *497:20 *691:28 0.00103452
22 *499:14 *691:28 0.000155143
23 *500:8 *691:28 0.000226465
24 *507:10 *691:24 4.60157e-05
25 *510:26 *691:24 0.000142577
26 *542:16 *691:12 4.5745e-05
27 *584:140 *691:28 0.00019127
28 *588:159 *691:28 8.4047e-05
29 *647:22 *691:12 0.000648659
30 *647:22 *691:28 0.00121288
31 *679:20 *691:24 0.000178441
32 *685:16 *691:12 4.84484e-05
*RES
1 *1907:X *691:12 47.9313 
2 *691:12 *691:24 37.6761 
3 *691:24 *691:28 44.725 
4 *691:28 *1521:A0 38.6214 
*END

*D_NET *692 0.0115417
*CONN
*I *1522:A0 I *D sky130_fd_sc_hd__mux2_1
*I *1908:X O *D sky130_fd_sc_hd__clkbuf_1
*CAP
1 *1522:A0 0
2 *1908:X 9.24843e-05
3 *692:38 0.000124746
4 *692:30 0.000995777
5 *692:26 0.00232205
6 *692:12 0.00154351
7 *1451:S *692:12 5.50049e-05
8 *174:13 *692:30 9.84794e-05
9 *229:37 *692:38 7.7501e-06
10 *229:71 *692:30 0.000178517
11 *270:8 *692:26 1.83235e-05
12 *280:10 *692:30 5.56356e-05
13 *409:10 *692:30 0.000136743
14 *419:24 *692:38 9.48944e-05
15 *420:14 *692:30 5.67058e-05
16 *421:10 *692:30 9.84851e-05
17 *533:22 *692:26 3.74737e-05
18 *534:12 *692:30 0.000219383
19 *558:28 *692:26 4.75788e-05
20 *560:32 *692:38 5.62433e-06
21 *563:30 *692:30 0.000181331
22 *563:36 *692:30 0.00113365
23 *589:134 *692:26 7.07673e-05
24 *590:83 *692:38 2.76611e-06
25 *633:10 *692:26 0.000125566
26 *633:16 *692:26 0.000151025
27 *638:30 *692:38 5.67058e-05
28 *643:24 *692:26 0.000111455
29 *645:22 *692:26 0.000101973
30 *645:34 *692:26 0.000632187
31 *650:16 *692:30 7.04136e-05
32 *652:8 *692:30 0.000434159
33 *668:16 *692:26 8.72483e-06
34 *668:49 *692:26 6.85548e-05
35 *669:12 *692:26 5.69011e-05
36 *669:24 *692:26 0.00028199
37 *677:10 *692:12 7.57281e-06
38 *682:22 *692:26 0.00146222
39 *683:18 *692:12 2.18506e-05
40 *683:26 *692:26 0.000350051
41 *688:14 *692:12 2.26497e-05
*RES
1 *1908:X *692:12 47.4189 
2 *692:12 *692:26 35.8457 
3 *692:26 *692:30 36.5843 
4 *692:30 *692:38 32.175 
5 *692:38 *1522:A0 23 
*END

*D_NET *693 0.0118359
*CONN
*I *1523:A0 I *D sky130_fd_sc_hd__mux2_1
*I *1909:X O *D sky130_fd_sc_hd__clkbuf_1
*CAP
1 *1523:A0 0
2 *1909:X 0.000922782
3 *693:22 0.00108615
4 *693:16 0.00190361
5 *693:12 0.000922718
6 *693:6 0.00102804
7 *1472:S *693:22 9.24795e-06
8 *1523:S *693:22 0.000485979
9 *1949:A *693:6 0.000185093
10 *200:15 *693:6 0.000390679
11 *478:38 *693:22 9.28078e-06
12 *496:12 *693:22 0.00112798
13 *497:12 *693:22 0.000291664
14 *511:16 *693:22 0
15 *511:30 *693:12 0
16 *511:30 *693:16 0.00173729
17 *512:18 *693:16 0.000761102
18 *514:10 *693:12 9.9437e-05
19 *652:54 *693:22 4.38638e-05
20 *679:20 *693:6 0.000529852
21 *679:36 *693:22 0.000292659
22 *691:24 *693:6 8.48502e-06
*RES
1 *1909:X *693:6 36.0086 
2 *693:6 *693:12 31.5536 
3 *693:12 *693:16 34.6786 
4 *693:16 *693:22 38.9871 
5 *693:22 *1523:A0 23 
*END

*D_NET *694 0.0163004
*CONN
*I *2018:A I *D sky130_fd_sc_hd__buf_2
*I *1680:X O *D sky130_fd_sc_hd__buf_1
*CAP
1 *2018:A 0
2 *1680:X 0.000537668
3 *694:26 0.000106885
4 *694:20 0.00158484
5 *694:18 0.0019385
6 *694:8 0.000998215
7 *1575:C *694:18 1.23661e-05
8 *1589:GATE *694:8 0.000336564
9 *1680:A *694:8 0.000156386
10 *1851:A *694:8 0.00016245
11 *1851:A *694:18 9.28078e-06
12 *69:15 *694:26 0
13 *70:9 *694:20 0.000456956
14 *76:11 *694:26 0.000194532
15 *77:9 *694:20 0.0023336
16 *79:13 *694:18 0.000269781
17 *83:11 *694:20 0.00126709
18 *86:9 *694:20 0.00255294
19 *461:26 *694:18 0.000398503
20 *472:12 *694:18 4.04206e-05
21 *472:12 *694:20 0.00111834
22 *472:16 *694:20 0.00138408
23 *488:24 *694:20 0.00012144
24 *492:22 *694:20 0.000130187
25 *570:24 *694:8 0
26 *570:35 *694:8 0.000189392
*RES
1 *1680:X *694:8 48.8854 
2 *694:8 *694:18 23.4825 
3 *694:18 *694:20 65.4157 
4 *694:20 *694:26 32.61 
5 *694:26 *2018:A 23 
*END
