*SPEF "ieee 1481-1999"
*DESIGN "W_IO4"
*DATE "09:30:40 Sunday May 11, 2025"
*VENDOR "The OpenROAD Project"
*PROGRAM "OpenROAD"
*VERSION "87af90f72f3f9be1fdfa1d886f0dd8d8b8f34694"
*DESIGN_FLOW "NAME_SCOPE LOCAL" "PIN_CAP NONE"
*DIVIDER /
*DELIMITER :
*BUS_DELIMITER []
*T_UNIT 1 NS
*C_UNIT 1 PF
*R_UNIT 1 OHM
*L_UNIT 1 HENRY

*NAME_MAP
*1 A_I_top
*2 A_O_top
*3 A_T_top
*4 A_config_C_bit0
*5 A_config_C_bit1
*6 A_config_C_bit2
*7 A_config_C_bit3
*8 B_I_top
*9 B_O_top
*10 B_T_top
*11 B_config_C_bit0
*12 B_config_C_bit1
*13 B_config_C_bit2
*14 B_config_C_bit3
*15 C_I_top
*16 C_O_top
*17 C_T_top
*18 C_config_C_bit0
*19 C_config_C_bit1
*20 C_config_C_bit2
*21 C_config_C_bit3
*22 D_I_top
*23 D_O_top
*24 D_T_top
*25 D_config_C_bit0
*26 D_config_C_bit1
*27 D_config_C_bit2
*28 D_config_C_bit3
*29 E1BEG[0]
*30 E1BEG[1]
*31 E1BEG[2]
*32 E1BEG[3]
*33 E2BEG[0]
*34 E2BEG[1]
*35 E2BEG[2]
*36 E2BEG[3]
*37 E2BEG[4]
*38 E2BEG[5]
*39 E2BEG[6]
*40 E2BEG[7]
*41 E2BEGb[0]
*42 E2BEGb[1]
*43 E2BEGb[2]
*44 E2BEGb[3]
*45 E2BEGb[4]
*46 E2BEGb[5]
*47 E2BEGb[6]
*48 E2BEGb[7]
*49 E6BEG[0]
*50 E6BEG[10]
*51 E6BEG[11]
*52 E6BEG[1]
*53 E6BEG[2]
*54 E6BEG[3]
*55 E6BEG[4]
*56 E6BEG[5]
*57 E6BEG[6]
*58 E6BEG[7]
*59 E6BEG[8]
*60 E6BEG[9]
*61 EE4BEG[0]
*62 EE4BEG[10]
*63 EE4BEG[11]
*64 EE4BEG[12]
*65 EE4BEG[13]
*66 EE4BEG[14]
*67 EE4BEG[15]
*68 EE4BEG[1]
*69 EE4BEG[2]
*70 EE4BEG[3]
*71 EE4BEG[4]
*72 EE4BEG[5]
*73 EE4BEG[6]
*74 EE4BEG[7]
*75 EE4BEG[8]
*76 EE4BEG[9]
*77 FrameData[0]
*78 FrameData[10]
*79 FrameData[11]
*80 FrameData[12]
*81 FrameData[13]
*82 FrameData[14]
*83 FrameData[15]
*84 FrameData[16]
*85 FrameData[17]
*86 FrameData[18]
*87 FrameData[19]
*88 FrameData[1]
*89 FrameData[20]
*90 FrameData[21]
*91 FrameData[22]
*92 FrameData[23]
*93 FrameData[24]
*94 FrameData[25]
*95 FrameData[26]
*96 FrameData[27]
*97 FrameData[28]
*98 FrameData[29]
*99 FrameData[2]
*100 FrameData[30]
*101 FrameData[31]
*102 FrameData[3]
*103 FrameData[4]
*104 FrameData[5]
*105 FrameData[6]
*106 FrameData[7]
*107 FrameData[8]
*108 FrameData[9]
*109 FrameData_O[0]
*110 FrameData_O[10]
*111 FrameData_O[11]
*112 FrameData_O[12]
*113 FrameData_O[13]
*114 FrameData_O[14]
*115 FrameData_O[15]
*116 FrameData_O[16]
*117 FrameData_O[17]
*118 FrameData_O[18]
*119 FrameData_O[19]
*120 FrameData_O[1]
*121 FrameData_O[20]
*122 FrameData_O[21]
*123 FrameData_O[22]
*124 FrameData_O[23]
*125 FrameData_O[24]
*126 FrameData_O[25]
*127 FrameData_O[26]
*128 FrameData_O[27]
*129 FrameData_O[28]
*130 FrameData_O[29]
*131 FrameData_O[2]
*132 FrameData_O[30]
*133 FrameData_O[31]
*134 FrameData_O[3]
*135 FrameData_O[4]
*136 FrameData_O[5]
*137 FrameData_O[6]
*138 FrameData_O[7]
*139 FrameData_O[8]
*140 FrameData_O[9]
*141 FrameStrobe[0]
*142 FrameStrobe[10]
*143 FrameStrobe[11]
*144 FrameStrobe[12]
*145 FrameStrobe[13]
*146 FrameStrobe[14]
*147 FrameStrobe[15]
*148 FrameStrobe[16]
*149 FrameStrobe[17]
*150 FrameStrobe[18]
*151 FrameStrobe[19]
*152 FrameStrobe[1]
*153 FrameStrobe[2]
*154 FrameStrobe[3]
*155 FrameStrobe[4]
*156 FrameStrobe[5]
*157 FrameStrobe[6]
*158 FrameStrobe[7]
*159 FrameStrobe[8]
*160 FrameStrobe[9]
*161 FrameStrobe_O[0]
*162 FrameStrobe_O[10]
*163 FrameStrobe_O[11]
*164 FrameStrobe_O[12]
*165 FrameStrobe_O[13]
*166 FrameStrobe_O[14]
*167 FrameStrobe_O[15]
*168 FrameStrobe_O[16]
*169 FrameStrobe_O[17]
*170 FrameStrobe_O[18]
*171 FrameStrobe_O[19]
*172 FrameStrobe_O[1]
*173 FrameStrobe_O[2]
*174 FrameStrobe_O[3]
*175 FrameStrobe_O[4]
*176 FrameStrobe_O[5]
*177 FrameStrobe_O[6]
*178 FrameStrobe_O[7]
*179 FrameStrobe_O[8]
*180 FrameStrobe_O[9]
*181 UserCLK
*182 UserCLKo
*185 W1END[0]
*186 W1END[1]
*187 W1END[2]
*188 W1END[3]
*189 W2END[0]
*190 W2END[1]
*191 W2END[2]
*192 W2END[3]
*193 W2END[4]
*194 W2END[5]
*195 W2END[6]
*196 W2END[7]
*197 W2MID[0]
*198 W2MID[1]
*199 W2MID[2]
*200 W2MID[3]
*201 W2MID[4]
*202 W2MID[5]
*203 W2MID[6]
*204 W2MID[7]
*205 W6END[0]
*206 W6END[10]
*207 W6END[11]
*208 W6END[1]
*209 W6END[2]
*210 W6END[3]
*211 W6END[4]
*212 W6END[5]
*213 W6END[6]
*214 W6END[7]
*215 W6END[8]
*216 W6END[9]
*217 WW4END[0]
*218 WW4END[10]
*219 WW4END[11]
*220 WW4END[12]
*221 WW4END[13]
*222 WW4END[14]
*223 WW4END[15]
*224 WW4END[1]
*225 WW4END[2]
*226 WW4END[3]
*227 WW4END[4]
*228 WW4END[5]
*229 WW4END[6]
*230 WW4END[7]
*231 WW4END[8]
*232 WW4END[9]
*233 Inst_A_IO_1_bidirectional_frame_config_pass\.Q
*234 Inst_B_IO_1_bidirectional_frame_config_pass\.Q
*235 Inst_C_IO_1_bidirectional_frame_config_pass\.Q
*236 Inst_D_IO_1_bidirectional_frame_config_pass\.Q
*237 Inst_W_IO4_ConfigMem\.Inst_frame0_bit0\.Q
*238 Inst_W_IO4_ConfigMem\.Inst_frame0_bit1\.Q
*239 Inst_W_IO4_ConfigMem\.Inst_frame0_bit10\.Q
*240 Inst_W_IO4_ConfigMem\.Inst_frame0_bit11\.Q
*241 Inst_W_IO4_ConfigMem\.Inst_frame0_bit12\.Q
*242 Inst_W_IO4_ConfigMem\.Inst_frame0_bit13\.Q
*243 Inst_W_IO4_ConfigMem\.Inst_frame0_bit14\.Q
*244 Inst_W_IO4_ConfigMem\.Inst_frame0_bit15\.Q
*245 Inst_W_IO4_ConfigMem\.Inst_frame0_bit16\.Q
*246 Inst_W_IO4_ConfigMem\.Inst_frame0_bit17\.Q
*247 Inst_W_IO4_ConfigMem\.Inst_frame0_bit18\.Q
*248 Inst_W_IO4_ConfigMem\.Inst_frame0_bit19\.Q
*249 Inst_W_IO4_ConfigMem\.Inst_frame0_bit2\.Q
*250 Inst_W_IO4_ConfigMem\.Inst_frame0_bit20\.Q
*251 Inst_W_IO4_ConfigMem\.Inst_frame0_bit21\.Q
*252 Inst_W_IO4_ConfigMem\.Inst_frame0_bit22\.Q
*253 Inst_W_IO4_ConfigMem\.Inst_frame0_bit23\.Q
*254 Inst_W_IO4_ConfigMem\.Inst_frame0_bit24\.Q
*255 Inst_W_IO4_ConfigMem\.Inst_frame0_bit25\.Q
*256 Inst_W_IO4_ConfigMem\.Inst_frame0_bit26\.Q
*257 Inst_W_IO4_ConfigMem\.Inst_frame0_bit27\.Q
*258 Inst_W_IO4_ConfigMem\.Inst_frame0_bit28\.Q
*259 Inst_W_IO4_ConfigMem\.Inst_frame0_bit29\.Q
*260 Inst_W_IO4_ConfigMem\.Inst_frame0_bit3\.Q
*261 Inst_W_IO4_ConfigMem\.Inst_frame0_bit30\.Q
*262 Inst_W_IO4_ConfigMem\.Inst_frame0_bit31\.Q
*263 Inst_W_IO4_ConfigMem\.Inst_frame0_bit4\.Q
*264 Inst_W_IO4_ConfigMem\.Inst_frame0_bit5\.Q
*265 Inst_W_IO4_ConfigMem\.Inst_frame0_bit6\.Q
*266 Inst_W_IO4_ConfigMem\.Inst_frame0_bit7\.Q
*267 Inst_W_IO4_ConfigMem\.Inst_frame0_bit8\.Q
*268 Inst_W_IO4_ConfigMem\.Inst_frame0_bit9\.Q
*269 Inst_W_IO4_ConfigMem\.Inst_frame1_bit0\.Q
*270 Inst_W_IO4_ConfigMem\.Inst_frame1_bit1\.Q
*271 Inst_W_IO4_ConfigMem\.Inst_frame1_bit10\.Q
*272 Inst_W_IO4_ConfigMem\.Inst_frame1_bit11\.Q
*273 Inst_W_IO4_ConfigMem\.Inst_frame1_bit12\.Q
*274 Inst_W_IO4_ConfigMem\.Inst_frame1_bit13\.Q
*275 Inst_W_IO4_ConfigMem\.Inst_frame1_bit14\.Q
*276 Inst_W_IO4_ConfigMem\.Inst_frame1_bit15\.Q
*277 Inst_W_IO4_ConfigMem\.Inst_frame1_bit16\.Q
*278 Inst_W_IO4_ConfigMem\.Inst_frame1_bit17\.Q
*279 Inst_W_IO4_ConfigMem\.Inst_frame1_bit18\.Q
*280 Inst_W_IO4_ConfigMem\.Inst_frame1_bit19\.Q
*281 Inst_W_IO4_ConfigMem\.Inst_frame1_bit2\.Q
*282 Inst_W_IO4_ConfigMem\.Inst_frame1_bit20\.Q
*283 Inst_W_IO4_ConfigMem\.Inst_frame1_bit21\.Q
*284 Inst_W_IO4_ConfigMem\.Inst_frame1_bit22\.Q
*285 Inst_W_IO4_ConfigMem\.Inst_frame1_bit23\.Q
*286 Inst_W_IO4_ConfigMem\.Inst_frame1_bit24\.Q
*287 Inst_W_IO4_ConfigMem\.Inst_frame1_bit25\.Q
*288 Inst_W_IO4_ConfigMem\.Inst_frame1_bit26\.Q
*289 Inst_W_IO4_ConfigMem\.Inst_frame1_bit27\.Q
*290 Inst_W_IO4_ConfigMem\.Inst_frame1_bit28\.Q
*291 Inst_W_IO4_ConfigMem\.Inst_frame1_bit29\.Q
*292 Inst_W_IO4_ConfigMem\.Inst_frame1_bit3\.Q
*293 Inst_W_IO4_ConfigMem\.Inst_frame1_bit30\.Q
*294 Inst_W_IO4_ConfigMem\.Inst_frame1_bit31\.Q
*295 Inst_W_IO4_ConfigMem\.Inst_frame1_bit4\.Q
*296 Inst_W_IO4_ConfigMem\.Inst_frame1_bit5\.Q
*297 Inst_W_IO4_ConfigMem\.Inst_frame1_bit6\.Q
*298 Inst_W_IO4_ConfigMem\.Inst_frame1_bit7\.Q
*299 Inst_W_IO4_ConfigMem\.Inst_frame1_bit8\.Q
*300 Inst_W_IO4_ConfigMem\.Inst_frame1_bit9\.Q
*301 Inst_W_IO4_ConfigMem\.Inst_frame2_bit0\.Q
*302 Inst_W_IO4_ConfigMem\.Inst_frame2_bit1\.Q
*303 Inst_W_IO4_ConfigMem\.Inst_frame2_bit10\.Q
*304 Inst_W_IO4_ConfigMem\.Inst_frame2_bit11\.Q
*305 Inst_W_IO4_ConfigMem\.Inst_frame2_bit12\.Q
*306 Inst_W_IO4_ConfigMem\.Inst_frame2_bit13\.Q
*307 Inst_W_IO4_ConfigMem\.Inst_frame2_bit14\.Q
*308 Inst_W_IO4_ConfigMem\.Inst_frame2_bit15\.Q
*309 Inst_W_IO4_ConfigMem\.Inst_frame2_bit16\.Q
*310 Inst_W_IO4_ConfigMem\.Inst_frame2_bit17\.Q
*311 Inst_W_IO4_ConfigMem\.Inst_frame2_bit18\.Q
*312 Inst_W_IO4_ConfigMem\.Inst_frame2_bit19\.Q
*313 Inst_W_IO4_ConfigMem\.Inst_frame2_bit2\.Q
*314 Inst_W_IO4_ConfigMem\.Inst_frame2_bit20\.Q
*315 Inst_W_IO4_ConfigMem\.Inst_frame2_bit21\.Q
*316 Inst_W_IO4_ConfigMem\.Inst_frame2_bit22\.Q
*317 Inst_W_IO4_ConfigMem\.Inst_frame2_bit23\.Q
*318 Inst_W_IO4_ConfigMem\.Inst_frame2_bit24\.Q
*319 Inst_W_IO4_ConfigMem\.Inst_frame2_bit25\.Q
*320 Inst_W_IO4_ConfigMem\.Inst_frame2_bit26\.Q
*321 Inst_W_IO4_ConfigMem\.Inst_frame2_bit27\.Q
*322 Inst_W_IO4_ConfigMem\.Inst_frame2_bit28\.Q
*323 Inst_W_IO4_ConfigMem\.Inst_frame2_bit29\.Q
*324 Inst_W_IO4_ConfigMem\.Inst_frame2_bit3\.Q
*325 Inst_W_IO4_ConfigMem\.Inst_frame2_bit30\.Q
*326 Inst_W_IO4_ConfigMem\.Inst_frame2_bit31\.Q
*327 Inst_W_IO4_ConfigMem\.Inst_frame2_bit4\.Q
*328 Inst_W_IO4_ConfigMem\.Inst_frame2_bit5\.Q
*329 Inst_W_IO4_ConfigMem\.Inst_frame2_bit6\.Q
*330 Inst_W_IO4_ConfigMem\.Inst_frame2_bit7\.Q
*331 Inst_W_IO4_ConfigMem\.Inst_frame2_bit8\.Q
*332 Inst_W_IO4_ConfigMem\.Inst_frame2_bit9\.Q
*333 Inst_W_IO4_ConfigMem\.Inst_frame3_bit10\.Q
*334 Inst_W_IO4_ConfigMem\.Inst_frame3_bit11\.Q
*335 Inst_W_IO4_ConfigMem\.Inst_frame3_bit12\.Q
*336 Inst_W_IO4_ConfigMem\.Inst_frame3_bit13\.Q
*337 Inst_W_IO4_ConfigMem\.Inst_frame3_bit14\.Q
*338 Inst_W_IO4_ConfigMem\.Inst_frame3_bit15\.Q
*339 Inst_W_IO4_ConfigMem\.Inst_frame3_bit16\.Q
*340 Inst_W_IO4_ConfigMem\.Inst_frame3_bit17\.Q
*341 Inst_W_IO4_ConfigMem\.Inst_frame3_bit18\.Q
*342 Inst_W_IO4_ConfigMem\.Inst_frame3_bit19\.Q
*343 Inst_W_IO4_ConfigMem\.Inst_frame3_bit20\.Q
*344 Inst_W_IO4_ConfigMem\.Inst_frame3_bit21\.Q
*345 Inst_W_IO4_ConfigMem\.Inst_frame3_bit22\.Q
*346 Inst_W_IO4_ConfigMem\.Inst_frame3_bit23\.Q
*347 Inst_W_IO4_ConfigMem\.Inst_frame3_bit24\.Q
*348 Inst_W_IO4_ConfigMem\.Inst_frame3_bit25\.Q
*349 Inst_W_IO4_ConfigMem\.Inst_frame3_bit26\.Q
*350 Inst_W_IO4_ConfigMem\.Inst_frame3_bit27\.Q
*351 Inst_W_IO4_ConfigMem\.Inst_frame3_bit28\.Q
*352 Inst_W_IO4_ConfigMem\.Inst_frame3_bit29\.Q
*353 Inst_W_IO4_ConfigMem\.Inst_frame3_bit30\.Q
*354 Inst_W_IO4_ConfigMem\.Inst_frame3_bit31\.Q
*355 Inst_W_IO4_ConfigMem\.Inst_frame3_bit4\.Q
*356 Inst_W_IO4_ConfigMem\.Inst_frame3_bit5\.Q
*357 Inst_W_IO4_ConfigMem\.Inst_frame3_bit6\.Q
*358 Inst_W_IO4_ConfigMem\.Inst_frame3_bit7\.Q
*359 Inst_W_IO4_ConfigMem\.Inst_frame3_bit8\.Q
*360 Inst_W_IO4_ConfigMem\.Inst_frame3_bit9\.Q
*361 Inst_W_IO4_switch_matrix\.E1BEG0
*362 Inst_W_IO4_switch_matrix\.E1BEG1
*363 Inst_W_IO4_switch_matrix\.E1BEG2
*364 Inst_W_IO4_switch_matrix\.E1BEG3
*365 Inst_W_IO4_switch_matrix\.E2BEG0
*366 Inst_W_IO4_switch_matrix\.E2BEG1
*367 Inst_W_IO4_switch_matrix\.E2BEG2
*368 Inst_W_IO4_switch_matrix\.E2BEG3
*369 Inst_W_IO4_switch_matrix\.E2BEG4
*370 Inst_W_IO4_switch_matrix\.E2BEG5
*371 Inst_W_IO4_switch_matrix\.E2BEG6
*372 Inst_W_IO4_switch_matrix\.E2BEG7
*373 Inst_W_IO4_switch_matrix\.E2BEGb0
*374 Inst_W_IO4_switch_matrix\.E2BEGb1
*375 Inst_W_IO4_switch_matrix\.E2BEGb2
*376 Inst_W_IO4_switch_matrix\.E2BEGb3
*377 Inst_W_IO4_switch_matrix\.E2BEGb4
*378 Inst_W_IO4_switch_matrix\.E2BEGb5
*379 Inst_W_IO4_switch_matrix\.E2BEGb6
*380 Inst_W_IO4_switch_matrix\.E2BEGb7
*381 Inst_W_IO4_switch_matrix\.E6BEG0
*382 Inst_W_IO4_switch_matrix\.E6BEG1
*383 Inst_W_IO4_switch_matrix\.E6BEG10
*384 Inst_W_IO4_switch_matrix\.E6BEG11
*385 Inst_W_IO4_switch_matrix\.E6BEG2
*386 Inst_W_IO4_switch_matrix\.E6BEG3
*387 Inst_W_IO4_switch_matrix\.E6BEG4
*388 Inst_W_IO4_switch_matrix\.E6BEG5
*389 Inst_W_IO4_switch_matrix\.E6BEG6
*390 Inst_W_IO4_switch_matrix\.E6BEG7
*391 Inst_W_IO4_switch_matrix\.E6BEG8
*392 Inst_W_IO4_switch_matrix\.E6BEG9
*393 Inst_W_IO4_switch_matrix\.EE4BEG0
*394 Inst_W_IO4_switch_matrix\.EE4BEG1
*395 Inst_W_IO4_switch_matrix\.EE4BEG10
*396 Inst_W_IO4_switch_matrix\.EE4BEG11
*397 Inst_W_IO4_switch_matrix\.EE4BEG12
*398 Inst_W_IO4_switch_matrix\.EE4BEG13
*399 Inst_W_IO4_switch_matrix\.EE4BEG14
*400 Inst_W_IO4_switch_matrix\.EE4BEG15
*401 Inst_W_IO4_switch_matrix\.EE4BEG2
*402 Inst_W_IO4_switch_matrix\.EE4BEG3
*403 Inst_W_IO4_switch_matrix\.EE4BEG4
*404 Inst_W_IO4_switch_matrix\.EE4BEG5
*405 Inst_W_IO4_switch_matrix\.EE4BEG6
*406 Inst_W_IO4_switch_matrix\.EE4BEG7
*407 Inst_W_IO4_switch_matrix\.EE4BEG8
*408 Inst_W_IO4_switch_matrix\.EE4BEG9
*409 UserCLK_regs
*410 _000_
*411 _001_
*412 _002_
*413 _003_
*414 _004_
*415 _005_
*416 _006_
*417 _007_
*418 _008_
*419 _009_
*420 _010_
*421 _011_
*422 _012_
*423 _013_
*424 _014_
*425 _015_
*426 _016_
*427 _017_
*428 _018_
*429 _019_
*430 _020_
*431 _021_
*432 _022_
*433 _023_
*434 _024_
*435 _025_
*436 _026_
*437 _027_
*438 _028_
*439 _029_
*440 _030_
*441 _031_
*442 _032_
*443 _033_
*444 _034_
*445 _035_
*446 _036_
*447 _037_
*448 _038_
*449 _039_
*450 _040_
*451 _041_
*452 _042_
*453 _043_
*454 _044_
*455 _045_
*456 _046_
*457 _047_
*458 _048_
*459 _049_
*460 _050_
*461 _051_
*462 _052_
*463 _053_
*464 _054_
*465 _055_
*466 _056_
*467 _057_
*468 _058_
*469 _059_
*470 _060_
*471 _061_
*472 _062_
*473 _063_
*474 clknet_0_UserCLK
*475 clknet_0_UserCLK_regs
*476 clknet_1_0__leaf_UserCLK
*477 clknet_1_0__leaf_UserCLK_regs
*478 clknet_1_1__leaf_UserCLK_regs
*479 net1
*480 net10
*481 net100
*482 net101
*483 net102
*484 net103
*485 net104
*486 net105
*487 net106
*488 net107
*489 net108
*490 net109
*491 net11
*492 net110
*493 net111
*494 net112
*495 net113
*496 net114
*497 net115
*498 net116
*499 net117
*500 net118
*501 net119
*502 net12
*503 net120
*504 net121
*505 net122
*506 net123
*507 net124
*508 net125
*509 net126
*510 net127
*511 net128
*512 net129
*513 net13
*514 net130
*515 net131
*516 net132
*517 net133
*518 net134
*519 net135
*520 net136
*521 net137
*522 net138
*523 net139
*524 net14
*525 net140
*526 net141
*527 net142
*528 net143
*529 net144
*530 net145
*531 net146
*532 net147
*533 net148
*534 net149
*535 net15
*536 net150
*537 net151
*538 net152
*539 net153
*540 net154
*541 net155
*542 net156
*543 net157
*544 net158
*545 net159
*546 net16
*547 net160
*548 net161
*549 net162
*550 net163
*551 net164
*552 net165
*553 net166
*554 net167
*555 net168
*556 net169
*557 net17
*558 net170
*559 net171
*560 net172
*561 net173
*562 net174
*563 net175
*564 net176
*565 net177
*566 net178
*567 net179
*568 net18
*569 net180
*570 net181
*571 net182
*572 net183
*573 net184
*574 net185
*575 net186
*576 net187
*577 net188
*578 net189
*579 net19
*580 net190
*581 net191
*582 net192
*583 net193
*584 net194
*585 net195
*586 net196
*587 net197
*588 net198
*589 net199
*590 net2
*591 net20
*592 net200
*593 net201
*594 net202
*595 net203
*596 net204
*597 net205
*598 net206
*599 net207
*600 net208
*601 net209
*602 net21
*603 net210
*604 net211
*605 net212
*606 net213
*607 net214
*608 net215
*609 net216
*610 net217
*611 net218
*612 net219
*613 net22
*614 net220
*615 net221
*616 net222
*617 net223
*618 net224
*619 net225
*620 net226
*621 net227
*622 net228
*623 net229
*624 net23
*625 net230
*626 net24
*627 net25
*628 net26
*629 net27
*630 net28
*631 net29
*632 net3
*633 net30
*634 net31
*635 net32
*636 net33
*637 net34
*638 net35
*639 net36
*640 net37
*641 net38
*642 net39
*643 net4
*644 net40
*645 net41
*646 net42
*647 net43
*648 net44
*649 net45
*650 net46
*651 net47
*652 net48
*653 net49
*654 net5
*655 net50
*656 net51
*657 net52
*658 net53
*659 net54
*660 net55
*661 net56
*662 net57
*663 net58
*664 net59
*665 net6
*666 net60
*667 net61
*668 net62
*669 net63
*670 net64
*671 net65
*672 net66
*673 net67
*674 net68
*675 net69
*676 net7
*677 net70
*678 net71
*679 net72
*680 net73
*681 net74
*682 net75
*683 net76
*684 net77
*685 net78
*686 net79
*687 net8
*688 net80
*689 net81
*690 net82
*691 net83
*692 net84
*693 net85
*694 net86
*695 net87
*696 net88
*697 net89
*698 net9
*699 net90
*700 net91
*701 net92
*702 net93
*703 net94
*704 net95
*705 net96
*706 net97
*707 net98
*708 net99
*709 ANTENNA_1
*710 ANTENNA_10
*711 ANTENNA_11
*712 ANTENNA_12
*713 ANTENNA_13
*714 ANTENNA_14
*715 ANTENNA_15
*716 ANTENNA_16
*717 ANTENNA_17
*718 ANTENNA_18
*719 ANTENNA_19
*720 ANTENNA_2
*721 ANTENNA_20
*722 ANTENNA_21
*723 ANTENNA_22
*724 ANTENNA_23
*725 ANTENNA_24
*726 ANTENNA_25
*727 ANTENNA_26
*728 ANTENNA_27
*729 ANTENNA_28
*730 ANTENNA_29
*731 ANTENNA_3
*732 ANTENNA_30
*733 ANTENNA_31
*734 ANTENNA_32
*735 ANTENNA_33
*736 ANTENNA_34
*737 ANTENNA_35
*738 ANTENNA_4
*739 ANTENNA_5
*740 ANTENNA_6
*741 ANTENNA_7
*742 ANTENNA_8
*743 ANTENNA_9
*744 FILLER_0_11
*745 FILLER_0_14
*746 FILLER_0_20
*747 FILLER_0_23
*748 FILLER_0_26
*749 FILLER_0_29
*750 FILLER_0_32
*751 FILLER_0_35
*752 FILLER_0_38
*753 FILLER_0_41
*754 FILLER_0_44
*755 FILLER_0_47
*756 FILLER_0_50
*757 FILLER_0_53
*758 FILLER_0_57
*759 FILLER_0_60
*760 FILLER_0_63
*761 FILLER_0_66
*762 FILLER_0_69
*763 FILLER_0_72
*764 FILLER_0_75
*765 FILLER_0_78
*766 FILLER_10_23
*767 FILLER_10_26
*768 FILLER_10_29
*769 FILLER_10_32
*770 FILLER_10_43
*771 FILLER_10_46
*772 FILLER_10_49
*773 FILLER_10_52
*774 FILLER_10_75
*775 FILLER_11_53
*776 FILLER_11_7
*777 FILLER_12_10
*778 FILLER_12_13
*779 FILLER_12_27
*780 FILLER_12_7
*781 FILLER_12_80
*782 FILLER_13_15
*783 FILLER_13_18
*784 FILLER_13_21
*785 FILLER_13_24
*786 FILLER_13_27
*787 FILLER_13_49
*788 FILLER_14_23
*789 FILLER_14_26
*790 FILLER_14_29
*791 FILLER_14_76
*792 FILLER_15_28
*793 FILLER_15_3
*794 FILLER_15_31
*795 FILLER_15_34
*796 FILLER_15_37
*797 FILLER_15_40
*798 FILLER_15_43
*799 FILLER_15_46
*800 FILLER_15_49
*801 FILLER_15_52
*802 FILLER_15_57
*803 FILLER_15_80
*804 FILLER_16_13
*805 FILLER_16_16
*806 FILLER_16_19
*807 FILLER_16_22
*808 FILLER_16_25
*809 FILLER_16_29
*810 FILLER_16_32
*811 FILLER_16_7
*812 FILLER_16_79
*813 FILLER_17_22
*814 FILLER_17_25
*815 FILLER_17_28
*816 FILLER_17_31
*817 FILLER_17_34
*818 FILLER_17_37
*819 FILLER_17_41
*820 FILLER_17_44
*821 FILLER_17_47
*822 FILLER_17_50
*823 FILLER_17_53
*824 FILLER_17_57
*825 FILLER_17_60
*826 FILLER_17_7
*827 FILLER_18_10
*828 FILLER_18_25
*829 FILLER_18_3
*830 FILLER_18_52
*831 FILLER_19_3
*832 FILLER_19_50
*833 FILLER_19_71
*834 FILLER_19_74
*835 FILLER_1_21
*836 FILLER_1_24
*837 FILLER_1_27
*838 FILLER_1_3
*839 FILLER_1_30
*840 FILLER_1_44
*841 FILLER_1_47
*842 FILLER_1_52
*843 FILLER_1_55
*844 FILLER_1_57
*845 FILLER_1_6
*846 FILLER_1_60
*847 FILLER_1_63
*848 FILLER_1_66
*849 FILLER_1_69
*850 FILLER_1_72
*851 FILLER_1_75
*852 FILLER_1_78
*853 FILLER_20_19
*854 FILLER_20_22
*855 FILLER_20_25
*856 FILLER_20_29
*857 FILLER_20_32
*858 FILLER_20_35
*859 FILLER_20_38
*860 FILLER_20_41
*861 FILLER_20_44
*862 FILLER_20_47
*863 FILLER_20_62
*864 FILLER_20_79
*865 FILLER_21_19
*866 FILLER_21_22
*867 FILLER_21_25
*868 FILLER_21_28
*869 FILLER_21_31
*870 FILLER_21_34
*871 FILLER_21_37
*872 FILLER_21_40
*873 FILLER_21_45
*874 FILLER_21_48
*875 FILLER_21_51
*876 FILLER_21_54
*877 FILLER_21_57
*878 FILLER_22_16
*879 FILLER_22_19
*880 FILLER_22_22
*881 FILLER_22_25
*882 FILLER_22_3
*883 FILLER_22_36
*884 FILLER_22_39
*885 FILLER_22_42
*886 FILLER_22_45
*887 FILLER_22_48
*888 FILLER_23_10
*889 FILLER_23_13
*890 FILLER_23_33
*891 FILLER_23_7
*892 FILLER_24_23
*893 FILLER_24_42
*894 FILLER_24_45
*895 FILLER_25_22
*896 FILLER_25_3
*897 FILLER_25_40
*898 FILLER_25_43
*899 FILLER_25_57
*900 FILLER_26_11
*901 FILLER_26_14
*902 FILLER_26_17
*903 FILLER_26_20
*904 FILLER_26_23
*905 FILLER_26_26
*906 FILLER_26_29
*907 FILLER_26_36
*908 FILLER_26_39
*909 FILLER_26_42
*910 FILLER_27_15
*911 FILLER_27_18
*912 FILLER_27_21
*913 FILLER_27_24
*914 FILLER_27_27
*915 FILLER_27_31
*916 FILLER_27_34
*917 FILLER_27_37
*918 FILLER_27_40
*919 FILLER_27_43
*920 FILLER_27_46
*921 FILLER_27_49
*922 FILLER_27_52
*923 FILLER_27_55
*924 FILLER_27_57
*925 FILLER_27_60
*926 FILLER_27_80
*927 FILLER_28_3
*928 FILLER_28_41
*929 FILLER_28_44
*930 FILLER_28_47
*931 FILLER_28_50
*932 FILLER_28_53
*933 FILLER_28_56
*934 FILLER_28_59
*935 FILLER_28_62
*936 FILLER_29_55
*937 FILLER_29_69
*938 FILLER_29_7
*939 FILLER_2_26
*940 FILLER_2_33
*941 FILLER_2_7
*942 FILLER_2_71
*943 FILLER_2_76
*944 FILLER_2_79
*945 FILLER_30_29
*946 FILLER_30_37
*947 FILLER_31_17
*948 FILLER_31_3
*949 FILLER_31_51
*950 FILLER_31_57
*951 FILLER_32_17
*952 FILLER_32_20
*953 FILLER_32_23
*954 FILLER_32_26
*955 FILLER_32_29
*956 FILLER_32_3
*957 FILLER_32_32
*958 FILLER_32_35
*959 FILLER_33_11
*960 FILLER_33_14
*961 FILLER_33_17
*962 FILLER_33_20
*963 FILLER_33_23
*964 FILLER_33_26
*965 FILLER_33_41
*966 FILLER_33_44
*967 FILLER_33_47
*968 FILLER_33_50
*969 FILLER_33_57
*970 FILLER_33_79
*971 FILLER_34_10
*972 FILLER_34_13
*973 FILLER_34_16
*974 FILLER_34_19
*975 FILLER_34_22
*976 FILLER_34_25
*977 FILLER_34_41
*978 FILLER_34_44
*979 FILLER_34_47
*980 FILLER_34_50
*981 FILLER_34_53
*982 FILLER_34_56
*983 FILLER_34_7
*984 FILLER_35_18
*985 FILLER_35_57
*986 FILLER_36_19
*987 FILLER_36_23
*988 FILLER_36_26
*989 FILLER_36_29
*990 FILLER_36_32
*991 FILLER_36_35
*992 FILLER_36_38
*993 FILLER_36_69
*994 FILLER_37_29
*995 FILLER_37_3
*996 FILLER_37_32
*997 FILLER_37_57
*998 FILLER_37_80
*999 FILLER_38_16
*1000 FILLER_38_19
*1001 FILLER_38_22
*1002 FILLER_38_25
*1003 FILLER_38_3
*1004 FILLER_38_41
*1005 FILLER_38_44
*1006 FILLER_38_47
*1007 FILLER_38_50
*1008 FILLER_38_58
*1009 FILLER_38_63
*1010 FILLER_38_66
*1011 FILLER_38_79
*1012 FILLER_39_11
*1013 FILLER_39_14
*1014 FILLER_39_17
*1015 FILLER_39_20
*1016 FILLER_39_23
*1017 FILLER_39_37
*1018 FILLER_39_40
*1019 FILLER_39_43
*1020 FILLER_39_46
*1021 FILLER_39_49
*1022 FILLER_39_55
*1023 FILLER_39_57
*1024 FILLER_39_72
*1025 FILLER_3_21
*1026 FILLER_3_24
*1027 FILLER_3_38
*1028 FILLER_3_55
*1029 FILLER_3_7
*1030 FILLER_3_79
*1031 FILLER_40_12
*1032 FILLER_40_15
*1033 FILLER_40_18
*1034 FILLER_40_21
*1035 FILLER_40_25
*1036 FILLER_40_29
*1037 FILLER_40_32
*1038 FILLER_40_35
*1039 FILLER_40_57
*1040 FILLER_40_6
*1041 FILLER_40_60
*1042 FILLER_40_63
*1043 FILLER_40_9
*1044 FILLER_41_29
*1045 FILLER_41_42
*1046 FILLER_41_45
*1047 FILLER_41_48
*1048 FILLER_41_51
*1049 FILLER_41_54
*1050 FILLER_41_7
*1051 FILLER_42_15
*1052 FILLER_42_23
*1053 FILLER_42_26
*1054 FILLER_42_29
*1055 FILLER_42_32
*1056 FILLER_42_35
*1057 FILLER_42_80
*1058 FILLER_43_15
*1059 FILLER_43_18
*1060 FILLER_43_21
*1061 FILLER_43_24
*1062 FILLER_43_27
*1063 FILLER_43_30
*1064 FILLER_43_43
*1065 FILLER_43_46
*1066 FILLER_43_49
*1067 FILLER_43_52
*1068 FILLER_43_55
*1069 FILLER_43_72
*1070 FILLER_44_18
*1071 FILLER_44_21
*1072 FILLER_44_24
*1073 FILLER_44_27
*1074 FILLER_44_29
*1075 FILLER_44_32
*1076 FILLER_44_43
*1077 FILLER_44_46
*1078 FILLER_44_49
*1079 FILLER_44_52
*1080 FILLER_44_58
*1081 FILLER_44_61
*1082 FILLER_44_64
*1083 FILLER_45_17
*1084 FILLER_45_20
*1085 FILLER_45_23
*1086 FILLER_45_3
*1087 FILLER_45_34
*1088 FILLER_45_57
*1089 FILLER_45_71
*1090 FILLER_46_13
*1091 FILLER_46_27
*1092 FILLER_46_44
*1093 FILLER_46_79
*1094 FILLER_47_27
*1095 FILLER_47_42
*1096 FILLER_47_45
*1097 FILLER_47_48
*1098 FILLER_47_51
*1099 FILLER_47_54
*1100 FILLER_47_57
*1101 FILLER_47_60
*1102 FILLER_47_63
*1103 FILLER_47_66
*1104 FILLER_47_69
*1105 FILLER_47_72
*1106 FILLER_48_11
*1107 FILLER_48_25
*1108 FILLER_48_29
*1109 FILLER_48_32
*1110 FILLER_48_35
*1111 FILLER_48_50
*1112 FILLER_48_53
*1113 FILLER_48_56
*1114 FILLER_48_59
*1115 FILLER_48_62
*1116 FILLER_48_65
*1117 FILLER_48_68
*1118 FILLER_48_71
*1119 FILLER_49_16
*1120 FILLER_49_19
*1121 FILLER_49_22
*1122 FILLER_49_25
*1123 FILLER_49_28
*1124 FILLER_49_3
*1125 FILLER_49_50
*1126 FILLER_49_53
*1127 FILLER_4_15
*1128 FILLER_4_18
*1129 FILLER_4_21
*1130 FILLER_4_24
*1131 FILLER_4_27
*1132 FILLER_4_29
*1133 FILLER_4_32
*1134 FILLER_4_36
*1135 FILLER_50_10
*1136 FILLER_50_13
*1137 FILLER_50_29
*1138 FILLER_50_32
*1139 FILLER_50_35
*1140 FILLER_50_38
*1141 FILLER_50_41
*1142 FILLER_50_68
*1143 FILLER_50_73
*1144 FILLER_51_10
*1145 FILLER_51_13
*1146 FILLER_51_16
*1147 FILLER_51_3
*1148 FILLER_51_31
*1149 FILLER_51_34
*1150 FILLER_51_48
*1151 FILLER_51_51
*1152 FILLER_51_54
*1153 FILLER_52_22
*1154 FILLER_52_25
*1155 FILLER_52_29
*1156 FILLER_52_32
*1157 FILLER_52_35
*1158 FILLER_52_48
*1159 FILLER_52_63
*1160 FILLER_52_68
*1161 FILLER_53_13
*1162 FILLER_53_28
*1163 FILLER_53_31
*1164 FILLER_53_34
*1165 FILLER_53_37
*1166 FILLER_53_40
*1167 FILLER_53_43
*1168 FILLER_53_46
*1169 FILLER_53_49
*1170 FILLER_53_52
*1171 FILLER_53_55
*1172 FILLER_53_7
*1173 FILLER_54_10
*1174 FILLER_54_13
*1175 FILLER_54_16
*1176 FILLER_54_19
*1177 FILLER_54_22
*1178 FILLER_54_25
*1179 FILLER_54_29
*1180 FILLER_54_51
*1181 FILLER_54_54
*1182 FILLER_54_57
*1183 FILLER_54_60
*1184 FILLER_54_63
*1185 FILLER_54_66
*1186 FILLER_54_7
*1187 FILLER_55_55
*1188 FILLER_55_57
*1189 FILLER_55_60
*1190 FILLER_55_63
*1191 FILLER_56_29
*1192 FILLER_56_3
*1193 FILLER_56_32
*1194 FILLER_56_35
*1195 FILLER_56_38
*1196 FILLER_56_55
*1197 FILLER_56_79
*1198 FILLER_57_10
*1199 FILLER_57_13
*1200 FILLER_57_38
*1201 FILLER_57_52
*1202 FILLER_58_10
*1203 FILLER_58_13
*1204 FILLER_58_16
*1205 FILLER_58_19
*1206 FILLER_58_22
*1207 FILLER_58_25
*1208 FILLER_58_29
*1209 FILLER_58_32
*1210 FILLER_58_7
*1211 FILLER_58_78
*1212 FILLER_59_15
*1213 FILLER_59_18
*1214 FILLER_59_21
*1215 FILLER_59_24
*1216 FILLER_59_27
*1217 FILLER_59_45
*1218 FILLER_59_48
*1219 FILLER_59_51
*1220 FILLER_59_54
*1221 FILLER_59_57
*1222 FILLER_59_60
*1223 FILLER_59_63
*1224 FILLER_5_19
*1225 FILLER_5_22
*1226 FILLER_5_40
*1227 FILLER_5_43
*1228 FILLER_5_46
*1229 FILLER_5_49
*1230 FILLER_5_52
*1231 FILLER_5_55
*1232 FILLER_5_57
*1233 FILLER_5_60
*1234 FILLER_5_63
*1235 FILLER_60_21
*1236 FILLER_60_24
*1237 FILLER_60_27
*1238 FILLER_60_29
*1239 FILLER_60_3
*1240 FILLER_60_32
*1241 FILLER_60_35
*1242 FILLER_60_53
*1243 FILLER_60_56
*1244 FILLER_61_17
*1245 FILLER_61_3
*1246 FILLER_62_11
*1247 FILLER_62_14
*1248 FILLER_62_27
*1249 FILLER_62_71
*1250 FILLER_63_10
*1251 FILLER_63_13
*1252 FILLER_63_36
*1253 FILLER_63_39
*1254 FILLER_63_42
*1255 FILLER_63_45
*1256 FILLER_63_48
*1257 FILLER_63_51
*1258 FILLER_63_7
*1259 FILLER_64_10
*1260 FILLER_64_13
*1261 FILLER_64_27
*1262 FILLER_64_29
*1263 FILLER_64_58
*1264 FILLER_64_7
*1265 FILLER_64_75
*1266 FILLER_65_15
*1267 FILLER_65_18
*1268 FILLER_65_21
*1269 FILLER_65_24
*1270 FILLER_65_27
*1271 FILLER_65_30
*1272 FILLER_65_54
*1273 FILLER_66_18
*1274 FILLER_66_21
*1275 FILLER_66_24
*1276 FILLER_66_27
*1277 FILLER_66_45
*1278 FILLER_66_75
*1279 FILLER_67_10
*1280 FILLER_67_33
*1281 FILLER_67_54
*1282 FILLER_68_19
*1283 FILLER_68_22
*1284 FILLER_68_25
*1285 FILLER_68_33
*1286 FILLER_68_46
*1287 FILLER_68_6
*1288 FILLER_68_68
*1289 FILLER_69_10
*1290 FILLER_69_13
*1291 FILLER_69_16
*1292 FILLER_69_20
*1293 FILLER_69_23
*1294 FILLER_69_26
*1295 FILLER_69_54
*1296 FILLER_69_7
*1297 FILLER_69_79
*1298 FILLER_6_11
*1299 FILLER_6_26
*1300 FILLER_6_48
*1301 FILLER_6_61
*1302 FILLER_6_64
*1303 FILLER_6_67
*1304 FILLER_6_70
*1305 FILLER_6_73
*1306 FILLER_6_76
*1307 FILLER_6_79
*1308 FILLER_70_14
*1309 FILLER_70_29
*1310 FILLER_70_32
*1311 FILLER_70_35
*1312 FILLER_70_57
*1313 FILLER_71_3
*1314 FILLER_71_80
*1315 FILLER_72_15
*1316 FILLER_72_18
*1317 FILLER_72_21
*1318 FILLER_72_24
*1319 FILLER_72_27
*1320 FILLER_72_29
*1321 FILLER_72_32
*1322 FILLER_72_35
*1323 FILLER_72_38
*1324 FILLER_72_41
*1325 FILLER_72_54
*1326 FILLER_72_7
*1327 FILLER_72_80
*1328 FILLER_73_11
*1329 FILLER_73_14
*1330 FILLER_73_17
*1331 FILLER_73_20
*1332 FILLER_73_23
*1333 FILLER_73_26
*1334 FILLER_73_29
*1335 FILLER_73_3
*1336 FILLER_73_32
*1337 FILLER_73_35
*1338 FILLER_73_39
*1339 FILLER_73_42
*1340 FILLER_73_45
*1341 FILLER_73_48
*1342 FILLER_73_51
*1343 FILLER_73_54
*1344 FILLER_73_8
*1345 FILLER_74_10
*1346 FILLER_74_26
*1347 FILLER_74_50
*1348 FILLER_74_53
*1349 FILLER_74_56
*1350 FILLER_74_59
*1351 FILLER_74_62
*1352 FILLER_74_7
*1353 FILLER_75_10
*1354 FILLER_75_13
*1355 FILLER_75_27
*1356 FILLER_75_30
*1357 FILLER_75_55
*1358 FILLER_76_10
*1359 FILLER_76_26
*1360 FILLER_76_29
*1361 FILLER_76_32
*1362 FILLER_76_45
*1363 FILLER_76_48
*1364 FILLER_76_51
*1365 FILLER_76_54
*1366 FILLER_76_7
*1367 FILLER_77_17
*1368 FILLER_77_20
*1369 FILLER_77_23
*1370 FILLER_77_26
*1371 FILLER_77_29
*1372 FILLER_77_3
*1373 FILLER_77_57
*1374 FILLER_77_60
*1375 FILLER_78_15
*1376 FILLER_78_18
*1377 FILLER_78_21
*1378 FILLER_78_24
*1379 FILLER_78_27
*1380 FILLER_78_29
*1381 FILLER_78_32
*1382 FILLER_78_35
*1383 FILLER_78_38
*1384 FILLER_78_41
*1385 FILLER_78_44
*1386 FILLER_78_57
*1387 FILLER_78_79
*1388 FILLER_79_20
*1389 FILLER_79_23
*1390 FILLER_79_26
*1391 FILLER_79_29
*1392 FILLER_79_32
*1393 FILLER_79_35
*1394 FILLER_79_38
*1395 FILLER_79_43
*1396 FILLER_79_46
*1397 FILLER_79_51
*1398 FILLER_79_54
*1399 FILLER_79_57
*1400 FILLER_79_7
*1401 FILLER_7_26
*1402 FILLER_7_41
*1403 FILLER_7_44
*1404 FILLER_7_47
*1405 FILLER_7_50
*1406 FILLER_7_53
*1407 FILLER_7_57
*1408 FILLER_7_60
*1409 FILLER_7_63
*1410 FILLER_7_7
*1411 FILLER_7_70
*1412 FILLER_7_73
*1413 FILLER_7_76
*1414 FILLER_7_79
*1415 FILLER_80_22
*1416 FILLER_80_25
*1417 FILLER_80_3
*1418 FILLER_80_32
*1419 FILLER_80_47
*1420 FILLER_80_50
*1421 FILLER_80_8
*1422 FILLER_80_80
*1423 FILLER_81_14
*1424 FILLER_81_20
*1425 FILLER_81_47
*1426 FILLER_81_50
*1427 FILLER_81_53
*1428 FILLER_81_57
*1429 FILLER_81_60
*1430 FILLER_81_63
*1431 FILLER_81_66
*1432 FILLER_81_69
*1433 FILLER_81_72
*1434 FILLER_81_78
*1435 FILLER_82_26
*1436 FILLER_82_29
*1437 FILLER_82_43
*1438 FILLER_82_46
*1439 FILLER_82_49
*1440 FILLER_82_52
*1441 FILLER_82_55
*1442 FILLER_82_59
*1443 FILLER_82_62
*1444 FILLER_82_65
*1445 FILLER_82_68
*1446 FILLER_82_7
*1447 FILLER_82_71
*1448 FILLER_82_74
*1449 FILLER_82_77
*1450 FILLER_82_80
*1451 FILLER_83_28
*1452 FILLER_83_31
*1453 FILLER_83_34
*1454 FILLER_83_69
*1455 FILLER_83_72
*1456 FILLER_83_80
*1457 FILLER_84_13
*1458 FILLER_84_16
*1459 FILLER_84_19
*1460 FILLER_84_22
*1461 FILLER_84_26
*1462 FILLER_84_29
*1463 FILLER_84_3
*1464 FILLER_84_76
*1465 FILLER_85_27
*1466 FILLER_85_3
*1467 FILLER_85_52
*1468 FILLER_85_63
*1469 FILLER_85_68
*1470 FILLER_85_78
*1471 FILLER_85_8
*1472 FILLER_86_27
*1473 FILLER_86_32
*1474 FILLER_86_44
*1475 FILLER_86_60
*1476 FILLER_86_63
*1477 FILLER_86_75
*1478 FILLER_87_40
*1479 FILLER_87_43
*1480 FILLER_87_46
*1481 FILLER_87_49
*1482 FILLER_87_57
*1483 FILLER_87_9
*1484 FILLER_88_11
*1485 FILLER_88_36
*1486 FILLER_88_41
*1487 FILLER_88_46
*1488 FILLER_88_51
*1489 FILLER_88_61
*1490 FILLER_88_66
*1491 FILLER_88_69
*1492 FILLER_88_80
*1493 FILLER_8_12
*1494 FILLER_8_15
*1495 FILLER_8_18
*1496 FILLER_8_21
*1497 FILLER_8_24
*1498 FILLER_8_27
*1499 FILLER_8_29
*1500 FILLER_8_32
*1501 FILLER_8_35
*1502 FILLER_8_38
*1503 FILLER_8_56
*1504 FILLER_8_59
*1505 FILLER_8_62
*1506 FILLER_8_65
*1507 FILLER_8_68
*1508 FILLER_8_7
*1509 FILLER_8_71
*1510 FILLER_8_74
*1511 FILLER_8_77
*1512 FILLER_8_80
*1513 FILLER_9_17
*1514 FILLER_9_20
*1515 FILLER_9_23
*1516 FILLER_9_26
*1517 FILLER_9_29
*1518 FILLER_9_3
*1519 FILLER_9_32
*1520 FILLER_9_35
*1521 FILLER_9_38
*1522 FILLER_9_41
*1523 FILLER_9_44
*1524 FILLER_9_47
*1525 FILLER_9_50
*1526 FILLER_9_53
*1527 PHY_EDGE_ROW_0_Left_89
*1528 PHY_EDGE_ROW_0_Right_0
*1529 PHY_EDGE_ROW_10_Left_99
*1530 PHY_EDGE_ROW_10_Right_10
*1531 PHY_EDGE_ROW_11_Left_100
*1532 PHY_EDGE_ROW_11_Right_11
*1533 PHY_EDGE_ROW_12_Left_101
*1534 PHY_EDGE_ROW_12_Right_12
*1535 PHY_EDGE_ROW_13_Left_102
*1536 PHY_EDGE_ROW_13_Right_13
*1537 PHY_EDGE_ROW_14_Left_103
*1538 PHY_EDGE_ROW_14_Right_14
*1539 PHY_EDGE_ROW_15_Left_104
*1540 PHY_EDGE_ROW_15_Right_15
*1541 PHY_EDGE_ROW_16_Left_105
*1542 PHY_EDGE_ROW_16_Right_16
*1543 PHY_EDGE_ROW_17_Left_106
*1544 PHY_EDGE_ROW_17_Right_17
*1545 PHY_EDGE_ROW_18_Left_107
*1546 PHY_EDGE_ROW_18_Right_18
*1547 PHY_EDGE_ROW_19_Left_108
*1548 PHY_EDGE_ROW_19_Right_19
*1549 PHY_EDGE_ROW_1_Left_90
*1550 PHY_EDGE_ROW_1_Right_1
*1551 PHY_EDGE_ROW_20_Left_109
*1552 PHY_EDGE_ROW_20_Right_20
*1553 PHY_EDGE_ROW_21_Left_110
*1554 PHY_EDGE_ROW_21_Right_21
*1555 PHY_EDGE_ROW_22_Left_111
*1556 PHY_EDGE_ROW_22_Right_22
*1557 PHY_EDGE_ROW_23_Left_112
*1558 PHY_EDGE_ROW_23_Right_23
*1559 PHY_EDGE_ROW_24_Left_113
*1560 PHY_EDGE_ROW_24_Right_24
*1561 PHY_EDGE_ROW_25_Left_114
*1562 PHY_EDGE_ROW_25_Right_25
*1563 PHY_EDGE_ROW_26_Left_115
*1564 PHY_EDGE_ROW_26_Right_26
*1565 PHY_EDGE_ROW_27_Left_116
*1566 PHY_EDGE_ROW_27_Right_27
*1567 PHY_EDGE_ROW_28_Left_117
*1568 PHY_EDGE_ROW_28_Right_28
*1569 PHY_EDGE_ROW_29_Left_118
*1570 PHY_EDGE_ROW_29_Right_29
*1571 PHY_EDGE_ROW_2_Left_91
*1572 PHY_EDGE_ROW_2_Right_2
*1573 PHY_EDGE_ROW_30_Left_119
*1574 PHY_EDGE_ROW_30_Right_30
*1575 PHY_EDGE_ROW_31_Left_120
*1576 PHY_EDGE_ROW_31_Right_31
*1577 PHY_EDGE_ROW_32_Left_121
*1578 PHY_EDGE_ROW_32_Right_32
*1579 PHY_EDGE_ROW_33_Left_122
*1580 PHY_EDGE_ROW_33_Right_33
*1581 PHY_EDGE_ROW_34_Left_123
*1582 PHY_EDGE_ROW_34_Right_34
*1583 PHY_EDGE_ROW_35_Left_124
*1584 PHY_EDGE_ROW_35_Right_35
*1585 PHY_EDGE_ROW_36_Left_125
*1586 PHY_EDGE_ROW_36_Right_36
*1587 PHY_EDGE_ROW_37_Left_126
*1588 PHY_EDGE_ROW_37_Right_37
*1589 PHY_EDGE_ROW_38_Left_127
*1590 PHY_EDGE_ROW_38_Right_38
*1591 PHY_EDGE_ROW_39_Left_128
*1592 PHY_EDGE_ROW_39_Right_39
*1593 PHY_EDGE_ROW_3_Left_92
*1594 PHY_EDGE_ROW_3_Right_3
*1595 PHY_EDGE_ROW_40_Left_129
*1596 PHY_EDGE_ROW_40_Right_40
*1597 PHY_EDGE_ROW_41_Left_130
*1598 PHY_EDGE_ROW_41_Right_41
*1599 PHY_EDGE_ROW_42_Left_131
*1600 PHY_EDGE_ROW_42_Right_42
*1601 PHY_EDGE_ROW_43_Left_132
*1602 PHY_EDGE_ROW_43_Right_43
*1603 PHY_EDGE_ROW_44_Left_133
*1604 PHY_EDGE_ROW_44_Right_44
*1605 PHY_EDGE_ROW_45_Left_134
*1606 PHY_EDGE_ROW_45_Right_45
*1607 PHY_EDGE_ROW_46_Left_135
*1608 PHY_EDGE_ROW_46_Right_46
*1609 PHY_EDGE_ROW_47_Left_136
*1610 PHY_EDGE_ROW_47_Right_47
*1611 PHY_EDGE_ROW_48_Left_137
*1612 PHY_EDGE_ROW_48_Right_48
*1613 PHY_EDGE_ROW_49_Left_138
*1614 PHY_EDGE_ROW_49_Right_49
*1615 PHY_EDGE_ROW_4_Left_93
*1616 PHY_EDGE_ROW_4_Right_4
*1617 PHY_EDGE_ROW_50_Left_139
*1618 PHY_EDGE_ROW_50_Right_50
*1619 PHY_EDGE_ROW_51_Left_140
*1620 PHY_EDGE_ROW_51_Right_51
*1621 PHY_EDGE_ROW_52_Left_141
*1622 PHY_EDGE_ROW_52_Right_52
*1623 PHY_EDGE_ROW_53_Left_142
*1624 PHY_EDGE_ROW_53_Right_53
*1625 PHY_EDGE_ROW_54_Left_143
*1626 PHY_EDGE_ROW_54_Right_54
*1627 PHY_EDGE_ROW_55_Left_144
*1628 PHY_EDGE_ROW_55_Right_55
*1629 PHY_EDGE_ROW_56_Left_145
*1630 PHY_EDGE_ROW_56_Right_56
*1631 PHY_EDGE_ROW_57_Left_146
*1632 PHY_EDGE_ROW_57_Right_57
*1633 PHY_EDGE_ROW_58_Left_147
*1634 PHY_EDGE_ROW_58_Right_58
*1635 PHY_EDGE_ROW_59_Left_148
*1636 PHY_EDGE_ROW_59_Right_59
*1637 PHY_EDGE_ROW_5_Left_94
*1638 PHY_EDGE_ROW_5_Right_5
*1639 PHY_EDGE_ROW_60_Left_149
*1640 PHY_EDGE_ROW_60_Right_60
*1641 PHY_EDGE_ROW_61_Left_150
*1642 PHY_EDGE_ROW_61_Right_61
*1643 PHY_EDGE_ROW_62_Left_151
*1644 PHY_EDGE_ROW_62_Right_62
*1645 PHY_EDGE_ROW_63_Left_152
*1646 PHY_EDGE_ROW_63_Right_63
*1647 PHY_EDGE_ROW_64_Left_153
*1648 PHY_EDGE_ROW_64_Right_64
*1649 PHY_EDGE_ROW_65_Left_154
*1650 PHY_EDGE_ROW_65_Right_65
*1651 PHY_EDGE_ROW_66_Left_155
*1652 PHY_EDGE_ROW_66_Right_66
*1653 PHY_EDGE_ROW_67_Left_156
*1654 PHY_EDGE_ROW_67_Right_67
*1655 PHY_EDGE_ROW_68_Left_157
*1656 PHY_EDGE_ROW_68_Right_68
*1657 PHY_EDGE_ROW_69_Left_158
*1658 PHY_EDGE_ROW_69_Right_69
*1659 PHY_EDGE_ROW_6_Left_95
*1660 PHY_EDGE_ROW_6_Right_6
*1661 PHY_EDGE_ROW_70_Left_159
*1662 PHY_EDGE_ROW_70_Right_70
*1663 PHY_EDGE_ROW_71_Left_160
*1664 PHY_EDGE_ROW_71_Right_71
*1665 PHY_EDGE_ROW_72_Left_161
*1666 PHY_EDGE_ROW_72_Right_72
*1667 PHY_EDGE_ROW_73_Left_162
*1668 PHY_EDGE_ROW_73_Right_73
*1669 PHY_EDGE_ROW_74_Left_163
*1670 PHY_EDGE_ROW_74_Right_74
*1671 PHY_EDGE_ROW_75_Left_164
*1672 PHY_EDGE_ROW_75_Right_75
*1673 PHY_EDGE_ROW_76_Left_165
*1674 PHY_EDGE_ROW_76_Right_76
*1675 PHY_EDGE_ROW_77_Left_166
*1676 PHY_EDGE_ROW_77_Right_77
*1677 PHY_EDGE_ROW_78_Left_167
*1678 PHY_EDGE_ROW_78_Right_78
*1679 PHY_EDGE_ROW_79_Left_168
*1680 PHY_EDGE_ROW_79_Right_79
*1681 PHY_EDGE_ROW_7_Left_96
*1682 PHY_EDGE_ROW_7_Right_7
*1683 PHY_EDGE_ROW_80_Left_169
*1684 PHY_EDGE_ROW_80_Right_80
*1685 PHY_EDGE_ROW_81_Left_170
*1686 PHY_EDGE_ROW_81_Right_81
*1687 PHY_EDGE_ROW_82_Left_171
*1688 PHY_EDGE_ROW_82_Right_82
*1689 PHY_EDGE_ROW_83_Left_172
*1690 PHY_EDGE_ROW_83_Right_83
*1691 PHY_EDGE_ROW_84_Left_173
*1692 PHY_EDGE_ROW_84_Right_84
*1693 PHY_EDGE_ROW_85_Left_174
*1694 PHY_EDGE_ROW_85_Right_85
*1695 PHY_EDGE_ROW_86_Left_175
*1696 PHY_EDGE_ROW_86_Right_86
*1697 PHY_EDGE_ROW_87_Left_176
*1698 PHY_EDGE_ROW_87_Right_87
*1699 PHY_EDGE_ROW_88_Left_177
*1700 PHY_EDGE_ROW_88_Right_88
*1701 PHY_EDGE_ROW_8_Left_97
*1702 PHY_EDGE_ROW_8_Right_8
*1703 PHY_EDGE_ROW_9_Left_98
*1704 PHY_EDGE_ROW_9_Right_9
*1705 TAP_TAPCELL_ROW_0_178
*1706 TAP_TAPCELL_ROW_0_179
*1707 TAP_TAPCELL_ROW_10_189
*1708 TAP_TAPCELL_ROW_11_190
*1709 TAP_TAPCELL_ROW_12_191
*1710 TAP_TAPCELL_ROW_13_192
*1711 TAP_TAPCELL_ROW_14_193
*1712 TAP_TAPCELL_ROW_15_194
*1713 TAP_TAPCELL_ROW_16_195
*1714 TAP_TAPCELL_ROW_17_196
*1715 TAP_TAPCELL_ROW_18_197
*1716 TAP_TAPCELL_ROW_19_198
*1717 TAP_TAPCELL_ROW_1_180
*1718 TAP_TAPCELL_ROW_20_199
*1719 TAP_TAPCELL_ROW_21_200
*1720 TAP_TAPCELL_ROW_22_201
*1721 TAP_TAPCELL_ROW_23_202
*1722 TAP_TAPCELL_ROW_24_203
*1723 TAP_TAPCELL_ROW_25_204
*1724 TAP_TAPCELL_ROW_26_205
*1725 TAP_TAPCELL_ROW_27_206
*1726 TAP_TAPCELL_ROW_28_207
*1727 TAP_TAPCELL_ROW_29_208
*1728 TAP_TAPCELL_ROW_2_181
*1729 TAP_TAPCELL_ROW_30_209
*1730 TAP_TAPCELL_ROW_31_210
*1731 TAP_TAPCELL_ROW_32_211
*1732 TAP_TAPCELL_ROW_33_212
*1733 TAP_TAPCELL_ROW_34_213
*1734 TAP_TAPCELL_ROW_35_214
*1735 TAP_TAPCELL_ROW_36_215
*1736 TAP_TAPCELL_ROW_37_216
*1737 TAP_TAPCELL_ROW_38_217
*1738 TAP_TAPCELL_ROW_39_218
*1739 TAP_TAPCELL_ROW_3_182
*1740 TAP_TAPCELL_ROW_40_219
*1741 TAP_TAPCELL_ROW_41_220
*1742 TAP_TAPCELL_ROW_42_221
*1743 TAP_TAPCELL_ROW_43_222
*1744 TAP_TAPCELL_ROW_44_223
*1745 TAP_TAPCELL_ROW_45_224
*1746 TAP_TAPCELL_ROW_46_225
*1747 TAP_TAPCELL_ROW_47_226
*1748 TAP_TAPCELL_ROW_48_227
*1749 TAP_TAPCELL_ROW_49_228
*1750 TAP_TAPCELL_ROW_4_183
*1751 TAP_TAPCELL_ROW_50_229
*1752 TAP_TAPCELL_ROW_51_230
*1753 TAP_TAPCELL_ROW_52_231
*1754 TAP_TAPCELL_ROW_53_232
*1755 TAP_TAPCELL_ROW_54_233
*1756 TAP_TAPCELL_ROW_55_234
*1757 TAP_TAPCELL_ROW_56_235
*1758 TAP_TAPCELL_ROW_57_236
*1759 TAP_TAPCELL_ROW_58_237
*1760 TAP_TAPCELL_ROW_59_238
*1761 TAP_TAPCELL_ROW_5_184
*1762 TAP_TAPCELL_ROW_60_239
*1763 TAP_TAPCELL_ROW_61_240
*1764 TAP_TAPCELL_ROW_62_241
*1765 TAP_TAPCELL_ROW_63_242
*1766 TAP_TAPCELL_ROW_64_243
*1767 TAP_TAPCELL_ROW_65_244
*1768 TAP_TAPCELL_ROW_66_245
*1769 TAP_TAPCELL_ROW_67_246
*1770 TAP_TAPCELL_ROW_68_247
*1771 TAP_TAPCELL_ROW_69_248
*1772 TAP_TAPCELL_ROW_6_185
*1773 TAP_TAPCELL_ROW_70_249
*1774 TAP_TAPCELL_ROW_71_250
*1775 TAP_TAPCELL_ROW_72_251
*1776 TAP_TAPCELL_ROW_73_252
*1777 TAP_TAPCELL_ROW_74_253
*1778 TAP_TAPCELL_ROW_75_254
*1779 TAP_TAPCELL_ROW_76_255
*1780 TAP_TAPCELL_ROW_77_256
*1781 TAP_TAPCELL_ROW_78_257
*1782 TAP_TAPCELL_ROW_79_258
*1783 TAP_TAPCELL_ROW_7_186
*1784 TAP_TAPCELL_ROW_80_259
*1785 TAP_TAPCELL_ROW_81_260
*1786 TAP_TAPCELL_ROW_82_261
*1787 TAP_TAPCELL_ROW_83_262
*1788 TAP_TAPCELL_ROW_84_263
*1789 TAP_TAPCELL_ROW_85_264
*1790 TAP_TAPCELL_ROW_86_265
*1791 TAP_TAPCELL_ROW_87_266
*1792 TAP_TAPCELL_ROW_88_267
*1793 TAP_TAPCELL_ROW_88_268
*1794 TAP_TAPCELL_ROW_8_187
*1795 TAP_TAPCELL_ROW_9_188
*1796 _064_
*1797 _065_
*1798 _066_
*1799 _067_
*1800 _068_
*1801 _069_
*1802 _070_
*1803 _071_
*1804 _072_
*1805 _073_
*1806 _074_
*1807 _075_
*1808 _076_
*1809 _077_
*1810 _078_
*1811 _079_
*1812 _080_
*1813 _081_
*1814 _082_
*1815 _083_
*1816 _084_
*1817 _085_
*1818 _086_
*1819 _087_
*1820 _088_
*1821 _089_
*1822 _090_
*1823 _091_
*1824 _092_
*1825 _093_
*1826 _094_
*1827 _095_
*1828 _096_
*1829 _097_
*1830 _098_
*1831 _099_
*1832 _100_
*1833 _101_
*1834 _102_
*1835 _103_
*1836 _104_
*1837 _105_
*1838 _106_
*1839 _107_
*1840 _108_
*1841 _109_
*1842 _110_
*1843 _111_
*1844 _112_
*1845 _113_
*1846 _114_
*1847 _115_
*1848 _116_
*1849 _117_
*1850 _118_
*1851 _119_
*1852 _120_
*1853 _121_
*1854 _122_
*1855 _123_
*1856 _124_
*1857 _125_
*1858 _126_
*1859 _127_
*1860 _128_
*1861 _129_
*1862 _130_
*1863 _131_
*1864 _132_
*1865 _133_
*1866 _134_
*1867 _135_
*1868 _136_
*1869 _137_
*1870 _138_
*1871 _139_
*1872 _140_
*1873 _141_
*1874 _142_
*1875 _143_
*1876 _144_
*1877 _145_
*1878 _146_
*1879 _147_
*1880 _148_
*1881 _149_
*1882 _150_
*1883 _151_
*1884 _152_
*1885 _153_
*1886 _154_
*1887 _155_
*1888 _156_
*1889 _157_
*1890 _158_
*1891 _159_
*1892 _160_
*1893 _161_
*1894 _162_
*1895 _163_
*1896 _164_
*1897 _165_
*1898 _166_
*1899 _167_
*1900 _168_
*1901 _169_
*1902 _170_
*1903 _171_
*1904 _172_
*1905 _173_
*1906 _174_
*1907 _175_
*1908 _176_
*1909 _177_
*1910 _178_
*1911 _179_
*1912 _180_
*1913 _181_
*1914 _182_
*1915 _183_
*1916 _184_
*1917 _185_
*1918 _186_
*1919 _187_
*1920 _188_
*1921 _189_
*1922 _190_
*1923 _191_
*1924 _192_
*1925 _193_
*1926 _194_
*1927 _195_
*1928 _196_
*1929 _197_
*1930 _198_
*1931 _199_
*1932 _200_
*1933 _201_
*1934 _202_
*1935 _203_
*1936 _204_
*1937 _205_
*1938 _206_
*1939 _207_
*1940 _208_
*1941 _209_
*1942 _210_
*1943 _211_
*1944 _212_
*1945 _213_
*1946 _214_
*1947 _215_
*1948 _216_
*1949 _217_
*1950 _218_
*1951 _219_
*1952 _220_
*1953 _221_
*1954 _222_
*1955 _223_
*1956 _224_
*1957 _225_
*1958 _226_
*1959 _227_
*1960 _228_
*1961 _229_
*1962 _230_
*1963 _231_
*1964 _232_
*1965 _233_
*1966 _234_
*1967 _235_
*1968 _236_
*1969 _237_
*1970 _238_
*1971 _239_
*1972 _240_
*1973 _241_
*1974 _242_
*1975 _243_
*1976 _244_
*1977 _245_
*1978 _246_
*1979 _247_
*1980 _248_
*1981 _249_
*1982 _250_
*1983 _251_
*1984 _252_
*1985 _253_
*1986 _254_
*1987 _255_
*1988 _256_
*1989 _257_
*1990 _258_
*1991 _259_
*1992 _260_
*1993 _261_
*1994 _262_
*1995 _263_
*1996 _264_
*1997 _265_
*1998 _266_
*1999 _267_
*2000 _268_
*2001 _269_
*2002 _270_
*2003 _271_
*2004 _272_
*2005 _273_
*2006 _274_
*2007 _275_
*2008 _276_
*2009 _277_
*2010 _278_
*2011 _279_
*2012 _280_
*2013 _281_
*2014 _282_
*2015 _283_
*2016 _284_
*2017 _285_
*2018 _286_
*2019 _287_
*2020 _288_
*2021 _289_
*2022 _290_
*2023 _291_
*2024 _292_
*2025 _293_
*2026 _294_
*2027 _295_
*2028 _296_
*2029 _297_
*2030 _298_
*2031 _299_
*2032 _300_
*2033 _301_
*2034 _302_
*2035 _303_
*2036 _304_
*2037 _305_
*2038 _306_
*2039 _307_
*2040 _308_
*2041 _309_
*2042 _310_
*2043 _311_
*2044 _312_
*2045 _313_
*2046 _314_
*2047 _315_
*2048 _316_
*2049 _317_
*2050 _318_
*2051 _319_
*2052 _320_
*2053 _321_
*2054 _322_
*2055 _323_
*2056 _324_
*2057 _325_
*2058 _326_
*2059 _327_
*2060 _328_
*2061 _329_
*2062 _330_
*2063 _331_
*2064 _332_
*2065 _333_
*2066 _334_
*2067 _335_
*2068 _336_
*2069 _337_
*2070 _338_
*2071 _339_
*2072 _340_
*2073 _341_
*2074 _342_
*2075 _343_
*2076 _344_
*2077 _345_
*2078 _346_
*2079 _347_
*2080 _348_
*2081 _349_
*2082 _350_
*2083 _351_
*2084 _352_
*2085 _353_
*2086 _354_
*2087 _355_
*2088 _356_
*2089 _357_
*2090 _358_
*2091 _359_
*2092 _360_
*2093 _361_
*2094 _362_
*2095 _363_
*2096 _364_
*2097 _365_
*2098 _366_
*2099 _367_
*2100 _368_
*2101 _369_
*2102 _370_
*2103 _371_
*2104 _372_
*2105 _373_
*2106 _374_
*2107 _375_
*2108 _376_
*2109 _377_
*2110 _378_
*2111 _379_
*2112 _380_
*2113 _381_
*2114 _382_
*2115 _383_
*2116 _384_
*2117 _385_
*2118 _386_
*2119 _387_
*2120 _388_
*2121 _389_
*2122 _390_
*2123 _391_
*2124 _392_
*2125 _393_
*2126 _394_
*2127 _395_
*2128 _396_
*2129 _397_
*2130 _398_
*2131 _399_
*2132 _400_
*2133 _401_
*2134 _402_
*2135 _403_
*2136 _404_
*2137 _405_
*2138 _406_
*2139 _407_
*2140 _408_
*2141 _409_
*2142 _410_
*2143 _411_
*2144 _412_
*2145 _413_
*2146 _414_
*2147 _415_
*2148 _416_
*2149 _417_
*2150 _418_
*2151 _419_
*2152 _420_
*2153 _421_
*2154 _422_
*2155 _423_
*2156 _424_
*2157 _425_
*2158 _426_
*2159 _427_
*2160 _428_
*2161 clkbuf_0_UserCLK
*2162 clkbuf_0_UserCLK_regs
*2163 clkbuf_1_0__f_UserCLK
*2164 clkbuf_1_0__f_UserCLK_regs
*2165 clkbuf_1_1__f_UserCLK_regs
*2166 clkbuf_regs_0_UserCLK
*2167 fanout59
*2168 fanout60
*2169 fanout61
*2170 fanout62
*2171 fanout63
*2172 fanout64
*2173 fanout65
*2174 fanout66
*2175 fanout67
*2176 fanout68
*2177 fanout69
*2178 fanout70
*2179 fanout71
*2180 fanout72
*2181 fanout73
*2182 fanout74
*2183 fanout75
*2184 fanout76
*2185 fanout77
*2186 input1
*2187 input10
*2188 input11
*2189 input12
*2190 input13
*2191 input14
*2192 input15
*2193 input16
*2194 input17
*2195 input18
*2196 input19
*2197 input2
*2198 input20
*2199 input21
*2200 input22
*2201 input23
*2202 input24
*2203 input25
*2204 input26
*2205 input27
*2206 input28
*2207 input29
*2208 input3
*2209 input30
*2210 input31
*2211 input32
*2212 input33
*2213 input34
*2214 input35
*2215 input36
*2216 input37
*2217 input38
*2218 input39
*2219 input4
*2220 input40
*2221 input41
*2222 input42
*2223 input43
*2224 input44
*2225 input45
*2226 input46
*2227 input47
*2228 input48
*2229 input49
*2230 input5
*2231 input50
*2232 input51
*2233 input52
*2234 input53
*2235 input54
*2236 input55
*2237 input56
*2238 input57
*2239 input58
*2240 input59
*2241 input6
*2242 input60
*2243 input61
*2244 input62
*2245 input63
*2246 input64
*2247 input65
*2248 input66
*2249 input67
*2250 input68
*2251 input69
*2252 input7
*2253 input70
*2254 input71
*2255 input72
*2256 input73
*2257 input74
*2258 input75
*2259 input76
*2260 input77
*2261 input78
*2262 input79
*2263 input8
*2264 input80
*2265 input81
*2266 input82
*2267 input83
*2268 input84
*2269 input85
*2270 input86
*2271 input9
*2272 output100
*2273 output101
*2274 output102
*2275 output103
*2276 output104
*2277 output105
*2278 output106
*2279 output107
*2280 output108
*2281 output109
*2282 output110
*2283 output111
*2284 output112
*2285 output113
*2286 output114
*2287 output115
*2288 output116
*2289 output117
*2290 output118
*2291 output119
*2292 output120
*2293 output121
*2294 output122
*2295 output123
*2296 output124
*2297 output125
*2298 output126
*2299 output127
*2300 output128
*2301 output129
*2302 output130
*2303 output131
*2304 output132
*2305 output133
*2306 output134
*2307 output135
*2308 output136
*2309 output137
*2310 output138
*2311 output139
*2312 output140
*2313 output141
*2314 output142
*2315 output143
*2316 output144
*2317 output145
*2318 output146
*2319 output147
*2320 output148
*2321 output149
*2322 output150
*2323 output151
*2324 output152
*2325 output153
*2326 output154
*2327 output155
*2328 output156
*2329 output157
*2330 output158
*2331 output159
*2332 output160
*2333 output161
*2334 output162
*2335 output163
*2336 output164
*2337 output165
*2338 output166
*2339 output167
*2340 output168
*2341 output169
*2342 output170
*2343 output171
*2344 output172
*2345 output173
*2346 output174
*2347 output175
*2348 output176
*2349 output177
*2350 output178
*2351 output179
*2352 output180
*2353 output181
*2354 output182
*2355 output183
*2356 output184
*2357 output185
*2358 output186
*2359 output187
*2360 output188
*2361 output189
*2362 output190
*2363 output191
*2364 output192
*2365 output193
*2366 output194
*2367 output195
*2368 output196
*2369 output197
*2370 output198
*2371 output199
*2372 output200
*2373 output201
*2374 output202
*2375 output203
*2376 output204
*2377 output205
*2378 output206
*2379 output207
*2380 output208
*2381 output209
*2382 output210
*2383 output211
*2384 output87
*2385 output88
*2386 output89
*2387 output90
*2388 output91
*2389 output92
*2390 output93
*2391 output94
*2392 output95
*2393 output96
*2394 output97
*2395 output98
*2396 output99

*PORTS
A_I_top O
A_O_top I
A_T_top O
A_config_C_bit0 O
A_config_C_bit1 O
A_config_C_bit2 O
A_config_C_bit3 O
B_I_top O
B_O_top I
B_T_top O
B_config_C_bit0 O
B_config_C_bit1 O
B_config_C_bit2 O
B_config_C_bit3 O
C_I_top O
C_O_top I
C_T_top O
C_config_C_bit0 O
C_config_C_bit1 O
C_config_C_bit2 O
C_config_C_bit3 O
D_I_top O
D_O_top I
D_T_top O
D_config_C_bit0 O
D_config_C_bit1 O
D_config_C_bit2 O
D_config_C_bit3 O
E1BEG[0] O
E1BEG[1] O
E1BEG[2] O
E1BEG[3] O
E2BEG[0] O
E2BEG[1] O
E2BEG[2] O
E2BEG[3] O
E2BEG[4] O
E2BEG[5] O
E2BEG[6] O
E2BEG[7] O
E2BEGb[0] O
E2BEGb[1] O
E2BEGb[2] O
E2BEGb[3] O
E2BEGb[4] O
E2BEGb[5] O
E2BEGb[6] O
E2BEGb[7] O
E6BEG[0] O
E6BEG[10] O
E6BEG[11] O
E6BEG[1] O
E6BEG[2] O
E6BEG[3] O
E6BEG[4] O
E6BEG[5] O
E6BEG[6] O
E6BEG[7] O
E6BEG[8] O
E6BEG[9] O
EE4BEG[0] O
EE4BEG[10] O
EE4BEG[11] O
EE4BEG[12] O
EE4BEG[13] O
EE4BEG[14] O
EE4BEG[15] O
EE4BEG[1] O
EE4BEG[2] O
EE4BEG[3] O
EE4BEG[4] O
EE4BEG[5] O
EE4BEG[6] O
EE4BEG[7] O
EE4BEG[8] O
EE4BEG[9] O
FrameData[0] I
FrameData[10] I
FrameData[11] I
FrameData[12] I
FrameData[13] I
FrameData[14] I
FrameData[15] I
FrameData[16] I
FrameData[17] I
FrameData[18] I
FrameData[19] I
FrameData[1] I
FrameData[20] I
FrameData[21] I
FrameData[22] I
FrameData[23] I
FrameData[24] I
FrameData[25] I
FrameData[26] I
FrameData[27] I
FrameData[28] I
FrameData[29] I
FrameData[2] I
FrameData[30] I
FrameData[31] I
FrameData[3] I
FrameData[4] I
FrameData[5] I
FrameData[6] I
FrameData[7] I
FrameData[8] I
FrameData[9] I
FrameData_O[0] O
FrameData_O[10] O
FrameData_O[11] O
FrameData_O[12] O
FrameData_O[13] O
FrameData_O[14] O
FrameData_O[15] O
FrameData_O[16] O
FrameData_O[17] O
FrameData_O[18] O
FrameData_O[19] O
FrameData_O[1] O
FrameData_O[20] O
FrameData_O[21] O
FrameData_O[22] O
FrameData_O[23] O
FrameData_O[24] O
FrameData_O[25] O
FrameData_O[26] O
FrameData_O[27] O
FrameData_O[28] O
FrameData_O[29] O
FrameData_O[2] O
FrameData_O[30] O
FrameData_O[31] O
FrameData_O[3] O
FrameData_O[4] O
FrameData_O[5] O
FrameData_O[6] O
FrameData_O[7] O
FrameData_O[8] O
FrameData_O[9] O
FrameStrobe[0] I
FrameStrobe[10] I
FrameStrobe[11] I
FrameStrobe[12] I
FrameStrobe[13] I
FrameStrobe[14] I
FrameStrobe[15] I
FrameStrobe[16] I
FrameStrobe[17] I
FrameStrobe[18] I
FrameStrobe[19] I
FrameStrobe[1] I
FrameStrobe[2] I
FrameStrobe[3] I
FrameStrobe[4] I
FrameStrobe[5] I
FrameStrobe[6] I
FrameStrobe[7] I
FrameStrobe[8] I
FrameStrobe[9] I
FrameStrobe_O[0] O
FrameStrobe_O[10] O
FrameStrobe_O[11] O
FrameStrobe_O[12] O
FrameStrobe_O[13] O
FrameStrobe_O[14] O
FrameStrobe_O[15] O
FrameStrobe_O[16] O
FrameStrobe_O[17] O
FrameStrobe_O[18] O
FrameStrobe_O[19] O
FrameStrobe_O[1] O
FrameStrobe_O[2] O
FrameStrobe_O[3] O
FrameStrobe_O[4] O
FrameStrobe_O[5] O
FrameStrobe_O[6] O
FrameStrobe_O[7] O
FrameStrobe_O[8] O
FrameStrobe_O[9] O
UserCLK I
UserCLKo O
W1END[0] I
W1END[1] I
W1END[2] I
W1END[3] I
W2END[0] I
W2END[1] I
W2END[2] I
W2END[3] I
W2END[4] I
W2END[5] I
W2END[6] I
W2END[7] I
W2MID[0] I
W2MID[1] I
W2MID[2] I
W2MID[3] I
W2MID[4] I
W2MID[5] I
W2MID[6] I
W2MID[7] I
W6END[0] I
W6END[10] I
W6END[11] I
W6END[1] I
W6END[2] I
W6END[3] I
W6END[4] I
W6END[5] I
W6END[6] I
W6END[7] I
W6END[8] I
W6END[9] I
WW4END[0] I
WW4END[10] I
WW4END[11] I
WW4END[12] I
WW4END[13] I
WW4END[14] I
WW4END[15] I
WW4END[1] I
WW4END[2] I
WW4END[3] I
WW4END[4] I
WW4END[5] I
WW4END[6] I
WW4END[7] I
WW4END[8] I
WW4END[9] I

*D_NET *1 0.00105253
*CONN
*P A_I_top O
*I *2384:X O *D sky130_fd_sc_hd__buf_2
*CAP
1 A_I_top 0.00045715
2 *2384:X 0.00045715
3 A_I_top A_T_top 0
4 A_I_top *2186:A 0
5 A_I_top *154:41 3.18871e-05
6 A_I_top *158:23 0
7 A_I_top *640:24 0.000106344
*RES
1 *2384:X A_I_top 6.2949 
*END

*D_NET *2 0.00092837
*CONN
*P A_O_top I
*I *2186:A I *D sky130_fd_sc_hd__buf_2
*CAP
1 A_O_top 0.000361021
2 *2186:A 0.000361021
3 *2186:A *153:39 2.34635e-05
4 *2186:A *154:41 3.34633e-05
5 *2186:A *158:23 0.000149402
6 A_I_top *2186:A 0
*RES
1 A_O_top *2186:A 5.72663 
*END

*D_NET *3 0.000833049
*CONN
*P A_T_top O
*I *2385:X O *D sky130_fd_sc_hd__buf_2
*CAP
1 A_T_top 0.00040401
2 *2385:X 0.00040401
3 A_T_top *2197:A 0
4 A_T_top *583:28 6.16226e-06
5 A_T_top *640:24 1.88656e-05
6 A_I_top A_T_top 0
*RES
1 *2385:X A_T_top 5.2749 
*END

*D_NET *4 0.0012108
*CONN
*P A_config_C_bit0 O
*I *2386:X O *D sky130_fd_sc_hd__buf_2
*CAP
1 A_config_C_bit0 0.000564597
2 *2386:X 0.000564597
3 A_config_C_bit0 A_config_C_bit1 0
4 A_config_C_bit0 D_T_top 0
5 A_config_C_bit0 *2273:A 2.09442e-05
6 A_config_C_bit0 *2393:A 6.06593e-05
*RES
1 *2386:X A_config_C_bit0 5.7849 
*END

*D_NET *5 0.00241865
*CONN
*P A_config_C_bit1 O
*I *2387:X O *D sky130_fd_sc_hd__buf_2
*CAP
1 A_config_C_bit1 0.000788284
2 *2387:X 0.000788284
3 A_config_C_bit1 A_config_C_bit2 0
4 A_config_C_bit1 *1925:D 4.89295e-05
5 A_config_C_bit1 *2273:A 0.000127062
6 A_config_C_bit1 *2387:A 8.23457e-05
7 A_config_C_bit1 *557:58 9.76308e-05
8 A_config_C_bit1 *587:16 0.000486111
9 A_config_C_bit0 A_config_C_bit1 0
*RES
1 *2387:X A_config_C_bit1 12.0734 
*END

*D_NET *6 0.00208002
*CONN
*P A_config_C_bit2 O
*I *2388:X O *D sky130_fd_sc_hd__buf_2
*CAP
1 A_config_C_bit2 0.000945502
2 *2388:X 0.000945502
3 A_config_C_bit2 A_config_C_bit3 0
4 A_config_C_bit2 *1926:D 9.38327e-05
5 A_config_C_bit2 *2274:A 1.88656e-05
6 A_config_C_bit2 *2393:A 1.7635e-05
7 A_config_C_bit2 *2395:A 1.11766e-05
8 A_config_C_bit2 *157:31 3.06224e-05
9 A_config_C_bit2 *505:22 1.68871e-05
10 A_config_C_bit1 A_config_C_bit2 0
*RES
1 *2388:X A_config_C_bit2 9.5199 
*END

*D_NET *7 0.00158255
*CONN
*P A_config_C_bit3 O
*I *2389:X O *D sky130_fd_sc_hd__buf_2
*CAP
1 A_config_C_bit3 0.000420147
2 *2389:X 0.000420147
3 A_config_C_bit3 B_config_C_bit0 0
4 A_config_C_bit3 *2326:A 0.000286302
5 A_config_C_bit3 *2393:A 0.000100765
6 A_config_C_bit3 *157:31 0.000355186
7 A_config_C_bit2 A_config_C_bit3 0
*RES
1 *2389:X A_config_C_bit3 6.2949 
*END

*D_NET *8 0.00101506
*CONN
*P B_I_top O
*I *2390:X O *D sky130_fd_sc_hd__buf_2
*CAP
1 B_I_top 0.000351349
2 *2390:X 0.000351349
3 B_I_top B_T_top 0
4 B_I_top *2197:A 0
5 B_I_top *181:21 0.000274626
6 B_I_top *557:104 1.88656e-05
7 B_I_top *640:24 1.88656e-05
*RES
1 *2390:X B_I_top 5.2749 
*END

*D_NET *9 0.00212057
*CONN
*P B_O_top I
*I *2197:A I *D sky130_fd_sc_hd__buf_2
*CAP
1 B_O_top 0.000790754
2 *2197:A 0.000790754
3 *2197:A *1917:D 0.000347699
4 *2197:A *181:21 0
5 *2197:A *568:122 0.000170867
6 *2197:A *666:145 2.04976e-05
7 A_T_top *2197:A 0
8 B_I_top *2197:A 0
*RES
1 B_O_top *2197:A 7.70083 
*END

*D_NET *10 0.00103018
*CONN
*P B_T_top O
*I *2391:X O *D sky130_fd_sc_hd__buf_2
*CAP
1 B_T_top 0.000404436
2 *2391:X 0.000404436
3 B_T_top *2208:A 0
4 B_T_top *181:21 0.00014143
5 B_T_top *557:104 3.99395e-05
6 B_T_top *640:24 3.99395e-05
7 B_I_top B_T_top 0
*RES
1 *2391:X B_T_top 5.5299 
*END

*D_NET *11 0.00128783
*CONN
*P B_config_C_bit0 O
*I *2392:X O *D sky130_fd_sc_hd__buf_2
*CAP
1 B_config_C_bit0 0.000559648
2 *2392:X 0.000559648
3 B_config_C_bit0 B_config_C_bit1 0
4 B_config_C_bit0 *2326:A 0.000130807
5 B_config_C_bit0 *2393:A 1.88656e-05
6 B_config_C_bit0 *2394:A 1.88656e-05
7 A_config_C_bit3 B_config_C_bit0 0
*RES
1 *2392:X B_config_C_bit0 5.33317 
*END

*D_NET *12 0.00177122
*CONN
*P B_config_C_bit1 O
*I *2393:X O *D sky130_fd_sc_hd__buf_2
*CAP
1 B_config_C_bit1 0.000787078
2 *2393:X 0.000787078
3 B_config_C_bit1 B_config_C_bit2 0
4 B_config_C_bit1 *1912:A0 0
5 B_config_C_bit1 *1953:D 2.25371e-05
6 B_config_C_bit1 *2326:A 0
7 B_config_C_bit1 *639:58 0.000174531
8 B_config_C_bit0 B_config_C_bit1 0
*RES
1 *2393:X B_config_C_bit1 6.58623 
*END

*D_NET *13 0.00136866
*CONN
*P B_config_C_bit2 O
*I *2394:X O *D sky130_fd_sc_hd__buf_2
*CAP
1 B_config_C_bit2 0.00062399
2 *2394:X 0.00062399
3 B_config_C_bit2 B_config_C_bit3 0
4 B_config_C_bit2 *672:190 6.03407e-05
5 B_config_C_bit2 *684:130 6.03407e-05
6 B_config_C_bit1 B_config_C_bit2 0
*RES
1 *2394:X B_config_C_bit2 5.7849 
*END

*D_NET *14 0.0014632
*CONN
*P B_config_C_bit3 O
*I *2395:X O *D sky130_fd_sc_hd__buf_2
*CAP
1 B_config_C_bit3 0.000604612
2 *2395:X 0.000604612
3 B_config_C_bit3 C_config_C_bit0 0
4 B_config_C_bit3 *2395:A 2.85535e-05
5 B_config_C_bit3 *582:40 1.913e-05
6 B_config_C_bit3 *672:190 0.000102309
7 B_config_C_bit3 *684:130 0.000103983
8 B_config_C_bit2 B_config_C_bit3 0
*RES
1 *2395:X B_config_C_bit3 6.2949 
*END

*D_NET *15 0.00123694
*CONN
*P C_I_top O
*I *2396:X O *D sky130_fd_sc_hd__buf_2
*CAP
1 C_I_top 0.000432763
2 *2396:X 0.000432763
3 C_I_top C_T_top 0
4 C_I_top *2208:A 0
5 C_I_top *2273:A 7.23533e-05
6 C_I_top *2391:A 1.69185e-05
7 C_I_top *154:41 5.78926e-05
8 C_I_top *157:31 0.000104843
9 C_I_top *490:16 1.49438e-05
10 C_I_top *640:24 0.000104463
*RES
1 *2396:X C_I_top 6.2949 
*END

*D_NET *16 0.00119216
*CONN
*P C_O_top I
*I *2208:A I *D sky130_fd_sc_hd__buf_2
*CAP
1 C_O_top 0.000416746
2 *2208:A 0.000416746
3 *2208:A *2391:A 0.000102614
4 *2208:A *154:41 6.75171e-06
5 *2208:A *490:16 0.000129898
6 *2208:A *557:104 9.50342e-06
7 *2208:A *640:24 0.0001099
8 B_T_top *2208:A 0
9 C_I_top *2208:A 0
*RES
1 C_O_top *2208:A 6.49163 
*END

*D_NET *17 0.00139848
*CONN
*P C_T_top O
*I *2272:X O *D sky130_fd_sc_hd__buf_2
*CAP
1 C_T_top 0.000444391
2 *2272:X 0.000444391
3 C_T_top *2219:A 0
4 C_T_top *152:15 0.00010467
5 C_T_top *157:31 1.92475e-06
6 C_T_top *590:14 0.000106344
7 C_T_top *640:24 0.000296755
8 C_I_top C_T_top 0
*RES
1 *2272:X C_T_top 8.69377 
*END

*D_NET *18 0.00148282
*CONN
*P C_config_C_bit0 O
*I *2273:X O *D sky130_fd_sc_hd__buf_2
*CAP
1 C_config_C_bit0 0.000448307
2 *2273:X 0.000448307
3 C_config_C_bit0 *2274:A 7.9642e-06
4 C_config_C_bit0 *2395:A 6.85149e-05
5 C_config_C_bit0 *154:85 0.000329337
6 C_config_C_bit0 *156:51 0.000123317
7 C_config_C_bit0 *582:40 3.3846e-05
8 C_config_C_bit0 *587:44 1.88656e-05
9 C_config_C_bit0 *684:130 4.36573e-06
10 B_config_C_bit3 C_config_C_bit0 0
*RES
1 *2273:X C_config_C_bit0 5.33317 
*END

*D_NET *19 0.00230305
*CONN
*P C_config_C_bit1 O
*I *2274:X O *D sky130_fd_sc_hd__buf_2
*CAP
1 C_config_C_bit1 0.00066025
2 *2274:X 0.00066025
3 C_config_C_bit1 C_config_C_bit2 0.000208848
4 C_config_C_bit1 *718:DIODE 3.7184e-05
5 C_config_C_bit1 *1876:A2 6.31505e-05
6 C_config_C_bit1 *2274:A 6.33103e-05
7 C_config_C_bit1 *156:51 6.57331e-05
8 C_config_C_bit1 *157:53 3.34652e-05
9 C_config_C_bit1 *505:22 2.81365e-05
10 C_config_C_bit1 *638:18 0.000308345
11 C_config_C_bit1 *672:152 0.000174377
*RES
1 *2274:X C_config_C_bit1 11.8536 
*END

*D_NET *20 0.00148239
*CONN
*P C_config_C_bit2 O
*I *2275:X O *D sky130_fd_sc_hd__buf_2
*CAP
1 C_config_C_bit2 0.000595501
2 *2275:X 0.000595501
3 C_config_C_bit2 *718:DIODE 4.73958e-05
4 C_config_C_bit2 *1876:A2 1.7635e-05
5 C_config_C_bit2 *631:112 1.75082e-05
6 C_config_C_bit1 C_config_C_bit2 0.000208848
*RES
1 *2275:X C_config_C_bit2 6.87183 
*END

*D_NET *21 0.00138823
*CONN
*P C_config_C_bit3 O
*I *2276:X O *D sky130_fd_sc_hd__buf_2
*CAP
1 C_config_C_bit3 0.000538798
2 *2276:X 0.000538798
3 C_config_C_bit3 *718:DIODE 0
4 C_config_C_bit3 *568:112 1.88656e-05
5 C_config_C_bit3 *586:44 0.000117678
6 C_config_C_bit3 *616:44 1.13802e-05
7 C_config_C_bit3 *631:112 0.000143849
8 C_config_C_bit3 *684:130 1.88656e-05
*RES
1 *2276:X C_config_C_bit3 5.2749 
*END

*D_NET *22 0.0013196
*CONN
*P D_I_top O
*I *2277:X O *D sky130_fd_sc_hd__buf_2
*CAP
1 D_I_top 0.000469662
2 *2277:X 0.000469662
3 D_I_top D_T_top 0
4 D_I_top *2219:A 0
5 D_I_top *2273:A 8.3739e-05
6 D_I_top *2393:A 8.3739e-05
7 D_I_top *154:41 7.58228e-05
8 D_I_top *160:85 0.000136977
*RES
1 *2277:X D_I_top 6.0399 
*END

*D_NET *23 0.00167131
*CONN
*P D_O_top I
*I *2219:A I *D sky130_fd_sc_hd__clkbuf_2
*CAP
1 D_O_top 0.000563866
2 *2219:A 0.000563866
3 *2219:A *2386:A 0.00012372
4 *2219:A *157:31 0
5 *2219:A *160:85 8.03823e-06
6 *2219:A *479:30 0.000289878
7 *2219:A *557:104 0.000121945
8 C_T_top *2219:A 0
9 D_I_top *2219:A 0
*RES
1 D_O_top *2219:A 6.78297 
*END

*D_NET *24 0.00121875
*CONN
*P D_T_top O
*I *2278:X O *D sky130_fd_sc_hd__buf_2
*CAP
1 D_T_top 0.000550972
2 *2278:X 0.000550972
3 D_T_top *2273:A 1.92979e-05
4 D_T_top *2393:A 1.92979e-05
5 D_T_top *586:44 7.82121e-05
6 A_config_C_bit0 D_T_top 0
7 D_I_top D_T_top 0
*RES
1 *2278:X D_T_top 5.2749 
*END

*D_NET *25 0.00243832
*CONN
*P D_config_C_bit0 O
*I *2279:X O *D sky130_fd_sc_hd__buf_2
*CAP
1 D_config_C_bit0 0.000859793
2 *2279:X 0.000859793
3 D_config_C_bit0 *1880:S0 9.32049e-06
4 D_config_C_bit0 *2016:GATE 1.88656e-05
5 D_config_C_bit0 *2279:A 2.20014e-05
6 D_config_C_bit0 *154:85 8.09329e-05
7 D_config_C_bit0 *158:23 7.33639e-05
8 D_config_C_bit0 *544:46 0.000338105
9 D_config_C_bit0 *586:44 8.74147e-05
10 D_config_C_bit0 *587:44 3.59531e-06
11 D_config_C_bit0 *613:107 2.68464e-05
12 D_config_C_bit0 *613:138 2.16916e-05
13 D_config_C_bit0 *616:44 3.65956e-05
*RES
1 *2279:X D_config_C_bit0 9.8649 
*END

*D_NET *26 0.00247528
*CONN
*P D_config_C_bit1 O
*I *2280:X O *D sky130_fd_sc_hd__buf_2
*CAP
1 D_config_C_bit1 0.000729208
2 *2280:X 0.000729208
3 D_config_C_bit1 D_config_C_bit2 1.88656e-05
4 D_config_C_bit1 *718:DIODE 1.81196e-05
5 D_config_C_bit1 *2279:A 8.54145e-05
6 D_config_C_bit1 *2326:A 0.000102774
7 D_config_C_bit1 *154:85 2.46835e-05
8 D_config_C_bit1 *544:46 7.88728e-05
9 D_config_C_bit1 *591:102 0.000372993
10 D_config_C_bit1 *602:123 8.67922e-05
11 D_config_C_bit1 *613:107 9.825e-05
12 D_config_C_bit1 *680:10 7.78921e-05
13 D_config_C_bit1 *680:46 5.22105e-05
*RES
1 *2280:X D_config_C_bit1 9.87817 
*END

*D_NET *27 0.00142528
*CONN
*P D_config_C_bit2 O
*I *2281:X O *D sky130_fd_sc_hd__buf_2
*CAP
1 D_config_C_bit2 0.000504339
2 *2281:X 0.000504339
3 D_config_C_bit2 *160:85 1.19128e-05
4 D_config_C_bit2 *627:106 0.000156876
5 D_config_C_bit2 *644:52 2.90597e-06
6 D_config_C_bit2 *672:148 0.000207178
7 D_config_C_bit2 *680:46 1.88656e-05
8 D_config_C_bit1 D_config_C_bit2 1.88656e-05
*RES
1 *2281:X D_config_C_bit2 5.2749 
*END

*D_NET *28 0.00203597
*CONN
*P D_config_C_bit3 O
*I *2282:X O *D sky130_fd_sc_hd__buf_2
*CAP
1 D_config_C_bit3 0.000494295
2 *2282:X 0.000494295
3 D_config_C_bit3 *2230:A 6.71803e-06
4 D_config_C_bit3 *2279:A 9.73612e-05
5 D_config_C_bit3 *160:85 0.000386104
6 D_config_C_bit3 *637:46 0.000385428
7 D_config_C_bit3 *654:20 4.76093e-05
8 D_config_C_bit3 *672:148 3.71593e-05
9 D_config_C_bit3 *680:46 8.7002e-05
*RES
1 *2282:X D_config_C_bit3 6.80317 
*END

*D_NET *29 0.00385459
*CONN
*P E1BEG[0] O
*I *2283:X O *D sky130_fd_sc_hd__buf_2
*CAP
1 E1BEG[0] 0.00104744
2 *2283:X 0.00104744
3 E1BEG[0] E1BEG[1] 0.000142045
4 E1BEG[0] *2243:A 0.000173235
5 E1BEG[0] *146:67 0.000363114
6 E1BEG[0] *514:94 3.92756e-05
7 E1BEG[0] *653:172 0.000298248
8 E1BEG[0] *685:22 0.0001925
9 E1BEG[0] *698:129 7.90397e-05
10 E1BEG[0] *699:66 0.000472251
*RES
1 *2283:X E1BEG[0] 14.1382 
*END

*D_NET *30 0.00359708
*CONN
*P E1BEG[1] O
*I *2284:X O *D sky130_fd_sc_hd__buf_2
*CAP
1 E1BEG[1] 0.000983588
2 *2284:X 0.000983588
3 E1BEG[1] E1BEG[2] 0.000220888
4 E1BEG[1] *1905:S0 2.25119e-05
5 E1BEG[1] *2284:A 2.74512e-05
6 E1BEG[1] *2287:A 4.66108e-05
7 E1BEG[1] *2293:A 0.000130412
8 E1BEG[1] *146:67 0.000112007
9 E1BEG[1] *514:94 1.06015e-05
10 E1BEG[1] *525:32 0
11 E1BEG[1] *594:48 0.000170947
12 E1BEG[1] *650:236 3.82741e-05
13 E1BEG[1] *653:172 0.000294938
14 E1BEG[1] *696:26 0.000313509
15 E1BEG[1] *697:62 1.7635e-05
16 E1BEG[1] *698:129 0
17 E1BEG[1] *704:70 8.20723e-05
18 E1BEG[0] E1BEG[1] 0.000142045
*RES
1 *2284:X E1BEG[1] 12.6116 
*END

*D_NET *31 0.00262865
*CONN
*P E1BEG[2] O
*I *2285:X O *D sky130_fd_sc_hd__buf_2
*CAP
1 E1BEG[2] 0.000652404
2 *2285:X 0.000652404
3 E1BEG[2] E1BEG[3] 3.96243e-05
4 E1BEG[2] *2079:A 0
5 E1BEG[2] *2243:A 0.000153816
6 E1BEG[2] *146:67 0.000112007
7 E1BEG[2] *148:51 5.66315e-05
8 E1BEG[2] *524:142 0.000590845
9 E1BEG[2] *594:48 9.23627e-05
10 E1BEG[2] *650:236 5.76649e-05
11 E1BEG[1] E1BEG[2] 0.000220888
*RES
1 *2285:X E1BEG[2] 7.6651 
*END

*D_NET *32 0.00164603
*CONN
*P E1BEG[3] O
*I *2286:X O *D sky130_fd_sc_hd__buf_2
*CAP
1 E1BEG[3] 0.000408773
2 *2286:X 0.000408773
3 E1BEG[3] E2BEG[0] 5.10297e-05
4 E1BEG[3] *2243:A 8.23457e-05
5 E1BEG[3] *144:75 1.79483e-05
6 E1BEG[3] *151:33 1.79483e-05
7 E1BEG[3] *524:142 0.000254056
8 E1BEG[3] *594:48 0.000134118
9 E1BEG[3] *647:189 8.37079e-06
10 E1BEG[3] *651:209 4.2145e-05
11 E1BEG[3] *696:26 0.000180899
12 E1BEG[2] E1BEG[3] 3.96243e-05
*RES
1 *2286:X E1BEG[3] 8.07703 
*END

*D_NET *33 0.00342334
*CONN
*P E2BEG[0] O
*I *2287:X O *D sky130_fd_sc_hd__buf_2
*CAP
1 E2BEG[0] 0.000599223
2 *2287:X 0.000599223
3 E2BEG[0] E2BEG[1] 2.39315e-05
4 E2BEG[0] *2242:A 0.000143441
5 E2BEG[0] *2243:A 1.68627e-05
6 E2BEG[0] *2251:A 0.000116165
7 E2BEG[0] *2293:A 0.000328771
8 E2BEG[0] *2300:A 0.00064224
9 E2BEG[0] *142:57 0.000431291
10 E2BEG[0] *637:67 8.35106e-05
11 E2BEG[0] *651:209 3.92756e-05
12 E2BEG[0] *696:26 0.000348379
13 E1BEG[3] E2BEG[0] 5.10297e-05
*RES
1 *2287:X E2BEG[0] 13.6034 
*END

*D_NET *34 0.00193317
*CONN
*P E2BEG[1] O
*I *2288:X O *D sky130_fd_sc_hd__buf_2
*CAP
1 E2BEG[1] 0.000327611
2 *2288:X 0.000327611
3 E2BEG[1] E2BEG[2] 9.70935e-05
4 E2BEG[1] *2290:A 4.09663e-05
5 E2BEG[1] *2295:A 4.00949e-05
6 E2BEG[1] *142:57 0.000158585
7 E2BEG[1] *146:89 3.82728e-05
8 E2BEG[1] *148:89 0.000371788
9 E2BEG[1] *149:75 2.72392e-05
10 E2BEG[1] *645:64 0.000479978
11 E2BEG[0] E2BEG[1] 2.39315e-05
*RES
1 *2288:X E2BEG[1] 9.88223 
*END

*D_NET *35 0.00246723
*CONN
*P E2BEG[2] O
*I *2289:X O *D sky130_fd_sc_hd__buf_2
*CAP
1 E2BEG[2] 0.000708296
2 *2289:X 0.000708296
3 E2BEG[2] E2BEG[3] 0.000185368
4 E2BEG[2] *2291:A 1.91597e-05
5 E2BEG[2] *2293:A 1.91495e-05
6 E2BEG[2] *142:57 0.000134465
7 E2BEG[2] *147:75 0.000155601
8 E2BEG[2] *642:38 0.0003166
9 E2BEG[2] *659:175 2.39856e-05
10 E2BEG[2] *698:129 9.92175e-05
11 E2BEG[1] E2BEG[2] 9.70935e-05
*RES
1 *2289:X E2BEG[2] 8.87317 
*END

*D_NET *36 0.00167402
*CONN
*P E2BEG[3] O
*I *2290:X O *D sky130_fd_sc_hd__buf_2
*CAP
1 E2BEG[3] 0.000429737
2 *2290:X 0.000429737
3 E2BEG[3] E2BEG[4] 0.000151882
4 E2BEG[3] E2BEG[5] 5.23182e-06
5 E2BEG[3] *2293:A 5.78621e-05
6 E2BEG[3] *144:75 3.92756e-05
7 E2BEG[3] *481:88 2.36687e-05
8 E2BEG[3] *642:38 0.000277894
9 E2BEG[3] *665:83 7.33639e-05
10 E2BEG[2] E2BEG[3] 0.000185368
*RES
1 *2290:X E2BEG[3] 5.7849 
*END

*D_NET *37 0.00178377
*CONN
*P E2BEG[4] O
*I *2291:X O *D sky130_fd_sc_hd__buf_2
*CAP
1 E2BEG[4] 0.000418849
2 *2291:X 0.000418849
3 E2BEG[4] E2BEG[5] 0.000162741
4 E2BEG[4] E2BEG[6] 0.000191335
5 E2BEG[4] *2285:A 1.7635e-05
6 E2BEG[4] *144:75 2.22315e-05
7 E2BEG[4] *659:175 0.00038136
8 E2BEG[4] *691:16 1.88904e-05
9 E2BEG[3] E2BEG[4] 0.000151882
*RES
1 *2291:X E2BEG[4] 8.4803 
*END

*D_NET *38 0.0021336
*CONN
*P E2BEG[5] O
*I *2292:X O *D sky130_fd_sc_hd__buf_2
*CAP
1 E2BEG[5] 0.000556576
2 *2292:X 0.000556576
3 E2BEG[5] E2BEG[6] 0.000477304
4 E2BEG[5] E2BEGb[0] 0.00016846
5 E2BEG[5] *2107:A 2.22315e-05
6 E2BEG[5] *2290:A 2.05641e-05
7 E2BEG[5] *144:75 4.73375e-06
8 E2BEG[5] *236:116 0.000118081
9 E2BEG[5] *481:88 2.22315e-05
10 E2BEG[5] *691:16 1.88656e-05
11 E2BEG[3] E2BEG[5] 5.23182e-06
12 E2BEG[4] E2BEG[5] 0.000162741
*RES
1 *2292:X E2BEG[5] 9.64683 
*END

*D_NET *39 0.00315235
*CONN
*P E2BEG[6] O
*I *2293:X O *D sky130_fd_sc_hd__buf_2
*CAP
1 E2BEG[6] 0.00079432
2 *2293:X 0.00079432
3 E2BEG[6] E2BEG[7] 0.000241925
4 E2BEG[6] E2BEGb[0] 4.9702e-05
5 E2BEG[6] *2107:A 0.000265113
6 E2BEG[6] *2295:A 0.00026459
7 E2BEG[6] *236:116 6.29385e-06
8 E2BEG[6] *659:175 1.85674e-05
9 E2BEG[6] *698:129 4.88767e-05
10 E2BEG[4] E2BEG[6] 0.000191335
11 E2BEG[5] E2BEG[6] 0.000477304
*RES
1 *2293:X E2BEG[6] 11.7797 
*END

*D_NET *40 0.00193205
*CONN
*P E2BEG[7] O
*I *2294:X O *D sky130_fd_sc_hd__buf_2
*CAP
1 E2BEG[7] 0.000576768
2 *2294:X 0.000576768
3 E2BEG[7] E2BEGb[0] 0.00047229
4 E2BEG[7] *144:75 3.97095e-06
5 E2BEG[7] *481:88 6.03272e-05
6 E2BEG[6] E2BEG[7] 0.000241925
*RES
1 *2294:X E2BEG[7] 7.55663 
*END

*D_NET *41 0.00280432
*CONN
*P E2BEGb[0] O
*I *2295:X O *D sky130_fd_sc_hd__buf_2
*CAP
1 E2BEGb[0] 0.000716266
2 *2295:X 0.000716266
3 E2BEGb[0] E2BEGb[1] 0.000228338
4 E2BEGb[0] *2290:A 0.00014284
5 E2BEGb[0] *2295:A 0.000156765
6 E2BEGb[0] *236:116 6.97051e-05
7 E2BEGb[0] *481:88 2.5956e-05
8 E2BEGb[0] *647:244 3.96088e-05
9 E2BEGb[0] *659:175 0
10 E2BEGb[0] *698:129 1.81253e-05
11 E2BEG[5] E2BEGb[0] 0.00016846
12 E2BEG[6] E2BEGb[0] 4.9702e-05
13 E2BEG[7] E2BEGb[0] 0.00047229
*RES
1 *2295:X E2BEGb[0] 15.9384 
*END

*D_NET *42 0.0018121
*CONN
*P E2BEGb[1] O
*I *2296:X O *D sky130_fd_sc_hd__buf_2
*CAP
1 E2BEGb[1] 0.000540018
2 *2296:X 0.000540018
3 E2BEGb[1] E2BEGb[2] 0.000157606
4 E2BEGb[1] *2290:A 1.88656e-05
5 E2BEGb[1] *2298:A 6.80182e-05
6 E2BEGb[1] *144:75 0.000141541
7 E2BEGb[1] *481:88 1.56824e-05
8 E2BEGb[1] *569:58 4.89295e-05
9 E2BEGb[1] *647:244 5.30797e-05
10 E2BEGb[0] E2BEGb[1] 0.000228338
*RES
1 *2296:X E2BEGb[1] 7.69337 
*END

*D_NET *43 0.00238689
*CONN
*P E2BEGb[2] O
*I *2297:X O *D sky130_fd_sc_hd__buf_2
*CAP
1 E2BEGb[2] 0.000709631
2 *2297:X 0.000709631
3 E2BEGb[2] E2BEGb[3] 0.000191288
4 E2BEGb[2] *2092:A 0.000235401
5 E2BEGb[2] *2290:A 9.81097e-05
6 E2BEGb[2] *2300:A 2.49909e-05
7 E2BEGb[2] *144:75 7.33639e-05
8 E2BEGb[2] *481:88 8.23457e-05
9 E2BEGb[2] *569:58 5.56205e-06
10 E2BEGb[2] *691:16 9.89625e-05
11 E2BEGb[1] E2BEGb[2] 0.000157606
*RES
1 *2297:X E2BEGb[2] 10.3068 
*END

*D_NET *44 0.00164011
*CONN
*P E2BEGb[3] O
*I *2298:X O *D sky130_fd_sc_hd__buf_2
*CAP
1 E2BEGb[3] 0.000431038
2 *2298:X 0.000431038
3 E2BEGb[3] E2BEGb[4] 0.000159999
4 E2BEGb[3] *2298:A 5.75434e-05
5 E2BEGb[3] *2300:A 5.63183e-05
6 E2BEGb[3] *569:58 0.000141541
7 E2BEGb[3] *704:70 0.000171345
8 E2BEGb[2] E2BEGb[3] 0.000191288
*RES
1 *2298:X E2BEGb[3] 5.7849 
*END

*D_NET *45 0.00171943
*CONN
*P E2BEGb[4] O
*I *2299:X O *D sky130_fd_sc_hd__buf_2
*CAP
1 E2BEGb[4] 0.000590372
2 *2299:X 0.000590372
3 E2BEGb[4] E2BEGb[5] 0.000149743
4 E2BEGb[4] *2092:A 0.00012165
5 E2BEGb[4] *2285:A 1.88656e-05
6 E2BEGb[4] *481:88 1.87786e-05
7 E2BEGb[4] *660:87 2.68526e-05
8 E2BEGb[4] *691:16 2.05641e-05
9 E2BEGb[4] *704:70 2.22315e-05
10 E2BEGb[3] E2BEGb[4] 0.000159999
*RES
1 *2299:X E2BEGb[4] 8.8403 
*END

*D_NET *46 0.00161003
*CONN
*P E2BEGb[5] O
*I *2300:X O *D sky130_fd_sc_hd__buf_2
*CAP
1 E2BEGb[5] 0.000454966
2 *2300:X 0.000454966
3 E2BEGb[5] E2BEGb[6] 0.000254358
4 E2BEGb[5] *2298:A 8.13778e-05
5 E2BEGb[5] *144:75 8.32056e-05
6 E2BEGb[5] *704:70 0.000131411
7 E2BEGb[4] E2BEGb[5] 0.000149743
*RES
1 *2300:X E2BEGb[5] 6.0399 
*END

*D_NET *47 0.0018637
*CONN
*P E2BEGb[6] O
*I *2301:X O *D sky130_fd_sc_hd__buf_2
*CAP
1 E2BEGb[6] 0.000555262
2 *2301:X 0.000555262
3 E2BEGb[6] E2BEGb[7] 0.00016557
4 E2BEGb[6] *2298:A 1.58858e-05
5 E2BEGb[6] *2302:A 2.49909e-05
6 E2BEGb[6] *144:75 3.98456e-05
7 E2BEGb[6] *653:172 0.000248222
8 E2BEGb[6] *704:70 4.30278e-06
9 E2BEGb[5] E2BEGb[6] 0.000254358
*RES
1 *2301:X E2BEGb[6] 6.72817 
*END

*D_NET *48 0.00174827
*CONN
*P E2BEGb[7] O
*I *2302:X O *D sky130_fd_sc_hd__buf_2
*CAP
1 E2BEGb[7] 0.000443699
2 *2302:X 0.000443699
3 E2BEGb[7] EE4BEG[0] 0.000126153
4 E2BEGb[7] *2298:A 5.75434e-05
5 E2BEGb[7] *144:75 2.39907e-05
6 E2BEGb[7] *653:172 0.000209717
7 E2BEGb[7] *697:62 0.000277894
8 E2BEGb[6] E2BEGb[7] 0.00016557
*RES
1 *2302:X E2BEGb[7] 5.7849 
*END

*D_NET *49 0.00231735
*CONN
*P E6BEG[0] O
*I *2303:X O *D sky130_fd_sc_hd__buf_2
*CAP
1 E6BEG[0] 0.0005455
2 *2303:X 0.0005455
3 E6BEG[0] E6BEG[1] 0.000305382
4 E6BEG[0] EE4BEG[15] 3.96243e-05
5 E6BEG[0] *236:40 0.000124356
6 E6BEG[0] *514:94 1.24541e-05
7 E6BEG[0] *528:36 0.00035276
8 E6BEG[0] *531:62 0.000122083
9 E6BEG[0] *646:32 0.000147635
10 E6BEG[0] *659:213 0.000122053
*RES
1 *2303:X E6BEG[0] 9.99183 
*END

*D_NET *50 0.00307963
*CONN
*P E6BEG[10] O
*I *2304:X O *D sky130_fd_sc_hd__buf_2
*CAP
1 E6BEG[10] 0.000605469
2 *2304:X 0.000605469
3 E6BEG[10] E6BEG[11] 6.8383e-05
4 E6BEG[10] E6BEG[9] 5.53843e-05
5 E6BEG[10] FrameData_O[0] 4.37998e-05
6 E6BEG[10] FrameData_O[6] 0.00040396
7 E6BEG[10] *2346:A 0.000607993
8 E6BEG[10] *2361:A 0.000607994
9 E6BEG[10] *524:49 0
10 E6BEG[10] *653:275 5.57864e-05
11 E6BEG[10] *695:90 2.53877e-05
*RES
1 *2304:X E6BEG[10] 17.3407 
*END

*D_NET *51 0.00271936
*CONN
*P E6BEG[11] O
*I *2305:X O *D sky130_fd_sc_hd__buf_2
*CAP
1 E6BEG[11] 0.000688213
2 *2305:X 0.000688213
3 E6BEG[11] E6BEG[6] 0.000297247
4 E6BEG[11] E6BEG[9] 4.54819e-05
5 E6BEG[11] FrameData_O[0] 2.39315e-05
6 E6BEG[11] FrameData_O[1] 3.40657e-05
7 E6BEG[11] *2311:A 8.23457e-05
8 E6BEG[11] *235:93 0.000116234
9 E6BEG[11] *514:94 0.000378144
10 E6BEG[11] *531:62 9.11952e-05
11 E6BEG[11] *567:90 0.000175996
12 E6BEG[11] *695:90 2.99133e-05
13 E6BEG[10] E6BEG[11] 6.8383e-05
*RES
1 *2305:X E6BEG[11] 10.7632 
*END

*D_NET *52 0.00233982
*CONN
*P E6BEG[1] O
*I *2306:X O *D sky130_fd_sc_hd__buf_2
*CAP
1 E6BEG[1] 0.000458287
2 *2306:X 0.000458287
3 E6BEG[1] E6BEG[2] 7.88816e-05
4 E6BEG[1] E6BEG[3] 9.2563e-06
5 E6BEG[1] *2306:A 0.000120655
6 E6BEG[1] *2318:A 6.03315e-05
7 E6BEG[1] *2361:A 2.95942e-05
8 E6BEG[1] *146:89 0.000146541
9 E6BEG[1] *236:40 0.000163943
10 E6BEG[1] *531:62 0.000200572
11 E6BEG[1] *538:72 3.57047e-05
12 E6BEG[1] *646:32 0.000143611
13 E6BEG[1] *659:213 6.5536e-05
14 E6BEG[1] *691:44 6.32332e-05
15 E6BEG[0] E6BEG[1] 0.000305382
*RES
1 *2306:X E6BEG[1] 11.7653 
*END

*D_NET *53 0.00292152
*CONN
*P E6BEG[2] O
*I *2307:X O *D sky130_fd_sc_hd__buf_2
*CAP
1 E6BEG[2] 0.000671975
2 *2307:X 0.000671975
3 E6BEG[2] E6BEG[3] 3.44131e-05
4 E6BEG[2] E6BEG[7] 0.000114585
5 E6BEG[2] E6BEG[8] 2.10433e-05
6 E6BEG[2] E6BEG[9] 8.23457e-05
7 E6BEG[2] *2346:A 0.000356149
8 E6BEG[2] *2361:A 2.3025e-05
9 E6BEG[2] *146:89 0.000207013
10 E6BEG[2] *147:99 1.32379e-05
11 E6BEG[2] *149:111 4.93037e-05
12 E6BEG[2] *151:33 0.000137537
13 E6BEG[2] *535:76 5.31556e-05
14 E6BEG[2] *538:72 5.83121e-06
15 E6BEG[2] *653:237 0.000196615
16 E6BEG[2] *659:213 0.000174902
17 E6BEG[2] *691:44 2.95316e-05
18 E6BEG[1] E6BEG[2] 7.88816e-05
*RES
1 *2307:X E6BEG[2] 20.4222 
*END

*D_NET *54 0.00347059
*CONN
*P E6BEG[3] O
*I *2308:X O *D sky130_fd_sc_hd__buf_2
*CAP
1 E6BEG[3] 0.000973175
2 *2308:X 0.000973175
3 E6BEG[3] E6BEG[4] 0.000215336
4 E6BEG[3] *1811:A1 7.44705e-05
5 E6BEG[3] *1881:A2 6.15576e-06
6 E6BEG[3] *2327:A 9.7901e-05
7 E6BEG[3] *146:89 0.000231762
8 E6BEG[3] *151:33 4.2145e-05
9 E6BEG[3] *160:115 0.00027802
10 E6BEG[3] *483:80 1.29049e-05
11 E6BEG[3] *514:94 3.76587e-05
12 E6BEG[3] *538:72 6.65555e-05
13 E6BEG[3] *545:72 8.82745e-06
14 E6BEG[3] *600:122 9.87913e-06
15 E6BEG[3] *650:236 2.05571e-05
16 E6BEG[3] *686:46 0.00030763
17 E6BEG[3] *703:60 7.07688e-05
18 E6BEG[1] E6BEG[3] 9.2563e-06
19 E6BEG[2] E6BEG[3] 3.44131e-05
*RES
1 *2308:X E6BEG[3] 7.36677 
*END

*D_NET *55 0.00445734
*CONN
*P E6BEG[4] O
*I *2309:X O *D sky130_fd_sc_hd__buf_2
*CAP
1 E6BEG[4] 0.00117891
2 *2309:X 0.00117891
3 E6BEG[4] E6BEG[5] 0.000346507
4 E6BEG[4] E6BEG[8] 1.94027e-05
5 E6BEG[4] *710:DIODE 0.000125079
6 E6BEG[4] *1811:A1 7.53239e-05
7 E6BEG[4] *1811:S0 2.28997e-05
8 E6BEG[4] *1881:A0 1.45731e-05
9 E6BEG[4] *2310:A 0
10 E6BEG[4] *151:33 3.92756e-05
11 E6BEG[4] *234:44 0.000164959
12 E6BEG[4] *535:76 0.000304243
13 E6BEG[4] *536:26 0.000143849
14 E6BEG[4] *542:30 0.000109784
15 E6BEG[4] *567:90 1.88656e-05
16 E6BEG[4] *646:32 0.000484732
17 E6BEG[4] *686:46 1.46993e-05
18 E6BEG[3] E6BEG[4] 0.000215336
*RES
1 *2309:X E6BEG[4] 14.8072 
*END

*D_NET *56 0.00307176
*CONN
*P E6BEG[5] O
*I *2310:X O *D sky130_fd_sc_hd__buf_2
*CAP
1 E6BEG[5] 0.000892613
2 *2310:X 0.000892613
3 E6BEG[5] E6BEG[6] 3.41878e-05
4 E6BEG[5] E6BEG[7] 2.5773e-06
5 E6BEG[5] *1811:S0 6.67742e-05
6 E6BEG[5] *1881:A0 7.959e-05
7 E6BEG[5] *1881:S1 8.66454e-06
8 E6BEG[5] *2310:A 0
9 E6BEG[5] *2312:A 0
10 E6BEG[5] *2361:A 3.45444e-05
11 E6BEG[5] *151:85 0.000341436
12 E6BEG[5] *646:32 0.000372252
13 E6BEG[5] *665:38 0
14 E6BEG[4] E6BEG[5] 0.000346507
*RES
1 *2310:X E6BEG[5] 9.8505 
*END

*D_NET *57 0.00360065
*CONN
*P E6BEG[6] O
*I *2311:X O *D sky130_fd_sc_hd__buf_2
*CAP
1 E6BEG[6] 0.000847885
2 *2311:X 0.000847885
3 E6BEG[6] E6BEG[7] 3.69302e-05
4 E6BEG[6] FrameData_O[0] 0.000228716
5 E6BEG[6] FrameData_O[1] 1.94676e-05
6 E6BEG[6] *2361:A 0.000440772
7 E6BEG[6] *147:101 6.39373e-05
8 E6BEG[6] *535:76 0.000100737
9 E6BEG[6] *559:46 0.000488818
10 E6BEG[6] *659:213 0.000169074
11 E6BEG[6] *695:90 2.4994e-05
12 E6BEG[11] E6BEG[6] 0.000297247
13 E6BEG[5] E6BEG[6] 3.41878e-05
*RES
1 *2311:X E6BEG[6] 16.9286 
*END

*D_NET *58 0.00287832
*CONN
*P E6BEG[7] O
*I *2312:X O *D sky130_fd_sc_hd__buf_2
*CAP
1 E6BEG[7] 0.000730643
2 *2312:X 0.000730643
3 E6BEG[7] E6BEG[8] 0.000130853
4 E6BEG[7] E6BEG[9] 2.44038e-05
5 E6BEG[7] *2314:A 0.000298437
6 E6BEG[7] *2361:A 0.00012684
7 E6BEG[7] *147:99 9.4675e-06
8 E6BEG[7] *147:101 0.000171115
9 E6BEG[7] *149:111 0.00030676
10 E6BEG[7] *151:85 8.12511e-05
11 E6BEG[7] *594:74 0.000113819
12 E6BEG[2] E6BEG[7] 0.000114585
13 E6BEG[5] E6BEG[7] 2.5773e-06
14 E6BEG[6] E6BEG[7] 3.69302e-05
*RES
1 *2312:X E6BEG[7] 12.6018 
*END

*D_NET *59 0.00266285
*CONN
*P E6BEG[8] O
*I *2313:X O *D sky130_fd_sc_hd__buf_2
*CAP
1 E6BEG[8] 0.000561797
2 *2313:X 0.000561797
3 E6BEG[8] E6BEG[9] 0.00011829
4 E6BEG[8] *710:DIODE 0.000300859
5 E6BEG[8] *147:99 9.04081e-05
6 E6BEG[8] *147:101 0.000330658
7 E6BEG[8] *542:30 4.88478e-05
8 E6BEG[8] *594:74 0.000107851
9 E6BEG[8] *659:213 0.000371041
10 E6BEG[2] E6BEG[8] 2.10433e-05
11 E6BEG[4] E6BEG[8] 1.94027e-05
12 E6BEG[7] E6BEG[8] 0.000130853
*RES
1 *2313:X E6BEG[8] 12.5603 
*END

*D_NET *60 0.00245717
*CONN
*P E6BEG[9] O
*I *2314:X O *D sky130_fd_sc_hd__buf_2
*CAP
1 E6BEG[9] 0.000668186
2 *2314:X 0.000668186
3 E6BEG[9] *2307:A 0.000374374
4 E6BEG[9] *2314:A 2.51154e-05
5 E6BEG[9] *147:99 0.000124496
6 E6BEG[9] *149:111 3.79595e-05
7 E6BEG[9] *531:62 2.22315e-05
8 E6BEG[9] *539:26 3.96088e-05
9 E6BEG[9] *567:90 4.66108e-05
10 E6BEG[9] *695:90 0.000124496
11 E6BEG[10] E6BEG[9] 5.53843e-05
12 E6BEG[11] E6BEG[9] 4.54819e-05
13 E6BEG[2] E6BEG[9] 8.23457e-05
14 E6BEG[7] E6BEG[9] 2.44038e-05
15 E6BEG[8] E6BEG[9] 0.00011829
*RES
1 *2314:X E6BEG[9] 10.3484 
*END

*D_NET *61 0.00207665
*CONN
*P EE4BEG[0] O
*I *2315:X O *D sky130_fd_sc_hd__buf_2
*CAP
1 EE4BEG[0] 0.000580157
2 *2315:X 0.000580157
3 EE4BEG[0] EE4BEG[1] 0.000175726
4 EE4BEG[0] EE4BEG[2] 3.34091e-05
5 EE4BEG[0] *2315:A 0
6 EE4BEG[0] *144:75 0.000160403
7 EE4BEG[0] *234:94 0.000100428
8 EE4BEG[0] *545:72 3.97095e-06
9 EE4BEG[0] *697:62 0.000316245
10 E2BEGb[7] EE4BEG[0] 0.000126153
*RES
1 *2315:X EE4BEG[0] 7.49317 
*END

*D_NET *62 0.00254342
*CONN
*P EE4BEG[10] O
*I *2316:X O *D sky130_fd_sc_hd__buf_2
*CAP
1 EE4BEG[10] 0.000540833
2 *2316:X 0.000540833
3 EE4BEG[10] EE4BEG[11] 0.000199223
4 EE4BEG[10] EE4BEG[5] 2.64888e-05
5 EE4BEG[10] EE4BEG[9] 3.40242e-05
6 EE4BEG[10] *1881:A2 4.77427e-05
7 EE4BEG[10] *2314:A 0.000337225
8 EE4BEG[10] *2326:A 4.41506e-05
9 EE4BEG[10] *2329:A 0.000128339
10 EE4BEG[10] *148:89 0.000226761
11 EE4BEG[10] *236:40 0.000153096
12 EE4BEG[10] *236:93 0.000103741
13 EE4BEG[10] *545:72 0.000136504
14 EE4BEG[10] *653:237 1.39456e-05
15 EE4BEG[10] *691:44 6.14579e-06
16 EE4BEG[10] *704:70 4.36573e-06
*RES
1 *2316:X EE4BEG[10] 11.3268 
*END

*D_NET *63 0.00231198
*CONN
*P EE4BEG[11] O
*I *2317:X O *D sky130_fd_sc_hd__buf_2
*CAP
1 EE4BEG[11] 0.00060183
2 *2317:X 0.00060183
3 EE4BEG[11] EE4BEG[12] 0.000165723
4 EE4BEG[11] EE4BEG[5] 1.83975e-05
5 EE4BEG[11] EE4BEG[8] 1.88656e-05
6 EE4BEG[11] *1946:D 0.000111035
7 EE4BEG[11] *2326:A 3.98492e-06
8 EE4BEG[11] *148:89 4.1163e-05
9 EE4BEG[11] *160:85 2.03337e-05
10 EE4BEG[11] *234:58 2.22315e-05
11 EE4BEG[11] *528:36 2.0851e-06
12 EE4BEG[11] *545:72 4.6055e-05
13 EE4BEG[11] *569:58 0.00017801
14 EE4BEG[11] *704:70 0.000281209
15 EE4BEG[10] EE4BEG[11] 0.000199223
*RES
1 *2317:X EE4BEG[11] 8.51317 
*END

*D_NET *64 0.00282969
*CONN
*P EE4BEG[12] O
*I *2318:X O *D sky130_fd_sc_hd__buf_2
*CAP
1 EE4BEG[12] 0.000614889
2 *2318:X 0.000614889
3 EE4BEG[12] EE4BEG[13] 7.01144e-05
4 EE4BEG[12] EE4BEG[9] 0.000364638
5 EE4BEG[12] *2312:A 0.000101198
6 EE4BEG[12] *2314:A 0.000360713
7 EE4BEG[12] *149:93 5.92067e-05
8 EE4BEG[12] *160:85 1.41626e-05
9 EE4BEG[12] *236:40 4.03033e-05
10 EE4BEG[12] *528:36 0
11 EE4BEG[12] *569:58 0.000145958
12 EE4BEG[12] *704:70 0.000277894
13 EE4BEG[11] EE4BEG[12] 0.000165723
*RES
1 *2318:X EE4BEG[12] 11.4849 
*END

*D_NET *65 0.00277234
*CONN
*P EE4BEG[13] O
*I *2319:X O *D sky130_fd_sc_hd__buf_2
*CAP
1 EE4BEG[13] 0.000721976
2 *2319:X 0.000721976
3 EE4BEG[13] EE4BEG[14] 0.000422547
4 EE4BEG[13] EE4BEG[9] 0.000372444
5 EE4BEG[13] *2314:A 1.42101e-05
6 EE4BEG[13] *2317:A 1.62783e-05
7 EE4BEG[13] *2319:A 1.98269e-07
8 EE4BEG[13] *2328:A 0.000171376
9 EE4BEG[13] *160:115 0.000153816
10 EE4BEG[13] *516:54 0
11 EE4BEG[13] *528:36 5.87532e-05
12 EE4BEG[13] *569:58 9.3751e-06
13 EE4BEG[13] *704:70 3.92756e-05
14 EE4BEG[12] EE4BEG[13] 7.01144e-05
*RES
1 *2319:X EE4BEG[13] 9.81183 
*END

*D_NET *66 0.00219606
*CONN
*P EE4BEG[14] O
*I *2320:X O *D sky130_fd_sc_hd__buf_2
*CAP
1 EE4BEG[14] 0.000513796
2 *2320:X 0.000513796
3 EE4BEG[14] EE4BEG[15] 9.75439e-05
4 EE4BEG[14] *2314:A 9.67062e-05
5 EE4BEG[14] *2317:A 0.000285195
6 EE4BEG[14] *2330:A 4.7003e-05
7 EE4BEG[14] *524:142 0.000144856
8 EE4BEG[14] *528:36 3.53427e-05
9 EE4BEG[14] *704:70 3.92756e-05
10 EE4BEG[13] EE4BEG[14] 0.000422547
*RES
1 *2320:X EE4BEG[14] 7.20643 
*END

*D_NET *67 0.00245231
*CONN
*P EE4BEG[15] O
*I *2321:X O *D sky130_fd_sc_hd__buf_2
*CAP
1 EE4BEG[15] 0.000513066
2 *2321:X 0.000513066
3 EE4BEG[15] *2317:A 0.000421327
4 EE4BEG[15] *2330:A 2.76356e-05
5 EE4BEG[15] *160:115 1.88904e-05
6 EE4BEG[15] *524:142 0.000144856
7 EE4BEG[15] *528:36 0.000625925
8 EE4BEG[15] *545:72 1.7635e-05
9 EE4BEG[15] *600:122 3.27392e-05
10 E6BEG[0] EE4BEG[15] 3.96243e-05
11 EE4BEG[14] EE4BEG[15] 9.75439e-05
*RES
1 *2321:X EE4BEG[15] 6.4195 
*END

*D_NET *68 0.00156784
*CONN
*P EE4BEG[1] O
*I *2322:X O *D sky130_fd_sc_hd__buf_2
*CAP
1 EE4BEG[1] 0.000418799
2 *2322:X 0.000418799
3 EE4BEG[1] EE4BEG[2] 5.53843e-05
4 EE4BEG[1] *144:75 0.000199486
5 EE4BEG[1] *481:88 1.88904e-05
6 EE4BEG[1] *560:66 0.000262804
7 EE4BEG[1] *704:70 1.79483e-05
8 EE4BEG[0] EE4BEG[1] 0.000175726
*RES
1 *2322:X EE4BEG[1] 6.81357 
*END

*D_NET *69 0.00186171
*CONN
*P EE4BEG[2] O
*I *2323:X O *D sky130_fd_sc_hd__buf_2
*CAP
1 EE4BEG[2] 0.000472504
2 *2323:X 0.000472504
3 EE4BEG[2] EE4BEG[3] 0.000165469
4 EE4BEG[2] *2298:A 0.000100193
5 EE4BEG[2] *234:94 0.000102501
6 EE4BEG[2] *545:72 0.000196936
7 EE4BEG[2] *560:66 0.000262804
8 EE4BEG[0] EE4BEG[2] 3.34091e-05
9 EE4BEG[1] EE4BEG[2] 5.53843e-05
*RES
1 *2323:X EE4BEG[2] 6.2949 
*END

*D_NET *70 0.00208332
*CONN
*P EE4BEG[3] O
*I *2324:X O *D sky130_fd_sc_hd__buf_2
*CAP
1 EE4BEG[3] 0.000476908
2 *2324:X 0.000476908
3 EE4BEG[3] EE4BEG[4] 3.17947e-05
4 EE4BEG[3] *2324:A 8.35068e-05
5 EE4BEG[3] *234:94 1.7635e-05
6 EE4BEG[3] *545:72 0.000262098
7 EE4BEG[3] *651:209 0.0005506
8 EE4BEG[3] *653:237 1.83975e-05
9 EE4BEG[2] EE4BEG[3] 0.000165469
*RES
1 *2324:X EE4BEG[3] 6.18643 
*END

*D_NET *71 0.00294089
*CONN
*P EE4BEG[4] O
*I *2325:X O *D sky130_fd_sc_hd__buf_2
*CAP
1 EE4BEG[4] 0.00075088
2 *2325:X 0.00075088
3 EE4BEG[4] EE4BEG[5] 0.000302395
4 EE4BEG[4] *2075:A 8.35106e-05
5 EE4BEG[4] *2297:A 4.08437e-05
6 EE4BEG[4] *160:85 3.15656e-05
7 EE4BEG[4] *234:94 8.65612e-05
8 EE4BEG[4] *236:93 4.2145e-05
9 EE4BEG[4] *481:88 0.000118081
10 EE4BEG[4] *483:80 0.000117092
11 EE4BEG[4] *516:54 1.91597e-05
12 EE4BEG[4] *538:72 5.83362e-05
13 EE4BEG[4] *558:50 2.05815e-07
14 EE4BEG[4] *651:209 0.000507439
15 EE4BEG[3] EE4BEG[4] 3.17947e-05
*RES
1 *2325:X EE4BEG[4] 12.5591 
*END

*D_NET *72 0.00378928
*CONN
*P EE4BEG[5] O
*I *2326:X O *D sky130_fd_sc_hd__buf_2
*CAP
1 EE4BEG[5] 0.00109556
2 *2326:X 0.00109556
3 EE4BEG[5] EE4BEG[6] 0.00022149
4 EE4BEG[5] EE4BEG[8] 1.49805e-05
5 EE4BEG[5] *1915:S1 2.91924e-05
6 EE4BEG[5] *2067:A 0.000119242
7 EE4BEG[5] *2290:A 1.66957e-05
8 EE4BEG[5] *2326:A 3.79957e-05
9 EE4BEG[5] *234:58 1.88602e-05
10 EE4BEG[5] *234:94 4.2022e-05
11 EE4BEG[5] *236:40 7.59564e-05
12 EE4BEG[5] *236:93 3.92756e-05
13 EE4BEG[5] *483:80 0.000126451
14 EE4BEG[5] *545:72 0.000104536
15 EE4BEG[5] *560:66 0.00020336
16 EE4BEG[5] *653:237 1.65559e-05
17 EE4BEG[5] *660:99 0.000160683
18 EE4BEG[5] *703:60 2.35896e-05
19 EE4BEG[10] EE4BEG[5] 2.64888e-05
20 EE4BEG[11] EE4BEG[5] 1.83975e-05
21 EE4BEG[4] EE4BEG[5] 0.000302395
*RES
1 *2326:X EE4BEG[5] 25.2138 
*END

*D_NET *73 0.00270018
*CONN
*P EE4BEG[6] O
*I *2327:X O *D sky130_fd_sc_hd__buf_2
*CAP
1 EE4BEG[6] 0.00078479
2 *2327:X 0.00078479
3 EE4BEG[6] EE4BEG[7] 5.32085e-05
4 EE4BEG[6] EE4BEG[8] 0.000132697
5 EE4BEG[6] *1877:A2 0.000268146
6 EE4BEG[6] *2290:A 6.31816e-05
7 EE4BEG[6] *160:85 0.000233568
8 EE4BEG[6] *483:80 7.33639e-05
9 EE4BEG[6] *545:72 6.13525e-05
10 EE4BEG[6] *560:66 2.35892e-05
11 EE4BEG[5] EE4BEG[6] 0.00022149
*RES
1 *2327:X EE4BEG[6] 10.1312 
*END

*D_NET *74 0.00296124
*CONN
*P EE4BEG[7] O
*I *2328:X O *D sky130_fd_sc_hd__buf_2
*CAP
1 EE4BEG[7] 0.000574239
2 *2328:X 0.000574239
3 EE4BEG[7] EE4BEG[8] 4.99143e-05
4 EE4BEG[7] EE4BEG[9] 0.000309231
5 EE4BEG[7] *1946:D 0.000194285
6 EE4BEG[7] *2324:A 3.07956e-05
7 EE4BEG[7] *2329:A 9.46859e-06
8 EE4BEG[7] *147:99 0.000139542
9 EE4BEG[7] *149:93 0.000288355
10 EE4BEG[7] *160:115 4.8854e-05
11 EE4BEG[7] *564:52 2.85364e-05
12 EE4BEG[7] *659:213 0.000127213
13 EE4BEG[7] *695:90 0.000533355
14 EE4BEG[6] EE4BEG[7] 5.32085e-05
*RES
1 *2328:X EE4BEG[7] 16.8174 
*END

*D_NET *75 0.00225866
*CONN
*P EE4BEG[8] O
*I *2329:X O *D sky130_fd_sc_hd__buf_2
*CAP
1 EE4BEG[8] 0.000543039
2 *2329:X 0.000543039
3 EE4BEG[8] EE4BEG[9] 2.39315e-05
4 EE4BEG[8] *1877:A3 9.69386e-05
5 EE4BEG[8] *147:99 0.000226761
6 EE4BEG[8] *148:89 3.41952e-05
7 EE4BEG[8] *160:85 0.000219661
8 EE4BEG[8] *234:58 0.000173413
9 EE4BEG[8] *236:93 0.000172909
10 EE4BEG[8] *703:60 8.31725e-06
11 EE4BEG[11] EE4BEG[8] 1.88656e-05
12 EE4BEG[5] EE4BEG[8] 1.49805e-05
13 EE4BEG[6] EE4BEG[8] 0.000132697
14 EE4BEG[7] EE4BEG[8] 4.99143e-05
*RES
1 *2329:X EE4BEG[8] 7.98703 
*END

*D_NET *76 0.0032335
*CONN
*P EE4BEG[9] O
*I *2330:X O *D sky130_fd_sc_hd__buf_2
*CAP
1 EE4BEG[9] 0.000557271
2 *2330:X 0.000557271
3 EE4BEG[9] *2324:A 0.000308866
4 EE4BEG[9] *2361:A 0.000154977
5 EE4BEG[9] *147:99 2.22315e-05
6 EE4BEG[9] *149:93 8.23457e-05
7 EE4BEG[9] *236:40 0.000243014
8 EE4BEG[9] *236:93 5.56205e-06
9 EE4BEG[9] *653:237 3.32905e-05
10 EE4BEG[9] *659:213 0.000164402
11 EE4BEG[10] EE4BEG[9] 3.40242e-05
12 EE4BEG[12] EE4BEG[9] 0.000364638
13 EE4BEG[13] EE4BEG[9] 0.000372444
14 EE4BEG[7] EE4BEG[9] 0.000309231
15 EE4BEG[8] EE4BEG[9] 2.39315e-05
*RES
1 *2330:X EE4BEG[9] 14.4048 
*END

*D_NET *77 0.00199058
*CONN
*P FrameData[0] I
*I *2230:A I *D sky130_fd_sc_hd__buf_1
*CAP
1 FrameData[0] 0.000647939
2 *2230:A 0.000647939
3 *2230:A *2279:A 6.69087e-05
4 *2230:A *2281:A 9.39388e-06
5 *2230:A *154:85 7.86034e-05
6 *2230:A *582:40 1.23417e-05
7 *2230:A *600:122 0.000232804
8 *2230:A *631:112 0.000108559
9 *2230:A *637:46 3.63428e-05
10 *2230:A *680:46 0.000143034
11 D_config_C_bit3 *2230:A 6.71803e-06
*RES
1 FrameData[0] *2230:A 8.14577 
*END

*D_NET *78 0.00183063
*CONN
*P FrameData[10] I
*I *2241:A I *D sky130_fd_sc_hd__clkbuf_2
*CAP
1 FrameData[10] 0.000613389
2 *2241:A 0.000613389
3 *2241:A *2215:A 3.08543e-05
4 *2241:A *153:105 5.56459e-05
5 *2241:A *154:99 1.85014e-05
6 *2241:A *582:94 0.000160588
7 *2241:A *591:102 7.88455e-05
8 *2241:A *616:44 1.9868e-05
9 *2241:A *668:34 0.00012934
10 *2241:A *674:80 0.000110213
*RES
1 FrameData[10] *2241:A 7.11043 
*END

*D_NET *79 0.00162479
*CONN
*P FrameData[11] I
*I *2252:A I *D sky130_fd_sc_hd__clkbuf_2
*CAP
1 FrameData[11] 0.000421133
2 *2252:A 0.000421133
3 *2252:A *158:71 0.000141538
4 *2252:A *510:28 4.04634e-05
5 *2252:A *512:18 4.04634e-05
6 *2252:A *582:94 0.000560056
*RES
1 FrameData[11] *2252:A 5.5299 
*END

*D_NET *80 0.00231734
*CONN
*P FrameData[12] I
*I *2263:A I *D sky130_fd_sc_hd__clkbuf_2
*CAP
1 FrameData[12] 0.000607677
2 *2263:A 0.000607677
3 *2263:A *1960:GATE 0.00011456
4 *2263:A *2347:A 2.51095e-05
5 *2263:A *142:89 6.28008e-05
6 *2263:A *154:99 8.65032e-05
7 *2263:A *158:71 3.81093e-05
8 *2263:A *512:18 0.000248657
9 *2263:A *603:72 0.000330981
10 *2263:A *687:92 0.000171792
11 *2263:A *694:76 2.34717e-05
*RES
1 FrameData[12] *2263:A 9.6099 
*END

*D_NET *81 0.00332774
*CONN
*P FrameData[13] I
*I *2271:A I *D sky130_fd_sc_hd__clkbuf_2
*CAP
1 FrameData[13] 0.00101261
2 *2271:A 0.00101261
3 *2271:A *1945:GATE 6.15576e-06
4 *2271:A *2187:A 0.000516527
5 *2271:A *2279:A 0.000103741
6 *2271:A *2347:A 0.000407515
7 *2271:A *482:76 6.59674e-05
8 *2271:A *582:94 4.78678e-05
9 *2271:A *668:14 0
10 *2271:A *669:155 0
11 *2271:A *675:64 4.409e-05
12 *2271:A *694:76 2.53169e-05
13 *2271:A *698:8 4.60061e-05
14 *2271:A *698:68 3.93371e-05
*RES
1 FrameData[13] *2271:A 7.7689 
*END

*D_NET *82 0.00172942
*CONN
*P FrameData[14] I
*I *2187:A I *D sky130_fd_sc_hd__clkbuf_2
*CAP
1 FrameData[14] 0.000447958
2 *2187:A 0.000447958
3 *2187:A *2039:D 8.63921e-05
4 *2187:A *2347:A 4.73375e-06
5 *2187:A *512:18 8.00712e-05
6 *2187:A *675:56 4.69661e-05
7 *2187:A *675:64 5.74263e-05
8 *2187:A *675:102 4.13879e-05
9 *2271:A *2187:A 0.000516527
*RES
1 FrameData[14] *2187:A 6.0399 
*END

*D_NET *83 0.00142947
*CONN
*P FrameData[15] I
*I *2188:A I *D sky130_fd_sc_hd__clkbuf_2
*CAP
1 FrameData[15] 0.000540785
2 *2188:A 0.000540785
3 *2188:A *2039:D 0.000230426
4 *2188:A *2189:A 0
5 *2188:A *491:14 3.3846e-05
6 *2188:A *512:18 4.18147e-05
7 *2188:A *675:102 4.18147e-05
*RES
1 FrameData[15] *2188:A 5.5299 
*END

*D_NET *84 0.0016473
*CONN
*P FrameData[16] I
*I *2189:A I *D sky130_fd_sc_hd__buf_1
*CAP
1 FrameData[16] 0.00051991
2 *2189:A 0.00051991
3 *2189:A *2190:A 0
4 *2189:A *2362:A 6.80485e-05
5 *2189:A *556:26 0.000267443
6 *2189:A *568:42 5.83121e-06
7 *2189:A *603:74 0.000266156
8 *2188:A *2189:A 0
*RES
1 FrameData[16] *2189:A 10.7072 
*END

*D_NET *85 0.00144451
*CONN
*P FrameData[17] I
*I *2190:A I *D sky130_fd_sc_hd__buf_1
*CAP
1 FrameData[17] 0.000515279
2 *2190:A 0.000515279
3 *2190:A *2020:D 2.77411e-05
4 *2190:A *2362:A 8.82424e-05
5 *2190:A *491:57 1.09082e-05
6 *2190:A *512:18 8.0175e-05
7 *2190:A *625:10 0.000148805
8 *2190:A *627:40 5.80795e-05
9 *2189:A *2190:A 0
*RES
1 FrameData[17] *2190:A 6.74663 
*END

*D_NET *86 0.00149887
*CONN
*P FrameData[18] I
*I *2191:A I *D sky130_fd_sc_hd__clkbuf_2
*CAP
1 FrameData[18] 0.00040358
2 *2191:A 0.00040358
3 *2191:A *742:DIODE 9.01191e-06
4 *2191:A *2020:D 0.000118959
5 *2191:A *156:59 0.000252188
6 *2191:A *512:18 8.37189e-05
7 *2191:A *627:40 0.000136068
8 *2191:A *674:40 8.61961e-05
9 *2191:A *698:175 5.56633e-06
*RES
1 FrameData[18] *2191:A 6.0399 
*END

*D_NET *87 0.00150229
*CONN
*P FrameData[19] I
*I *2192:A I *D sky130_fd_sc_hd__clkbuf_2
*CAP
1 FrameData[19] 0.000449238
2 *2192:A 0.000449238
3 *2192:A *742:DIODE 0.000508737
4 *2192:A *2194:A 0
5 *2192:A *156:59 1.41553e-05
6 *2192:A *512:18 4.04634e-05
7 *2192:A *674:40 4.04634e-05
*RES
1 FrameData[19] *2192:A 5.5299 
*END

*D_NET *88 0.00178507
*CONN
*P FrameData[1] I
*I *2193:A I *D sky130_fd_sc_hd__buf_1
*CAP
1 FrameData[1] 0.000391479
2 *2193:A 0.000391479
3 *2193:A *2279:A 0.000107452
4 *2193:A *153:105 0.000142524
5 *2193:A *582:40 0.000167662
6 *2193:A *590:112 0.000386186
7 *2193:A *600:122 0.000142524
8 *2193:A *644:115 4.08964e-05
9 *2193:A *672:124 1.48698e-05
*RES
1 FrameData[1] *2193:A 6.74663 
*END

*D_NET *89 0.00123364
*CONN
*P FrameData[20] I
*I *2194:A I *D sky130_fd_sc_hd__buf_2
*CAP
1 FrameData[20] 0.000552353
2 *2194:A 0.000552353
3 *2194:A *2195:A 0
4 *2194:A *625:10 6.44676e-05
5 *2194:A *674:114 6.44676e-05
6 *2192:A *2194:A 0
*RES
1 FrameData[20] *2194:A 5.72663 
*END

*D_NET *90 0.0014515
*CONN
*P FrameData[21] I
*I *2195:A I *D sky130_fd_sc_hd__buf_2
*CAP
1 FrameData[21] 0.000535752
2 *2195:A 0.000535752
3 *2195:A *2196:A 0
4 *2195:A *625:10 0.00014971
5 *2195:A *674:114 0.00014971
6 *2195:A *694:92 8.05793e-05
7 *2194:A *2195:A 0
*RES
1 FrameData[21] *2195:A 6.74663 
*END

*D_NET *91 0.00127305
*CONN
*P FrameData[22] I
*I *2196:A I *D sky130_fd_sc_hd__buf_2
*CAP
1 FrameData[22] 0.000451066
2 *2196:A 0.000451066
3 *2196:A *2198:A 0
4 *2196:A *625:10 8.75474e-05
5 *2196:A *674:114 8.75474e-05
6 *2196:A *694:92 0.000195821
7 *2195:A *2196:A 0
*RES
1 FrameData[22] *2196:A 5.98163 
*END

*D_NET *92 0.00111878
*CONN
*P FrameData[23] I
*I *2198:A I *D sky130_fd_sc_hd__buf_2
*CAP
1 FrameData[23] 0.000517574
2 *2198:A 0.000517574
3 *2198:A *2199:A 0
4 *2198:A *625:10 4.18147e-05
5 *2198:A *674:114 4.18147e-05
6 *2198:A *687:24 0
7 *2196:A *2198:A 0
*RES
1 FrameData[23] *2198:A 5.47163 
*END

*D_NET *93 0.00152015
*CONN
*P FrameData[24] I
*I *2199:A I *D sky130_fd_sc_hd__buf_2
*CAP
1 FrameData[24] 0.00044712
2 *2199:A 0.00044712
3 *2199:A *2200:A 0
4 *2199:A *556:26 0.000269386
5 *2199:A *602:20 8.84259e-05
6 *2199:A *603:74 0.000268098
7 *2198:A *2199:A 0
*RES
1 FrameData[24] *2199:A 10.7072 
*END

*D_NET *94 0.00227044
*CONN
*P FrameData[25] I
*I *2200:A I *D sky130_fd_sc_hd__clkbuf_2
*CAP
1 FrameData[25] 0.000818452
2 *2200:A 0.000818452
3 *2200:A *719:DIODE 0.000105911
4 *2200:A *730:DIODE 0
5 *2200:A *2201:A 0
6 *2200:A *624:58 4.8638e-05
7 *2200:A *625:10 0.000117326
8 *2200:A *627:22 0.000153816
9 *2200:A *627:40 0.000124166
10 *2200:A *670:6 8.36788e-05
11 *2199:A *2200:A 0
*RES
1 FrameData[25] *2200:A 13.0218 
*END

*D_NET *95 0.00177795
*CONN
*P FrameData[26] I
*I *2201:A I *D sky130_fd_sc_hd__buf_2
*CAP
1 FrameData[26] 0.000356974
2 *2201:A 0.000356974
3 *2201:A *2202:A 0
4 *2201:A *624:58 0.000169485
5 *2201:A *625:10 0.000236409
6 *2201:A *626:70 8.57657e-06
7 *2201:A *627:40 0.000413127
8 *2201:A *628:26 0.000236409
9 *2200:A *2201:A 0
*RES
1 FrameData[26] *2201:A 7.76663 
*END

*D_NET *96 0.00137966
*CONN
*P FrameData[27] I
*I *2202:A I *D sky130_fd_sc_hd__buf_2
*CAP
1 FrameData[27] 0.000342818
2 *2202:A 0.000342818
3 *2202:A *2203:A 0
4 *2202:A *616:44 0.000105416
5 *2202:A *625:10 0.00017176
6 *2202:A *626:70 0.000190608
7 *2202:A *627:40 5.4479e-05
8 *2202:A *628:26 0.00017176
9 *2201:A *2202:A 0
*RES
1 FrameData[27] *2202:A 7.00163 
*END

*D_NET *97 0.00134925
*CONN
*P FrameData[28] I
*I *2203:A I *D sky130_fd_sc_hd__buf_2
*CAP
1 FrameData[28] 0.000589814
2 *2203:A 0.000589814
3 *2203:A *1891:A0 0
4 *2203:A *2204:A 0
5 *2203:A *156:69 0
6 *2203:A *616:44 0.000129131
7 *2203:A *627:12 1.7635e-05
8 *2203:A *630:26 2.28537e-05
9 *2202:A *2203:A 0
*RES
1 FrameData[28] *2203:A 6.07623 
*END

*D_NET *98 0.0011499
*CONN
*P FrameData[29] I
*I *2204:A I *D sky130_fd_sc_hd__clkbuf_2
*CAP
1 FrameData[29] 0.000471882
2 *2204:A 0.000471882
3 *2204:A *2206:A 0
4 *2204:A *156:69 2.69863e-05
5 *2204:A *625:10 1.17666e-05
6 *2204:A *628:26 0.000102789
7 *2204:A *630:26 6.45899e-05
8 *2203:A *2204:A 0
*RES
1 FrameData[29] *2204:A 6.5499 
*END

*D_NET *99 0.0019885
*CONN
*P FrameData[2] I
*I *2205:A I *D sky130_fd_sc_hd__dlymetal6s2s_1
*CAP
1 FrameData[2] 0.000457661
2 *2205:A 0.000457661
3 *2205:A *2281:A 1.89491e-05
4 *2205:A *153:105 0.000230119
5 *2205:A *544:46 7.53186e-05
6 *2205:A *591:102 0.000412271
7 *2205:A *600:122 0.000233954
8 *2205:A *672:124 0.000102564
*RES
1 FrameData[2] *2205:A 7.76663 
*END

*D_NET *100 0.000904933
*CONN
*P FrameData[30] I
*I *2206:A I *D sky130_fd_sc_hd__buf_2
*CAP
1 FrameData[30] 0.000400031
2 *2206:A 0.000400031
3 *2206:A *2207:A 0
4 *2206:A *2375:A 0
5 *2206:A *156:69 1.35153e-05
6 *2206:A *625:10 8.5193e-05
7 *2206:A *630:26 6.16226e-06
8 *2204:A *2206:A 0
*RES
1 FrameData[30] *2206:A 5.98163 
*END

*D_NET *101 0.00217767
*CONN
*P FrameData[31] I
*I *2207:A I *D sky130_fd_sc_hd__buf_2
*CAP
1 FrameData[31] 0.00100677
2 *2207:A 0.00100677
3 *2207:A FrameStrobe_O[0] 0
4 *2207:A *1901:A0 4.18603e-06
5 *2207:A *2376:A 0.00015995
6 *2207:A *2378:A 0
7 *2207:A *156:69 0
8 *2206:A *2207:A 0
*RES
1 FrameData[31] *2207:A 7.95583 
*END

*D_NET *102 0.00247668
*CONN
*P FrameData[3] I
*I *2209:A I *D sky130_fd_sc_hd__clkbuf_2
*CAP
1 FrameData[3] 0.000753554
2 *2209:A 0.000753554
3 *2209:A *2039:D 0.000119176
4 *2209:A *2040:GATE 0
5 *2209:A *2281:A 6.29056e-05
6 *2209:A *2391:A 0.000101118
7 *2209:A *154:85 0.000297568
8 *2209:A *480:70 3.97719e-05
9 *2209:A *616:44 0.000107452
10 *2209:A *624:58 0.000107452
11 *2209:A *629:35 0.000134131
*RES
1 FrameData[3] *2209:A 8.82297 
*END

*D_NET *103 0.00155336
*CONN
*P FrameData[4] I
*I *2210:A I *D sky130_fd_sc_hd__clkbuf_2
*CAP
1 FrameData[4] 0.000425992
2 *2210:A 0.000425992
3 *2210:A *2039:D 0.000239903
4 *2210:A *153:105 4.0031e-05
5 *2210:A *157:91 0.000231316
6 *2210:A *546:31 4.0031e-05
7 *2210:A *627:106 0.000150091
*RES
1 FrameData[4] *2210:A 5.5299 
*END

*D_NET *104 0.00203266
*CONN
*P FrameData[5] I
*I *2211:A I *D sky130_fd_sc_hd__clkbuf_2
*CAP
1 FrameData[5] 0.000688221
2 *2211:A 0.000688221
3 *2211:A *2039:D 2.03757e-05
4 *2211:A *153:105 5.89912e-05
5 *2211:A *157:91 7.79279e-06
6 *2211:A *480:70 0.000107452
7 *2211:A *556:46 0.000166476
8 *2211:A *586:92 1.26029e-05
9 *2211:A *627:106 0.000169068
10 *2211:A *638:16 5.89912e-05
11 *2211:A *694:76 5.44697e-05
*RES
1 FrameData[5] *2211:A 8.7855 
*END

*D_NET *105 0.00196418
*CONN
*P FrameData[6] I
*I *2212:A I *D sky130_fd_sc_hd__clkbuf_2
*CAP
1 FrameData[6] 0.000517529
2 *2212:A 0.000517529
3 *2212:A *153:105 0.000208672
4 *2212:A *546:31 0.000208672
5 *2212:A *582:94 5.63323e-05
6 *2212:A *600:122 2.22315e-05
7 *2212:A *624:58 0.000294938
8 *2212:A *694:76 0.000138278
*RES
1 FrameData[6] *2212:A 7.5699 
*END

*D_NET *106 0.00312096
*CONN
*P FrameData[7] I
*I *2213:A I *D sky130_fd_sc_hd__clkbuf_2
*CAP
1 FrameData[7] 0.00089452
2 *2213:A 0.00089452
3 *2213:A *153:105 0.000172706
4 *2213:A *158:71 1.08758e-05
5 *2213:A *546:31 1.88904e-05
6 *2213:A *556:46 9.88392e-05
7 *2213:A *590:112 0.00034998
8 *2213:A *624:58 4.17092e-05
9 *2213:A *628:68 9.2563e-06
10 *2213:A *629:52 0.000113567
11 *2213:A *636:159 0.000477746
12 *2213:A *637:46 3.83486e-05
*RES
1 FrameData[7] *2213:A 12.1612 
*END

*D_NET *107 0.00308744
*CONN
*P FrameData[8] I
*I *2214:A I *D sky130_fd_sc_hd__clkbuf_2
*CAP
1 FrameData[8] 0.000834516
2 *2214:A 0.000834516
3 *2214:A *2362:A 9.2563e-06
4 *2214:A *154:99 0.000207215
5 *2214:A *480:70 0.000216323
6 *2214:A *510:28 8.23457e-05
7 *2214:A *616:44 0.000212299
8 *2214:A *628:68 0.000304219
9 *2214:A *638:16 6.33103e-05
10 *2214:A *644:115 5.32562e-05
11 *2214:A *674:80 0.000270184
*RES
1 FrameData[8] *2214:A 9.2039 
*END

*D_NET *108 0.00212719
*CONN
*P FrameData[9] I
*I *2215:A I *D sky130_fd_sc_hd__clkbuf_2
*CAP
1 FrameData[9] 0.000734955
2 *2215:A 0.000734955
3 *2215:A *2362:A 3.9484e-05
4 *2215:A *154:99 5.63183e-05
5 *2215:A *158:71 8.18811e-05
6 *2215:A *582:94 3.41077e-05
7 *2215:A *616:44 5.75434e-05
8 *2215:A *644:115 5.55749e-05
9 *2215:A *674:80 0.000177018
10 *2215:A *675:56 0.000124496
11 *2241:A *2215:A 3.08543e-05
*RES
1 FrameData[9] *2215:A 7.47743 
*END

*D_NET *109 0.00319358
*CONN
*P FrameData_O[0] O
*I *2331:X O *D sky130_fd_sc_hd__buf_2
*CAP
1 FrameData_O[0] 0.000684039
2 *2331:X 0.000684039
3 FrameData_O[0] FrameData_O[1] 0.000128546
4 FrameData_O[0] FrameData_O[2] 0.000447225
5 FrameData_O[0] *659:213 0.000169547
6 FrameData_O[0] *695:90 0.000783737
7 E6BEG[10] FrameData_O[0] 4.37998e-05
8 E6BEG[11] FrameData_O[0] 2.39315e-05
9 E6BEG[6] FrameData_O[0] 0.000228716
*RES
1 *2331:X FrameData_O[0] 14.8138 
*END

*D_NET *110 0.00306175
*CONN
*P FrameData_O[10] O
*I *2332:X O *D sky130_fd_sc_hd__buf_2
*CAP
1 FrameData_O[10] 0.000778104
2 *2332:X 0.000778104
3 FrameData_O[10] FrameData_O[11] 0.000197672
4 FrameData_O[10] FrameData_O[12] 2.39856e-05
5 FrameData_O[10] FrameData_O[14] 0.000451592
6 FrameData_O[10] FrameData_O[17] 0.000105762
7 FrameData_O[10] FrameData_O[2] 0.00023401
8 FrameData_O[10] FrameData_O[4] 5.33274e-05
9 FrameData_O[10] FrameData_O[8] 8.61924e-06
10 FrameData_O[10] FrameData_O[9] 0.000121813
11 FrameData_O[10] *1814:A2 7.07047e-06
12 FrameData_O[10] *2332:A 5.83121e-06
13 FrameData_O[10] *536:26 8.43887e-05
14 FrameData_O[10] *564:52 0.000116698
15 FrameData_O[10] *653:275 9.47685e-05
*RES
1 *2332:X FrameData_O[10] 16.5059 
*END

*D_NET *111 0.00294436
*CONN
*P FrameData_O[11] O
*I *2333:X O *D sky130_fd_sc_hd__buf_2
*CAP
1 FrameData_O[11] 0.000931422
2 *2333:X 0.000931422
3 FrameData_O[11] FrameData_O[12] 0.000208094
4 FrameData_O[11] FrameData_O[8] 0.000100046
5 FrameData_O[11] FrameData_O[9] 3.08543e-06
6 FrameData_O[11] *710:DIODE 7.25183e-06
7 FrameData_O[11] *2337:A 5.5597e-05
8 FrameData_O[11] *2348:A 0
9 FrameData_O[11] *2357:A 0
10 FrameData_O[11] *2362:A 4.60123e-05
11 FrameData_O[11] *646:88 0.000152159
12 FrameData_O[11] *653:275 4.2145e-05
13 FrameData_O[11] *691:72 0.000269456
14 FrameData_O[10] FrameData_O[11] 0.000197672
*RES
1 *2333:X FrameData_O[11] 11.1614 
*END

*D_NET *112 0.0033846
*CONN
*P FrameData_O[12] O
*I *2334:X O *D sky130_fd_sc_hd__buf_2
*CAP
1 FrameData_O[12] 0.000712213
2 *2334:X 0.000712213
3 FrameData_O[12] FrameData_O[13] 5.26566e-05
4 FrameData_O[12] FrameData_O[14] 3.958e-05
5 FrameData_O[12] FrameData_O[9] 2.17909e-05
6 FrameData_O[12] *1814:A2 8.77422e-05
7 FrameData_O[12] *2068:A 4.30166e-05
8 FrameData_O[12] *2332:A 8.23457e-05
9 FrameData_O[12] *149:111 0.000684592
10 FrameData_O[12] *653:275 3.92756e-05
11 FrameData_O[12] *691:72 0.000176247
12 FrameData_O[12] *704:110 0.000500849
13 FrameData_O[10] FrameData_O[12] 2.39856e-05
14 FrameData_O[11] FrameData_O[12] 0.000208094
*RES
1 *2334:X FrameData_O[12] 15.5984 
*END

*D_NET *113 0.00182761
*CONN
*P FrameData_O[13] O
*I *2335:X O *D sky130_fd_sc_hd__buf_2
*CAP
1 FrameData_O[13] 0.000502876
2 *2335:X 0.000502876
3 FrameData_O[13] FrameData_O[14] 4.99143e-05
4 FrameData_O[13] FrameData_O[2] 0.00033606
5 FrameData_O[13] FrameData_O[4] 2.56103e-05
6 FrameData_O[13] *2335:A 4.7003e-05
7 FrameData_O[13] *2346:A 4.24562e-05
8 FrameData_O[13] *2353:A 7.1815e-05
9 FrameData_O[13] *567:96 4.01535e-05
10 FrameData_O[13] *704:90 0.000156187
11 FrameData_O[12] FrameData_O[13] 5.26566e-05
*RES
1 *2335:X FrameData_O[13] 12.4674 
*END

*D_NET *114 0.00311258
*CONN
*P FrameData_O[14] O
*I *2336:X O *D sky130_fd_sc_hd__buf_2
*CAP
1 FrameData_O[14] 0.000742281
2 *2336:X 0.000742281
3 FrameData_O[14] FrameData_O[15] 0.000115943
4 FrameData_O[14] FrameData_O[16] 0.000129146
5 FrameData_O[14] FrameData_O[17] 3.05353e-05
6 FrameData_O[14] FrameData_O[20] 0.000102765
7 FrameData_O[14] FrameData_O[21] 0.000198763
8 FrameData_O[14] FrameData_O[22] 0.000108747
9 FrameData_O[14] FrameData_O[9] 0.000109761
10 FrameData_O[14] *147:101 0.000232797
11 FrameData_O[14] *564:52 5.84716e-05
12 FrameData_O[10] FrameData_O[14] 0.000451592
13 FrameData_O[12] FrameData_O[14] 3.958e-05
14 FrameData_O[13] FrameData_O[14] 4.99143e-05
*RES
1 *2336:X FrameData_O[14] 16.912 
*END

*D_NET *115 0.00136775
*CONN
*P FrameData_O[15] O
*I *2337:X O *D sky130_fd_sc_hd__buf_2
*CAP
1 FrameData_O[15] 0.000442488
2 *2337:X 0.000442488
3 FrameData_O[15] FrameData_O[16] 0.000181613
4 FrameData_O[15] FrameData_O[4] 1.61642e-05
5 FrameData_O[15] FrameData_O[9] 0.000143849
6 FrameData_O[15] *147:101 1.93765e-05
7 FrameData_O[15] *564:16 5.83121e-06
8 FrameData_O[14] FrameData_O[15] 0.000115943
*RES
1 *2337:X FrameData_O[15] 7.1003 
*END

*D_NET *116 0.0019855
*CONN
*P FrameData_O[16] O
*I *2338:X O *D sky130_fd_sc_hd__buf_2
*CAP
1 FrameData_O[16] 0.000406628
2 *2338:X 0.000406628
3 FrameData_O[16] FrameData_O[17] 0.000106815
4 FrameData_O[16] *731:DIODE 4.66108e-05
5 FrameData_O[16] *146:89 4.98568e-05
6 FrameData_O[16] *147:101 0.000131449
7 FrameData_O[16] *524:49 0.000301472
8 FrameData_O[16] *567:96 0.000225285
9 FrameData_O[14] FrameData_O[16] 0.000129146
10 FrameData_O[15] FrameData_O[16] 0.000181613
*RES
1 *2338:X FrameData_O[16] 9.7553 
*END

*D_NET *117 0.0029728
*CONN
*P FrameData_O[17] O
*I *2339:X O *D sky130_fd_sc_hd__buf_2
*CAP
1 FrameData_O[17] 0.000564443
2 *2339:X 0.000564443
3 FrameData_O[17] FrameData_O[18] 3.17947e-05
4 FrameData_O[17] FrameData_O[20] 0.000316534
5 FrameData_O[17] FrameData_O[21] 0.00022707
6 FrameData_O[17] FrameData_O[22] 7.50145e-05
7 FrameData_O[17] *2346:A 8.05167e-05
8 FrameData_O[17] *146:89 0.000145914
9 FrameData_O[17] *536:26 0.000723962
10 FrameData_O[10] FrameData_O[17] 0.000105762
11 FrameData_O[14] FrameData_O[17] 3.05353e-05
12 FrameData_O[16] FrameData_O[17] 0.000106815
*RES
1 *2339:X FrameData_O[17] 16.4072 
*END

*D_NET *118 0.00206191
*CONN
*P FrameData_O[18] O
*I *2340:X O *D sky130_fd_sc_hd__buf_2
*CAP
1 FrameData_O[18] 0.000641035
2 *2340:X 0.000641035
3 FrameData_O[18] FrameData_O[19] 4.0615e-05
4 FrameData_O[18] FrameData_O[20] 4.84933e-05
5 FrameData_O[18] FrameData_O[21] 0
6 FrameData_O[18] *2338:A 8.46717e-05
7 FrameData_O[18] *146:89 0.000357625
8 FrameData_O[18] *147:101 4.01535e-05
9 FrameData_O[18] *149:111 4.24562e-05
10 FrameData_O[18] *524:49 0.000134027
11 FrameData_O[17] FrameData_O[18] 3.17947e-05
*RES
1 *2340:X FrameData_O[18] 9.54183 
*END

*D_NET *119 0.00252046
*CONN
*P FrameData_O[19] O
*I *2341:X O *D sky130_fd_sc_hd__buf_2
*CAP
1 FrameData_O[19] 0.000616558
2 *2341:X 0.000616558
3 FrameData_O[19] FrameData_O[20] 4.0615e-05
4 FrameData_O[19] FrameData_O[26] 8.35068e-05
5 FrameData_O[19] FrameData_O[27] 1.74678e-05
6 FrameData_O[19] *2346:A 0.000331374
7 FrameData_O[19] *514:22 0.000725917
8 FrameData_O[19] *536:26 4.78459e-05
9 FrameData_O[18] FrameData_O[19] 4.0615e-05
*RES
1 *2341:X FrameData_O[19] 17.5542 
*END

*D_NET *120 0.00298184
*CONN
*P FrameData_O[1] O
*I *2342:X O *D sky130_fd_sc_hd__buf_2
*CAP
1 FrameData_O[1] 0.000962235
2 *2342:X 0.000962235
3 FrameData_O[1] FrameData_O[2] 0.000145411
4 FrameData_O[1] FrameData_O[3] 0.000162486
5 FrameData_O[1] *514:94 0.000196442
6 FrameData_O[1] *539:26 9.22383e-05
7 FrameData_O[1] *567:90 2.38257e-05
8 FrameData_O[1] *646:88 0.000246923
9 FrameData_O[1] *691:44 7.9642e-06
10 E6BEG[11] FrameData_O[1] 3.40657e-05
11 E6BEG[6] FrameData_O[1] 1.94676e-05
12 FrameData_O[0] FrameData_O[1] 0.000128546
*RES
1 *2342:X FrameData_O[1] 9.18243 
*END

*D_NET *121 0.00355344
*CONN
*P FrameData_O[20] O
*I *2343:X O *D sky130_fd_sc_hd__buf_2
*CAP
1 FrameData_O[20] 0.000667241
2 *2343:X 0.000667241
3 FrameData_O[20] FrameData_O[21] 0.000302987
4 FrameData_O[20] FrameData_O[22] 0.000813178
5 FrameData_O[20] FrameData_O[23] 9.24781e-05
6 FrameData_O[20] FrameData_O[24] 9.24781e-05
7 FrameData_O[20] FrameData_O[29] 0.00019494
8 FrameData_O[20] FrameData_O[31] 4.51641e-05
9 FrameData_O[20] *147:101 0.000169326
10 FrameData_O[14] FrameData_O[20] 0.000102765
11 FrameData_O[17] FrameData_O[20] 0.000316534
12 FrameData_O[18] FrameData_O[20] 4.84933e-05
13 FrameData_O[19] FrameData_O[20] 4.0615e-05
*RES
1 *2343:X FrameData_O[20] 19.75 
*END

*D_NET *122 0.00260886
*CONN
*P FrameData_O[21] O
*I *2344:X O *D sky130_fd_sc_hd__buf_2
*CAP
1 FrameData_O[21] 0.000466006
2 *2344:X 0.000466006
3 FrameData_O[21] FrameData_O[22] 0.000164024
4 FrameData_O[21] FrameData_O[23] 1.27783e-05
5 FrameData_O[21] *2346:A 0.000374727
6 FrameData_O[21] *147:101 0.000396502
7 FrameData_O[14] FrameData_O[21] 0.000198763
8 FrameData_O[17] FrameData_O[21] 0.00022707
9 FrameData_O[18] FrameData_O[21] 0
10 FrameData_O[20] FrameData_O[21] 0.000302987
*RES
1 *2344:X FrameData_O[21] 12.8153 
*END

*D_NET *123 0.0032639
*CONN
*P FrameData_O[22] O
*I *2345:X O *D sky130_fd_sc_hd__buf_2
*CAP
1 FrameData_O[22] 0.000646305
2 *2345:X 0.000646305
3 FrameData_O[22] FrameData_O[23] 0.000150772
4 FrameData_O[22] FrameData_O[29] 0.000336458
5 FrameData_O[22] *514:22 4.11718e-05
6 FrameData_O[22] *536:26 0.000281921
7 FrameData_O[14] FrameData_O[22] 0.000108747
8 FrameData_O[17] FrameData_O[22] 7.50145e-05
9 FrameData_O[20] FrameData_O[22] 0.000813178
10 FrameData_O[21] FrameData_O[22] 0.000164024
*RES
1 *2345:X FrameData_O[22] 18.8938 
*END

*D_NET *124 0.00244444
*CONN
*P FrameData_O[23] O
*I *2346:X O *D sky130_fd_sc_hd__buf_2
*CAP
1 FrameData_O[23] 0.000763711
2 *2346:X 0.000763711
3 FrameData_O[23] FrameData_O[24] 0.000340425
4 FrameData_O[23] *1882:A2 9.20028e-05
5 FrameData_O[23] *1893:A1 0
6 FrameData_O[23] *1914:A2 0.000138279
7 FrameData_O[23] *2335:A 3.01952e-05
8 FrameData_O[23] *149:111 3.64376e-06
9 FrameData_O[23] *576:42 3.34633e-05
10 FrameData_O[23] *594:102 2.29759e-05
11 FrameData_O[20] FrameData_O[23] 9.24781e-05
12 FrameData_O[21] FrameData_O[23] 1.27783e-05
13 FrameData_O[22] FrameData_O[23] 0.000150772
*RES
1 *2346:X FrameData_O[23] 7.78103 
*END

*D_NET *125 0.00345242
*CONN
*P FrameData_O[24] O
*I *2347:X O *D sky130_fd_sc_hd__buf_2
*CAP
1 FrameData_O[24] 0.000960975
2 *2347:X 0.000960975
3 FrameData_O[24] FrameData_O[25] 0.000283751
4 FrameData_O[24] *1882:A2 0.000462425
5 FrameData_O[24] *1882:S1 0.000118513
6 FrameData_O[24] *2335:A 4.27883e-06
7 FrameData_O[24] *2339:A 4.92971e-05
8 FrameData_O[24] *2341:A 4.76263e-05
9 FrameData_O[24] *2343:A 4.77757e-05
10 FrameData_O[24] *149:111 3.20393e-05
11 FrameData_O[24] *576:42 5.1857e-05
12 FrameData_O[20] FrameData_O[24] 9.24781e-05
13 FrameData_O[23] FrameData_O[24] 0.000340425
*RES
1 *2347:X FrameData_O[24] 13.7695 
*END

*D_NET *126 0.00218058
*CONN
*P FrameData_O[25] O
*I *2348:X O *D sky130_fd_sc_hd__buf_2
*CAP
1 FrameData_O[25] 0.000555176
2 *2348:X 0.000555176
3 FrameData_O[25] FrameData_O[26] 0.000341298
4 FrameData_O[25] *149:111 0.000126878
5 FrameData_O[25] *576:42 0.000175178
6 FrameData_O[25] *704:110 0.000143124
7 FrameData_O[24] FrameData_O[25] 0.000283751
*RES
1 *2348:X FrameData_O[25] 9.0099 
*END

*D_NET *127 0.00260535
*CONN
*P FrameData_O[26] O
*I *2349:X O *D sky130_fd_sc_hd__buf_2
*CAP
1 FrameData_O[26] 0.000555046
2 *2349:X 0.000555046
3 FrameData_O[26] FrameData_O[27] 0.000288141
4 FrameData_O[26] FrameData_O[28] 1.70472e-05
5 FrameData_O[26] *1814:A2 0.000114293
6 FrameData_O[26] *2341:A 0.000346929
7 FrameData_O[26] *2348:A 0.000118081
8 FrameData_O[26] *149:111 5.82744e-05
9 FrameData_O[26] *704:110 0.000127691
10 FrameData_O[19] FrameData_O[26] 8.35068e-05
11 FrameData_O[25] FrameData_O[26] 0.000341298
*RES
1 *2349:X FrameData_O[26] 11.7284 
*END

*D_NET *128 0.00215484
*CONN
*P FrameData_O[27] O
*I *2350:X O *D sky130_fd_sc_hd__buf_2
*CAP
1 FrameData_O[27] 0.000443071
2 *2350:X 0.000443071
3 FrameData_O[27] FrameData_O[28] 0.000225331
4 FrameData_O[27] *1814:A2 0.000520351
5 FrameData_O[27] *2341:A 6.90044e-05
6 FrameData_O[27] *2348:A 4.41506e-05
7 FrameData_O[27] *147:101 0.00010425
8 FrameData_O[19] FrameData_O[27] 1.74678e-05
9 FrameData_O[26] FrameData_O[27] 0.000288141
*RES
1 *2350:X FrameData_O[27] 10.3068 
*END

*D_NET *129 0.00333364
*CONN
*P FrameData_O[28] O
*I *2351:X O *D sky130_fd_sc_hd__buf_2
*CAP
1 FrameData_O[28] 0.000912421
2 *2351:X 0.000912421
3 FrameData_O[28] FrameData_O[29] 0.000197225
4 FrameData_O[28] FrameData_O[30] 4.19732e-05
5 FrameData_O[28] FrameData_O[31] 6.09242e-05
6 FrameData_O[28] *1814:A2 3.82728e-05
7 FrameData_O[28] *2060:A 0.000414531
8 FrameData_O[28] *147:101 0.000153455
9 FrameData_O[28] *483:80 0.000185479
10 FrameData_O[28] *514:22 4.06895e-05
11 FrameData_O[28] *576:42 0
12 FrameData_O[28] *704:110 0.000133874
13 FrameData_O[26] FrameData_O[28] 1.70472e-05
14 FrameData_O[27] FrameData_O[28] 0.000225331
*RES
1 *2351:X FrameData_O[28] 16.4684 
*END

*D_NET *130 0.00254022
*CONN
*P FrameData_O[29] O
*I *2352:X O *D sky130_fd_sc_hd__buf_2
*CAP
1 FrameData_O[29] 0.000355002
2 *2352:X 0.000355002
3 FrameData_O[29] FrameData_O[30] 0.000319304
4 FrameData_O[29] *147:101 0.000399844
5 FrameData_O[29] *514:22 0.00038244
6 FrameData_O[20] FrameData_O[29] 0.00019494
7 FrameData_O[22] FrameData_O[29] 0.000336458
8 FrameData_O[28] FrameData_O[29] 0.000197225
*RES
1 *2352:X FrameData_O[29] 12.8153 
*END

*D_NET *131 0.00430019
*CONN
*P FrameData_O[2] O
*I *2353:X O *D sky130_fd_sc_hd__buf_2
*CAP
1 FrameData_O[2] 0.000948326
2 *2353:X 0.000948326
3 FrameData_O[2] FrameData_O[3] 0.000356404
4 FrameData_O[2] FrameData_O[4] 0.000357319
5 FrameData_O[2] *147:101 3.25314e-05
6 FrameData_O[2] *514:22 0
7 FrameData_O[2] *564:52 4.66108e-05
8 FrameData_O[2] *653:275 0.000184029
9 FrameData_O[2] *659:213 6.72027e-05
10 FrameData_O[2] *695:90 0.000104665
11 FrameData_O[2] *697:62 9.20758e-05
12 FrameData_O[0] FrameData_O[2] 0.000447225
13 FrameData_O[10] FrameData_O[2] 0.00023401
14 FrameData_O[13] FrameData_O[2] 0.00033606
15 FrameData_O[1] FrameData_O[2] 0.000145411
*RES
1 *2353:X FrameData_O[2] 25.097 
*END

*D_NET *132 0.00261438
*CONN
*P FrameData_O[30] O
*I *2354:X O *D sky130_fd_sc_hd__buf_2
*CAP
1 FrameData_O[30] 0.000633623
2 *2354:X 0.000633623
3 FrameData_O[30] FrameData_O[31] 0.000225772
4 FrameData_O[30] *483:80 0.000390331
5 FrameData_O[30] *514:22 0.000135759
6 FrameData_O[30] *576:42 0.000135667
7 FrameData_O[30] *704:110 9.83261e-05
8 FrameData_O[28] FrameData_O[30] 4.19732e-05
9 FrameData_O[29] FrameData_O[30] 0.000319304
*RES
1 *2354:X FrameData_O[30] 10.9132 
*END

*D_NET *133 0.00181975
*CONN
*P FrameData_O[31] O
*I *2355:X O *D sky130_fd_sc_hd__buf_2
*CAP
1 FrameData_O[31] 0.000616397
2 *2355:X 0.000616397
3 FrameData_O[31] *2343:A 5.88283e-05
4 FrameData_O[31] *2347:A 8.35106e-05
5 FrameData_O[31] *147:101 0.000107199
6 FrameData_O[31] *483:80 5.56205e-06
7 FrameData_O[20] FrameData_O[31] 4.51641e-05
8 FrameData_O[28] FrameData_O[31] 6.09242e-05
9 FrameData_O[30] FrameData_O[31] 0.000225772
*RES
1 *2355:X FrameData_O[31] 10.3068 
*END

*D_NET *134 0.00284229
*CONN
*P FrameData_O[3] O
*I *2356:X O *D sky130_fd_sc_hd__buf_2
*CAP
1 FrameData_O[3] 0.000550382
2 *2356:X 0.000550382
3 FrameData_O[3] FrameData_O[4] 2.39315e-05
4 FrameData_O[3] FrameData_O[5] 9.47972e-06
5 FrameData_O[3] *2342:A 8.23457e-05
6 FrameData_O[3] *147:101 0.000210498
7 FrameData_O[3] *559:46 0.00041189
8 FrameData_O[3] *567:90 0.000294938
9 FrameData_O[3] *691:44 0.00018955
10 FrameData_O[1] FrameData_O[3] 0.000162486
11 FrameData_O[2] FrameData_O[3] 0.000356404
*RES
1 *2356:X FrameData_O[3] 12.1553 
*END

*D_NET *135 0.00415402
*CONN
*P FrameData_O[4] O
*I *2357:X O *D sky130_fd_sc_hd__buf_2
*CAP
1 FrameData_O[4] 0.000831446
2 *2357:X 0.000831446
3 FrameData_O[4] FrameData_O[5] 9.8681e-05
4 FrameData_O[4] FrameData_O[6] 1.88904e-05
5 FrameData_O[4] *2346:A 0.000214592
6 FrameData_O[4] *2353:A 8.52845e-05
7 FrameData_O[4] *536:26 0.000593647
8 FrameData_O[4] *564:16 0.000155601
9 FrameData_O[4] *567:90 0.000158585
10 FrameData_O[4] *653:275 5.08304e-06
11 FrameData_O[4] *695:90 0.000322455
12 FrameData_O[4] *697:62 2.76774e-05
13 FrameData_O[4] *704:90 0.000334275
14 FrameData_O[10] FrameData_O[4] 5.33274e-05
15 FrameData_O[13] FrameData_O[4] 2.56103e-05
16 FrameData_O[15] FrameData_O[4] 1.61642e-05
17 FrameData_O[2] FrameData_O[4] 0.000357319
18 FrameData_O[3] FrameData_O[4] 2.39315e-05
*RES
1 *2357:X FrameData_O[4] 20.0822 
*END

*D_NET *136 0.003655
*CONN
*P FrameData_O[5] O
*I *2358:X O *D sky130_fd_sc_hd__buf_2
*CAP
1 FrameData_O[5] 0.00116508
2 *2358:X 0.00116508
3 FrameData_O[5] FrameData_O[6] 0.000112283
4 FrameData_O[5] FrameData_O[7] 1.75736e-05
5 FrameData_O[5] *1889:S1 4.77719e-05
6 FrameData_O[5] *1999:D 1.08758e-05
7 FrameData_O[5] *2304:A 3.89311e-05
8 FrameData_O[5] *2331:A 0.00012325
9 FrameData_O[5] *2333:A 7.00115e-05
10 FrameData_O[5] *2342:A 0.000201812
11 FrameData_O[5] *2359:A 0.00022645
12 FrameData_O[5] *514:94 1.91931e-05
13 FrameData_O[5] *559:46 8.53224e-05
14 FrameData_O[5] *567:90 9.78078e-05
15 FrameData_O[5] *594:102 7.84316e-05
16 FrameData_O[5] *673:106 7.00115e-05
17 FrameData_O[5] *691:44 1.69587e-05
18 FrameData_O[3] FrameData_O[5] 9.47972e-06
19 FrameData_O[4] FrameData_O[5] 9.8681e-05
*RES
1 *2358:X FrameData_O[5] 19.389 
*END

*D_NET *137 0.00236712
*CONN
*P FrameData_O[6] O
*I *2359:X O *D sky130_fd_sc_hd__buf_2
*CAP
1 FrameData_O[6] 0.000561083
2 *2359:X 0.000561083
3 FrameData_O[6] FrameData_O[7] 8.13671e-05
4 FrameData_O[6] *2346:A 1.79483e-05
5 FrameData_O[6] *2359:A 0.000227208
6 FrameData_O[6] *514:94 3.33486e-06
7 FrameData_O[6] *559:46 0.000117448
8 FrameData_O[6] *653:275 0.000153816
9 FrameData_O[6] *691:44 0.000108695
10 E6BEG[10] FrameData_O[6] 0.00040396
11 FrameData_O[4] FrameData_O[6] 1.88904e-05
12 FrameData_O[5] FrameData_O[6] 0.000112283
*RES
1 *2359:X FrameData_O[6] 16.554 
*END

*D_NET *138 0.00542771
*CONN
*P FrameData_O[7] O
*I *2360:X O *D sky130_fd_sc_hd__buf_2
*CAP
1 FrameData_O[7] 0.00123399
2 *2360:X 0.00123399
3 FrameData_O[7] FrameData_O[8] 7.16553e-05
4 FrameData_O[7] *1998:D 0.000589876
5 FrameData_O[7] *2095:A 0.000112892
6 FrameData_O[7] *2304:A 3.00946e-05
7 FrameData_O[7] *2358:A 6.11965e-05
8 FrameData_O[7] *2360:A 0.000353062
9 FrameData_O[7] *234:14 8.40213e-05
10 FrameData_O[7] *235:45 3.14528e-05
11 FrameData_O[7] *535:76 0.000157264
12 FrameData_O[7] *536:26 0.000627015
13 FrameData_O[7] *559:46 8.50177e-05
14 FrameData_O[7] *594:102 0.000569953
15 FrameData_O[7] *645:82 8.72995e-05
16 FrameData_O[5] FrameData_O[7] 1.75736e-05
17 FrameData_O[6] FrameData_O[7] 8.13671e-05
*RES
1 *2360:X FrameData_O[7] 11.7814 
*END

*D_NET *139 0.00258594
*CONN
*P FrameData_O[8] O
*I *2361:X O *D sky130_fd_sc_hd__buf_2
*CAP
1 FrameData_O[8] 0.000785533
2 *2361:X 0.000785533
3 FrameData_O[8] FrameData_O[9] 0.000105188
4 FrameData_O[8] *710:DIODE 0.000182771
5 FrameData_O[8] *1899:A1 7.1242e-05
6 FrameData_O[8] *536:26 0.000271173
7 FrameData_O[8] *539:26 1.7309e-05
8 FrameData_O[8] *559:46 0
9 FrameData_O[8] *691:72 0.000106285
10 FrameData_O[8] *697:62 8.05822e-05
11 FrameData_O[10] FrameData_O[8] 8.61924e-06
12 FrameData_O[11] FrameData_O[8] 0.000100046
13 FrameData_O[7] FrameData_O[8] 7.16553e-05
*RES
1 *2361:X FrameData_O[8] 6.96623 
*END

*D_NET *140 0.00386604
*CONN
*P FrameData_O[9] O
*I *2362:X O *D sky130_fd_sc_hd__buf_2
*CAP
1 FrameData_O[9] 0.00103061
2 *2362:X 0.00103061
3 FrameData_O[9] *1893:A1 0.000145958
4 FrameData_O[9] *2317:A 0.000174598
5 FrameData_O[9] *2348:A 5.55173e-05
6 FrameData_O[9] *646:88 7.48537e-05
7 FrameData_O[9] *653:275 0.000289939
8 FrameData_O[9] *696:26 0.000477882
9 FrameData_O[9] *697:62 8.05822e-05
10 FrameData_O[10] FrameData_O[9] 0.000121813
11 FrameData_O[11] FrameData_O[9] 3.08543e-06
12 FrameData_O[12] FrameData_O[9] 2.17909e-05
13 FrameData_O[14] FrameData_O[9] 0.000109761
14 FrameData_O[15] FrameData_O[9] 0.000143849
15 FrameData_O[8] FrameData_O[9] 0.000105188
*RES
1 *2362:X FrameData_O[9] 9.3705 
*END

*D_NET *141 0.00151539
*CONN
*P FrameStrobe[0] I
*I *2216:A I *D sky130_fd_sc_hd__clkbuf_2
*CAP
1 FrameStrobe[0] 0.000500202
2 *2216:A 0.000500202
3 *2216:A *2217:A 0
4 *2216:A *152:15 0.0001436
5 *2216:A *153:39 0.000259993
6 *2216:A *154:41 0.000111392
7 *2216:A *181:21 0
*RES
1 FrameStrobe[0] *2216:A 18.655 
*END

*D_NET *142 0.0616208
*CONN
*P FrameStrobe[10] I
*I *2150:A I *D sky130_fd_sc_hd__clkbuf_1
*I *742:DIODE I *D sky130_fd_sc_hd__diode_2
*CAP
1 FrameStrobe[10] 0.00504701
2 *2150:A 8.9264e-05
3 *742:DIODE 0.00493322
4 *142:89 0.00615016
5 *142:57 0.00501651
6 *142:31 0.00875733
7 *742:DIODE *743:DIODE 0.000275553
8 *742:DIODE *1883:S1 0.000161829
9 *742:DIODE *1900:S1 7.53186e-05
10 *742:DIODE *2011:D 5.66475e-05
11 *742:DIODE *2011:GATE 0.000127062
12 *742:DIODE *2345:A 7.33639e-05
13 *742:DIODE *156:59 0.000135749
14 *742:DIODE *158:75 0.00166763
15 *742:DIODE *511:12 0.00166367
16 *742:DIODE *524:14 9.58671e-05
17 *742:DIODE *535:16 0.000107883
18 *742:DIODE *535:112 1.00941e-05
19 *742:DIODE *557:44 0.000172045
20 *742:DIODE *564:8 0.000318487
21 *742:DIODE *568:42 0.000160365
22 *742:DIODE *590:170 0.00242311
23 *742:DIODE *591:48 0.000122786
24 *742:DIODE *686:52 0.000296144
25 *742:DIODE *686:58 0.00040531
26 *742:DIODE *696:30 6.34783e-05
27 *742:DIODE *698:175 9.69284e-06
28 *2150:A *1883:S1 1.19928e-05
29 *2150:A *2153:A 8.23457e-05
30 *2150:A *2373:A 3.00381e-05
31 *2150:A *564:8 0.000232105
32 *142:31 *2226:A 0.000491554
33 *142:31 *2227:A 0.000569961
34 *142:31 *2248:A 4.6399e-05
35 *142:31 *143:7 0
36 *142:31 *144:31 1.66059e-05
37 *142:31 *146:67 0.000388228
38 *142:31 *149:23 0.000602786
39 *142:31 *150:35 8.29344e-05
40 *142:31 *153:39 0.00053706
41 *142:31 *160:25 0
42 *142:31 *181:21 3.96298e-05
43 *142:31 *481:30 0.000114678
44 *142:31 *494:16 0.000371052
45 *142:31 *560:44 0.000664297
46 *142:31 *567:32 0.000115718
47 *142:31 *579:54 0.000115279
48 *142:31 *579:84 0.000437077
49 *142:31 *596:50 0.00158858
50 *142:31 *651:185 0.000547904
51 *142:31 *660:51 0.00105145
52 *142:31 *661:81 0.000256624
53 *142:31 *699:40 0.00162342
54 *142:57 *1903:A1 0.000198521
55 *142:57 *2279:A 7.97096e-05
56 *142:57 *2288:A 0.000301553
57 *142:57 *2294:A 5.00395e-05
58 *142:57 *145:71 8.72438e-06
59 *142:57 *160:85 6.98788e-05
60 *142:57 *482:30 0.00092721
61 *142:57 *482:66 6.69115e-05
62 *142:57 *519:46 0.000722319
63 *142:57 *560:66 2.65779e-05
64 *142:57 *586:44 0
65 *142:57 *601:10 0.000282067
66 *142:57 *602:117 0
67 *142:57 *624:82 9.23681e-05
68 *142:57 *626:96 0.000757105
69 *142:57 *632:66 9.92738e-06
70 *142:57 *642:38 0.00133618
71 *142:57 *644:46 0.000269151
72 *142:57 *644:52 4.0797e-05
73 *142:57 *651:209 0.000121957
74 *142:57 *660:87 0.000829446
75 *142:57 *680:46 8.15318e-05
76 *142:57 *695:66 5.78621e-05
77 *142:57 *696:26 4.4682e-05
78 *142:57 *699:40 0.000394799
79 *142:89 *2281:A 0.000272632
80 *142:89 *153:105 0.000264953
81 *142:89 *153:129 8.35106e-05
82 *142:89 *154:99 0.000468097
83 *142:89 *157:111 4.17045e-05
84 *142:89 *482:66 0.000330039
85 *142:89 *482:76 0.000154216
86 *142:89 *512:18 1.38676e-05
87 *142:89 *557:44 0.000153816
88 *142:89 *568:58 0.000382683
89 *142:89 *582:94 8.73389e-06
90 *142:89 *602:70 0.000217341
91 *142:89 *603:68 8.0105e-05
92 *142:89 *616:44 3.69766e-05
93 *142:89 *626:70 0
94 *142:89 *626:96 0.00110159
95 *142:89 *627:106 0.000570897
96 *142:89 *628:68 0.000517018
97 *142:89 *629:58 5.32133e-05
98 *142:89 *633:30 7.56247e-05
99 *142:89 *644:115 4.00541e-06
100 *142:89 *675:56 5.83121e-06
101 *142:89 *694:76 0.00027646
102 E2BEG[0] *142:57 0.000431291
103 E2BEG[1] *142:57 0.000158585
104 E2BEG[2] *142:57 0.000134465
105 *2191:A *742:DIODE 9.01191e-06
106 *2192:A *742:DIODE 0.000508737
107 *2263:A *142:89 6.28008e-05
*RES
1 FrameStrobe[10] *142:31 49.0887 
2 *142:31 *142:57 38.8937 
3 *142:57 *142:89 49.545 
4 *142:89 *742:DIODE 47.7893 
5 *742:DIODE *2150:A 5.735 
*END

*D_NET *143 0.0433244
*CONN
*P FrameStrobe[11] I
*I *2151:A I *D sky130_fd_sc_hd__clkbuf_1
*I *743:DIODE I *D sky130_fd_sc_hd__diode_2
*CAP
1 FrameStrobe[11] 0.00061093
2 *2151:A 9.63532e-05
3 *743:DIODE 0.00127527
4 *143:117 0.00258043
5 *143:109 0.00319699
6 *143:47 0.00337537
7 *143:9 0.00366053
8 *143:7 0.00269156
9 *743:DIODE *1809:A1 3.76746e-05
10 *743:DIODE *1809:A2 1.23883e-05
11 *743:DIODE *1809:A3 8.75256e-05
12 *743:DIODE *1891:A3 5.83121e-06
13 *743:DIODE *1894:A1 9.3062e-06
14 *743:DIODE *1894:A3 9.27099e-05
15 *743:DIODE *2010:GATE 2.62443e-05
16 *743:DIODE *2011:D 0
17 *743:DIODE *2103:A 1.03368e-05
18 *743:DIODE *146:99 0
19 *743:DIODE *159:101 3.49355e-05
20 *743:DIODE *535:112 0
21 *743:DIODE *564:8 0.000275553
22 *743:DIODE *576:42 0.0003472
23 *743:DIODE *653:275 0.000174738
24 *743:DIODE *704:110 1.88656e-05
25 *2151:A FrameStrobe_O[15] 4.66108e-05
26 *2151:A *2154:A 0
27 *2151:A *2368:A 4.9968e-05
28 *2151:A *2369:A 4.66108e-05
29 *2151:A *151:85 4.49939e-05
30 *143:7 *1798:A 9.79625e-05
31 *143:7 *144:31 0
32 *143:7 *145:35 0
33 *143:7 *160:25 0
34 *143:9 *1798:A 7.09383e-05
35 *143:9 *1829:A0 8.02701e-05
36 *143:9 *1831:A1 0
37 *143:9 *1832:C_N 0
38 *143:9 *1833:B1 5.07376e-05
39 *143:9 *1835:B1 0.000135415
40 *143:9 *1844:B 1.01661e-05
41 *143:9 *1855:A1 4.8498e-05
42 *143:9 *1856:A1 0.000121575
43 *143:9 *1861:A0 1.92979e-05
44 *143:9 *1868:B 0
45 *143:9 *1869:A1 9.866e-05
46 *143:9 *2034:D 0
47 *143:9 *2113:A 0.000156698
48 *143:9 *2224:A 1.22505e-05
49 *143:9 *2262:A 4.14843e-05
50 *143:9 *144:31 0.00036108
51 *143:9 *254:35 3.24318e-05
52 *143:9 *254:37 3.42142e-05
53 *143:9 *484:18 0.000222166
54 *143:9 *493:16 0
55 *143:9 *500:28 0
56 *143:9 *597:12 0.000452589
57 *143:9 *597:20 0.000429072
58 *143:9 *635:42 0.000165471
59 *143:9 *645:14 0.000161742
60 *143:9 *647:46 0.000158225
61 *143:9 *647:63 0
62 *143:9 *648:8 7.00115e-05
63 *143:9 *648:49 6.30135e-05
64 *143:9 *648:109 0.000162295
65 *143:9 *649:53 4.78726e-05
66 *143:9 *651:28 8.53244e-05
67 *143:9 *651:45 0
68 *143:9 *651:51 0
69 *143:9 *657:24 0.00022921
70 *143:9 *660:16 1.70431e-05
71 *143:9 *662:22 1.23244e-05
72 *143:9 *662:24 2.01826e-05
73 *143:9 *663:14 0.000800576
74 *143:9 *664:103 9.45357e-05
75 *143:9 *681:44 0.000151541
76 *143:9 *699:40 5.86739e-05
77 *143:9 *707:14 0.000561689
78 *143:47 *1805:A 8.44292e-05
79 *143:47 *1879:A2 0.000213474
80 *143:47 *1879:S1 4.15756e-05
81 *143:47 *1884:A0 1.46216e-05
82 *143:47 *1911:S1 0.000132422
83 *143:47 *1913:A2 2.05571e-05
84 *143:47 *2036:D 0.000244972
85 *143:47 *2069:A 0.000116844
86 *143:47 *2087:A 7.00225e-05
87 *143:47 *2328:A 2.51917e-05
88 *143:47 *149:75 0.000190715
89 *143:47 *150:35 0.000485745
90 *143:47 *181:56 0.000329107
91 *143:47 *243:42 0.000151037
92 *143:47 *409:32 7.8632e-06
93 *143:47 *483:80 0.000107452
94 *143:47 *514:94 2.10433e-05
95 *143:47 *524:142 0.000114662
96 *143:47 *525:32 0.00012992
97 *143:47 *533:44 0.000293862
98 *143:47 *569:58 3.18695e-05
99 *143:47 *644:24 0.00042965
100 *143:47 *644:46 0.000597879
101 *143:47 *659:116 1.7635e-05
102 *143:47 *664:143 0.000220583
103 *143:47 *671:111 0.000349927
104 *143:47 *689:24 9.17274e-05
105 *143:47 *693:38 0.00103702
106 *143:47 *694:76 2.25371e-05
107 *143:47 *708:42 0.000287076
108 *143:109 *1808:A0 0.000671044
109 *143:109 *1808:A3 1.82334e-05
110 *143:109 *1877:S0 1.14169e-05
111 *143:109 *1888:S0 0.000102177
112 *143:109 *2082:A 5.0887e-05
113 *143:109 *2089:A 2.20014e-05
114 *143:109 *2102:A 5.83121e-06
115 *143:109 *2291:A 4.23033e-05
116 *143:109 *2297:A 1.57842e-05
117 *143:109 *2307:A 1.19928e-05
118 *143:109 *2322:A 1.19928e-05
119 *143:109 *181:56 0.0010091
120 *143:109 *479:62 5.39259e-05
121 *143:109 *479:130 8.66691e-05
122 *143:109 *513:86 0.000845313
123 *143:109 *593:94 0.000310237
124 *143:109 *596:140 8.35068e-05
125 *143:109 *597:60 5.53549e-06
126 *143:109 *600:122 0.000249498
127 *143:109 *631:65 4.6941e-05
128 *143:109 *632:107 0.000214523
129 *143:109 *634:154 4.38485e-05
130 *143:109 *661:203 0.000729864
131 *143:109 *671:70 0.000347965
132 *143:109 *672:52 0.000101896
133 *143:109 *673:106 0.000378496
134 *143:109 *679:59 9.33565e-05
135 *143:109 *693:38 0.000231126
136 *143:109 *693:82 4.1566e-05
137 *143:109 *698:68 0.00010987
138 *143:109 *701:52 0.000105649
139 *143:109 *703:60 6.89286e-05
140 *143:109 *708:42 7.84931e-05
141 *143:117 *1808:A0 9.7828e-06
142 *143:117 *1808:A3 5.93727e-05
143 *143:117 *1808:S0 0.000120513
144 *143:117 *1890:A1 0.000117825
145 *143:117 *1908:S1 4.95063e-05
146 *143:117 *1974:D 0.000284594
147 *143:117 *1991:D 9.5799e-06
148 *143:117 *2074:A 0.000133067
149 *143:117 *2088:A 0.000289896
150 *143:117 *2179:A 7.20898e-05
151 *143:117 *2297:A 0.000145327
152 *143:117 *513:37 9.23473e-05
153 *143:117 *513:86 0.000102996
154 *143:117 *519:16 0.00100192
155 *143:117 *519:40 0.00187392
156 *143:117 *615:14 0.000373957
157 *143:117 *631:22 0.000235546
158 *143:117 *679:59 1.87943e-05
159 *143:117 *679:72 7.67944e-05
160 *143:117 *679:91 0.000314151
161 *143:117 *693:142 0.000962815
162 *143:117 *693:163 0.000478496
163 *742:DIODE *743:DIODE 0.000275553
164 *142:31 *143:7 0
*RES
1 FrameStrobe[11] *143:7 10.7475 
2 *143:7 *143:9 51.8475 
3 *143:9 *143:47 49.7469 
4 *143:47 *143:109 48.6306 
5 *143:109 *143:117 48.0125 
6 *143:117 *743:DIODE 23.675 
7 *743:DIODE *2151:A 9.285 
*END

*D_NET *144 0.0530896
*CONN
*P FrameStrobe[12] I
*I *2152:A I *D sky130_fd_sc_hd__clkbuf_1
*I *710:DIODE I *D sky130_fd_sc_hd__diode_2
*CAP
1 FrameStrobe[12] 0.00459343
2 *2152:A 5.43431e-05
3 *710:DIODE 0.00325223
4 *144:111 0.00535076
5 *144:75 0.00464028
6 *144:31 0.00708084
7 *710:DIODE *1813:S1 8.53113e-06
8 *710:DIODE *1883:S1 0
9 *710:DIODE *2083:A 3.6218e-05
10 *710:DIODE *2155:A 0
11 *710:DIODE *2158:A 8.95568e-05
12 *710:DIODE *2307:A 8.45204e-05
13 *710:DIODE *2308:A 0.0023692
14 *710:DIODE *2310:A 9.22294e-06
15 *710:DIODE *2314:A 8.23457e-05
16 *710:DIODE *2317:A 0.000114205
17 *710:DIODE *2341:A 0
18 *710:DIODE *2345:A 0
19 *710:DIODE *147:101 0.000772821
20 *710:DIODE *149:111 0.00120032
21 *710:DIODE *151:85 0.000116216
22 *710:DIODE *159:101 0.000424538
23 *710:DIODE *234:26 2.03757e-05
24 *710:DIODE *234:44 1.88602e-05
25 *710:DIODE *524:180 0.000756806
26 *710:DIODE *531:62 4.64726e-05
27 *710:DIODE *536:26 3.72428e-05
28 *710:DIODE *542:30 1.31297e-05
29 *710:DIODE *559:46 5.67324e-05
30 *710:DIODE *567:90 4.36408e-05
31 *710:DIODE *594:102 0.00132098
32 *710:DIODE *653:275 0.000164713
33 *710:DIODE *659:227 6.17086e-06
34 *710:DIODE *704:110 0.000303249
35 *2152:A *2366:A 2.75145e-05
36 *2152:A *2369:A 6.76956e-05
37 *144:31 *733:DIODE 0.000116416
38 *144:31 *1861:A0 1.79483e-05
39 *144:31 *1884:A0 0.000794984
40 *144:31 *1904:A0 9.53869e-05
41 *144:31 *2262:A 3.91137e-05
42 *144:31 *145:35 0.000905446
43 *144:31 *146:67 5.75046e-05
44 *144:31 *147:27 0.000509786
45 *144:31 *181:21 0.00158647
46 *144:31 *241:8 6.45236e-05
47 *144:31 *241:12 0.000266505
48 *144:31 *484:18 0.000507871
49 *144:31 *484:29 0.00019317
50 *144:31 *524:142 9.04081e-05
51 *144:31 *567:32 2.26234e-05
52 *144:31 *597:20 3.47757e-05
53 *144:31 *600:74 0.000727789
54 *144:31 *634:78 0.00011281
55 *144:31 *648:109 4.88871e-05
56 *144:31 *660:16 0.000226438
57 *144:31 *660:51 7.2228e-05
58 *144:31 *664:103 9.2655e-05
59 *144:31 *664:125 0.000246056
60 *144:31 *665:83 0
61 *144:31 *692:22 0.000252282
62 *144:31 *707:14 0.0010067
63 *144:75 *1826:A2 8.52883e-05
64 *144:75 *1895:A2 7.76356e-05
65 *144:75 *1905:S0 0.000237946
66 *144:75 *2030:D 4.43212e-05
67 *144:75 *2285:A 0.000308709
68 *144:75 *2298:A 5.30007e-05
69 *144:75 *2300:A 0.000179378
70 *144:75 *2302:A 1.79536e-05
71 *144:75 *2315:A 0
72 *144:75 *2324:A 0
73 *144:75 *151:33 6.94273e-05
74 *144:75 *234:94 5.34626e-05
75 *144:75 *560:66 3.81021e-05
76 *144:75 *569:58 0.000184235
77 *144:75 *636:54 1.56428e-05
78 *144:75 *637:67 5.21459e-06
79 *144:75 *647:189 0.000385307
80 *144:75 *653:172 0.00102898
81 *144:75 *660:87 0
82 *144:75 *661:112 0.000119242
83 *144:75 *676:85 3.1562e-06
84 *144:75 *691:16 0.000880756
85 *144:75 *696:26 0.000111041
86 *144:75 *697:62 3.3438e-05
87 *144:75 *698:129 5.03206e-05
88 *144:75 *703:60 0.000559766
89 *144:111 *732:DIODE 8.82606e-05
90 *144:111 *733:DIODE 8.53307e-05
91 *144:111 *1881:A2 0.000415463
92 *144:111 *1884:A0 2.52096e-05
93 *144:111 *2089:A 8.33341e-05
94 *144:111 *2162:A 0.000221738
95 *144:111 *2315:A 5.33085e-05
96 *144:111 *2324:A 4.66108e-05
97 *144:111 *2330:A 1.43253e-05
98 *144:111 *151:85 0.000202944
99 *144:111 *159:101 0.000812919
100 *144:111 *160:85 5.63183e-05
101 *144:111 *234:58 0.000263736
102 *144:111 *235:93 0.000163586
103 *144:111 *235:113 0.000173512
104 *144:111 *479:130 0.000315331
105 *144:111 *516:54 3.96263e-05
106 *144:111 *517:50 0.000617623
107 *144:111 *520:56 3.79555e-05
108 *144:111 *545:72 3.85753e-05
109 *144:111 *567:90 2.6208e-05
110 *144:111 *585:66 0.000453174
111 *144:111 *596:140 0.00035461
112 *144:111 *653:237 4.79251e-05
113 *144:111 *660:115 0.00017046
114 *144:111 *667:74 3.58575e-05
115 *144:111 *675:174 8.35068e-05
116 *144:111 *676:48 0.000200256
117 *144:111 *707:83 0.000364018
118 E1BEG[3] *144:75 1.79483e-05
119 E2BEG[3] *144:75 3.92756e-05
120 E2BEG[4] *144:75 2.22315e-05
121 E2BEG[5] *144:75 4.73375e-06
122 E2BEG[7] *144:75 3.97095e-06
123 E2BEGb[1] *144:75 0.000141541
124 E2BEGb[2] *144:75 7.33639e-05
125 E2BEGb[5] *144:75 8.32056e-05
126 E2BEGb[6] *144:75 3.98456e-05
127 E2BEGb[7] *144:75 2.39907e-05
128 E6BEG[4] *710:DIODE 0.000125079
129 E6BEG[8] *710:DIODE 0.000300859
130 EE4BEG[0] *144:75 0.000160403
131 EE4BEG[1] *144:75 0.000199486
132 FrameData_O[11] *710:DIODE 7.25183e-06
133 FrameData_O[8] *710:DIODE 0.000182771
134 *142:31 *144:31 1.66059e-05
135 *143:7 *144:31 0
136 *143:9 *144:31 0.00036108
*RES
1 FrameStrobe[12] *144:31 46.8095 
2 *144:31 *144:75 48.1187 
3 *144:75 *144:111 49.6465 
4 *144:111 *710:DIODE 43.6544 
5 *710:DIODE *2152:A 4.34 
*END

*D_NET *145 0.0473493
*CONN
*P FrameStrobe[13] I
*I *2153:A I *D sky130_fd_sc_hd__clkbuf_1
*I *711:DIODE I *D sky130_fd_sc_hd__diode_2
*CAP
1 FrameStrobe[13] 0.00325138
2 *2153:A 0.000144446
3 *711:DIODE 0.0012045
4 *145:83 0.00251808
5 *145:71 0.00411354
6 *145:35 0.0059069
7 *711:DIODE *1809:S1 2.65814e-06
8 *711:DIODE *1883:A3 0.000371033
9 *711:DIODE *1933:D 4.83385e-05
10 *711:DIODE *2341:A 0.00054403
11 *711:DIODE *2369:A 3.1562e-06
12 *711:DIODE *150:77 0.000892711
13 *711:DIODE *151:85 1.25121e-05
14 *711:DIODE *519:16 0.000377729
15 *711:DIODE *528:36 0.000104238
16 *711:DIODE *535:112 0.000253604
17 *711:DIODE *634:186 0.000182477
18 *711:DIODE *667:176 0
19 *711:DIODE *667:187 0
20 *711:DIODE *678:10 8.5225e-05
21 *711:DIODE *678:49 0.000148562
22 *2153:A *1883:S1 5.83121e-06
23 *2153:A *2158:A 0
24 *2153:A *2366:A 0.000150266
25 *2153:A *2369:A 4.66108e-05
26 *145:35 *1852:A 5.843e-05
27 *145:35 *1853:S1 3.70013e-05
28 *145:35 *1862:B1 4.61398e-05
29 *145:35 *146:67 0.000502037
30 *145:35 *147:27 0.00266951
31 *145:35 *149:23 0.00168101
32 *145:35 *250:10 9.24127e-05
33 *145:35 *567:32 0.00104731
34 *145:35 *583:82 0.00236983
35 *145:35 *600:74 1.00725e-05
36 *145:35 *642:38 1.74835e-05
37 *145:35 *647:28 1.55603e-05
38 *145:35 *665:83 0.000124737
39 *145:35 *706:38 0.000169538
40 *145:71 *1825:C_N 0.000433249
41 *145:71 *1875:S0 0.000132605
42 *145:71 *1875:S1 6.10955e-05
43 *145:71 *1885:A2 0.000120352
44 *145:71 *1895:A3 6.50528e-05
45 *145:71 *2027:D 2.81711e-05
46 *145:71 *2328:A 0.000237049
47 *145:71 *519:46 0.000237745
48 *145:71 *553:28 8.50801e-06
49 *145:71 *567:32 0.0014159
50 *145:71 *567:90 0.000286989
51 *145:71 *593:94 0.000511601
52 *145:71 *597:44 0.000729168
53 *145:71 *600:74 0.0013672
54 *145:71 *636:50 0.000574571
55 *145:71 *637:46 0.000677066
56 *145:71 *642:106 0.00010139
57 *145:71 *644:46 3.7613e-05
58 *145:71 *661:203 0.000660414
59 *145:71 *662:177 0.00106786
60 *145:71 *664:166 3.8476e-05
61 *145:71 *673:106 5.83121e-06
62 *145:71 *688:30 0.000143849
63 *145:71 *693:82 0.000175917
64 *145:71 *698:68 1.82289e-05
65 *145:71 *701:52 0.000751042
66 *145:71 *708:42 8.247e-05
67 *145:83 *1896:S1 0.000240049
68 *145:83 *1934:GATE 7.06865e-05
69 *145:83 *2081:A 0.000465438
70 *145:83 *2105:A 0.000308335
71 *145:83 *2161:A 0.00155314
72 *145:83 *2162:A 0.000516494
73 *145:83 *2360:A 7.33536e-05
74 *145:83 *150:57 1.07797e-05
75 *145:83 *150:77 0.000980957
76 *145:83 *558:50 0.000804018
77 *145:83 *593:118 0.00116353
78 *145:83 *596:140 9.85301e-05
79 *145:83 *597:60 5.6147e-05
80 *145:83 *634:176 1.19691e-05
81 *145:83 *634:186 0.000396321
82 *145:83 *669:45 4.92206e-05
83 *145:83 *669:75 0.000375505
84 *2150:A *2153:A 8.23457e-05
85 *142:57 *145:71 8.72438e-06
86 *143:7 *145:35 0
87 *144:31 *145:35 0.000905446
*RES
1 FrameStrobe[13] *145:35 49.1166 
2 *145:35 *145:71 44.8706 
3 *145:71 *145:83 47.7825 
4 *145:83 *711:DIODE 33.7375 
5 *711:DIODE *2153:A 10.08 
*END

*D_NET *146 0.0553416
*CONN
*P FrameStrobe[14] I
*I *2154:A I *D sky130_fd_sc_hd__clkbuf_1
*I *712:DIODE I *D sky130_fd_sc_hd__diode_2
*CAP
1 FrameStrobe[14] 0.00614687
2 *2154:A 0.000140974
3 *712:DIODE 0
4 *146:99 0.00094244
5 *146:89 0.00520247
6 *146:67 0.0105479
7 *2154:A *151:85 0
8 *146:67 *1803:A 0
9 *146:67 *1817:C1 0.000261113
10 *146:67 *1831:A1 0
11 *146:67 *1851:S0 0.000271902
12 *146:67 *1851:S1 5.0676e-05
13 *146:67 *1854:B1 0
14 *146:67 *1858:A2 0.000159847
15 *146:67 *1864:A2 7.86633e-05
16 *146:67 *1866:A1 0.000216968
17 *146:67 *1982:D 0.00012314
18 *146:67 *2030:D 0.000327041
19 *146:67 *2034:D 0.00015071
20 *146:67 *2044:D 9.8146e-05
21 *146:67 *2045:D 0
22 *146:67 *2045:GATE 0
23 *146:67 *2231:A 0.000186216
24 *146:67 *2243:A 0.00036643
25 *146:67 *2254:A 0.000223198
26 *146:67 *147:27 0
27 *146:67 *148:19 0
28 *146:67 *150:35 0.000236442
29 *146:67 *153:39 0.000111759
30 *146:67 *181:21 0.000229425
31 *146:67 *268:27 0.000159776
32 *146:67 *524:142 0.000361094
33 *146:67 *560:44 0.000557031
34 *146:67 *600:74 0.00107374
35 *146:67 *602:166 0.000116216
36 *146:67 *627:118 0.000636538
37 *146:67 *632:16 0.00169374
38 *146:67 *632:66 0.000365429
39 *146:67 *634:78 0.000127687
40 *146:67 *642:38 0.000379512
41 *146:67 *643:10 0.000116216
42 *146:67 *646:32 0.000546087
43 *146:67 *652:16 6.34375e-05
44 *146:67 *652:18 0
45 *146:67 *652:36 0.000129951
46 *146:67 *653:172 0.000103315
47 *146:67 *658:27 0
48 *146:67 *660:51 3.74748e-05
49 *146:67 *662:77 0.000257224
50 *146:67 *664:51 0
51 *146:67 *665:83 0.00176178
52 *146:67 *681:80 0.000258877
53 *146:67 *699:40 6.78375e-05
54 *146:67 *703:60 0.0011893
55 *146:89 *1885:S0 3.41878e-05
56 *146:89 *1946:D 5.63183e-05
57 *146:89 *2295:A 3.11471e-05
58 *146:89 *2318:A 6.01086e-05
59 *146:89 *2348:A 0.000210995
60 *146:89 *148:89 0.00205917
61 *146:89 *151:33 6.78954e-05
62 *146:89 *151:85 0.00055451
63 *146:89 *233:80 6.9931e-05
64 *146:89 *514:94 4.14715e-05
65 *146:89 *524:14 0.000143501
66 *146:89 *524:67 5.63183e-05
67 *146:89 *524:180 0.000927079
68 *146:89 *528:36 0.0024494
69 *146:89 *560:66 0.00173327
70 *146:89 *594:102 0.000157653
71 *146:89 *618:112 0.000368698
72 *146:89 *645:20 0.000268985
73 *146:89 *653:237 0.000121838
74 *146:89 *659:213 0.000305269
75 *146:89 *660:87 0.000416505
76 *146:89 *667:174 0.0002089
77 *146:89 *695:66 1.20478e-05
78 *146:89 *695:90 0.00134032
79 *146:89 *696:26 0.00243981
80 *146:89 *704:110 0.000524635
81 *146:99 *1883:A2 0.000171048
82 *146:99 *1883:S0 0.000136495
83 *146:99 *1886:A1 0.000179015
84 *146:99 *1886:A2 0.000168448
85 *146:99 *2004:D 2.11674e-05
86 *146:99 *2011:D 0
87 *146:99 *2126:A 0.000350682
88 *146:99 *151:85 2.80896e-05
89 *146:99 *159:101 7.40874e-05
90 *146:99 *479:174 1.93765e-05
91 *146:99 *483:90 0.000681685
92 *146:99 *524:180 1.94585e-05
93 *146:99 *576:42 4.55992e-05
94 E1BEG[0] *146:67 0.000363114
95 E1BEG[1] *146:67 0.000112007
96 E1BEG[2] *146:67 0.000112007
97 E2BEG[1] *146:89 3.82728e-05
98 E6BEG[1] *146:89 0.000146541
99 E6BEG[2] *146:89 0.000207013
100 E6BEG[3] *146:89 0.000231762
101 FrameData_O[16] *146:89 4.98568e-05
102 FrameData_O[17] *146:89 0.000145914
103 FrameData_O[18] *146:89 0.000357625
104 *743:DIODE *146:99 0
105 *2151:A *2154:A 0
106 *142:31 *146:67 0.000388228
107 *144:31 *146:67 5.75046e-05
108 *145:35 *146:67 0.000502037
*RES
1 FrameStrobe[14] *146:67 47.8819 
2 *146:67 *146:89 49.5423 
3 *146:89 *146:99 18.057 
4 *146:99 *712:DIODE 3.6 
5 *146:99 *2154:A 5.745 
*END

*D_NET *147 0.0430399
*CONN
*P FrameStrobe[15] I
*I *2155:A I *D sky130_fd_sc_hd__clkbuf_1
*I *713:DIODE I *D sky130_fd_sc_hd__diode_2
*CAP
1 FrameStrobe[15] 0.00227173
2 *2155:A 0.000293328
3 *713:DIODE 4.85976e-05
4 *147:105 0.000489412
5 *147:101 0.00199491
6 *147:99 0.0032039
7 *147:75 0.00299012
8 *147:47 0.00264824
9 *147:27 0.00328633
10 *713:DIODE *2083:A 4.88478e-05
11 *2155:A FrameStrobe_O[16] 0.000140628
12 *2155:A *2083:A 0
13 *2155:A *2158:A 0
14 *2155:A *2308:A 8.10807e-05
15 *2155:A *2370:A 0
16 *147:27 *1803:A 0.000100909
17 *147:27 *1843:A0 7.17371e-05
18 *147:27 *1852:A 3.09233e-05
19 *147:27 *1852:B 4.89295e-05
20 *147:27 *1853:S1 1.63614e-05
21 *147:27 *1857:A1 0
22 *147:27 *1858:B1 5.2089e-05
23 *147:27 *1858:B2 5.39718e-05
24 *147:27 *1870:A1 0.000326925
25 *147:27 *1871:S0 5.23931e-05
26 *147:27 *1874:A1 0.000151594
27 *147:27 *148:19 0.000536259
28 *147:27 *149:23 5.61758e-05
29 *147:27 *250:10 0
30 *147:27 *416:14 0.00016491
31 *147:27 *487:32 0
32 *147:27 *500:28 4.05358e-05
33 *147:27 *635:42 0
34 *147:47 *1859:A0 2.97004e-06
35 *147:47 *1859:S0 4.66108e-05
36 *147:47 *1864:S0 4.87123e-05
37 *147:47 *1865:A0 2.76356e-05
38 *147:47 *1871:S1 6.29385e-06
39 *147:47 *2030:D 0
40 *147:47 *2227:A 8.23457e-05
41 *147:47 *2236:A 4.26243e-05
42 *147:47 *2239:A 2.79078e-05
43 *147:47 *151:23 0.000553917
44 *147:47 *240:20 2.10214e-05
45 *147:47 *248:16 8.01432e-05
46 *147:47 *248:35 7.50104e-05
47 *147:47 *646:32 5.0384e-05
48 *147:47 *649:134 2.31508e-05
49 *147:47 *650:139 6.85458e-05
50 *147:47 *652:16 0.000139888
51 *147:47 *655:8 8.35068e-05
52 *147:47 *659:12 8.28732e-05
53 *147:47 *659:25 0.000348796
54 *147:47 *660:51 5.75138e-05
55 *147:47 *662:77 8.68964e-06
56 *147:47 *681:67 0
57 *147:47 *706:38 0.00135813
58 *147:75 *709:DIODE 5.89925e-05
59 *147:75 *1810:S1 0.000117825
60 *147:75 *2071:A 0.000130119
61 *147:75 *2260:A 7.16199e-05
62 *147:75 *2269:A 8.35262e-05
63 *147:75 *2291:A 8.35106e-05
64 *147:75 *2292:A 0.000523413
65 *147:75 *2293:A 8.52883e-05
66 *147:75 *2294:A 0.000173651
67 *147:75 *149:75 0.000373461
68 *147:75 *151:23 0
69 *147:75 *486:18 3.32976e-05
70 *147:75 *525:32 0.000139933
71 *147:75 *636:50 0.000470376
72 *147:75 *645:64 0.000169695
73 *147:75 *659:175 0.000253924
74 *147:75 *661:132 3.9064e-05
75 *147:75 *676:99 0.000121654
76 *147:75 *685:22 0.000419296
77 *147:75 *686:46 8.52837e-05
78 *147:75 *698:129 0.000995381
79 *147:75 *700:12 0.000184241
80 *147:99 *2324:A 0.000216173
81 *147:99 *149:75 4.18116e-05
82 *147:99 *151:33 0.000932165
83 *147:99 *236:93 0.00120697
84 *147:99 *594:74 3.19251e-05
85 *147:99 *647:244 0.00033695
86 *147:99 *653:237 0.000397024
87 *147:99 *659:175 0.000433649
88 *147:99 *659:213 0.000146155
89 *147:99 *691:44 0.00116753
90 *147:99 *695:66 0.00123684
91 *147:99 *695:90 6.40469e-05
92 *147:101 *1814:A2 0.0005634
93 *147:101 *2080:A 0
94 *147:101 *2317:A 0.00016378
95 *147:101 *149:111 0.000205732
96 *147:101 *483:80 0
97 *147:101 *524:49 0.000666347
98 *147:101 *536:26 0
99 *147:101 *564:52 0.000461549
100 *147:101 *653:275 0.000258479
101 *147:101 *659:213 0.00013388
102 *147:105 *2083:A 2.75229e-05
103 E2BEG[2] *147:75 0.000155601
104 E6BEG[2] *147:99 1.32379e-05
105 E6BEG[6] *147:101 6.39373e-05
106 E6BEG[7] *147:99 9.4675e-06
107 E6BEG[7] *147:101 0.000171115
108 E6BEG[8] *147:99 9.04081e-05
109 E6BEG[8] *147:101 0.000330658
110 E6BEG[9] *147:99 0.000124496
111 EE4BEG[7] *147:99 0.000139542
112 EE4BEG[8] *147:99 0.000226761
113 EE4BEG[9] *147:99 2.22315e-05
114 FrameData_O[14] *147:101 0.000232797
115 FrameData_O[15] *147:101 1.93765e-05
116 FrameData_O[16] *147:101 0.000131449
117 FrameData_O[18] *147:101 4.01535e-05
118 FrameData_O[20] *147:101 0.000169326
119 FrameData_O[21] *147:101 0.000396502
120 FrameData_O[27] *147:101 0.00010425
121 FrameData_O[28] *147:101 0.000153455
122 FrameData_O[29] *147:101 0.000399844
123 FrameData_O[2] *147:101 3.25314e-05
124 FrameData_O[31] *147:101 0.000107199
125 FrameData_O[3] *147:101 0.000210498
126 *710:DIODE *2155:A 0
127 *710:DIODE *147:101 0.000772821
128 *144:31 *147:27 0.000509786
129 *145:35 *147:27 0.00266951
130 *146:67 *147:27 0
*RES
1 FrameStrobe[15] *147:27 41.524 
2 *147:27 *147:47 33.485 
3 *147:47 *147:75 47.1575 
4 *147:75 *147:99 44.3779 
5 *147:99 *147:101 49.9575 
6 *147:101 *147:105 4.175 
7 *147:105 *713:DIODE 2.395 
8 *147:105 *2155:A 10.745 
*END

*D_NET *148 0.0487513
*CONN
*P FrameStrobe[16] I
*I *2156:A I *D sky130_fd_sc_hd__clkbuf_1
*I *714:DIODE I *D sky130_fd_sc_hd__diode_2
*CAP
1 FrameStrobe[16] 0.000922198
2 *2156:A 0
3 *714:DIODE 3.85586e-05
4 *148:111 0.00216798
5 *148:89 0.00570273
6 *148:51 0.00495375
7 *148:21 0.00264887
8 *148:19 0.00219062
9 *714:DIODE FrameStrobe_O[15] 9.54469e-05
10 *714:DIODE *2364:A 0.000116165
11 *714:DIODE *2372:A 4.43871e-06
12 *148:19 *1803:A 5.83121e-06
13 *148:19 *149:23 0
14 *148:19 *250:10 5.8486e-05
15 *148:21 *2261:A 0.000806349
16 *148:21 *149:23 0.000348818
17 *148:21 *150:35 0.000636377
18 *148:21 *151:15 0.00156904
19 *148:21 *560:44 0.00069581
20 *148:21 *567:32 3.19491e-05
21 *148:21 *634:84 0.000688883
22 *148:21 *637:67 0.000290384
23 *148:21 *645:20 0.00208683
24 *148:51 *1903:A2 5.37305e-05
25 *148:51 *1903:S0 2.67716e-05
26 *148:51 *1903:S1 6.72143e-05
27 *148:51 *1905:S0 0.00044304
28 *148:51 *1913:A1 4.14291e-05
29 *148:51 *2285:A 6.80244e-05
30 *148:51 *2286:A 1.1432e-05
31 *148:51 *2292:A 1.51856e-05
32 *148:51 *2293:A 0.000107444
33 *148:51 *2294:A 4.0031e-05
34 *148:51 *2295:A 0.000329662
35 *148:51 *151:23 0.000588835
36 *148:51 *525:32 0.000605477
37 *148:51 *594:48 0.000140581
38 *148:51 *650:164 8.4841e-05
39 *148:51 *650:236 7.63185e-05
40 *148:51 *660:51 0
41 *148:51 *685:22 0.00048724
42 *148:51 *686:46 0.000109431
43 *148:51 *698:129 0.000147878
44 *148:51 *700:12 0.000578088
45 *148:51 *707:83 0.000109334
46 *148:89 *1812:A0 8.4644e-05
47 *148:89 *1877:A3 1.40938e-05
48 *148:89 *1881:A2 9.0157e-05
49 *148:89 *1900:S1 0.00033527
50 *148:89 *2284:A 3.753e-05
51 *148:89 *2290:A 0.000119246
52 *148:89 *2295:A 0.000354823
53 *148:89 *2318:A 0.000183791
54 *148:89 *2326:A 9.23627e-05
55 *148:89 *2337:A 4.73022e-05
56 *148:89 *149:75 1.05984e-05
57 *148:89 *151:33 0.00143738
58 *148:89 *159:101 0.00193232
59 *148:89 *233:80 9.93054e-05
60 *148:89 *234:58 0.000401886
61 *148:89 *236:93 0.000296216
62 *148:89 *481:88 0.00015634
63 *148:89 *514:94 0.000420112
64 *148:89 *516:54 0.000135831
65 *148:89 *520:56 0
66 *148:89 *531:62 0.00219958
67 *148:89 *535:16 0.000214718
68 *148:89 *569:58 2.22315e-05
69 *148:89 *583:82 6.00423e-05
70 *148:89 *594:102 3.14528e-05
71 *148:89 *600:122 7.18851e-06
72 *148:89 *642:106 0.000598898
73 *148:89 *645:64 0.001355
74 *148:89 *659:175 0.000221073
75 *148:89 *667:174 1.6271e-05
76 *148:89 *669:75 3.92756e-05
77 *148:89 *688:30 4.22972e-05
78 *148:111 FrameStrobe_O[15] 0.000127157
79 *148:111 *1883:A2 0.000908111
80 *148:111 *1890:A3 2.10433e-05
81 *148:111 *1893:S0 8.93844e-05
82 *148:111 *1894:S1 0
83 *148:111 *1909:S1 0.000458043
84 *148:111 *1933:D 6.38083e-05
85 *148:111 *1958:GATE 6.65125e-05
86 *148:111 *2011:GATE 0.000230824
87 *148:111 *2100:A 0
88 *148:111 *2157:A 2.75145e-05
89 *148:111 *2291:A 0.000129528
90 *148:111 *2317:A 0
91 *148:111 *2330:A 2.24358e-05
92 *148:111 *2339:A 5.77871e-05
93 *148:111 *2368:A 0.000124007
94 *148:111 *2369:A 0.000155995
95 *148:111 *2371:A 7.92693e-05
96 *148:111 *2373:A 9.23641e-05
97 *148:111 *2382:A 3.4222e-05
98 *148:111 *233:99 0.000461841
99 *148:111 *483:102 1.88904e-05
100 *148:111 *556:22 0.000100162
101 *148:111 *568:188 0.000206932
102 *148:111 *634:186 0
103 *148:111 *635:102 1.64078e-05
104 *148:111 *667:176 0.000100567
105 *148:111 *667:187 0.000189808
106 *148:111 *669:45 0.00016403
107 *148:111 *678:49 0.000229959
108 *148:111 *694:134 0
109 E1BEG[2] *148:51 5.66315e-05
110 E2BEG[1] *148:89 0.000371788
111 EE4BEG[10] *148:89 0.000226761
112 EE4BEG[11] *148:89 4.1163e-05
113 EE4BEG[8] *148:89 3.41952e-05
114 *146:67 *148:19 0
115 *146:89 *148:89 0.00205917
116 *147:27 *148:19 0.000536259
*RES
1 FrameStrobe[16] *148:19 21.565 
2 *148:19 *148:21 55.44 
3 *148:21 *148:51 48.26 
4 *148:51 *148:89 43.8894 
5 *148:89 *148:111 47.0975 
6 *148:111 *714:DIODE 6.98 
7 *148:111 *2156:A 1.6 
*END

*D_NET *149 0.0503319
*CONN
*P FrameStrobe[17] I
*I *715:DIODE I *D sky130_fd_sc_hd__diode_2
*I *2157:A I *D sky130_fd_sc_hd__clkbuf_1
*CAP
1 FrameStrobe[17] 0.00327191
2 *715:DIODE 7.64064e-05
3 *2157:A 1.3714e-05
4 *149:111 0.00399835
5 *149:93 0.0050554
6 *149:75 0.00304408
7 *149:45 0.00347554
8 *149:23 0.00485054
9 *715:DIODE *717:DIODE 5.92269e-05
10 *715:DIODE *2366:A 0.000114492
11 *715:DIODE *2368:A 4.66108e-05
12 *2157:A FrameStrobe_O[15] 4.66108e-05
13 *149:23 *1806:A 0.000687603
14 *149:23 *1848:A2 0.000350272
15 *149:23 *1870:A1 8.77495e-06
16 *149:23 *1871:S0 1.06059e-05
17 *149:23 *1874:B1 4.26248e-05
18 *149:23 *1874:B2 6.74079e-05
19 *149:23 *2220:A 2.9331e-05
20 *149:23 *2222:A 3.18044e-05
21 *149:23 *2233:A 0.000281529
22 *149:23 *2234:A 0.000206749
23 *149:23 *2235:A 6.51721e-05
24 *149:23 *150:35 0
25 *149:23 *153:39 0.0011628
26 *149:23 *181:21 1.29049e-05
27 *149:23 *524:142 0.000112869
28 *149:23 *567:32 0
29 *149:23 *579:54 2.62941e-05
30 *149:23 *596:50 0.000123462
31 *149:23 *600:74 0.000312812
32 *149:23 *634:78 1.86715e-05
33 *149:23 *634:84 0.000348818
34 *149:23 *645:14 0
35 *149:23 *646:32 8.77388e-05
36 *149:23 *657:18 0.000118081
37 *149:45 *733:DIODE 0.000112007
38 *149:45 *1839:C_N 0.000520608
39 *149:45 *1895:A3 0.000408511
40 *149:45 *1911:A0 0.000116045
41 *149:45 *1911:A3 3.64998e-06
42 *149:45 *1950:D 1.92979e-05
43 *149:45 *153:39 0.000394194
44 *149:45 *154:85 0.000595865
45 *149:45 *240:10 3.40022e-05
46 *149:45 *240:14 2.85764e-05
47 *149:45 *597:44 0.00010283
48 *149:45 *652:16 1.01867e-05
49 *149:45 *652:18 5.34801e-05
50 *149:45 *653:32 6.46089e-05
51 *149:45 *657:44 0.00011574
52 *149:45 *658:109 1.1561e-05
53 *149:45 *659:83 5.12017e-06
54 *149:45 *659:116 0.000341926
55 *149:45 *662:99 0.00012513
56 *149:45 *662:140 0.000547247
57 *149:45 *664:166 0.000295866
58 *149:45 *693:38 0.000295866
59 *149:45 *708:22 0.00149505
60 *149:75 *1879:S0 1.14169e-05
61 *149:75 *2285:A 0.000436651
62 *149:75 *2288:A 0.000155601
63 *149:75 *2290:A 0.000159963
64 *149:75 *2302:A 0.000448038
65 *149:75 *481:88 0.000308992
66 *149:75 *545:72 0.000189059
67 *149:75 *647:244 0.00023329
68 *149:75 *659:175 0.000280294
69 *149:75 *660:87 0.00128129
70 *149:75 *691:16 0.000436273
71 *149:75 *692:22 8.53224e-05
72 *149:75 *695:66 0.000221185
73 *149:75 *701:52 9.59423e-05
74 *149:75 *707:83 3.83194e-05
75 *149:93 *2312:A 0.000230503
76 *149:93 *2361:A 3.24882e-05
77 *149:93 *236:40 0.000235503
78 *149:93 *514:94 3.72071e-05
79 *149:93 *564:52 0.000167409
80 *149:93 *594:74 0.000495659
81 *149:93 *653:237 3.48614e-05
82 *149:93 *659:213 0.00011412
83 *149:93 *660:87 0
84 *149:111 *717:DIODE 5.53249e-06
85 *149:111 *1814:A2 0.000448275
86 *149:111 *1893:A1 4.8779e-05
87 *149:111 *1899:A1 2.15594e-05
88 *149:111 *2308:A 0.000843536
89 *149:111 *2312:A 7.24439e-06
90 *149:111 *2366:A 3.97211e-05
91 *149:111 *2369:A 1.88904e-05
92 *149:111 *151:85 1.26626e-05
93 *149:111 *514:94 0.000189386
94 *149:111 *524:49 0.000667692
95 *149:111 *531:62 0.000445501
96 *149:111 *538:72 1.09931e-05
97 *149:111 *539:26 0.00117706
98 *149:111 *659:213 1.15529e-05
99 *149:111 *686:52 0
100 *149:111 *691:72 4.46808e-07
101 *149:111 *704:110 0.000259079
102 E2BEG[1] *149:75 2.72392e-05
103 E6BEG[2] *149:111 4.93037e-05
104 E6BEG[7] *149:111 0.00030676
105 E6BEG[9] *149:111 3.79595e-05
106 EE4BEG[12] *149:93 5.92067e-05
107 EE4BEG[7] *149:93 0.000288355
108 EE4BEG[9] *149:93 8.23457e-05
109 FrameData_O[12] *149:111 0.000684592
110 FrameData_O[18] *149:111 4.24562e-05
111 FrameData_O[23] *149:111 3.64376e-06
112 FrameData_O[24] *149:111 3.20393e-05
113 FrameData_O[25] *149:111 0.000126878
114 FrameData_O[26] *149:111 5.82744e-05
115 *710:DIODE *149:111 0.00120032
116 *142:31 *149:23 0.000602786
117 *143:47 *149:75 0.000190715
118 *145:35 *149:23 0.00168101
119 *147:27 *149:23 5.61758e-05
120 *147:75 *149:75 0.000373461
121 *147:99 *149:75 4.18116e-05
122 *147:101 *149:111 0.000205732
123 *148:19 *149:23 0
124 *148:21 *149:23 0.000348818
125 *148:89 *149:75 1.05984e-05
126 *148:111 *2157:A 2.75145e-05
*RES
1 FrameStrobe[17] *149:23 49.6547 
2 *149:23 *149:45 45.8423 
3 *149:45 *149:75 47.62 
4 *149:75 *149:93 24.4625 
5 *149:93 *149:111 43.6522 
6 *149:111 *2157:A 4.05 
7 *149:111 *715:DIODE 5.43 
*END

*D_NET *150 0.0465943
*CONN
*P FrameStrobe[18] I
*I *716:DIODE I *D sky130_fd_sc_hd__diode_2
*I *2158:A I *D sky130_fd_sc_hd__clkbuf_1
*CAP
1 FrameStrobe[18] 0.00565676
2 *716:DIODE 4.76345e-05
3 *2158:A 0.00021841
4 *150:87 0.000949422
5 *150:77 0.00213614
6 *150:57 0.00258972
7 *150:35 0.00679373
8 *716:DIODE *2370:A 4.89295e-05
9 *2158:A *1883:S1 0
10 *2158:A *2366:A 0
11 *2158:A *2370:A 0.000351078
12 *2158:A *2373:A 8.35106e-05
13 *2158:A *564:8 4.60123e-05
14 *150:35 *733:DIODE 0.0030703
15 *150:35 *1836:A1 0.000299555
16 *150:35 *1853:S1 0
17 *150:35 *1863:A2 3.98096e-05
18 *150:35 *1875:S1 0.000129835
19 *150:35 *1879:S1 1.92979e-05
20 *150:35 *2034:D 0.000394332
21 *150:35 *2272:A 0.000129951
22 *150:35 *151:7 0
23 *150:35 *151:15 0
24 *150:35 *153:39 0.000465855
25 *150:35 *160:85 2.63393e-05
26 *150:35 *181:56 1.66478e-05
27 *150:35 *479:30 0.00172891
28 *150:35 *483:80 2.22315e-05
29 *150:35 *524:142 0.00264765
30 *150:35 *533:44 0.000518086
31 *150:35 *567:32 8.63143e-05
32 *150:35 *579:52 1.40573e-05
33 *150:35 *579:84 0.000164761
34 *150:35 *596:50 0.000890458
35 *150:35 *632:16 0.000118399
36 *150:35 *634:78 0.000415889
37 *150:35 *642:38 1.42012e-05
38 *150:35 *647:28 0
39 *150:35 *648:22 0.000116216
40 *150:35 *652:16 1.43965e-05
41 *150:35 *652:18 6.4716e-05
42 *150:35 *658:31 0.000847936
43 *150:35 *658:58 4.33901e-05
44 *150:35 *659:116 1.02564e-05
45 *150:35 *665:83 7.78114e-05
46 *150:35 *667:64 0.000175668
47 *150:35 *671:111 5.4338e-05
48 *150:57 *733:DIODE 0.000320469
49 *150:57 *1934:GATE 7.49941e-05
50 *150:57 *2082:A 6.72143e-05
51 *150:57 *2102:A 1.7635e-05
52 *150:57 *2161:A 0.00190327
53 *150:57 *2162:A 0.00185246
54 *150:57 *2326:A 0.000133655
55 *150:57 *159:77 0.000747921
56 *150:57 *181:56 0.000118503
57 *150:57 *409:32 0.000118136
58 *150:57 *479:130 5.7287e-05
59 *150:57 *593:94 0.000113305
60 *150:57 *667:64 0.00074036
61 *150:57 *667:74 8.97006e-07
62 *150:57 *675:174 7.41632e-05
63 *150:57 *701:52 0.000106321
64 *150:77 *738:DIODE 0.000118811
65 *150:77 *1894:A3 0.000237944
66 *150:77 *1934:GATE 7.23533e-05
67 *150:77 *2105:A 0.000310001
68 *150:77 *2334:A 0.000595148
69 *150:77 *2336:A 0.000541804
70 *150:77 *2350:A 8.22569e-05
71 *150:77 *2377:A 3.02871e-05
72 *150:77 *535:112 0.000599044
73 *150:77 *576:42 0
74 *150:77 *593:118 0.000628977
75 *150:77 *634:176 0.000130589
76 *150:77 *634:186 0.000601299
77 *150:77 *635:102 7.1245e-05
78 *150:77 *669:45 0.000240196
79 *150:77 *669:53 5.8678e-05
80 *150:77 *669:75 0.000374893
81 *150:77 *673:48 6.83087e-05
82 *150:77 *696:26 3.96088e-05
83 *150:77 *701:58 7.53239e-05
84 *150:87 *1883:A0 1.7824e-05
85 *150:87 *1883:A2 4.28873e-05
86 *150:87 *1883:S0 4.23703e-05
87 *150:87 *1909:A0 8.23457e-05
88 *150:87 *2073:A 1.86036e-05
89 *150:87 *653:275 4.66108e-05
90 *150:87 *704:119 6.58423e-05
91 *710:DIODE *2158:A 8.95568e-05
92 *711:DIODE *150:77 0.000892711
93 *2153:A *2158:A 0
94 *2155:A *2158:A 0
95 *142:31 *150:35 8.29344e-05
96 *143:47 *150:35 0.000485745
97 *145:83 *150:57 1.07797e-05
98 *145:83 *150:77 0.000980957
99 *146:67 *150:35 0.000236442
100 *148:21 *150:35 0.000636377
101 *149:23 *150:35 0
*RES
1 FrameStrobe[18] *150:35 49.6809 
2 *150:35 *150:57 46.835 
3 *150:57 *150:77 48.4511 
4 *150:77 *150:87 8.625 
5 *150:87 *2158:A 10.835 
6 *150:87 *716:DIODE 2.395 
*END

*D_NET *151 0.0470991
*CONN
*P FrameStrobe[19] I
*I *717:DIODE I *D sky130_fd_sc_hd__diode_2
*I *2159:A I *D sky130_fd_sc_hd__clkbuf_1
*CAP
1 FrameStrobe[19] 0.000589093
2 *717:DIODE 3.71949e-05
3 *2159:A 0
4 *151:85 0.00431904
5 *151:33 0.00596656
6 *151:23 0.00267357
7 *151:15 0.00255207
8 *151:7 0.0021523
9 *717:DIODE *2368:A 0.000107634
10 *151:15 *1859:A2 0.00030829
11 *151:15 *2232:A 0.000130952
12 *151:15 *2262:A 0.000872617
13 *151:15 *2264:A 0.000307326
14 *151:15 *494:16 0.00112241
15 *151:15 *596:50 0.00105493
16 *151:15 *645:20 0.00113959
17 *151:15 *653:172 0.000122695
18 *151:23 *1913:A0 2.65814e-06
19 *151:23 *1913:A1 7.51418e-05
20 *151:23 *2064:A 0.000133782
21 *151:23 *2246:A 0.000126336
22 *151:23 *481:30 0.000119246
23 *151:23 *486:18 3.32976e-05
24 *151:23 *660:51 0.000738135
25 *151:23 *691:16 0.000519448
26 *151:23 *695:8 0.000228224
27 *151:23 *700:12 4.39079e-05
28 *151:23 *702:30 0.000274552
29 *151:33 *1946:D 5.97512e-05
30 *151:33 *2253:A 1.99697e-05
31 *151:33 *2285:A 0.000838862
32 *151:33 *2295:A 0.0015242
33 *151:33 *2346:A 5.38986e-06
34 *151:33 *234:94 0.000466016
35 *151:33 *516:54 0.00038135
36 *151:33 *524:67 5.06849e-05
37 *151:33 *637:67 0.000359175
38 *151:33 *647:189 0.000450723
39 *151:33 *653:237 0.000277257
40 *151:33 *659:175 0.00022236
41 *151:33 *659:213 0.00030467
42 *151:33 *660:87 0.000227317
43 *151:33 *691:44 8.61898e-05
44 *151:33 *695:90 4.26938e-06
45 *151:85 *738:DIODE 6.98555e-05
46 *151:85 *1881:A0 3.9316e-05
47 *151:85 *1881:A1 0.000116401
48 *151:85 *1881:S1 0.000694033
49 *151:85 *1883:A2 0.000656237
50 *151:85 *1883:A3 0.000848579
51 *151:85 *1883:S1 2.09302e-06
52 *151:85 *1885:A2 0.0013296
53 *151:85 *1886:A0 8.89019e-05
54 *151:85 *1886:A2 0.00042346
55 *151:85 *2012:D 0.000469134
56 *151:85 *2073:A 7.46509e-05
57 *151:85 *2126:A 1.44177e-05
58 *151:85 *2284:A 6.39407e-05
59 *151:85 *2341:A 7.21296e-06
60 *151:85 *2361:A 2.39315e-06
61 *151:85 *2368:A 4.9968e-05
62 *151:85 *2369:A 0.000284189
63 *151:85 *235:93 5.4153e-05
64 *151:85 *479:161 1.23015e-05
65 *151:85 *528:36 0.000106494
66 *151:85 *531:62 8.55675e-05
67 *151:85 *542:30 0.00046237
68 *151:85 *596:140 1.91843e-05
69 *151:85 *618:112 0.000154623
70 *151:85 *635:102 0.000868892
71 *151:85 *645:82 1.90887e-05
72 *151:85 *645:91 0.000279783
73 *151:85 *665:38 0
74 *151:85 *667:174 0.000175389
75 *151:85 *669:75 0.000881864
76 *151:85 *673:106 0.000256305
77 *151:85 *696:26 0.00018796
78 *151:85 *697:62 0.000192829
79 *151:85 *701:58 0.000149698
80 *151:85 *708:84 1.40633e-05
81 E1BEG[3] *151:33 1.79483e-05
82 E6BEG[2] *151:33 0.000137537
83 E6BEG[3] *151:33 4.2145e-05
84 E6BEG[4] *151:33 3.92756e-05
85 E6BEG[5] *151:85 0.000341436
86 E6BEG[7] *151:85 8.12511e-05
87 *710:DIODE *151:85 0.000116216
88 *711:DIODE *151:85 1.25121e-05
89 *715:DIODE *717:DIODE 5.92269e-05
90 *2151:A *151:85 4.49939e-05
91 *2154:A *151:85 0
92 *144:75 *151:33 6.94273e-05
93 *144:111 *151:85 0.000202944
94 *146:89 *151:33 6.78954e-05
95 *146:89 *151:85 0.00055451
96 *146:99 *151:85 2.80896e-05
97 *147:47 *151:23 0.000553917
98 *147:75 *151:23 0
99 *147:99 *151:33 0.000932165
100 *148:21 *151:15 0.00156904
101 *148:51 *151:23 0.000588835
102 *148:89 *151:33 0.00143738
103 *149:111 *717:DIODE 5.53249e-06
104 *149:111 *151:85 1.26626e-05
105 *150:35 *151:7 0
106 *150:35 *151:15 0
*RES
1 FrameStrobe[19] *151:7 10.7475 
2 *151:7 *151:15 47.0164 
3 *151:15 *151:23 29.4325 
4 *151:23 *151:33 49.5496 
5 *151:33 *151:85 44.335 
6 *151:85 *2159:A 3.6 
7 *151:85 *717:DIODE 4.98 
*END

*D_NET *152 0.0174888
*CONN
*P FrameStrobe[1] I
*I *2181:A I *D sky130_fd_sc_hd__dlymetal6s2s_1
*I *718:DIODE I *D sky130_fd_sc_hd__diode_2
*CAP
1 FrameStrobe[1] 0.00152617
2 *2181:A 0.000427415
3 *718:DIODE 0.00162137
4 *152:15 0.00272013
5 *718:DIODE *1926:D 0.000237935
6 *718:DIODE *2279:A 1.88656e-05
7 *718:DIODE *156:51 0
8 *718:DIODE *544:46 5.1924e-05
9 *718:DIODE *568:112 0.000132349
10 *718:DIODE *586:44 0.00057434
11 *718:DIODE *587:16 3.83323e-05
12 *718:DIODE *590:14 0.00227798
13 *718:DIODE *591:102 1.05166e-05
14 *718:DIODE *613:107 1.88656e-05
15 *718:DIODE *616:44 0.000293358
16 *718:DIODE *631:112 0.0014799
17 *718:DIODE *638:24 0.000129623
18 *718:DIODE *639:30 0.000850465
19 *2181:A *590:18 0.000147697
20 *2181:A *613:95 5.83121e-06
21 *2181:A *680:8 0.00012182
22 *152:15 *153:39 0
23 *152:15 *154:41 0.0014223
24 *152:15 *181:21 0
25 *152:15 *479:30 0
26 *152:15 *587:16 0.00145145
27 *152:15 *590:14 0.00138588
28 *152:15 *638:24 0.00019328
29 C_T_top *152:15 0.00010467
30 C_config_C_bit1 *718:DIODE 3.7184e-05
31 C_config_C_bit2 *718:DIODE 4.73958e-05
32 C_config_C_bit3 *718:DIODE 0
33 D_config_C_bit1 *718:DIODE 1.81196e-05
34 *2216:A *152:15 0.0001436
*RES
1 FrameStrobe[1] *152:15 49.0725 
2 *152:15 *718:DIODE 33.8607 
3 *718:DIODE *2181:A 9.875 
*END

*D_NET *153 0.0459615
*CONN
*P FrameStrobe[2] I
*I *2174:A I *D sky130_fd_sc_hd__buf_2
*I *2176:A I *D sky130_fd_sc_hd__dlymetal6s2s_1
*I *2175:A I *D sky130_fd_sc_hd__buf_2
*CAP
1 FrameStrobe[2] 0.00539026
2 *2174:A 0.000119423
3 *2176:A 0
4 *2175:A 8.93931e-05
5 *153:142 0.000226971
6 *153:129 0.00173217
7 *153:105 0.00322493
8 *153:59 0.00299187
9 *153:39 0.00669242
10 *2174:A *557:8 8.52845e-05
11 *2174:A *557:44 0.000136415
12 *2174:A *557:143 2.01779e-05
13 *2174:A *568:163 3.11409e-05
14 *2174:A *568:188 4.77719e-05
15 *2175:A *2124:A 7.22152e-05
16 *153:39 *1817:C1 0.000108788
17 *153:39 *1953:D 4.71707e-05
18 *153:39 *2217:A 0
19 *153:39 *2386:A 0.000796318
20 *153:39 *154:41 0.000110521
21 *153:39 *159:39 5.81045e-05
22 *153:39 *181:21 0.00310254
23 *153:39 *267:14 5.32707e-05
24 *153:39 *479:30 0.00103435
25 *153:39 *524:142 7.50226e-05
26 *153:39 *568:112 4.73375e-06
27 *153:39 *591:136 2.11026e-05
28 *153:39 *591:142 1.69521e-05
29 *153:39 *593:46 0
30 *153:39 *596:50 2.58096e-05
31 *153:39 *600:74 0.000182149
32 *153:39 *602:166 6.92972e-05
33 *153:39 *613:138 7.8632e-06
34 *153:39 *628:112 1.93318e-05
35 *153:39 *630:84 0
36 *153:39 *632:16 0.000106515
37 *153:39 *632:66 6.6424e-05
38 *153:39 *634:78 2.29603e-05
39 *153:39 *639:58 0.000251812
40 *153:39 *639:60 0
41 *153:39 *640:24 0.000356575
42 *153:39 *643:50 1.21359e-05
43 *153:39 *652:16 8.31725e-06
44 *153:39 *652:18 1.61878e-05
45 *153:39 *652:139 0.000816014
46 *153:39 *666:145 0
47 *153:39 *668:140 6.55038e-05
48 *153:39 *706:38 7.33639e-05
49 *153:59 *1952:GATE 6.36139e-05
50 *153:59 *157:53 0.000804342
51 *153:59 *510:28 0.000220206
52 *153:59 *557:46 9.05147e-05
53 *153:59 *586:44 0.000357034
54 *153:59 *590:18 0.000118081
55 *153:59 *601:10 0.00154745
56 *153:59 *602:131 9.64116e-05
57 *153:59 *602:166 2.76356e-05
58 *153:59 *624:118 0.00102732
59 *153:59 *628:68 5.83121e-06
60 *153:59 *638:16 3.09415e-05
61 *153:59 *658:109 0.000877585
62 *153:59 *672:190 9.93807e-06
63 *153:59 *684:8 8.73389e-06
64 *153:59 *684:12 3.75937e-05
65 *153:105 *2025:D 0.000301581
66 *153:105 *2279:A 0.000183322
67 *153:105 *2282:A 9.39388e-06
68 *153:105 *2347:A 0.000105897
69 *153:105 *154:99 0.000486511
70 *153:105 *158:71 0.000183646
71 *153:105 *482:66 1.77665e-05
72 *153:105 *510:28 4.66108e-05
73 *153:105 *544:46 0.000243462
74 *153:105 *546:31 0.000703547
75 *153:105 *556:46 4.56489e-05
76 *153:105 *582:94 0.000107794
77 *153:105 *600:122 0.000627872
78 *153:105 *602:70 3.66273e-05
79 *153:105 *627:106 0
80 *153:105 *629:18 0.000178742
81 *153:105 *633:30 0.000289585
82 *153:105 *638:16 6.86962e-05
83 *153:105 *644:115 2.50135e-05
84 *153:105 *668:34 6.45774e-05
85 *153:105 *674:80 3.1562e-06
86 *153:105 *675:56 0.000283207
87 *153:129 *1878:A0 2.16389e-05
88 *153:129 *1878:S0 0.000132732
89 *153:129 *1908:A0 2.93451e-05
90 *153:129 *1908:S0 6.01098e-05
91 *153:129 *1929:D 4.58616e-05
92 *153:129 *1929:GATE 2.68526e-05
93 *153:129 *1976:D 8.23457e-05
94 *153:129 *1977:D 0.000126298
95 *153:129 *2066:A 0.00047602
96 *153:129 *2124:A 3.83194e-05
97 *153:129 *2331:A 0
98 *153:129 *2345:A 0.000301319
99 *153:129 *2350:A 0.000151171
100 *153:129 *157:111 5.60741e-05
101 *153:129 *482:66 2.49909e-05
102 *153:129 *502:14 4.91825e-05
103 *153:129 *502:65 0
104 *153:129 *502:105 2.77532e-05
105 *153:129 *513:10 0.00013507
106 *153:129 *513:86 0
107 *153:129 *557:44 0.000473373
108 *153:129 *652:181 5.53549e-06
109 *153:129 *668:14 0
110 *153:129 *670:65 0.000474626
111 *153:129 *671:10 7.30547e-05
112 *153:129 *671:30 0.000151518
113 *153:129 *672:124 6.28251e-05
114 *153:129 *675:56 0.00012079
115 *153:129 *679:59 0
116 *153:129 *693:84 0.000238434
117 *153:129 *693:117 0.000113273
118 *153:129 *703:72 0.000306606
119 *153:142 *557:44 0.000195383
120 *153:142 *672:18 2.3231e-05
121 *2186:A *153:39 2.34635e-05
122 *2193:A *153:105 0.000142524
123 *2205:A *153:105 0.000230119
124 *2210:A *153:105 4.0031e-05
125 *2211:A *153:105 5.89912e-05
126 *2212:A *153:105 0.000208672
127 *2213:A *153:105 0.000172706
128 *2216:A *153:39 0.000259993
129 *2241:A *153:105 5.56459e-05
130 *142:31 *153:39 0.00053706
131 *142:89 *153:105 0.000264953
132 *142:89 *153:129 8.35106e-05
133 *146:67 *153:39 0.000111759
134 *149:23 *153:39 0.0011628
135 *149:45 *153:39 0.000394194
136 *150:35 *153:39 0.000465855
137 *152:15 *153:39 0
*RES
1 FrameStrobe[2] *153:39 44.0296 
2 *153:39 *153:59 48.76 
3 *153:59 *153:105 49.695 
4 *153:105 *153:129 37.99 
5 *153:129 *2175:A 3.1 
6 *153:129 *153:142 4.4 
7 *153:142 *2176:A 3.6 
8 *153:142 *2174:A 6.645 
*END

*D_NET *154 0.0469679
*CONN
*P FrameStrobe[3] I
*I *2172:A I *D sky130_fd_sc_hd__clkbuf_2
*I *719:DIODE I *D sky130_fd_sc_hd__diode_2
*CAP
1 FrameStrobe[3] 0.00371098
2 *2172:A 0.000119474
3 *719:DIODE 0.00113857
4 *154:99 0.00201974
5 *154:85 0.00462714
6 *154:41 0.00733747
7 *719:DIODE *730:DIODE 0
8 *719:DIODE *602:20 0.000550808
9 *719:DIODE *625:10 0.000269543
10 *719:DIODE *629:58 0.00196402
11 *719:DIODE *687:24 0.00268493
12 *719:DIODE *687:92 2.53191e-06
13 *2172:A *1995:GATE 3.64998e-06
14 *2172:A *627:22 8.53113e-06
15 *2172:A *630:26 2.47705e-05
16 *2172:A *670:45 7.23602e-05
17 *2172:A *674:114 2.86817e-05
18 *154:41 *1799:A 1.3926e-05
19 *154:41 *1838:A1 0.000289135
20 *154:41 *1921:D 1.56581e-05
21 *154:41 *2032:D 0.000123556
22 *154:41 *2217:A 0
23 *154:41 *2391:A 0.000779309
24 *154:41 *479:30 0.000764624
25 *154:41 *496:20 0.000186385
26 *154:41 *583:28 0.000270154
27 *154:41 *586:44 8.5776e-05
28 *154:41 *600:74 0.000644778
29 *154:41 *613:146 2.82422e-05
30 *154:41 *626:126 0.000406529
31 *154:41 *632:16 0.000582331
32 *154:41 *632:66 0.000700068
33 *154:41 *638:24 0.000282365
34 *154:41 *640:24 0
35 *154:41 *652:18 4.73375e-06
36 *154:41 *652:34 0.000101039
37 *154:41 *664:14 0.000118136
38 *154:85 *1836:A0 4.77757e-05
39 *154:85 *1839:C_N 0.000201134
40 *154:85 *1840:A1 0.000118081
41 *154:85 *1904:A0 0.000210505
42 *154:85 *1910:S0 9.40887e-05
43 *154:85 *1911:A0 0.000850079
44 *154:85 *1962:GATE 2.43767e-05
45 *154:85 *1993:GATE 0.000244144
46 *154:85 *2180:A 0
47 *154:85 *2282:A 0.00107498
48 *154:85 *2391:A 0.00117754
49 *154:85 *156:51 0.000379842
50 *154:85 *158:23 0.00105837
51 *154:85 *160:85 0.000819492
52 *154:85 *243:42 0.000213045
53 *154:85 *480:70 7.01868e-05
54 *154:85 *544:46 6.11178e-05
55 *154:85 *582:40 0.00167406
56 *154:85 *624:58 3.84025e-05
57 *154:85 *629:35 0.000184959
58 *154:85 *629:52 6.66857e-05
59 *154:85 *631:112 0.000118522
60 *154:85 *636:50 5.79557e-05
61 *154:85 *637:46 0.00040267
62 *154:85 *654:20 0.00014482
63 *154:99 *2133:A 8.41307e-05
64 *154:99 *2322:A 0.000128208
65 *154:99 *2347:A 0.000151411
66 *154:99 *482:76 1.75583e-05
67 *154:99 *510:28 0.000780523
68 *154:99 *556:46 0.000150219
69 *154:99 *603:68 1.7902e-05
70 *154:99 *616:44 6.97315e-05
71 *154:99 *629:58 7.91584e-06
72 *154:99 *635:10 1.1907e-05
73 *154:99 *638:16 0.000611915
74 *154:99 *639:30 1.01182e-05
75 *154:99 *644:115 0.00014924
76 *154:99 *674:80 0.000101735
77 *154:99 *675:56 0.000478365
78 *154:99 *687:92 0.000218192
79 A_I_top *154:41 3.18871e-05
80 C_I_top *154:41 5.78926e-05
81 C_config_C_bit0 *154:85 0.000329337
82 D_I_top *154:41 7.58228e-05
83 D_config_C_bit0 *154:85 8.09329e-05
84 D_config_C_bit1 *154:85 2.46835e-05
85 *2186:A *154:41 3.34633e-05
86 *2200:A *719:DIODE 0.000105911
87 *2208:A *154:41 6.75171e-06
88 *2209:A *154:85 0.000297568
89 *2214:A *154:99 0.000207215
90 *2215:A *154:99 5.63183e-05
91 *2216:A *154:41 0.000111392
92 *2230:A *154:85 7.86034e-05
93 *2241:A *154:99 1.85014e-05
94 *2263:A *154:99 8.65032e-05
95 *142:89 *154:99 0.000468097
96 *149:45 *154:85 0.000595865
97 *152:15 *154:41 0.0014223
98 *153:39 *154:41 0.000110521
99 *153:105 *154:99 0.000486511
*RES
1 FrameStrobe[3] *154:41 49.5064 
2 *154:41 *154:85 49.1409 
3 *154:85 *154:99 32.7475 
4 *154:99 *719:DIODE 41.9175 
5 *719:DIODE *2172:A 9.285 
*END

*D_NET *155 0.00105119
*CONN
*P FrameStrobe[4] I
*I *2217:A I *D sky130_fd_sc_hd__buf_1
*CAP
1 FrameStrobe[4] 0.000314456
2 *2217:A 0.000314456
3 *2217:A *156:39 0.000422274
4 *2216:A *2217:A 0
5 *153:39 *2217:A 0
6 *154:41 *2217:A 0
*RES
1 FrameStrobe[4] *2217:A 11.01 
*END

*D_NET *156 0.0442416
*CONN
*P FrameStrobe[5] I
*I *721:DIODE I *D sky130_fd_sc_hd__diode_2
*I *2145:A I *D sky130_fd_sc_hd__clkbuf_1
*CAP
1 FrameStrobe[5] 0.00210235
2 *721:DIODE 3.37276e-05
3 *2145:A 0
4 *156:69 0.00219116
5 *156:59 0.00431544
6 *156:51 0.00542047
7 *156:39 0.00536481
8 *721:DIODE *2375:A 0.000141921
9 *721:DIODE *630:26 0.000131001
10 *156:39 *1919:GATE 0.00013521
11 *156:39 *1924:D 0.000315823
12 *156:39 *2044:D 4.01535e-05
13 *156:39 *2387:A 0.000651796
14 *156:39 *2388:A 0
15 *156:39 *157:31 0
16 *156:39 *568:122 0.000533156
17 *156:39 *586:44 2.03615e-05
18 *156:39 *591:136 0
19 *156:39 *618:24 0.000730153
20 *156:39 *627:118 3.46196e-05
21 *156:39 *641:8 0.00113637
22 *156:39 *641:21 0.000172198
23 *156:39 *666:76 2.03757e-05
24 *156:39 *666:126 0.000825041
25 *156:39 *666:132 0.000116853
26 *156:39 *666:145 0
27 *156:39 *666:151 0
28 *156:51 *2276:A 0.000147915
29 *156:51 *2362:A 6.70324e-06
30 *156:51 *2393:A 0.000268434
31 *156:51 *2394:A 0.000196552
32 *156:51 *482:66 0.000217221
33 *156:51 *568:112 0
34 *156:51 *586:44 0.00144294
35 *156:51 *601:10 0.00280897
36 *156:51 *602:123 0.000721648
37 *156:51 *602:131 0.000919486
38 *156:51 *639:58 0.000110482
39 *156:51 *672:148 0.000926201
40 *156:59 *2039:D 0.000947223
41 *156:59 *2362:A 0.00184027
42 *156:59 *158:75 0.00193825
43 *156:59 *482:66 0.00142918
44 *156:59 *568:42 0.000307186
45 *156:59 *601:10 2.13396e-05
46 *156:59 *627:106 0.000109083
47 *156:59 *694:76 0.00032534
48 *156:69 *2375:A 1.92979e-05
49 *156:69 *616:44 7.36498e-05
50 *156:69 *626:70 0.00142356
51 *156:69 *630:26 1.79483e-05
52 *156:69 *674:114 0.000262353
53 *156:69 *698:175 0.00189358
54 C_config_C_bit0 *156:51 0.000123317
55 C_config_C_bit1 *156:51 6.57331e-05
56 *718:DIODE *156:51 0
57 *742:DIODE *156:59 0.000135749
58 *2191:A *156:59 0.000252188
59 *2192:A *156:59 1.41553e-05
60 *2203:A *156:69 0
61 *2204:A *156:69 2.69863e-05
62 *2206:A *156:69 1.35153e-05
63 *2207:A *156:69 0
64 *2217:A *156:39 0.000422274
65 *154:85 *156:51 0.000379842
*RES
1 FrameStrobe[5] *156:39 46.4238 
2 *156:39 *156:51 38.8357 
3 *156:51 *156:59 49.9279 
4 *156:59 *156:69 7.34163 
5 *156:69 *2145:A 3.6 
6 *156:69 *721:DIODE 5.235 
*END

*D_NET *157 0.0483382
*CONN
*P FrameStrobe[6] I
*I *2146:A I *D sky130_fd_sc_hd__clkbuf_1
*I *730:DIODE I *D sky130_fd_sc_hd__diode_2
*CAP
1 FrameStrobe[6] 0.00330615
2 *2146:A 0.000103547
3 *730:DIODE 0.0013938
4 *157:111 0.00234036
5 *157:91 0.00332626
6 *157:53 0.00351446
7 *157:31 0.00454445
8 *730:DIODE *723:DIODE 1.72485e-05
9 *730:DIODE *724:DIODE 0.0003792
10 *730:DIODE *726:DIODE 1.19928e-05
11 *730:DIODE *1891:A0 0.000104162
12 *730:DIODE *602:20 0.00108855
13 *730:DIODE *603:74 0.00274886
14 *730:DIODE *625:10 0
15 *730:DIODE *694:94 0.000122837
16 *730:DIODE *694:130 1.14169e-05
17 *2146:A *1891:A2 0
18 *2146:A *1901:A1 1.35181e-05
19 *2146:A *2379:A 5.1875e-05
20 *2146:A *615:14 0.000136495
21 *2146:A *694:92 8.30853e-06
22 *2146:A *694:130 4.77757e-05
23 *157:31 *1816:A_N 9.30787e-05
24 *157:31 *1821:A1 8.34516e-05
25 *157:31 *1845:A0 2.38557e-05
26 *157:31 *1846:B1 0.000122798
27 *157:31 *1924:D 7.84612e-05
28 *157:31 *1927:D 0.000202892
29 *157:31 *2047:GATE 0
30 *157:31 *2048:D 0.000469826
31 *157:31 *2273:A 8.7815e-05
32 *157:31 *2388:A 0.00103716
33 *157:31 *2391:A 0.00210043
34 *157:31 *2393:A 0.000342253
35 *157:31 *2395:A 3.92756e-05
36 *157:31 *158:23 0.00211305
37 *157:31 *159:39 0.000328701
38 *157:31 *160:25 0.000278946
39 *157:31 *267:14 4.01535e-05
40 *157:31 *579:84 0
41 *157:31 *582:20 0.000166132
42 *157:31 *626:148 0.000122345
43 *157:31 *627:118 6.04275e-07
44 *157:31 *631:116 0.000111149
45 *157:31 *632:16 0
46 *157:31 *641:8 0
47 *157:31 *682:14 0
48 *157:53 *1876:A2 0.000553722
49 *157:53 *2025:GATE 0
50 *157:53 *2273:A 0.000925821
51 *157:53 *2275:A 0
52 *157:53 *2393:A 0.000114958
53 *157:53 *510:28 3.64998e-06
54 *157:53 *590:14 0
55 *157:53 *602:117 0.000192652
56 *157:53 *631:112 2.00134e-05
57 *157:53 *638:16 0.00132635
58 *157:53 *654:20 2.65814e-06
59 *157:53 *658:109 0.000239212
60 *157:53 *672:148 7.62448e-06
61 *157:53 *672:190 0.000364385
62 *157:53 *684:130 0.000808792
63 *157:91 *1812:A2 0.000130386
64 *157:91 *1827:A 2.22315e-05
65 *157:91 *1884:A1 0.000177127
66 *157:91 *1888:A1 8.83946e-05
67 *157:91 *1888:S0 0
68 *157:91 *2001:D 0
69 *157:91 *2039:D 0.000161609
70 *157:91 *158:23 2.78595e-05
71 *157:91 *158:71 0.000445367
72 *157:91 *480:70 4.85022e-06
73 *157:91 *502:65 0.000112893
74 *157:91 *502:79 0.00028564
75 *157:91 *510:28 0.00101156
76 *157:91 *513:86 0.00033763
77 *157:91 *582:94 0.000539488
78 *157:91 *586:44 0.000194213
79 *157:91 *587:118 0.00061207
80 *157:91 *627:106 2.38557e-05
81 *157:91 *634:154 0.000380252
82 *157:91 *635:42 2.23219e-05
83 *157:91 *635:102 0.000119866
84 *157:91 *636:50 0.000165464
85 *157:91 *636:159 1.53917e-05
86 *157:91 *643:116 0.000312843
87 *157:91 *643:129 1.49469e-05
88 *157:91 *658:109 0.000318693
89 *157:91 *668:81 6.47801e-05
90 *157:91 *694:76 5.29276e-05
91 *157:91 *698:68 0.000442466
92 *157:111 *1929:D 0.000122801
93 *157:111 *2059:D 4.66108e-05
94 *157:111 *582:94 0.000200045
95 *157:111 *585:66 0.00018955
96 *157:111 *591:48 1.91597e-05
97 *157:111 *602:20 4.14953e-05
98 *157:111 *602:70 0.00168688
99 *157:111 *603:74 1.39329e-05
100 *157:111 *629:58 5.15605e-05
101 *157:111 *643:129 0.000146854
102 *157:111 *672:124 0.00029854
103 *157:111 *674:40 0.00138018
104 *157:111 *674:80 0.000108409
105 *157:111 *675:56 0.000118081
106 *157:111 *698:68 0.000488236
107 A_config_C_bit2 *157:31 3.06224e-05
108 A_config_C_bit3 *157:31 0.000355186
109 C_I_top *157:31 0.000104843
110 C_T_top *157:31 1.92475e-06
111 C_config_C_bit1 *157:53 3.34652e-05
112 *719:DIODE *730:DIODE 0
113 *2200:A *730:DIODE 0
114 *2210:A *157:91 0.000231316
115 *2211:A *157:91 7.79279e-06
116 *2219:A *157:31 0
117 *142:89 *157:111 4.17045e-05
118 *153:59 *157:53 0.000804342
119 *153:129 *157:111 5.60741e-05
120 *156:39 *157:31 0
*RES
1 FrameStrobe[6] *157:31 43.7044 
2 *157:31 *157:53 46.3775 
3 *157:53 *157:91 49.1445 
4 *157:91 *157:111 37.5025 
5 *157:111 *730:DIODE 44.4525 
6 *730:DIODE *2146:A 9.285 
*END

*D_NET *158 0.043755
*CONN
*P FrameStrobe[7] I
*I *2147:A I *D sky130_fd_sc_hd__clkbuf_1
*I *722:DIODE I *D sky130_fd_sc_hd__diode_2
*I *723:DIODE I *D sky130_fd_sc_hd__diode_2
*CAP
1 FrameStrobe[7] 0.00617448
2 *2147:A 0
3 *722:DIODE 5.45886e-05
4 *723:DIODE 0.00141524
5 *158:97 0.000114858
6 *158:75 0.00242299
7 *158:71 0.00256174
8 *158:23 0.0076682
9 *722:DIODE *1974:GATE 4.77757e-05
10 *722:DIODE *2378:A 2.04328e-05
11 *722:DIODE *556:22 0.000121031
12 *723:DIODE *2381:A 0.000120576
13 *723:DIODE *511:12 8.97006e-07
14 *723:DIODE *556:22 0
15 *723:DIODE *556:26 0
16 *723:DIODE *615:14 5.12718e-05
17 *723:DIODE *627:40 0.000285701
18 *723:DIODE *674:129 1.91597e-05
19 *158:23 *2391:A 0.00107629
20 *158:23 *159:39 0.000187575
21 *158:23 *160:85 0.00411113
22 *158:23 *544:46 9.50342e-06
23 *158:23 *568:58 0.000134003
24 *158:23 *586:44 0.000235137
25 *158:23 *590:14 0.00028185
26 *158:23 *591:102 0.00122967
27 *158:23 *658:109 0.00149361
28 *158:71 *2282:A 5.29399e-05
29 *158:71 *480:70 0.000464847
30 *158:71 *510:28 0.00098385
31 *158:71 *512:18 0.00023965
32 *158:71 *544:46 0.000293037
33 *158:71 *582:94 0.000250271
34 *158:71 *591:102 0.000114899
35 *158:71 *602:70 4.12825e-05
36 *158:71 *616:44 0.00027627
37 *158:71 *624:58 5.96859e-05
38 *158:71 *626:70 0.000167461
39 *158:71 *627:106 0.000411441
40 *158:71 *628:68 0.00018796
41 *158:71 *633:30 0.000686085
42 *158:71 *638:74 2.8781e-05
43 *158:71 *639:30 1.19928e-05
44 *158:71 *644:115 1.73013e-05
45 *158:71 *674:80 8.7442e-05
46 *158:71 *675:56 5.08756e-05
47 *158:75 *511:12 0.000863407
48 *158:75 *568:42 0.000282067
49 *158:75 *694:76 0.000280335
50 *158:97 *1974:GATE 5.8166e-05
51 *158:97 *2375:A 6.06382e-05
52 A_I_top *158:23 0
53 D_config_C_bit0 *158:23 7.33639e-05
54 *730:DIODE *723:DIODE 1.72485e-05
55 *742:DIODE *158:75 0.00166763
56 *2186:A *158:23 0.000149402
57 *2213:A *158:71 1.08758e-05
58 *2215:A *158:71 8.18811e-05
59 *2252:A *158:71 0.000141538
60 *2263:A *158:71 3.81093e-05
61 *153:105 *158:71 0.000183646
62 *154:85 *158:23 0.00105837
63 *156:59 *158:75 0.00193825
64 *157:31 *158:23 0.00211305
65 *157:91 *158:23 2.78595e-05
66 *157:91 *158:71 0.000445367
*RES
1 FrameStrobe[7] *158:23 42.6511 
2 *158:23 *158:71 42.1725 
3 *158:71 *158:75 39.42 
4 *158:75 *723:DIODE 25.7025 
5 *723:DIODE *158:97 6.98 
6 *158:97 *722:DIODE 3.1 
7 *158:97 *2147:A 1.6 
*END

*D_NET *159 0.0494901
*CONN
*P FrameStrobe[8] I
*I *2148:A I *D sky130_fd_sc_hd__clkbuf_1
*I *724:DIODE I *D sky130_fd_sc_hd__diode_2
*CAP
1 FrameStrobe[8] 0.00429007
2 *2148:A 4.34817e-05
3 *724:DIODE 0.000474447
4 *159:101 0.00385922
5 *159:77 0.00569179
6 *159:39 0.0065536
7 *724:DIODE *726:DIODE 4.66108e-05
8 *724:DIODE *615:14 0.00011686
9 *724:DIODE *627:12 0.000121023
10 *724:DIODE *694:92 0.000114196
11 *724:DIODE *694:130 2.51154e-05
12 *2148:A *628:26 7.65181e-05
13 *2148:A *630:26 1.34361e-05
14 *2148:A *674:129 0.000117825
15 *159:39 *1815:A0 2.9011e-05
16 *159:39 *1816:C 1.68695e-05
17 *159:39 *1817:A2 0.000170166
18 *159:39 *1817:C1 3.16057e-06
19 *159:39 *1819:B1 0.000131279
20 *159:39 *1845:A0 0.000117277
21 *159:39 *1850:A2 1.7635e-05
22 *159:39 *1924:D 6.07809e-06
23 *159:39 *1956:D 3.74658e-05
24 *159:39 *2047:GATE 7.36562e-05
25 *159:39 *2183:A 0.000482277
26 *159:39 *160:25 0
27 *159:39 *181:21 0.000340358
28 *159:39 *257:14 1.58871e-05
29 *159:39 *259:12 0
30 *159:39 *261:12 2.09527e-05
31 *159:39 *568:112 0.000247776
32 *159:39 *579:84 1.24035e-05
33 *159:39 *591:126 1.91843e-05
34 *159:39 *591:136 0.000400835
35 *159:39 *602:166 1.68261e-05
36 *159:39 *613:138 2.22315e-05
37 *159:39 *613:146 0.0019248
38 *159:39 *618:24 0
39 *159:39 *618:40 0
40 *159:39 *628:112 0.000172396
41 *159:39 *630:84 1.45731e-05
42 *159:39 *632:16 0
43 *159:39 *648:22 0
44 *159:39 *650:49 0.000296949
45 *159:39 *650:59 0.000286637
46 *159:39 *650:76 6.14958e-05
47 *159:39 *682:10 5.02217e-05
48 *159:39 *682:12 0.000107366
49 *159:39 *682:14 2.59981e-05
50 *159:77 *1875:S1 1.42012e-05
51 *159:77 *1880:A2 0.000337376
52 *159:77 *1907:A1 9.98744e-05
53 *159:77 *1907:S0 0.000337218
54 *159:77 *1910:A1 0.000243523
55 *159:77 *1915:A1 9.19284e-06
56 *159:77 *1986:D 0.000114813
57 *159:77 *1986:GATE 3.08559e-05
58 *159:77 *2070:A 0.000268457
59 *159:77 *2102:A 0.000492528
60 *159:77 *2326:A 1.46319e-05
61 *159:77 *181:56 0.000749595
62 *159:77 *409:32 0.000105649
63 *159:77 *479:30 1.74943e-05
64 *159:77 *505:22 1.44356e-05
65 *159:77 *517:50 1.08732e-05
66 *159:77 *520:56 1.38676e-05
67 *159:77 *569:58 0.000403532
68 *159:77 *591:102 2.39315e-06
69 *159:77 *593:94 0.000160499
70 *159:77 *594:48 0.000144856
71 *159:77 *600:74 7.33639e-05
72 *159:77 *618:40 0.00124784
73 *159:77 *630:84 0.000635638
74 *159:77 *631:112 0.000384774
75 *159:77 *632:66 0.00127297
76 *159:77 *634:78 2.90597e-05
77 *159:77 *640:34 0.00044619
78 *159:77 *642:106 8.2048e-05
79 *159:77 *643:50 8.14856e-05
80 *159:77 *662:177 0.000103567
81 *159:77 *701:52 0.000382467
82 *159:77 *705:49 0.00034837
83 *159:101 *738:DIODE 0.000376944
84 *159:101 *1891:A3 4.60061e-05
85 *159:101 *1894:S0 2.69493e-05
86 *159:101 *1907:A1 4.36573e-06
87 *159:101 *1915:A1 0.0002051
88 *159:101 *1943:GATE 0.000101821
89 *159:101 *1974:D 4.28313e-05
90 *159:101 *2103:A 0.00018955
91 *159:101 *2284:A 2.22315e-05
92 *159:101 *2296:A 5.84628e-05
93 *159:101 *2308:A 0.000476224
94 *159:101 *2316:A 0.000140354
95 *159:101 *2318:A 0.00146816
96 *159:101 *2345:A 0.00120481
97 *159:101 *2348:A 0.000885903
98 *159:101 *2377:A 0.000119668
99 *159:101 *160:133 0.000147301
100 *159:101 *234:58 5.63389e-05
101 *159:101 *479:130 4.76222e-05
102 *159:101 *514:94 2.22315e-05
103 *159:101 *519:16 0.00075456
104 *159:101 *520:56 0.000518533
105 *159:101 *531:62 0.000184987
106 *159:101 *567:90 0.000160258
107 *159:101 *585:66 0.000169261
108 *159:101 *594:102 0.000219073
109 *159:101 *618:112 8.46028e-06
110 *159:101 *637:114 2.05293e-05
111 *159:101 *645:64 8.97897e-05
112 *159:101 *667:87 6.59891e-05
113 *159:101 *667:154 0.000850217
114 *159:101 *669:45 0.000474951
115 *159:101 *673:106 1.0764e-05
116 *159:101 *698:175 0
117 *710:DIODE *159:101 0.000424538
118 *730:DIODE *724:DIODE 0.0003792
119 *743:DIODE *159:101 3.49355e-05
120 *144:111 *159:101 0.000812919
121 *146:99 *159:101 7.40874e-05
122 *148:89 *159:101 0.00193232
123 *150:57 *159:77 0.000747921
124 *153:39 *159:39 5.81045e-05
125 *157:31 *159:39 0.000328701
126 *158:23 *159:39 0.000187575
*RES
1 FrameStrobe[8] *159:39 45.4229 
2 *159:39 *159:77 43.8971 
3 *159:77 *159:101 49.51 
4 *159:101 *724:DIODE 11.985 
5 *724:DIODE *2148:A 8.835 
*END

*D_NET *160 0.0592881
*CONN
*P FrameStrobe[9] I
*I *2149:A I *D sky130_fd_sc_hd__clkbuf_1
*I *725:DIODE I *D sky130_fd_sc_hd__diode_2
*CAP
1 FrameStrobe[9] 0.00226941
2 *2149:A 0.000110901
3 *725:DIODE 1.59222e-05
4 *160:133 0.002892
5 *160:115 0.00391652
6 *160:85 0.00866623
7 *160:25 0.00978429
8 *725:DIODE *1901:S1 1.19928e-05
9 *725:DIODE *2100:A 5.83121e-06
10 *725:DIODE *2381:A 4.82863e-05
11 *2149:A *1901:A2 4.9968e-05
12 *2149:A *1901:S1 0.000114492
13 *2149:A *2381:A 2.90919e-05
14 *2149:A *2382:A 3.64998e-06
15 *2149:A *556:22 8.23457e-05
16 *2149:A *686:58 0.000124749
17 *160:25 *1798:A 0
18 *160:25 *1817:A1 1.15436e-05
19 *160:25 *1817:C1 1.89738e-05
20 *160:25 *1820:A 0.000141021
21 *160:25 *1821:A4 6.83488e-05
22 *160:25 *1821:B1 0.000268188
23 *160:25 *1845:A0 3.32778e-05
24 *160:25 *1845:A1 2.97285e-05
25 *160:25 *1846:B1 2.7478e-05
26 *160:25 *1867:A3 9.23772e-05
27 *160:25 *2135:A 0.000194891
28 *160:25 *2272:A 2.69219e-05
29 *160:25 *253:10 0.000117832
30 *160:25 *253:36 0.000194937
31 *160:25 *253:47 0.000150466
32 *160:25 *257:14 4.31222e-06
33 *160:25 *268:27 5.98468e-05
34 *160:25 *268:31 0.000129539
35 *160:25 *487:32 3.77104e-05
36 *160:25 *493:16 0
37 *160:25 *582:20 7.34442e-05
38 *160:25 *587:16 0.000229025
39 *160:25 *626:148 0.000188266
40 *160:25 *626:150 4.66108e-05
41 *160:25 *648:22 0.000377233
42 *160:25 *650:76 7.78061e-05
43 *160:25 *652:36 8.37587e-05
44 *160:25 *652:44 0.000174196
45 *160:25 *666:32 6.26968e-05
46 *160:85 *1877:A3 5.79895e-05
47 *160:85 *1946:D 1.67131e-05
48 *160:85 *2273:A 0.000467931
49 *160:85 *2297:A 0.000383275
50 *160:85 *2314:A 0.000112143
51 *160:85 *2321:A 3.71539e-05
52 *160:85 *2326:A 0.000729228
53 *160:85 *2386:A 7.81669e-05
54 *160:85 *2391:A 1.4641e-05
55 *160:85 *2393:A 0.000101323
56 *160:85 *181:56 0.00105751
57 *160:85 *234:58 5.38986e-06
58 *160:85 *234:94 0
59 *160:85 *236:40 0.000373849
60 *160:85 *479:30 0.000409999
61 *160:85 *481:88 8.89188e-05
62 *160:85 *483:80 0.000388384
63 *160:85 *516:54 0.000240759
64 *160:85 *538:72 8.80013e-05
65 *160:85 *544:46 0.000665734
66 *160:85 *582:40 0.00131486
67 *160:85 *583:82 1.46319e-05
68 *160:85 *596:50 2.08619e-05
69 *160:85 *624:82 4.72012e-05
70 *160:85 *632:66 9.04081e-05
71 *160:85 *637:46 0.000306219
72 *160:85 *640:24 0.00015829
73 *160:85 *642:38 1.66607e-05
74 *160:85 *645:64 0.000320009
75 *160:85 *651:209 7.8632e-06
76 *160:85 *653:237 1.89469e-05
77 *160:85 *659:116 8.31725e-06
78 *160:85 *665:38 0.00038642
79 *160:85 *671:111 3.47471e-05
80 *160:85 *672:148 6.77132e-05
81 *160:85 *694:76 0.000590475
82 *160:85 *697:62 0.000776544
83 *160:85 *704:70 0.000475258
84 *160:85 *707:83 9.67062e-05
85 *160:115 *1811:A0 7.60389e-05
86 *160:115 *1811:S1 0.000290263
87 *160:115 *1935:GATE 1.08758e-05
88 *160:115 *1946:D 2.72887e-05
89 *160:115 *2115:A 6.33103e-05
90 *160:115 *2306:A 1.7635e-05
91 *160:115 *2311:A 0.000108737
92 *160:115 *2314:A 8.23457e-05
93 *160:115 *2317:A 1.88904e-05
94 *160:115 *2318:A 0.000151263
95 *160:115 *2320:A 0.00017519
96 *160:115 *2327:A 3.37118e-05
97 *160:115 *2328:A 2.10214e-05
98 *160:115 *2333:A 0.000294653
99 *160:115 *2360:A 8.50801e-06
100 *160:115 *479:130 4.53384e-05
101 *160:115 *545:72 3.76869e-05
102 *160:115 *567:90 0.00056208
103 *160:115 *596:140 6.32418e-06
104 *160:115 *650:236 6.80133e-05
105 *160:115 *650:254 0.000176641
106 *160:115 *686:46 4.32417e-05
107 *160:133 *738:DIODE 0.000492527
108 *160:133 *1885:A2 2.0458e-05
109 *160:133 *1885:S0 1.7635e-05
110 *160:133 *1894:S0 0.000364587
111 *160:133 *1974:D 1.18235e-05
112 *160:133 *1998:D 0.000251476
113 *160:133 *2284:A 0.000205856
114 *160:133 *2291:A 0.000280202
115 *160:133 *2337:A 0.000578756
116 *160:133 *2377:A 9.76979e-05
117 *160:133 *2381:A 1.23268e-05
118 *160:133 *233:62 0.000722584
119 *160:133 *479:130 5.02892e-05
120 *160:133 *479:161 0.00161079
121 *160:133 *539:26 7.91584e-06
122 *160:133 *542:30 0.000670301
123 *160:133 *568:188 0.000304126
124 *160:133 *590:170 0.000789985
125 *160:133 *613:42 0.000797885
126 *160:133 *631:65 0.000754633
127 *160:133 *632:152 0.000608014
128 *160:133 *645:64 1.94615e-05
129 *160:133 *673:48 3.16865e-05
130 *160:133 *673:106 2.59191e-05
131 *160:133 *686:58 1.7635e-05
132 *160:133 *696:30 0
133 *160:133 *708:84 3.78392e-05
134 D_I_top *160:85 0.000136977
135 D_config_C_bit2 *160:85 1.19128e-05
136 D_config_C_bit3 *160:85 0.000386104
137 E6BEG[3] *160:115 0.00027802
138 EE4BEG[11] *160:85 2.03337e-05
139 EE4BEG[12] *160:85 1.41626e-05
140 EE4BEG[13] *160:115 0.000153816
141 EE4BEG[15] *160:115 1.88904e-05
142 EE4BEG[4] *160:85 3.15656e-05
143 EE4BEG[6] *160:85 0.000233568
144 EE4BEG[7] *160:115 4.8854e-05
145 EE4BEG[8] *160:85 0.000219661
146 *2219:A *160:85 8.03823e-06
147 *142:31 *160:25 0
148 *142:57 *160:85 6.98788e-05
149 *143:7 *160:25 0
150 *144:111 *160:85 5.63183e-05
151 *150:35 *160:85 2.63393e-05
152 *154:85 *160:85 0.000819492
153 *157:31 *160:25 0.000278946
154 *158:23 *160:85 0.00411113
155 *159:39 *160:25 0
156 *159:101 *160:133 0.000147301
*RES
1 FrameStrobe[9] *160:25 49.92 
2 *160:25 *160:85 49.1104 
3 *160:85 *160:115 27.0515 
4 *160:115 *160:133 36.3332 
5 *160:133 *725:DIODE 4.05 
6 *160:133 *2149:A 6.54 
*END

*D_NET *161 0.0022919
*CONN
*P FrameStrobe_O[0] O
*I *2363:X O *D sky130_fd_sc_hd__buf_2
*CAP
1 FrameStrobe_O[0] 0.000704053
2 *2363:X 0.000704053
3 FrameStrobe_O[0] FrameStrobe_O[1] 0.00012657
4 FrameStrobe_O[0] FrameStrobe_O[2] 8.77498e-05
5 FrameStrobe_O[0] UserCLKo 0.000215834
6 FrameStrobe_O[0] *2363:A 1.9872e-05
7 FrameStrobe_O[0] *2374:A 0.000201508
8 FrameStrobe_O[0] *2375:A 0.000123242
9 FrameStrobe_O[0] *2376:A 1.49348e-05
10 FrameStrobe_O[0] *2380:A 3.6227e-05
11 FrameStrobe_O[0] *2383:A 5.7854e-05
12 *2207:A FrameStrobe_O[0] 0
*RES
1 *2363:X FrameStrobe_O[0] 22.945 
*END

*D_NET *162 0.00099436
*CONN
*P FrameStrobe_O[10] O
*I *2364:X O *D sky130_fd_sc_hd__buf_2
*CAP
1 FrameStrobe_O[10] 0.00049718
2 *2364:X 0.00049718
3 FrameStrobe_O[10] FrameStrobe_O[11] 0
4 FrameStrobe_O[10] FrameStrobe_O[9] 0
*RES
1 *2364:X FrameStrobe_O[10] 11.865 
*END

*D_NET *163 0.00101595
*CONN
*P FrameStrobe_O[11] O
*I *2365:X O *D sky130_fd_sc_hd__buf_2
*CAP
1 FrameStrobe_O[11] 0.000481442
2 *2365:X 0.000481442
3 FrameStrobe_O[11] FrameStrobe_O[12] 0
4 FrameStrobe_O[11] *2364:A 5.30673e-05
5 FrameStrobe_O[10] FrameStrobe_O[11] 0
*RES
1 *2365:X FrameStrobe_O[11] 11.865 
*END

*D_NET *164 0.00101595
*CONN
*P FrameStrobe_O[12] O
*I *2366:X O *D sky130_fd_sc_hd__buf_2
*CAP
1 FrameStrobe_O[12] 0.000481442
2 *2366:X 0.000481442
3 FrameStrobe_O[12] FrameStrobe_O[13] 0
4 FrameStrobe_O[12] *2364:A 5.30673e-05
5 FrameStrobe_O[11] FrameStrobe_O[12] 0
*RES
1 *2366:X FrameStrobe_O[12] 11.865 
*END

*D_NET *165 0.00193325
*CONN
*P FrameStrobe_O[13] O
*I *2367:X O *D sky130_fd_sc_hd__buf_2
*CAP
1 FrameStrobe_O[13] 0.000752383
2 *2367:X 0.000752383
3 FrameStrobe_O[13] FrameStrobe_O[14] 0.000313341
4 FrameStrobe_O[13] *2364:A 0.000115146
5 FrameStrobe_O[12] FrameStrobe_O[13] 0
*RES
1 *2367:X FrameStrobe_O[13] 15.66 
*END

*D_NET *166 0.00173848
*CONN
*P FrameStrobe_O[14] O
*I *2368:X O *D sky130_fd_sc_hd__buf_2
*CAP
1 FrameStrobe_O[14] 0.000587068
2 *2368:X 0.000587068
3 FrameStrobe_O[14] FrameStrobe_O[15] 0
4 FrameStrobe_O[14] *2364:A 0.000124895
5 FrameStrobe_O[14] *2367:A 6.3889e-05
6 FrameStrobe_O[14] *2368:A 6.22185e-05
7 FrameStrobe_O[13] FrameStrobe_O[14] 0.000313341
*RES
1 *2368:X FrameStrobe_O[14] 15.57 
*END

*D_NET *167 0.0025329
*CONN
*P FrameStrobe_O[15] O
*I *2369:X O *D sky130_fd_sc_hd__buf_2
*CAP
1 FrameStrobe_O[15] 0.000862564
2 *2369:X 0.000862564
3 FrameStrobe_O[15] FrameStrobe_O[16] 0
4 FrameStrobe_O[15] *2364:A 3.31204e-05
5 FrameStrobe_O[15] *2365:A 0.000241483
6 FrameStrobe_O[15] *2369:A 0.000194317
7 FrameStrobe_O[15] *2371:A 2.30292e-05
8 FrameStrobe_O[14] FrameStrobe_O[15] 0
9 *714:DIODE FrameStrobe_O[15] 9.54469e-05
10 *2151:A FrameStrobe_O[15] 4.66108e-05
11 *2157:A FrameStrobe_O[15] 4.66108e-05
12 *148:111 FrameStrobe_O[15] 0.000127157
*RES
1 *2369:X FrameStrobe_O[15] 20.04 
*END

*D_NET *168 0.00228728
*CONN
*P FrameStrobe_O[16] O
*I *2370:X O *D sky130_fd_sc_hd__buf_2
*CAP
1 FrameStrobe_O[16] 0.000829025
2 *2370:X 0.000829025
3 FrameStrobe_O[16] FrameStrobe_O[17] 0.000488601
4 FrameStrobe_O[16] FrameStrobe_O[18] 0
5 FrameStrobe_O[16] *2370:A 0
6 FrameStrobe_O[16] *2372:A 0
7 FrameStrobe_O[15] FrameStrobe_O[16] 0
8 *2155:A FrameStrobe_O[16] 0.000140628
*RES
1 *2370:X FrameStrobe_O[16] 20.985 
*END

*D_NET *169 0.00139031
*CONN
*P FrameStrobe_O[17] O
*I *2371:X O *D sky130_fd_sc_hd__buf_2
*CAP
1 FrameStrobe_O[17] 0.000436991
2 *2371:X 0.000436991
3 FrameStrobe_O[17] FrameStrobe_O[18] 2.77283e-05
4 FrameStrobe_O[16] FrameStrobe_O[17] 0.000488601
*RES
1 *2371:X FrameStrobe_O[17] 13.905 
*END

*D_NET *170 0.00180347
*CONN
*P FrameStrobe_O[18] O
*I *2372:X O *D sky130_fd_sc_hd__buf_2
*CAP
1 FrameStrobe_O[18] 0.000826972
2 *2372:X 0.000826972
3 FrameStrobe_O[18] FrameStrobe_O[19] 3.53516e-05
4 FrameStrobe_O[18] *2371:A 8.64421e-05
5 FrameStrobe_O[16] FrameStrobe_O[18] 0
6 FrameStrobe_O[17] FrameStrobe_O[18] 2.77283e-05
*RES
1 *2372:X FrameStrobe_O[18] 18.03 
*END

*D_NET *171 0.00190117
*CONN
*P FrameStrobe_O[19] O
*I *2373:X O *D sky130_fd_sc_hd__buf_2
*CAP
1 FrameStrobe_O[19] 0.000902388
2 *2373:X 0.000902388
3 FrameStrobe_O[19] *564:8 6.10458e-05
4 FrameStrobe_O[18] FrameStrobe_O[19] 3.53516e-05
*RES
1 *2373:X FrameStrobe_O[19] 19.395 
*END

*D_NET *172 0.00116168
*CONN
*P FrameStrobe_O[1] O
*I *2374:X O *D sky130_fd_sc_hd__buf_2
*CAP
1 FrameStrobe_O[1] 0.000455104
2 *2374:X 0.000455104
3 FrameStrobe_O[1] FrameStrobe_O[2] 0
4 FrameStrobe_O[1] UserCLKo 0.0001249
5 FrameStrobe_O[0] FrameStrobe_O[1] 0.00012657
*RES
1 *2374:X FrameStrobe_O[1] 12.465 
*END

*D_NET *173 0.00108844
*CONN
*P FrameStrobe_O[2] O
*I *2375:X O *D sky130_fd_sc_hd__buf_2
*CAP
1 FrameStrobe_O[2] 0.000457304
2 *2375:X 0.000457304
3 FrameStrobe_O[2] FrameStrobe_O[3] 0
4 FrameStrobe_O[2] UserCLKo 8.60799e-05
5 FrameStrobe_O[0] FrameStrobe_O[2] 8.77498e-05
6 FrameStrobe_O[1] FrameStrobe_O[2] 0
*RES
1 *2375:X FrameStrobe_O[2] 12.12 
*END

*D_NET *174 0.00114775
*CONN
*P FrameStrobe_O[3] O
*I *2376:X O *D sky130_fd_sc_hd__buf_2
*CAP
1 FrameStrobe_O[3] 0.000375168
2 *2376:X 0.000375168
3 FrameStrobe_O[3] FrameStrobe_O[4] 0.00039741
4 FrameStrobe_O[2] FrameStrobe_O[3] 0
*RES
1 *2376:X FrameStrobe_O[3] 13.08 
*END

*D_NET *175 0.0010887
*CONN
*P FrameStrobe_O[4] O
*I *2377:X O *D sky130_fd_sc_hd__buf_2
*CAP
1 FrameStrobe_O[4] 0.000310944
2 *2377:X 0.000310944
3 FrameStrobe_O[4] FrameStrobe_O[5] 0
4 FrameStrobe_O[4] UserCLKo 4.82919e-05
5 FrameStrobe_O[4] *2383:A 2.11084e-05
6 FrameStrobe_O[3] FrameStrobe_O[4] 0.00039741
*RES
1 *2377:X FrameStrobe_O[4] 11.775 
*END

*D_NET *176 0.0010144
*CONN
*P FrameStrobe_O[5] O
*I *2378:X O *D sky130_fd_sc_hd__buf_2
*CAP
1 FrameStrobe_O[5] 0.000458847
2 *2378:X 0.000458847
3 FrameStrobe_O[5] UserCLKo 4.77757e-05
4 FrameStrobe_O[5] *2377:A 4.89295e-05
5 FrameStrobe_O[4] FrameStrobe_O[5] 0
*RES
1 *2378:X FrameStrobe_O[5] 11.775 
*END

*D_NET *177 0.000897247
*CONN
*P FrameStrobe_O[6] O
*I *2379:X O *D sky130_fd_sc_hd__buf_2
*CAP
1 FrameStrobe_O[6] 0.000448624
2 *2379:X 0.000448624
3 FrameStrobe_O[6] FrameStrobe_O[7] 0
*RES
1 *2379:X FrameStrobe_O[6] 11.325 
*END

*D_NET *178 0.00109108
*CONN
*P FrameStrobe_O[7] O
*I *2380:X O *D sky130_fd_sc_hd__buf_2
*CAP
1 FrameStrobe_O[7] 0.000508752
2 *2380:X 0.000508752
3 FrameStrobe_O[7] FrameStrobe_O[8] 0
4 FrameStrobe_O[7] *2377:A 7.35729e-05
5 FrameStrobe_O[6] FrameStrobe_O[7] 0
*RES
1 *2380:X FrameStrobe_O[7] 12.21 
*END

*D_NET *179 0.00106211
*CONN
*P FrameStrobe_O[8] O
*I *2381:X O *D sky130_fd_sc_hd__buf_2
*CAP
1 FrameStrobe_O[8] 0.000520498
2 *2381:X 0.000520498
3 FrameStrobe_O[8] FrameStrobe_O[9] 0
4 FrameStrobe_O[8] *2381:A 2.11084e-05
5 FrameStrobe_O[7] FrameStrobe_O[8] 0
*RES
1 *2381:X FrameStrobe_O[8] 12.21 
*END

*D_NET *180 0.0010642
*CONN
*P FrameStrobe_O[9] O
*I *2382:X O *D sky130_fd_sc_hd__buf_2
*CAP
1 FrameStrobe_O[9] 0.000532102
2 *2382:X 0.000532102
3 FrameStrobe_O[10] FrameStrobe_O[9] 0
4 FrameStrobe_O[8] FrameStrobe_O[9] 0
*RES
1 *2382:X FrameStrobe_O[9] 12.21 
*END

*D_NET *181 0.0403717
*CONN
*P UserCLK I
*I *2161:A I *D sky130_fd_sc_hd__clkbuf_16
*I *2166:A I *D sky130_fd_sc_hd__clkbuf_16
*CAP
1 UserCLK 0.00534533
2 *2161:A 0.000976277
3 *2166:A 0
4 *181:56 0.00290454
5 *181:21 0.00727359
6 *2161:A *1877:S0 0.000132789
7 *2161:A *1896:S1 3.23391e-05
8 *2161:A *597:60 4.57758e-05
9 *181:21 *1815:A0 6.26805e-05
10 *181:21 *1819:A2 0
11 *181:21 *1821:A2 0.000130337
12 *181:21 *1821:B1 1.03191e-05
13 *181:21 *1862:B1 0.000166321
14 *181:21 *1904:A0 0
15 *181:21 *1904:S1 0.000226258
16 *181:21 *1912:A3 0.000245825
17 *181:21 *1912:S1 0
18 *181:21 *1917:D 0
19 *181:21 *2045:D 0
20 *181:21 *267:14 2.00196e-05
21 *181:21 *268:27 0.000395791
22 *181:21 *479:30 0.000674082
23 *181:21 *486:18 1.09923e-05
24 *181:21 *486:35 0
25 *181:21 *568:112 1.20943e-05
26 *181:21 *600:74 0.00200974
27 *181:21 *602:166 1.61835e-05
28 *181:21 *613:138 0.000131774
29 *181:21 *618:40 0
30 *181:21 *626:126 1.03572e-05
31 *181:21 *628:90 0.000261808
32 *181:21 *634:78 0.00101557
33 *181:21 *664:51 4.43813e-05
34 *181:21 *689:92 0.000138961
35 *181:21 *706:38 0.000293034
36 *181:56 *1875:A2 0.000248257
37 *181:56 *1875:A3 0.000211208
38 *181:56 *1877:S1 0.000111061
39 *181:56 *1880:A2 0.00034916
40 *181:56 *1880:S1 6.83447e-05
41 *181:56 *1904:S1 9.79155e-05
42 *181:56 *2082:A 7.00115e-05
43 *181:56 *2102:A 2.05571e-05
44 *181:56 *2326:A 0.000131912
45 *181:56 *236:124 1.7635e-05
46 *181:56 *533:44 1.25121e-05
47 *181:56 *569:58 5.79855e-05
48 *181:56 *593:46 1.01182e-05
49 *181:56 *593:94 0.000165069
50 *181:56 *596:140 4.55803e-06
51 *181:56 *597:60 0
52 *181:56 *613:138 0.000230968
53 *181:56 *618:40 0.00108454
54 *181:56 *626:100 3.44843e-05
55 *181:56 *626:102 5.16209e-05
56 *181:56 *626:126 0.000222221
57 *181:56 *637:46 0.00105777
58 *181:56 *643:50 0.000140487
59 *181:56 *643:79 9.58008e-05
60 *181:56 *667:64 6.97256e-05
61 *181:56 *675:174 6.48173e-05
62 *181:56 *684:124 0.000486284
63 *181:56 *701:52 0.000118136
64 *181:56 *708:42 8.70634e-05
65 B_I_top *181:21 0.000274626
66 B_T_top *181:21 0.00014143
67 *2197:A *181:21 0
68 *2216:A *181:21 0
69 *142:31 *181:21 3.96298e-05
70 *143:47 *181:56 0.000329107
71 *143:109 *181:56 0.0010091
72 *144:31 *181:21 0.00158647
73 *145:83 *2161:A 0.00155314
74 *146:67 *181:21 0.000229425
75 *149:23 *181:21 1.29049e-05
76 *150:35 *181:56 1.66478e-05
77 *150:57 *2161:A 0.00190327
78 *150:57 *181:56 0.000118503
79 *152:15 *181:21 0
80 *153:39 *181:21 0.00310254
81 *159:39 *181:21 0.000340358
82 *159:77 *181:56 0.000749595
83 *160:85 *181:56 0.00105751
*RES
1 UserCLK *181:21 43.5165 
2 *181:21 *2166:A 3.6 
3 *181:21 *181:56 49.401 
4 *181:56 *2161:A 29.79 
*END

*D_NET *182 0.00348841
*CONN
*P UserCLKo O
*I *2383:X O *D sky130_fd_sc_hd__buf_1
*CAP
1 UserCLKo 0.00134278
2 *2383:X 0.00134278
3 UserCLKo *2376:A 3.29947e-05
4 UserCLKo *2377:A 0.000202439
5 UserCLKo *2383:A 4.45338e-05
6 FrameStrobe_O[0] UserCLKo 0.000215834
7 FrameStrobe_O[1] UserCLKo 0.0001249
8 FrameStrobe_O[2] UserCLKo 8.60799e-05
9 FrameStrobe_O[4] UserCLKo 4.82919e-05
10 FrameStrobe_O[5] UserCLKo 4.77757e-05
*RES
1 *2383:X UserCLKo 24.285 
*END

*D_NET *185 0.00157791
*CONN
*P W1END[0] I
*I *2218:A I *D sky130_fd_sc_hd__clkbuf_2
*CAP
1 W1END[0] 0.000559145
2 *2218:A 0.000559145
3 *2218:A *2220:A 4.7882e-05
4 *2218:A *494:16 0.000411739
*RES
1 W1END[0] *2218:A 13.7292 
*END

*D_NET *186 0.00332962
*CONN
*P W1END[1] I
*I *2220:A I *D sky130_fd_sc_hd__clkbuf_2
*CAP
1 W1END[1] 0.00112082
2 *2220:A 0.00112082
3 *2220:A *1806:A 5.13794e-06
4 *2220:A *1843:A1 3.89172e-05
5 *2220:A *1855:A1 3.30017e-05
6 *2220:A *1855:A2 1.10377e-05
7 *2220:A *1855:A3 8.09841e-05
8 *2220:A *1855:S1 5.48747e-05
9 *2220:A *1857:A0 1.17262e-05
10 *2220:A *1874:B1 0.000128592
11 *2220:A *2221:A 4.75244e-05
12 *2220:A *2233:A 5.39961e-05
13 *2220:A *635:42 0.000533574
14 *2220:A *657:18 1.1392e-05
15 *2218:A *2220:A 4.7882e-05
16 *149:23 *2220:A 2.9331e-05
*RES
1 W1END[1] *2220:A 15.6399 
*END

*D_NET *187 0.00361551
*CONN
*P W1END[2] I
*I *2221:A I *D sky130_fd_sc_hd__clkbuf_2
*CAP
1 W1END[2] 0.00110179
2 *2221:A 0.00110179
3 *2221:A *1806:A 0.000147494
4 *2221:A *1848:A0 0.000112027
5 *2221:A *1871:S1 3.77372e-06
6 *2221:A *1872:A2 1.72728e-05
7 *2221:A *1872:A3 5.16211e-05
8 *2221:A *1872:S1 3.08892e-05
9 *2221:A *2222:A 0.000289723
10 *2221:A *2233:A 0.000149797
11 *2221:A *635:42 0.000452048
12 *2221:A *660:163 2.51154e-05
13 *2221:A *661:12 6.9843e-05
14 *2221:A *664:41 1.48096e-05
15 *2220:A *2221:A 4.75244e-05
*RES
1 W1END[2] *2221:A 17.9834 
*END

*D_NET *188 0.00291134
*CONN
*P W1END[3] I
*I *2222:A I *D sky130_fd_sc_hd__clkbuf_2
*CAP
1 W1END[3] 0.000764924
2 *2222:A 0.000764924
3 *2222:A *1855:S1 0.000164971
4 *2222:A *1868:A 0.000185593
5 *2222:A *1871:S1 3.32198e-05
6 *2222:A *2232:A 8.58997e-05
7 *2222:A *2233:A 0.000110845
8 *2222:A *247:32 0.000250785
9 *2222:A *248:35 4.99965e-05
10 *2222:A *635:42 8.69678e-05
11 *2222:A *661:37 9.1686e-05
12 *2221:A *2222:A 0.000289723
13 *149:23 *2222:A 3.18044e-05
*RES
1 W1END[3] *2222:A 8.89563 
*END

*D_NET *189 0.00148929
*CONN
*P W2END[0] I
*I *2223:A I *D sky130_fd_sc_hd__buf_2
*CAP
1 W2END[0] 0.000318006
2 *2223:A 0.000318006
3 *2223:A *2224:A 0.000298383
4 *2223:A *2225:A 0.000166936
5 *2223:A *2239:A 0.000299063
6 *2223:A *265:14 8.88956e-05
*RES
1 W2END[0] *2223:A 7.00163 
*END

*D_NET *190 0.00357625
*CONN
*P W2END[1] I
*I *2224:A I *D sky130_fd_sc_hd__clkbuf_2
*CAP
1 W2END[1] 0.00106235
2 *2224:A 0.00106235
3 *2224:A *2225:A 0.000316006
4 *2224:A *2239:A 1.48172e-05
5 *2224:A *560:44 0.000428907
6 *2224:A *647:16 5.55842e-05
7 *2224:A *658:27 0.000304564
8 *2224:A *660:16 2.10433e-05
9 *2223:A *2224:A 0.000298383
10 *143:9 *2224:A 1.22505e-05
*RES
1 W2END[1] *2224:A 7.01783 
*END

*D_NET *191 0.00172907
*CONN
*P W2END[2] I
*I *2225:A I *D sky130_fd_sc_hd__clkbuf_2
*CAP
1 W2END[2] 0.000359605
2 *2225:A 0.000359605
3 *2225:A *2226:A 0.000228771
4 *2225:A *265:14 1.6541e-05
5 *2225:A *560:44 0.000155251
6 *2225:A *647:16 0.000126353
7 *2225:A *661:81 0
8 *2223:A *2225:A 0.000166936
9 *2224:A *2225:A 0.000316006
*RES
1 W2END[2] *2225:A 7.5699 
*END

*D_NET *192 0.00231605
*CONN
*P W2END[3] I
*I *2226:A I *D sky130_fd_sc_hd__buf_2
*CAP
1 W2END[3] 0.000592842
2 *2226:A 0.000592842
3 *2226:A *2227:A 3.50136e-05
4 *2226:A *265:14 9.19823e-05
5 *2226:A *560:44 0.000118141
6 *2226:A *634:78 3.86439e-05
7 *2226:A *647:123 5.06382e-06
8 *2226:A *650:12 4.87465e-06
9 *2226:A *681:67 8.52845e-05
10 *2226:A *681:80 3.10365e-05
11 *2225:A *2226:A 0.000228771
12 *142:31 *2226:A 0.000491554
*RES
1 W2END[3] *2226:A 10.7666 
*END

*D_NET *193 0.00313755
*CONN
*P W2END[4] I
*I *2227:A I *D sky130_fd_sc_hd__buf_2
*CAP
1 W2END[4] 0.000665151
2 *2227:A 0.000665151
3 *2227:A *2030:D 0
4 *2227:A *2228:A 0.000414892
5 *2227:A *2229:A 0.000308228
6 *2227:A *2231:A 4.36573e-06
7 *2227:A *567:32 3.09608e-05
8 *2227:A *634:78 0.000176363
9 *2227:A *651:137 4.87465e-06
10 *2227:A *652:16 8.35068e-05
11 *2227:A *653:12 4.89295e-05
12 *2227:A *655:8 4.78103e-05
13 *2226:A *2227:A 3.50136e-05
14 *142:31 *2227:A 0.000569961
15 *147:47 *2227:A 8.23457e-05
*RES
1 W2END[4] *2227:A 13.3582 
*END

*D_NET *194 0.00256229
*CONN
*P W2END[5] I
*I *2228:A I *D sky130_fd_sc_hd__buf_2
*CAP
1 W2END[5] 0.000649712
2 *2228:A 0.000649712
3 *2228:A *2030:D 6.87295e-05
4 *2228:A *2229:A 0.000213243
5 *2228:A *567:32 0.00020914
6 *2228:A *634:78 1.88904e-05
7 *2228:A *647:123 4.61701e-06
8 *2228:A *650:139 3.54175e-05
9 *2228:A *655:6 6.42016e-05
10 *2228:A *655:8 0.000233734
11 *2227:A *2228:A 0.000414892
*RES
1 W2END[5] *2228:A 15.1266 
*END

*D_NET *195 0.00204651
*CONN
*P W2END[6] I
*I *2229:A I *D sky130_fd_sc_hd__buf_2
*CAP
1 W2END[6] 0.00042086
2 *2229:A 0.00042086
3 *2229:A *2231:A 0.00025526
4 *2229:A *567:32 0.000134374
5 *2229:A *647:123 1.09363e-05
6 *2229:A *655:6 0.000122801
7 *2229:A *655:8 0.000159947
8 *2227:A *2229:A 0.000308228
9 *2228:A *2229:A 0.000213243
*RES
1 W2END[6] *2229:A 9.3451 
*END

*D_NET *196 0.00149255
*CONN
*P W2END[7] I
*I *2231:A I *D sky130_fd_sc_hd__dlymetal6s2s_1
*CAP
1 W2END[7] 0.000380359
2 *2231:A 0.000380359
3 *2231:A *2254:A 0.000186244
4 *2231:A *567:32 1.39587e-05
5 *2231:A *634:78 3.85204e-05
6 *2231:A *647:123 7.26457e-06
7 *2231:A *665:83 4.00045e-05
8 *2227:A *2231:A 4.36573e-06
9 *2229:A *2231:A 0.00025526
10 *146:67 *2231:A 0.000186216
*RES
1 W2END[7] *2231:A 6.49163 
*END

*D_NET *197 0.00307758
*CONN
*P W2MID[0] I
*I *2232:A I *D sky130_fd_sc_hd__buf_1
*CAP
1 W2MID[0] 0.000935086
2 *2232:A 0.000935086
3 *2232:A *1868:A 0.000236161
4 *2232:A *1874:B1 4.66108e-05
5 *2232:A *2233:A 8.26802e-05
6 *2232:A *2234:A 1.34503e-05
7 *2232:A *2235:A 0.000134124
8 *2232:A *265:18 0.000335552
9 *2232:A *494:16 0.00012865
10 *2232:A *656:10 3.55642e-06
11 *2232:A *659:12 9.77048e-06
12 *2222:A *2232:A 8.58997e-05
13 *151:15 *2232:A 0.000130952
*RES
1 W2MID[0] *2232:A 18.9907 
*END

*D_NET *198 0.00178084
*CONN
*P W2MID[1] I
*I *2233:A I *D sky130_fd_sc_hd__buf_1
*CAP
1 W2MID[1] 0.000344075
2 *2233:A 0.000344075
3 *2233:A *1806:A 7.19771e-05
4 *2233:A *1874:B1 3.76935e-05
5 *2233:A *2234:A 0.000152211
6 *2233:A *2237:A 0.000151959
7 *2220:A *2233:A 5.39961e-05
8 *2221:A *2233:A 0.000149797
9 *2222:A *2233:A 0.000110845
10 *2232:A *2233:A 8.26802e-05
11 *149:23 *2233:A 0.000281529
*RES
1 W2MID[1] *2233:A 8.27663 
*END

*D_NET *199 0.00204328
*CONN
*P W2MID[2] I
*I *2234:A I *D sky130_fd_sc_hd__clkbuf_2
*CAP
1 W2MID[2] 0.000412058
2 *2234:A 0.000412058
3 *2234:A *2235:A 0.000615441
4 *2234:A *265:14 1.93765e-05
5 *2234:A *265:18 6.27029e-05
6 *2234:A *266:10 1.79483e-05
7 *2234:A *658:10 4.77757e-05
8 *2234:A *661:81 8.35106e-05
9 *2232:A *2234:A 1.34503e-05
10 *2233:A *2234:A 0.000152211
11 *149:23 *2234:A 0.000206749
*RES
1 W2MID[2] *2234:A 9.6901 
*END

*D_NET *200 0.00294946
*CONN
*P W2MID[3] I
*I *2235:A I *D sky130_fd_sc_hd__clkbuf_2
*CAP
1 W2MID[3] 0.000481069
2 *2235:A 0.000481069
3 *2235:A *1868:A 8.23457e-05
4 *2235:A *1873:A0 1.99007e-05
5 *2235:A *2236:A 0.000125437
6 *2235:A *2237:A 0.000102798
7 *2235:A *265:18 0.000232301
8 *2235:A *646:32 0.000500927
9 *2235:A *658:10 2.42043e-05
10 *2235:A *659:12 8.46717e-05
11 *2232:A *2235:A 0.000134124
12 *2234:A *2235:A 0.000615441
13 *149:23 *2235:A 6.51721e-05
*RES
1 W2MID[3] *2235:A 12.7882 
*END

*D_NET *201 0.00281713
*CONN
*P W2MID[4] I
*I *2236:A I *D sky130_fd_sc_hd__clkbuf_2
*CAP
1 W2MID[4] 0.000652542
2 *2236:A 0.000652542
3 *2236:A *1871:S0 4.44515e-05
4 *2236:A *2237:A 0.000329117
5 *2236:A *248:35 8.18381e-05
6 *2236:A *645:14 0.000242747
7 *2236:A *646:32 0.000645835
8 *2235:A *2236:A 0.000125437
9 *147:47 *2236:A 4.26243e-05
*RES
1 W2MID[4] *2236:A 6.98737 
*END

*D_NET *202 0.00238422
*CONN
*P W2MID[5] I
*I *2237:A I *D sky130_fd_sc_hd__clkbuf_2
*CAP
1 W2MID[5] 0.000437696
2 *2237:A 0.000437696
3 *2237:A *1806:A 1.22898e-05
4 *2237:A *1873:A1 0
5 *2237:A *1874:B1 0.000162318
6 *2237:A *2238:A 0.000237117
7 *2237:A *265:14 0.000114201
8 *2237:A *645:14 0.000399028
9 *2237:A *661:81 0
10 *2233:A *2237:A 0.000151959
11 *2235:A *2237:A 0.000102798
12 *2236:A *2237:A 0.000329117
*RES
1 W2MID[5] *2237:A 10.8849 
*END

*D_NET *203 0.00192966
*CONN
*P W2MID[6] I
*I *2238:A I *D sky130_fd_sc_hd__buf_2
*CAP
1 W2MID[6] 0.000333741
2 *2238:A 0.000333741
3 *2238:A *2239:A 7.05692e-05
4 *2238:A *265:14 0
5 *2238:A *596:50 0.000514033
6 *2238:A *645:14 0.000440463
7 *2238:A *661:81 0
8 *2237:A *2238:A 0.000237117
*RES
1 W2MID[6] *2238:A 7.62817 
*END

*D_NET *204 0.00289478
*CONN
*P W2MID[7] I
*I *2239:A I *D sky130_fd_sc_hd__clkbuf_1
*CAP
1 W2MID[7] 0.00065227
2 *2239:A 0.00065227
3 *2239:A *248:35 5.63183e-05
4 *2239:A *596:50 0.000904885
5 *2239:A *647:16 0.000140665
6 *2239:A *658:27 3.31362e-05
7 *2239:A *681:59 4.28819e-05
8 *2223:A *2239:A 0.000299063
9 *2224:A *2239:A 1.48172e-05
10 *2238:A *2239:A 7.05692e-05
11 *147:47 *2239:A 2.79078e-05
*RES
1 W2MID[7] *2239:A 8.2391 
*END

*D_NET *205 0.00298161
*CONN
*P W6END[0] I
*I *2240:A I *D sky130_fd_sc_hd__buf_1
*CAP
1 W6END[0] 0.000902152
2 *2240:A 0.000902152
3 *2240:A *2244:A 0.000362252
4 *2240:A *2260:A 0.000250296
5 *2240:A *525:32 0.000206358
6 *2240:A *596:50 5.10029e-05
7 *2240:A *647:189 0.000208661
8 *2240:A *689:24 9.87313e-05
*RES
1 W6END[0] *2240:A 13.0616 
*END

*D_NET *206 0.00174469
*CONN
*P W6END[10] I
*I *2242:A I *D sky130_fd_sc_hd__dlymetal6s2s_1
*CAP
1 W6END[10] 0.000415127
2 *2242:A 0.000415127
3 *2242:A *2243:A 9.62849e-05
4 *2242:A *2251:A 3.55598e-05
5 *2242:A *2253:A 0.000165236
6 *2242:A *635:42 0.000448335
7 *2242:A *698:129 2.55848e-05
8 E2BEG[0] *2242:A 0.000143441
*RES
1 W6END[10] *2242:A 6.74663 
*END

*D_NET *207 0.00399112
*CONN
*P W6END[11] I
*I *2243:A I *D sky130_fd_sc_hd__buf_1
*CAP
1 W6END[11] 0.000768798
2 *2243:A 0.000768798
3 *2243:A *709:DIODE 3.19771e-05
4 *2243:A *2071:A 2.49909e-05
5 *2243:A *2079:A 0.000153816
6 *2243:A *2285:A 0.000110118
7 *2243:A *2286:A 8.35106e-05
8 *2243:A *2293:A 0.000273137
9 *2243:A *2294:A 3.81021e-05
10 *2243:A *514:94 5.56633e-06
11 *2243:A *594:48 8.23457e-05
12 *2243:A *635:42 0.000487259
13 *2243:A *698:129 0.000273733
14 E1BEG[0] *2243:A 0.000173235
15 E1BEG[2] *2243:A 0.000153816
16 E1BEG[3] *2243:A 8.23457e-05
17 E2BEG[0] *2243:A 1.68627e-05
18 *2242:A *2243:A 9.62849e-05
19 *146:67 *2243:A 0.00036643
*RES
1 W6END[11] *2243:A 15.9399 
*END

*D_NET *208 0.00196416
*CONN
*P W6END[1] I
*I *2244:A I *D sky130_fd_sc_hd__clkbuf_2
*CAP
1 W6END[1] 0.000441701
2 *2244:A 0.000441701
3 *2244:A *2245:A 6.0621e-05
4 *2244:A *2248:A 0.000225285
5 *2244:A *481:30 0.000103095
6 *2244:A *596:50 0.000228716
7 *2244:A *637:67 0.000100786
8 *2240:A *2244:A 0.000362252
*RES
1 W6END[1] *2244:A 9.5003 
*END

*D_NET *209 0.00375357
*CONN
*P W6END[2] I
*I *2245:A I *D sky130_fd_sc_hd__buf_1
*CAP
1 W6END[2] 0.000764878
2 *2245:A 0.000764878
3 *2245:A *1905:A0 1.22505e-05
4 *2245:A *2246:A 0.000278063
5 *2245:A *596:50 0.00114731
6 *2245:A *676:99 1.79536e-05
7 *2245:A *689:24 4.77719e-05
8 *2245:A *693:38 0.000659843
9 *2244:A *2245:A 6.0621e-05
*RES
1 W6END[2] *2245:A 6.89023 
*END

*D_NET *210 0.00204117
*CONN
*P W6END[3] I
*I *2246:A I *D sky130_fd_sc_hd__clkbuf_2
*CAP
1 W6END[3] 0.000589036
2 *2246:A 0.000589036
3 *2246:A *2247:A 0.000280146
4 *2246:A *2249:A 8.35106e-05
5 *2246:A *2250:A 8.53113e-06
6 *2246:A *647:189 3.87352e-05
7 *2246:A *694:76 0
8 *2246:A *695:8 4.77719e-05
9 *2246:A *704:70 0
10 *2245:A *2246:A 0.000278063
11 *151:23 *2246:A 0.000126336
*RES
1 W6END[3] *2246:A 8.36317 
*END

*D_NET *211 0.00366365
*CONN
*P W6END[4] I
*I *2247:A I *D sky130_fd_sc_hd__buf_1
*CAP
1 W6END[4] 0.00135599
2 *2247:A 0.00135599
3 *2247:A *1905:A0 2.01504e-05
4 *2247:A *1905:A2 9.64638e-06
5 *2247:A *1905:A3 6.59887e-05
6 *2247:A *1905:S0 1.56428e-05
7 *2247:A *2077:A 2.83031e-05
8 *2247:A *2248:A 7.30167e-05
9 *2247:A *2249:A 8.2776e-05
10 *2247:A *2250:A 0.000209336
11 *2247:A *704:70 0
12 *2247:A *707:14 1.41095e-05
13 *2247:A *707:28 0.000152555
14 *2246:A *2247:A 0.000280146
*RES
1 W6END[4] *2247:A 16.2832 
*END

*D_NET *212 0.00190075
*CONN
*P W6END[5] I
*I *2248:A I *D sky130_fd_sc_hd__clkbuf_2
*CAP
1 W6END[5] 0.000503836
2 *2248:A 0.000503836
3 *2248:A *2249:A 7.08774e-05
4 *2248:A *481:30 1.79536e-05
5 *2248:A *650:164 0.000283869
6 *2248:A *699:40 0.00017568
7 *2244:A *2248:A 0.000225285
8 *2247:A *2248:A 7.30167e-05
9 *142:31 *2248:A 4.6399e-05
*RES
1 W6END[5] *2248:A 11.8807 
*END

*D_NET *213 0.00252747
*CONN
*P W6END[6] I
*I *2249:A I *D sky130_fd_sc_hd__clkbuf_2
*CAP
1 W6END[6] 0.000885079
2 *2249:A 0.000885079
3 *2249:A *2250:A 0.000259594
4 *2249:A *694:76 2.46324e-05
5 *2249:A *697:62 1.01747e-06
6 *2249:A *698:129 0
7 *2249:A *704:70 0.000234901
8 *2246:A *2249:A 8.35106e-05
9 *2247:A *2249:A 8.2776e-05
10 *2248:A *2249:A 7.08774e-05
*RES
1 W6END[6] *2249:A 8.9695 
*END

*D_NET *214 0.00217027
*CONN
*P W6END[7] I
*I *2250:A I *D sky130_fd_sc_hd__clkbuf_2
*CAP
1 W6END[7] 0.000576387
2 *2250:A 0.000576387
3 *2250:A *2251:A 0.000243868
4 *2250:A *647:189 0.000296171
5 *2246:A *2250:A 8.53113e-06
6 *2247:A *2250:A 0.000209336
7 *2249:A *2250:A 0.000259594
*RES
1 W6END[7] *2250:A 8.5899 
*END

*D_NET *215 0.00165655
*CONN
*P W6END[8] I
*I *2251:A I *D sky130_fd_sc_hd__dlymetal6s2s_1
*CAP
1 W6END[8] 0.000486202
2 *2251:A 0.000486202
3 *2251:A *2253:A 0.000165236
4 *2251:A *2300:A 1.37135e-05
5 *2251:A *525:32 0.000103438
6 *2251:A *698:129 6.16226e-06
7 E2BEG[0] *2251:A 0.000116165
8 *2242:A *2251:A 3.55598e-05
9 *2250:A *2251:A 0.000243868
*RES
1 W6END[8] *2251:A 6.74663 
*END

*D_NET *216 0.0019216
*CONN
*P W6END[9] I
*I *2253:A I *D sky130_fd_sc_hd__buf_1
*CAP
1 W6END[9] 0.000407469
2 *2253:A 0.000407469
3 *2253:A *2287:A 3.7837e-05
4 *2253:A *637:67 0.000377696
5 *2253:A *647:189 0.000233691
6 *2253:A *691:16 0.000106996
7 *2242:A *2253:A 0.000165236
8 *2251:A *2253:A 0.000165236
9 *151:33 *2253:A 1.99697e-05
*RES
1 W6END[9] *2253:A 9.5153 
*END

*D_NET *217 0.00375952
*CONN
*P WW4END[0] I
*I *2254:A I *D sky130_fd_sc_hd__buf_1
*CAP
1 WW4END[0] 0.00119026
2 *2254:A 0.00119026
3 *2254:A *1864:A1 9.53428e-06
4 *2254:A *1864:A2 1.54111e-05
5 *2254:A *1864:A3 5.94666e-05
6 *2254:A *1864:S0 4.77719e-05
7 *2254:A *1864:S1 8.71672e-05
8 *2254:A *1865:A1 0.000229988
9 *2254:A *1866:B1 3.96088e-05
10 *2254:A *1866:B2 3.79595e-05
11 *2254:A *2261:A 0.000151998
12 *2254:A *651:185 3.43849e-05
13 *2254:A *662:99 8.73389e-06
14 *2254:A *664:103 0.000151767
15 *2254:A *699:40 9.57707e-05
16 *2231:A *2254:A 0.000186244
17 *146:67 *2254:A 0.000223198
*RES
1 WW4END[0] *2254:A 15.8199 
*END

*D_NET *218 0.00248774
*CONN
*P WW4END[10] I
*I *2255:A I *D sky130_fd_sc_hd__buf_1
*CAP
1 WW4END[10] 0.000484607
2 *2255:A 0.000484607
3 *2255:A *2256:A 0.000251976
4 *2255:A *2257:A 0.000270948
5 *2255:A *2270:A 0.000161188
6 *2255:A *481:30 6.26668e-05
7 *2255:A *642:38 0.000185271
8 *2255:A *647:189 1.50624e-05
9 *2255:A *660:51 0.000571414
*RES
1 WW4END[10] *2255:A 12.0151 
*END

*D_NET *219 0.00140511
*CONN
*P WW4END[11] I
*I *2256:A I *D sky130_fd_sc_hd__dlymetal6s2s_1
*CAP
1 WW4END[11] 0.000413887
2 *2256:A 0.000413887
3 *2256:A *2257:A 0.000228325
4 *2256:A *2258:A 1.46945e-05
5 *2256:A *481:30 0
6 *2256:A *642:38 2.03404e-05
7 *2256:A *647:189 6.2001e-05
8 *2255:A *2256:A 0.000251976
*RES
1 WW4END[11] *2256:A 5.72663 
*END

*D_NET *220 0.00181526
*CONN
*P WW4END[12] I
*I *2257:A I *D sky130_fd_sc_hd__buf_1
*CAP
1 WW4END[12] 0.000536838
2 *2257:A 0.000536838
3 *2257:A *2258:A 0.000226697
4 *2257:A *481:30 8.41703e-06
5 *2257:A *647:189 7.1932e-06
6 *2255:A *2257:A 0.000270948
7 *2256:A *2257:A 0.000228325
*RES
1 WW4END[12] *2257:A 9.7051 
*END

*D_NET *221 0.00141967
*CONN
*P WW4END[13] I
*I *2258:A I *D sky130_fd_sc_hd__dlymetal6s2s_1
*CAP
1 WW4END[13] 0.000402638
2 *2258:A 0.000402638
3 *2258:A *2259:A 0.000260317
4 *2258:A *525:32 5.06809e-05
5 *2258:A *647:189 6.2001e-05
6 *2256:A *2258:A 1.46945e-05
7 *2257:A *2258:A 0.000226697
*RES
1 WW4END[13] *2258:A 5.72663 
*END

*D_NET *222 0.00168353
*CONN
*P WW4END[14] I
*I *2259:A I *D sky130_fd_sc_hd__dlymetal6s2s_1
*CAP
1 WW4END[14] 0.000389454
2 *2259:A 0.000389454
3 *2259:A *2260:A 0.00017138
4 *2259:A *525:32 0.00014209
5 *2259:A *647:189 0.000143988
6 *2259:A *703:60 0.000186848
7 *2258:A *2259:A 0.000260317
*RES
1 WW4END[14] *2259:A 6.74663 
*END

*D_NET *223 0.00333109
*CONN
*P WW4END[15] I
*I *2260:A I *D sky130_fd_sc_hd__buf_1
*CAP
1 WW4END[15] 0.00103417
2 *2260:A 0.00103417
3 *2260:A *2287:A 4.94474e-05
4 *2260:A *596:50 3.32602e-05
5 *2260:A *647:189 0
6 *2260:A *689:24 0.000136461
7 *2260:A *700:12 6.99601e-05
8 *2260:A *701:52 0
9 *2260:A *702:30 7.61014e-05
10 *2260:A *703:60 0.000285702
11 *2260:A *704:70 0.000118513
12 *2240:A *2260:A 0.000250296
13 *2259:A *2260:A 0.00017138
14 *147:75 *2260:A 7.16199e-05
*RES
1 WW4END[15] *2260:A 15.516 
*END

*D_NET *224 0.00332471
*CONN
*P WW4END[1] I
*I *2261:A I *D sky130_fd_sc_hd__buf_1
*CAP
1 WW4END[1] 0.000640861
2 *2261:A 0.000640861
3 *2261:A *2262:A 4.93467e-05
4 *2261:A *637:67 0.000804823
5 *2261:A *649:10 2.86975e-05
6 *2261:A *699:40 0.000201773
7 *2254:A *2261:A 0.000151998
8 *148:21 *2261:A 0.000806349
*RES
1 WW4END[1] *2261:A 18.2488 
*END

*D_NET *225 0.00554097
*CONN
*P WW4END[2] I
*I *2262:A I *D sky130_fd_sc_hd__buf_1
*CAP
1 WW4END[2] 0.00127564
2 *2262:A 0.00127564
3 *2262:A *1836:A1 0.00026585
4 *2262:A *1840:A1 5.98468e-05
5 *2262:A *1859:A2 9.41362e-05
6 *2262:A *1861:A1 0.000107982
7 *2262:A *1861:S0 3.9232e-05
8 *2262:A *1863:A2 3.41481e-05
9 *2262:A *1863:S1 6.89913e-05
10 *2262:A *2264:A 8.48097e-05
11 *2262:A *240:14 1.82334e-05
12 *2262:A *240:20 4.58374e-06
13 *2262:A *659:83 0.000106561
14 *2262:A *662:99 7.9642e-06
15 *2262:A *699:40 0.00105605
16 *2262:A *707:14 3.87359e-05
17 *2261:A *2262:A 4.93467e-05
18 *143:9 *2262:A 4.14843e-05
19 *144:31 *2262:A 3.91137e-05
20 *151:15 *2262:A 0.000872617
*RES
1 WW4END[2] *2262:A 17.7123 
*END

*D_NET *226 0.00282984
*CONN
*P WW4END[3] I
*I *2264:A I *D sky130_fd_sc_hd__dlymetal6s2s_1
*CAP
1 WW4END[3] 0.000411168
2 *2264:A 0.000411168
3 *2264:A *1860:B 0.000255687
4 *2264:A *1862:A1 0.000253363
5 *2264:A *2265:A 7.50101e-05
6 *2264:A *647:123 7.20899e-05
7 *2264:A *647:133 0.000378286
8 *2264:A *650:164 0.000252809
9 *2264:A *653:172 0.000328128
10 *2262:A *2264:A 8.48097e-05
11 *151:15 *2264:A 0.000307326
*RES
1 WW4END[3] *2264:A 12.1501 
*END

*D_NET *227 0.00384492
*CONN
*P WW4END[4] I
*I *2265:A I *D sky130_fd_sc_hd__buf_1
*CAP
1 WW4END[4] 0.000942864
2 *2265:A 0.000942864
3 *2265:A *1862:A1 0.000207555
4 *2265:A *1862:A2 3.32916e-05
5 *2265:A *2037:GATE 9.59148e-05
6 *2265:A *2266:A 0.000202585
7 *2265:A *2268:A 0.000186505
8 *2265:A *484:18 2.86975e-05
9 *2265:A *637:67 1.01911e-05
10 *2265:A *647:123 0.000345554
11 *2265:A *647:133 0.000451065
12 *2265:A *653:172 0.000254478
13 *2265:A *660:51 6.83447e-05
14 *2264:A *2265:A 7.50101e-05
*RES
1 WW4END[4] *2265:A 21.0136 
*END

*D_NET *228 0.00142325
*CONN
*P WW4END[5] I
*I *2266:A I *D sky130_fd_sc_hd__dlymetal6s2s_1
*CAP
1 WW4END[5] 0.00037191
2 *2266:A 0.00037191
3 *2266:A *1860:B 6.21133e-05
4 *2266:A *1866:B2 1.88904e-05
5 *2266:A *2267:A 0.000171398
6 *2266:A *242:14 0
7 *2266:A *482:30 3.60024e-06
8 *2266:A *560:44 0.000182975
9 *2266:A *653:172 3.787e-05
10 *2265:A *2266:A 0.000202585
*RES
1 WW4END[5] *2266:A 5.72663 
*END

*D_NET *229 0.00168971
*CONN
*P WW4END[6] I
*I *2267:A I *D sky130_fd_sc_hd__clkbuf_2
*CAP
1 WW4END[6] 0.000426901
2 *2267:A 0.000426901
3 *2267:A *1860:B 4.36573e-06
4 *2267:A *2268:A 0.000322059
5 *2267:A *482:30 4.04619e-05
6 *2267:A *560:44 0.000180189
7 *2267:A *647:189 0.000111855
8 *2267:A *653:172 5.57525e-06
9 *2266:A *2267:A 0.000171398
*RES
1 WW4END[6] *2267:A 6.5499 
*END

*D_NET *230 0.00261447
*CONN
*P WW4END[7] I
*I *2268:A I *D sky130_fd_sc_hd__buf_1
*CAP
1 WW4END[7] 0.000714029
2 *2268:A 0.000714029
3 *2268:A *2037:GATE 2.49909e-05
4 *2268:A *2269:A 0.000304072
5 *2268:A *242:8 0.000121643
6 *2268:A *481:30 0.000113982
7 *2268:A *482:30 4.95164e-05
8 *2268:A *483:80 5.09765e-05
9 *2268:A *647:189 1.26626e-05
10 *2265:A *2268:A 0.000186505
11 *2267:A *2268:A 0.000322059
*RES
1 WW4END[7] *2268:A 11.4982 
*END

*D_NET *231 0.00360454
*CONN
*P WW4END[8] I
*I *2269:A I *D sky130_fd_sc_hd__buf_1
*CAP
1 WW4END[8] 0.000966075
2 *2269:A 0.000966075
3 *2269:A *1862:B1 3.85576e-05
4 *2269:A *2037:D 9.10429e-05
5 *2269:A *2270:A 0.000273957
6 *2269:A *482:30 0.000325014
7 *2269:A *483:80 0.000125067
8 *2269:A *485:20 4.66826e-05
9 *2269:A *486:18 2.86975e-05
10 *2269:A *642:38 4.34181e-05
11 *2269:A *676:99 0.000166588
12 *2269:A *706:38 0.000145762
13 *2268:A *2269:A 0.000304072
14 *147:75 *2269:A 8.35262e-05
*RES
1 WW4END[8] *2269:A 9.5937 
*END

*D_NET *232 0.00262165
*CONN
*P WW4END[9] I
*I *2270:A I *D sky130_fd_sc_hd__buf_1
*CAP
1 WW4END[9] 0.000714231
2 *2270:A 0.000714231
3 *2270:A *1860:A 4.40028e-05
4 *2270:A *1860:B 0.000105162
5 *2270:A *1862:A1 6.45348e-05
6 *2270:A *1866:A1 0.000159327
7 *2270:A *2037:D 2.65814e-06
8 *2270:A *642:38 0.000256119
9 *2270:A *647:189 0.000126238
10 *2255:A *2270:A 0.000161188
11 *2269:A *2270:A 0.000273957
*RES
1 WW4END[9] *2270:A 11.3516 
*END

*D_NET *233 0.0196926
*CONN
*I *1885:A1 I *D sky130_fd_sc_hd__mux4_1
*I *1883:A2 I *D sky130_fd_sc_hd__mux4_1
*I *1890:A3 I *D sky130_fd_sc_hd__mux4_1
*I *1900:A3 I *D sky130_fd_sc_hd__mux4_1
*I *1813:A2 I *D sky130_fd_sc_hd__mux4_1
*I *1881:A1 I *D sky130_fd_sc_hd__mux4_1
*I *2056:Q O *D sky130_fd_sc_hd__dfxtp_1
*CAP
1 *1885:A1 0
2 *1883:A2 0.00122708
3 *1890:A3 1.54507e-06
4 *1900:A3 0
5 *1813:A2 0.000557266
6 *1881:A1 0.000219278
7 *2056:Q 0.000117972
8 *233:99 0.00164296
9 *233:80 0.00158457
10 *233:62 0.00200384
11 *233:25 0.00149638
12 *233:8 0.000442757
13 *1813:A2 *740:DIODE 6.2695e-05
14 *1813:A2 *2061:A 1.10377e-05
15 *1813:A2 *234:44 6.10352e-05
16 *1813:A2 *235:21 2.05864e-05
17 *1813:A2 *235:45 8.19144e-05
18 *1813:A2 *531:62 4.56166e-05
19 *1813:A2 *673:106 4.40445e-05
20 *1881:A1 *1881:S0 5.93299e-05
21 *1881:A1 *2063:A 4.00541e-06
22 *1881:A1 *2311:A 7.23961e-06
23 *1881:A1 *235:113 3.58662e-06
24 *1881:A1 *479:130 0.000452123
25 *1881:A1 *597:60 0
26 *1881:A1 *669:114 0.00024119
27 *1881:A1 *676:48 0.000134831
28 *1883:A2 *1890:S0 0.00013114
29 *1883:A2 *1894:S1 0.000245014
30 *1883:A2 *1959:D 2.97593e-05
31 *1883:A2 *1959:GATE 2.8185e-05
32 *1883:A2 *2005:GATE 7.43528e-05
33 *1883:A2 *2126:A 8.81506e-05
34 *1883:A2 *2336:A 2.59934e-06
35 *1883:A2 *524:180 3.91137e-05
36 *1883:A2 *678:16 0.000267949
37 *1883:A2 *678:20 8.73389e-06
38 *233:8 *1935:GATE 3.57349e-05
39 *233:8 *669:108 0.000119632
40 *233:25 *479:130 4.90071e-05
41 *233:25 *479:161 0.000241264
42 *233:25 *618:112 0.000246279
43 *233:25 *669:114 2.03245e-05
44 *233:62 *1885:A0 5.74866e-05
45 *233:62 *1885:A2 1.88656e-05
46 *233:62 *1885:A3 8.21814e-05
47 *233:62 *1998:D 0.000251476
48 *233:62 *2333:A 3.64998e-06
49 *233:62 *479:161 6.06649e-05
50 *233:62 *535:26 6.04355e-05
51 *233:62 *535:76 0.000500649
52 *233:62 *539:26 1.5508e-05
53 *233:62 *618:112 0.000413524
54 *233:62 *646:88 4.66108e-05
55 *233:80 *1809:A0 2.62565e-05
56 *233:80 *1814:A2 0.000225141
57 *233:80 *1885:A0 4.9968e-05
58 *233:80 *1899:S0 0.000112679
59 *233:80 *1900:S1 0.000503315
60 *233:80 *1906:S0 5.89925e-05
61 *233:80 *2335:A 5.04262e-05
62 *233:80 *524:14 0.000259099
63 *233:80 *558:50 0.000144009
64 *233:80 *594:102 1.82582e-05
65 *233:80 *595:28 0.000207871
66 *233:80 *667:174 4.26741e-05
67 *233:80 *669:75 1.94059e-05
68 *233:80 *689:114 0.000137611
69 *233:99 *1809:A0 0.000221801
70 *233:99 *1890:A2 0.000114232
71 *233:99 *1890:S0 2.01541e-05
72 *233:99 *1893:A3 0.000186894
73 *233:99 *1965:GATE 0.000154981
74 *233:99 *2339:A 7.06865e-05
75 *233:99 *568:188 1.44947e-05
76 *233:99 *595:28 2.52626e-05
77 *233:99 *635:112 9.78082e-05
78 *146:89 *233:80 6.9931e-05
79 *146:99 *1883:A2 0.000171048
80 *148:89 *233:80 9.93054e-05
81 *148:111 *1883:A2 0.000908111
82 *148:111 *1890:A3 2.10433e-05
83 *148:111 *233:99 0.000461841
84 *150:87 *1883:A2 4.28873e-05
85 *151:85 *1881:A1 0.000116401
86 *151:85 *1883:A2 0.000656237
87 *160:133 *233:62 0.000722584
*RES
1 *2056:Q *233:8 5.085 
2 *233:8 *1881:A1 9.75 
3 *233:8 *233:25 3.5475 
4 *233:25 *1813:A2 6.45325 
5 *233:25 *233:62 21.5825 
6 *233:62 *233:80 11.3347 
7 *233:80 *1900:A3 3.6 
8 *233:80 *233:99 14.4325 
9 *233:99 *1890:A3 3.8325 
10 *233:99 *1883:A2 34.2812 
11 *233:62 *1885:A1 1.6 
*END

*D_NET *234 0.0252644
*CONN
*I *1899:A3 I *D sky130_fd_sc_hd__mux4_1
*I *1889:A3 I *D sky130_fd_sc_hd__mux4_1
*I *1811:A2 I *D sky130_fd_sc_hd__mux4_1
*I *1877:A2 I *D sky130_fd_sc_hd__mux4_1
*I *1879:A1 I *D sky130_fd_sc_hd__mux4_1
*I *1875:A1 I *D sky130_fd_sc_hd__mux4_1
*I *2057:Q O *D sky130_fd_sc_hd__dfxtp_1
*CAP
1 *1899:A3 5.93585e-05
2 *1889:A3 5.43668e-05
3 *1811:A2 6.39075e-05
4 *1877:A2 0.000484956
5 *1879:A1 0.000726542
6 *1875:A1 0.000680384
7 *2057:Q 0.00056861
8 *234:94 0.00315121
9 *234:58 0.00346394
10 *234:44 0.00225171
11 *234:26 0.00127433
12 *234:14 0.000894829
13 *1811:A2 *2308:A 0.000100927
14 *1811:A2 *2320:A 6.90889e-06
15 *1811:A2 *236:22 1.10377e-05
16 *1811:A2 *650:236 9.53312e-05
17 *1875:A1 *1875:A2 4.28873e-05
18 *1875:A1 *1875:S0 5.16211e-05
19 *1875:A1 *1887:A1 2.5627e-05
20 *1875:A1 *642:55 2.76356e-05
21 *1875:A1 *642:106 2.19562e-06
22 *1877:A2 *720:DIODE 2.68464e-05
23 *1877:A2 *1877:A1 1.92187e-05
24 *1877:A2 *1877:S0 8.76765e-05
25 *1877:A2 *2327:A 7.86974e-05
26 *1877:A2 *481:88 0.000149874
27 *1877:A2 *481:94 9.59423e-05
28 *1877:A2 *560:66 2.49909e-05
29 *1879:A1 *1879:A0 2.39856e-05
30 *1879:A1 *1895:A3 0.000190715
31 *1879:A1 *236:116 0.000103507
32 *1879:A1 *517:50 3.20554e-05
33 *1879:A1 *597:44 1.56428e-05
34 *1879:A1 *664:166 6.72196e-05
35 *1879:A1 *675:192 0.000301277
36 *1879:A1 *676:85 2.56045e-05
37 *1879:A1 *685:49 6.83488e-05
38 *1879:A1 *693:38 6.59891e-05
39 *1889:A3 *695:103 2.76356e-05
40 *1899:A3 *2333:A 8.09126e-05
41 *1899:A3 *539:26 4.41506e-05
42 *1899:A3 *650:254 7.91885e-05
43 *234:14 *1899:A2 9.64638e-06
44 *234:14 *1899:S1 0.000121275
45 *234:14 *2360:A 4.77757e-05
46 *234:14 *539:26 5.96933e-06
47 *234:14 *593:118 0.000155497
48 *234:26 *1889:A2 5.3512e-05
49 *234:26 *559:46 5.20894e-06
50 *234:26 *585:66 0.000116627
51 *234:26 *659:227 0.00042191
52 *234:44 *740:DIODE 0.000532788
53 *234:44 *1811:A3 6.25932e-05
54 *234:44 *1811:S0 4.16993e-05
55 *234:44 *1813:S1 5.63903e-05
56 *234:44 *1881:A2 0.000228888
57 *234:44 *2306:A 2.43995e-05
58 *234:44 *2312:A 4.09804e-05
59 *234:44 *2318:A 6.54107e-05
60 *234:44 *2333:A 2.50376e-05
61 *234:44 *2359:A 0.000171872
62 *234:44 *235:45 6.76995e-05
63 *234:44 *235:93 5.84972e-05
64 *234:44 *236:40 6.59891e-05
65 *234:44 *535:76 0.000168471
66 *234:44 *567:90 0.000182621
67 *234:44 *585:66 0.000131641
68 *234:44 *650:254 0
69 *234:44 *659:227 0.000453375
70 *234:44 *665:38 9.85301e-05
71 *234:58 *1877:A3 8.24284e-06
72 *234:58 *2284:A 4.78174e-05
73 *234:58 *2316:A 0.00030139
74 *234:58 *2326:A 0.000167695
75 *234:58 *2327:A 2.45171e-05
76 *234:58 *2333:A 7.17262e-05
77 *234:58 *516:54 0
78 *234:58 *517:50 0.000677537
79 *234:58 *520:56 0.000276518
80 *234:58 *558:50 1.57264e-05
81 *234:58 *569:58 7.05151e-05
82 *234:58 *667:154 4.76126e-05
83 *234:94 *1887:A0 4.50095e-05
84 *234:94 *1887:A1 0.000100232
85 *234:94 *1887:A2 0.000170888
86 *234:94 *1887:S1 4.74773e-05
87 *234:94 *2092:A 8.35068e-05
88 *234:94 *2285:A 0.000462182
89 *234:94 *2290:A 0.000110082
90 *234:94 *2298:A 0.000294811
91 *234:94 *2315:A 0
92 *234:94 *236:93 5.18829e-05
93 *234:94 *538:72 0.000195438
94 *234:94 *558:50 3.85204e-05
95 *234:94 *560:66 7.90657e-06
96 *234:94 *647:244 0.000146021
97 *234:94 *653:172 2.97593e-05
98 *234:94 *653:237 7.2745e-05
99 *234:94 *660:87 5.33809e-05
100 *234:94 *691:16 0.000152883
101 *234:94 *707:83 2.3583e-06
102 E6BEG[4] *234:44 0.000164959
103 EE4BEG[0] *234:94 0.000100428
104 EE4BEG[11] *234:58 2.22315e-05
105 EE4BEG[2] *234:94 0.000102501
106 EE4BEG[3] *234:94 1.7635e-05
107 EE4BEG[4] *234:94 8.65612e-05
108 EE4BEG[5] *234:58 1.88602e-05
109 EE4BEG[5] *234:94 4.2022e-05
110 EE4BEG[6] *1877:A2 0.000268146
111 EE4BEG[8] *234:58 0.000173413
112 FrameData_O[7] *234:14 8.40213e-05
113 *710:DIODE *234:26 2.03757e-05
114 *710:DIODE *234:44 1.88602e-05
115 *1813:A2 *234:44 6.10352e-05
116 *144:75 *234:94 5.34626e-05
117 *144:111 *234:58 0.000263736
118 *148:89 *234:58 0.000401886
119 *151:33 *234:94 0.000466016
120 *159:101 *234:58 5.63389e-05
121 *160:85 *234:58 5.38986e-06
122 *160:85 *234:94 0
*RES
1 *2057:Q *234:14 11.43 
2 *234:14 *234:26 3.01163 
3 *234:26 *234:44 24.89 
4 *234:44 *234:58 18.7366 
5 *234:58 *234:94 41.905 
6 *234:94 *1875:A1 8.875 
7 *234:94 *1879:A1 21.105 
8 *234:58 *1877:A2 12.8287 
9 *234:44 *1811:A2 7.17875 
10 *234:26 *1889:A3 4.395 
11 *234:14 *1899:A3 5.3925 
*END

*D_NET *235 0.0203916
*CONN
*I *1881:A3 I *D sky130_fd_sc_hd__mux4_1
*I *1888:A3 I *D sky130_fd_sc_hd__mux4_1
*I *1896:A3 I *D sky130_fd_sc_hd__mux4_1
*I *1883:A3 I *D sky130_fd_sc_hd__mux4_1
*I *1885:A3 I *D sky130_fd_sc_hd__mux4_1
*I *1813:A3 I *D sky130_fd_sc_hd__mux4_1
*I *2058:Q O *D sky130_fd_sc_hd__dfxtp_1
*CAP
1 *1881:A3 0
2 *1888:A3 0.000120816
3 *1896:A3 9.72443e-05
4 *1883:A3 0.00105494
5 *1885:A3 0.00011025
6 *1813:A3 0
7 *2058:Q 0.000304945
8 *235:113 0.00131956
9 *235:93 0.00205469
10 *235:45 0.00217268
11 *235:21 0.00204539
12 *235:14 0.000389668
13 *1883:A3 *738:DIODE 1.88656e-05
14 *1883:A3 *1882:S0 0.000163477
15 *1883:A3 *1886:A0 0.000178321
16 *1883:A3 *1893:A1 1.7635e-05
17 *1883:A3 *1906:A0 0.000340279
18 *1883:A3 *2084:A 7.0862e-05
19 *1883:A3 *2341:A 5.11432e-05
20 *1883:A3 *2347:A 4.13879e-05
21 *1883:A3 *2351:A 0.000394059
22 *1883:A3 *2353:A 0.000283746
23 *1883:A3 *2354:A 0.000104011
24 *1883:A3 *524:180 3.13447e-05
25 *1883:A3 *542:30 0.00032696
26 *1883:A3 *645:82 0.000111906
27 *1883:A3 *645:91 0.000517125
28 *1883:A3 *659:227 0.000455618
29 *1885:A3 *1885:S0 7.12494e-05
30 *1888:A3 *1888:A0 0
31 *1888:A3 *1888:S0 1.08758e-05
32 *1888:A3 *1888:S1 3.37113e-05
33 *1896:A3 *553:28 0.000109431
34 *1896:A3 *593:94 6.69608e-06
35 *1896:A3 *660:115 2.76356e-05
36 *1896:A3 *673:106 0.000109431
37 *235:14 *1813:A0 0.000279501
38 *235:14 *2061:A 0.000158063
39 *235:14 *645:82 0.00018955
40 *235:21 *2061:A 5.99586e-05
41 *235:21 *567:90 6.70754e-05
42 *235:45 *1813:S1 1.71013e-05
43 *235:45 *1889:A2 2.15352e-05
44 *235:45 *1899:A2 0.000155466
45 *235:45 *1998:D 2.38374e-05
46 *235:45 *2304:A 0.000122377
47 *235:45 *2333:A 0.000818025
48 *235:45 *2353:A 9.50317e-05
49 *235:45 *479:161 3.73066e-05
50 *235:45 *514:94 1.52427e-05
51 *235:45 *559:46 2.22315e-05
52 *235:45 *567:90 0.000163687
53 *235:45 *650:254 0.000345683
54 *235:45 *659:227 0.000400571
55 *235:45 *673:106 5.11552e-05
56 *235:93 *2061:A 6.60149e-05
57 *235:93 *2305:A 0.00018587
58 *235:93 *2308:A 3.60991e-05
59 *235:93 *2310:A 9.04081e-05
60 *235:93 *2312:A 2.05571e-05
61 *235:93 *514:94 0.000257955
62 *235:93 *531:62 3.50767e-05
63 *235:93 *539:26 0.000273341
64 *235:93 *596:140 4.03791e-05
65 *235:93 *650:254 2.53775e-05
66 *235:93 *665:38 9.85301e-05
67 *235:113 *1881:S0 0.000126865
68 *235:113 *2106:A 2.49909e-05
69 *235:113 *2305:A 4.9253e-06
70 *235:113 *236:22 9.0898e-05
71 *235:113 *514:94 5.83121e-06
72 *235:113 *517:50 1.9943e-05
73 *235:113 *535:76 0.000180217
74 *235:113 *553:28 0.000174649
75 *235:113 *579:52 0.000192456
76 *235:113 *593:94 0.00013094
77 *235:113 *673:106 3.993e-05
78 *235:113 *676:48 7.96104e-06
79 E6BEG[11] *235:93 0.000116234
80 FrameData_O[7] *235:45 3.14528e-05
81 *711:DIODE *1883:A3 0.000371033
82 *1813:A2 *235:21 2.05864e-05
83 *1813:A2 *235:45 8.19144e-05
84 *1881:A1 *235:113 3.58662e-06
85 *144:111 *235:93 0.000163586
86 *144:111 *235:113 0.000173512
87 *151:85 *1883:A3 0.000848579
88 *151:85 *235:93 5.4153e-05
89 *233:62 *1885:A3 8.21814e-05
90 *234:44 *235:45 6.76995e-05
91 *234:44 *235:93 5.84972e-05
*RES
1 *2058:Q *235:14 8.065 
2 *235:14 *1813:A3 1.6 
3 *235:14 *235:21 1.83 
4 *235:21 *235:45 20.5517 
5 *235:45 *1885:A3 5.79 
6 *235:45 *1883:A3 36.39 
7 *235:21 *235:93 14.5507 
8 *235:93 *235:113 21.585 
9 *235:113 *1896:A3 5.775 
10 *235:113 *1888:A3 5.565 
11 *235:93 *1881:A3 1.6 
*END

*D_NET *236 0.0246852
*CONN
*I *1811:A3 I *D sky130_fd_sc_hd__mux4_1
*I *1875:A3 I *D sky130_fd_sc_hd__mux4_1
*I *1879:A3 I *D sky130_fd_sc_hd__mux4_1
*I *1895:A3 I *D sky130_fd_sc_hd__mux4_1
*I *1887:A3 I *D sky130_fd_sc_hd__mux4_1
*I *1877:A3 I *D sky130_fd_sc_hd__mux4_1
*I *2059:Q O *D sky130_fd_sc_hd__dfxtp_1
*CAP
1 *1811:A3 9.57742e-05
2 *1875:A3 7.19205e-05
3 *1879:A3 5.05901e-05
4 *1895:A3 0.00051269
5 *1887:A3 9.98756e-05
6 *1877:A3 0.000696631
7 *2059:Q 0.000988208
8 *236:124 0.000753975
9 *236:116 0.00122874
10 *236:93 0.00244065
11 *236:40 0.00271105
12 *236:22 0.00172376
13 *1811:A3 *1811:A0 7.9642e-06
14 *1811:A3 *1811:S0 4.66108e-05
15 *1811:A3 *1811:S1 7.10964e-06
16 *1811:A3 *2306:A 3.08152e-05
17 *1811:A3 *2320:A 5.74791e-05
18 *1875:A3 *533:44 0.000220208
19 *1877:A3 *1881:A2 0.000539348
20 *1877:A3 *1915:A1 3.99339e-05
21 *1877:A3 *1915:A3 0.000126456
22 *1877:A3 *2290:A 8.73487e-05
23 *1877:A3 *2291:A 0.000267564
24 *1877:A3 *2326:A 1.51386e-05
25 *1877:A3 *517:50 4.17687e-05
26 *1877:A3 *538:72 0.000143849
27 *1877:A3 *703:60 4.73375e-06
28 *1879:A3 *1875:A2 2.76356e-05
29 *1887:A3 *1887:A2 1.86209e-05
30 *1887:A3 *1887:S1 6.17724e-06
31 *1887:A3 *2321:A 1.04964e-05
32 *1887:A3 *650:236 6.47994e-06
33 *1887:A3 *707:83 6.91945e-05
34 *1895:A3 *1875:A2 4.97452e-05
35 *1895:A3 *1879:A0 5.83121e-06
36 *1895:A3 *597:44 0.000525456
37 *1895:A3 *659:83 2.76356e-05
38 *1895:A3 *659:116 2.86853e-05
39 *1895:A3 *667:64 0.000408594
40 *1895:A3 *701:52 0.000239884
41 *236:22 *1811:S1 0
42 *236:22 *1881:S1 2.68464e-05
43 *236:22 *2015:D 1.88602e-05
44 *236:22 *2063:A 2.01565e-05
45 *236:22 *2106:A 4.66108e-05
46 *236:22 *2307:A 2.75558e-05
47 *236:22 *2320:A 0.000228656
48 *236:22 *520:56 0.000228468
49 *236:22 *535:76 4.41506e-05
50 *236:22 *558:50 0.000402727
51 *236:22 *579:32 9.83692e-05
52 *236:40 *1811:A0 1.7635e-05
53 *236:40 *2290:A 1.7635e-05
54 *236:40 *2306:A 2.18287e-05
55 *236:40 *2318:A 0.000222203
56 *236:40 *538:72 9.61432e-05
57 *236:40 *653:237 9.57742e-06
58 *236:40 *659:213 4.35426e-05
59 *236:93 *1887:S1 3.05038e-05
60 *236:93 *2107:A 1.19928e-05
61 *236:93 *524:142 0.000467489
62 *236:93 *594:74 0.000909967
63 *236:93 *647:244 0.00066855
64 *236:93 *659:175 0.000398255
65 *236:93 *660:87 0.000120701
66 *236:93 *695:66 8.97876e-06
67 *236:93 *695:90 0.000210668
68 *236:93 *696:26 0.000471692
69 *236:116 *1887:S1 2.69514e-05
70 *236:116 *2292:A 8.247e-05
71 *236:116 *2294:A 7.04003e-05
72 *236:116 *650:236 5.7038e-05
73 *236:116 *676:48 5.9964e-05
74 *236:116 *676:85 1.74678e-05
75 *236:116 *698:129 2.99158e-05
76 *236:116 *707:83 1.22898e-05
77 *236:124 *1875:A2 2.18287e-05
78 *236:124 *1879:A2 6.90889e-06
79 *236:124 *533:44 6.83488e-05
80 E2BEG[5] *236:116 0.000118081
81 E2BEG[6] *236:116 6.29385e-06
82 E2BEGb[0] *236:116 6.97051e-05
83 E6BEG[0] *236:40 0.000124356
84 E6BEG[1] *236:40 0.000163943
85 EE4BEG[10] *236:40 0.000153096
86 EE4BEG[10] *236:93 0.000103741
87 EE4BEG[12] *236:40 4.03033e-05
88 EE4BEG[4] *236:93 4.2145e-05
89 EE4BEG[5] *236:40 7.59564e-05
90 EE4BEG[5] *236:93 3.92756e-05
91 EE4BEG[8] *1877:A3 9.69386e-05
92 EE4BEG[8] *236:93 0.000172909
93 EE4BEG[9] *236:40 0.000243014
94 EE4BEG[9] *236:93 5.56205e-06
95 *1811:A2 *236:22 1.10377e-05
96 *1879:A1 *1895:A3 0.000190715
97 *1879:A1 *236:116 0.000103507
98 *145:71 *1895:A3 6.50528e-05
99 *147:99 *236:93 0.00120697
100 *148:89 *1877:A3 1.40938e-05
101 *148:89 *236:93 0.000296216
102 *149:45 *1895:A3 0.000408511
103 *149:93 *236:40 0.000235503
104 *160:85 *1877:A3 5.79895e-05
105 *160:85 *236:40 0.000373849
106 *181:56 *1875:A3 0.000211208
107 *181:56 *236:124 1.7635e-05
108 *234:44 *1811:A3 6.25932e-05
109 *234:44 *236:40 6.59891e-05
110 *234:58 *1877:A3 8.24284e-06
111 *234:94 *236:93 5.18829e-05
112 *235:113 *236:22 9.0898e-05
*RES
1 *2059:Q *236:22 24.01 
2 *236:22 *236:40 18.8575 
3 *236:40 *1877:A3 7.6489 
4 *236:40 *236:93 30.4942 
5 *236:93 *1887:A3 5.46 
6 *236:93 *236:116 16.015 
7 *236:116 *236:124 4.715 
8 *236:124 *1895:A3 20.285 
9 *236:124 *1879:A3 2.755 
10 *236:116 *1875:A3 6.255 
11 *236:22 *1811:A3 6.315 
*END

*D_NET *237 0.0012421
*CONN
*I *1876:S1 I *D sky130_fd_sc_hd__mux4_1
*I *2024:Q O *D sky130_fd_sc_hd__dlxtp_1
*CAP
1 *1876:S1 0.000361075
2 *2024:Q 0.000361075
3 *1876:S1 *243:42 0.000155601
4 *1876:S1 *587:118 0
5 *1876:S1 *603:68 7.00115e-05
6 *1876:S1 *613:95 4.09699e-05
7 *1876:S1 *624:58 0.000104986
8 *1876:S1 *624:82 2.50166e-05
9 *1876:S1 *643:79 4.22042e-05
10 *1876:S1 *643:116 8.11602e-05
*RES
1 *2024:Q *1876:S1 13.35 
*END

*D_NET *238 0.000473131
*CONN
*I *1876:S0 I *D sky130_fd_sc_hd__mux4_1
*I *2025:Q O *D sky130_fd_sc_hd__dlxtp_1
*CAP
1 *1876:S0 7.30135e-05
2 *2025:Q 7.30135e-05
3 *1876:S0 *243:42 0.000140247
4 *1876:S0 *613:95 4.66108e-05
5 *1876:S0 *618:40 0.000140247
*RES
1 *2025:Q *1876:S0 9.285 
*END

*D_NET *239 0.00296235
*CONN
*I *1816:C I *D sky130_fd_sc_hd__and3b_1
*I *1796:A I *D sky130_fd_sc_hd__inv_1
*I *1819:B1 I *D sky130_fd_sc_hd__o21ai_1
*I *1818:B I *D sky130_fd_sc_hd__or3b_1
*I *2034:Q O *D sky130_fd_sc_hd__dlxtp_1
*CAP
1 *1816:C 9.33642e-05
2 *1796:A 2.49982e-05
3 *1819:B1 0.000133532
4 *1818:B 0.000227178
5 *2034:Q 0.000100077
6 *239:43 0.000165295
7 *239:24 0.000307566
8 *1796:A *1817:A2 9.20563e-05
9 *1796:A *2390:A 9.37374e-05
10 *1816:C *2183:A 0.000147106
11 *1816:C *602:166 0.00021237
12 *1816:C *650:59 2.98807e-05
13 *1818:B *1815:A1 3.64998e-06
14 *1818:B *1818:C_N 3.03775e-05
15 *1818:B *648:49 7.10593e-06
16 *1819:B1 *1815:A0 0.000131279
17 *1819:B1 *1819:A1 3.23256e-06
18 *1819:B1 *1819:A2 3.95157e-05
19 *1819:B1 *1820:A 0
20 *1819:B1 *1821:A3 1.08758e-05
21 *1819:B1 *1821:B1 1.76403e-05
22 *239:24 *1815:A1 0.000230438
23 *239:24 *1817:A1 8.73389e-06
24 *239:24 *2272:A 9.20976e-05
25 *239:24 *2390:A 0.000298436
26 *239:24 *579:84 9.20976e-05
27 *239:43 *1815:A1 6.57596e-06
28 *239:43 *1817:A2 0.000119762
29 *239:43 *2390:A 9.52263e-05
30 *159:39 *1816:C 1.68695e-05
31 *159:39 *1819:B1 0.000131279
*RES
1 *2034:Q *1818:B 4.34 
2 *1818:B *239:24 9.59 
3 *239:24 *1819:B1 8.39 
4 *239:24 *239:43 1.5 
5 *239:43 *1796:A 2.48875 
6 *239:43 *1816:C 8.255 
*END

*D_NET *240 0.00568813
*CONN
*I *1861:S0 I *D sky130_fd_sc_hd__mux4_1
*I *1863:S0 I *D sky130_fd_sc_hd__mux4_1
*I *1859:S1 I *D sky130_fd_sc_hd__mux4_1
*I *1864:S1 I *D sky130_fd_sc_hd__mux4_1
*I *2035:Q O *D sky130_fd_sc_hd__dlxtp_1
*CAP
1 *1861:S0 0.000504377
2 *1863:S0 0
3 *1859:S1 2.12943e-05
4 *1864:S1 0.000106624
5 *2035:Q 0.000147893
6 *240:20 0.000995851
7 *240:14 0.00097434
8 *240:10 0.000758677
9 *1859:S1 *1866:A1 7.24094e-05
10 *1859:S1 *653:12 6.44452e-05
11 *1861:S0 *1840:A1 1.56428e-05
12 *1861:S0 *1861:A0 1.68722e-05
13 *1861:S0 *1861:A1 8.247e-05
14 *1861:S0 *1861:S1 6.33103e-05
15 *1864:S1 *1866:A1 5.79855e-05
16 *1864:S1 *1866:A2 2.96134e-05
17 *1864:S1 *651:185 5.37378e-05
18 *1864:S1 *653:12 0.00011215
19 *240:10 *2036:D 6.69608e-06
20 *240:10 *569:58 6.71864e-06
21 *240:10 *659:83 0.000245906
22 *240:10 *662:140 0.000109016
23 *240:10 *708:22 6.95753e-05
24 *240:14 *1840:A1 5.98468e-05
25 *240:14 *1863:A2 8.7152e-06
26 *240:14 *657:44 8.53113e-06
27 *240:14 *659:83 3.24891e-05
28 *240:14 *662:99 0.000138197
29 *240:14 *662:140 9.54566e-05
30 *240:20 *1859:A2 3.45708e-05
31 *240:20 *1859:S0 0.00010899
32 *240:20 *1863:A2 7.11507e-05
33 *240:20 *1863:S1 0.000137967
34 *240:20 *1865:A0 1.16516e-05
35 *240:20 *241:23 0.000228231
36 *240:20 *662:99 3.91176e-06
37 *2254:A *1864:S1 8.71672e-05
38 *2262:A *1861:S0 3.9232e-05
39 *2262:A *240:14 1.82334e-05
40 *2262:A *240:20 4.58374e-06
41 *147:47 *240:20 2.10214e-05
42 *149:45 *240:10 3.40022e-05
43 *149:45 *240:14 2.85764e-05
*RES
1 *2035:Q *240:10 7.305 
2 *240:10 *240:14 4.91 
3 *240:14 *240:20 12.38 
4 *240:20 *1864:S1 6.465 
5 *240:20 *1859:S1 4.47 
6 *240:14 *1863:S0 1.6 
7 *240:10 *1861:S0 9.945 
*END

*D_NET *241 0.00359667
*CONN
*I *1861:S1 I *D sky130_fd_sc_hd__mux4_1
*I *1859:S0 I *D sky130_fd_sc_hd__mux4_1
*I *1864:S0 I *D sky130_fd_sc_hd__mux4_1
*I *1863:S1 I *D sky130_fd_sc_hd__mux4_1
*I *2036:Q O *D sky130_fd_sc_hd__dlxtp_1
*CAP
1 *1861:S1 0.000493111
2 *1859:S0 3.48266e-05
3 *1864:S0 8.41484e-05
4 *1863:S1 0.000133588
5 *2036:Q 2.13317e-05
6 *241:23 0.00019768
7 *241:12 0.000314589
8 *241:8 0.000616739
9 *1859:S0 *1865:A0 2.04328e-05
10 *1861:S1 *1861:A2 6.88999e-06
11 *1861:S1 *1861:A3 6.91126e-05
12 *1863:S1 *1865:A0 3.64998e-06
13 *1864:S0 *1864:A3 4.89295e-05
14 *1864:S0 *664:125 5.03312e-05
15 *241:8 *1904:A0 7.23602e-05
16 *241:12 *1904:A0 0.000117574
17 *241:12 *648:109 0.000139944
18 *241:23 *1859:A0 4.77757e-05
19 *241:23 *1865:A0 4.20415e-05
20 *1861:S0 *1861:S1 6.33103e-05
21 *2254:A *1864:S0 4.77719e-05
22 *2262:A *1863:S1 6.89913e-05
23 *144:31 *241:8 6.45236e-05
24 *144:31 *241:12 0.000266505
25 *147:47 *1859:S0 4.66108e-05
26 *147:47 *1864:S0 4.87123e-05
27 *240:20 *1859:S0 0.00010899
28 *240:20 *1863:S1 0.000137967
29 *240:20 *241:23 0.000228231
*RES
1 *2036:Q *241:8 4.47 
2 *241:8 *241:12 5.165 
3 *241:12 *1863:S1 4.48 
4 *241:12 *241:23 2.175 
5 *241:23 *1864:S0 7.43 
6 *241:23 *1859:S0 2.74 
7 *241:8 *1861:S1 10.29 
*END

*D_NET *242 0.00255762
*CONN
*I *1860:A I *D sky130_fd_sc_hd__or2_1
*I *1804:A I *D sky130_fd_sc_hd__inv_1
*I *1865:S I *D sky130_fd_sc_hd__mux2_1
*I *2037:Q O *D sky130_fd_sc_hd__dlxtp_1
*CAP
1 *1860:A 0.000170163
2 *1804:A 0.000197811
3 *1865:S 0
4 *2037:Q 8.39966e-05
5 *242:14 0.000394025
6 *242:8 0.000450373
7 *1804:A *1859:A2 1.38766e-05
8 *1804:A *1860:B 5.1991e-05
9 *1804:A *1862:A1 2.32514e-05
10 *1804:A *1865:A0 6.87204e-05
11 *1804:A *1865:A1 4.88478e-05
12 *1804:A *1866:A2 0
13 *1804:A *1866:B1 0.000109108
14 *1804:A *1866:B2 1.93087e-05
15 *1860:A *1862:A1 0.000160314
16 *1860:A *1862:B1 9.50342e-06
17 *1860:A *1866:A1 0.000117415
18 *1860:A *1866:A2 0.00016573
19 *1860:A *483:80 1.3758e-05
20 *1860:A *647:189 0
21 *242:14 *1861:A3 3.64998e-06
22 *242:14 *1866:A2 0.000285517
23 *242:14 *1866:B2 0
24 *242:14 *482:30 0
25 *242:14 *483:80 4.61701e-06
26 *2266:A *242:14 0
27 *2268:A *242:8 0.000121643
28 *2270:A *1860:A 4.40028e-05
*RES
1 *2037:Q *242:8 4.74 
2 *242:8 *242:14 5.87 
3 *242:14 *1865:S 1.6 
4 *242:14 *1804:A 9.77375 
5 *242:8 *1860:A 7.995 
*END

*D_NET *243 0.015918
*CONN
*I *1862:B1 I *D sky130_fd_sc_hd__o21a_1
*I *1805:A I *D sky130_fd_sc_hd__inv_2
*I *2038:Q O *D sky130_fd_sc_hd__dlxtp_1
*CAP
1 *1862:B1 0.000988863
2 *1805:A 0.000326323
3 *2038:Q 0.00299045
4 *243:42 0.00430564
5 *1805:A *2036:D 0.000438775
6 *1805:A *2036:GATE 0.00014018
7 *1805:A *644:24 5.94061e-05
8 *1805:A *659:83 6.59161e-05
9 *1805:A *708:22 0.000480785
10 *1862:B1 *1866:A1 3.09164e-05
11 *1862:B1 *1904:A0 0
12 *1862:B1 *642:38 2.90597e-06
13 *1862:B1 *647:189 0
14 *1862:B1 *660:51 0
15 *1862:B1 *701:52 0.000133004
16 *1862:B1 *706:38 3.64017e-05
17 *243:42 *1910:S1 0.000156621
18 *243:42 *2036:D 0.00038147
19 *243:42 *2038:D 1.56428e-05
20 *243:42 *2038:GATE 6.33103e-05
21 *243:42 *2304:A 9.39542e-05
22 *243:42 *568:112 0.00012632
23 *243:42 *590:49 0.000470635
24 *243:42 *590:112 0.000141694
25 *243:42 *591:102 1.54272e-05
26 *243:42 *593:46 0.000256293
27 *243:42 *596:50 0.000494793
28 *243:42 *618:40 0.000248486
29 *243:42 *624:58 8.23457e-05
30 *243:42 *624:108 0.000349101
31 *243:42 *627:106 4.60288e-05
32 *243:42 *628:90 0.000489359
33 *243:42 *652:139 2.35435e-05
34 *243:42 *659:83 0.000272636
35 *243:42 *667:64 8.247e-05
36 *243:42 *680:46 0.00010128
37 *243:42 *684:124 0.000312709
38 *243:42 *687:114 0.000117028
39 *243:42 *689:92 0.000554895
40 *243:42 *701:52 1.74678e-05
41 *1860:A *1862:B1 9.50342e-06
42 *1876:S0 *243:42 0.000140247
43 *1876:S1 *243:42 0.000155601
44 *2269:A *1862:B1 3.85576e-05
45 *143:47 *1805:A 8.44292e-05
46 *143:47 *243:42 0.000151037
47 *145:35 *1862:B1 4.61398e-05
48 *154:85 *243:42 0.000213045
49 *181:21 *1862:B1 0.000166321
*RES
1 *2038:Q *243:42 49.5383 
2 *243:42 *1805:A 13.1175 
3 *243:42 *1862:B1 6.9537 
*END

*D_NET *244 0.00112505
*CONN
*I *1828:A1 I *D sky130_fd_sc_hd__a41o_1
*I *1824:C1 I *D sky130_fd_sc_hd__a211oi_1
*I *2039:Q O *D sky130_fd_sc_hd__dlxtp_1
*CAP
1 *1828:A1 5.85714e-05
2 *1824:C1 7.75622e-05
3 *2039:Q 0.000111099
4 *244:8 0.000247232
5 *1824:C1 *1823:C 4.36573e-06
6 *1824:C1 *643:116 0.000191548
7 *1824:C1 *673:124 0.000186607
8 *1828:A1 *1828:A2 5.21135e-06
9 *1828:A1 *1828:A4 2.54952e-05
10 *1828:A1 *1828:B1 4.77757e-05
11 *244:8 *1828:A4 1.5771e-05
12 *244:8 *1828:B1 0.000153816
*RES
1 *2039:Q *244:8 3.445 
2 *244:8 *1824:C1 8 
3 *244:8 *1828:A1 2.755 
*END

*D_NET *245 0.0055405
*CONN
*I *1826:A1 I *D sky130_fd_sc_hd__o21ai_1
*I *1825:A I *D sky130_fd_sc_hd__or3b_1
*I *1823:A_N I *D sky130_fd_sc_hd__and3b_1
*I *1822:S I *D sky130_fd_sc_hd__mux2_1
*I *1827:B I *D sky130_fd_sc_hd__nand2_1
*I *2040:Q O *D sky130_fd_sc_hd__dlxtp_1
*CAP
1 *1826:A1 0
2 *1825:A 0.000124178
3 *1823:A_N 0
4 *1822:S 0.00027915
5 *1827:B 0
6 *2040:Q 0.000171135
7 *245:59 0.000384095
8 *245:22 0.000355022
9 *245:16 0.00020852
10 *245:10 0.000563701
11 *1822:S *1822:A0 3.71082e-05
12 *1822:S *1892:S1 0.000585927
13 *1822:S *2038:D 0.000333651
14 *1822:S *480:70 3.53953e-05
15 *1822:S *582:94 9.53923e-06
16 *1822:S *587:118 0.000137049
17 *1822:S *593:94 4.84739e-05
18 *1822:S *597:44 4.66108e-05
19 *1822:S *668:81 3.83194e-05
20 *1825:A *1972:D 8.23457e-05
21 *1825:A *2027:D 0.000170038
22 *1825:A *661:203 0.000138818
23 *1825:A *662:177 1.45569e-05
24 *245:10 *1884:A1 0.000134203
25 *245:10 *633:78 0.000156717
26 *245:10 *643:116 0.00014334
27 *245:16 *1884:A1 0.000313804
28 *245:16 *1892:S0 2.0893e-05
29 *245:16 *643:116 0.000314712
30 *245:22 *1827:A 4.66108e-05
31 *245:22 *1892:S0 0.000118081
32 *245:59 *1797:A 0.000118081
33 *245:59 *1824:A1 0.000139825
34 *245:59 *1824:A2 3.82728e-05
35 *245:59 *1827:A 4.73375e-06
36 *245:59 *2041:D 8.53113e-06
37 *245:59 *246:36 8.23457e-05
38 *245:59 *630:84 8.31225e-05
39 *245:59 *662:177 1.81196e-05
40 *245:59 *673:124 3.54721e-05
*RES
1 *2040:Q *245:10 6.8475 
2 *245:10 *245:16 6.2525 
3 *245:16 *245:22 1.86 
4 *245:22 *1827:B 1.6 
5 *245:22 *1822:S 13.2425 
6 *245:16 *1823:A_N 1.6 
7 *245:10 *245:59 5.64683 
8 *245:59 *1825:A 8.54 
9 *245:59 *1826:A1 1.6 
*END

*D_NET *246 0.00271529
*CONN
*I *1797:A I *D sky130_fd_sc_hd__inv_1
*I *1826:B1 I *D sky130_fd_sc_hd__o21ai_1
*I *1825:B I *D sky130_fd_sc_hd__or3b_1
*I *1823:C I *D sky130_fd_sc_hd__and3b_1
*I *2041:Q O *D sky130_fd_sc_hd__dlxtp_1
*CAP
1 *1797:A 0.000101553
2 *1826:B1 0
3 *1825:B 0.000206969
4 *1823:C 0.000115437
5 *2041:Q 9.97151e-05
6 *246:36 0.000180473
7 *246:10 0.000363299
8 *246:6 0.000219528
9 *1797:A *1824:A1 4.32329e-05
10 *1797:A *1826:A2 0.000110044
11 *1797:A *1828:A3 1.91597e-05
12 *1823:C *1824:B1 0.000176536
13 *1823:C *1892:S0 1.06624e-05
14 *1823:C *479:46 3.64998e-06
15 *1823:C *643:116 3.32661e-05
16 *1823:C *673:124 8.10701e-05
17 *1825:B *1972:D 0.00026102
18 *246:6 *1824:B1 4.66108e-05
19 *246:6 *1828:B1 0.000118081
20 *246:6 *2041:D 0.000120789
21 *246:10 *1824:A2 9.34171e-06
22 *246:10 *1824:B1 6.83488e-05
23 *246:10 *673:124 8.26034e-05
24 *246:36 *1824:B1 2.74473e-05
25 *246:36 *1828:A3 5.83121e-06
26 *246:36 *2041:D 5.83121e-06
27 *1824:C1 *1823:C 4.36573e-06
28 *245:59 *1797:A 0.000118081
29 *245:59 *246:36 8.23457e-05
*RES
1 *2041:Q *246:6 3.775 
2 *246:6 *246:10 3.125 
3 *246:10 *1823:C 6.195 
4 *246:10 *1825:B 6.12 
5 *246:6 *246:36 1.605 
6 *246:36 *1826:B1 1.6 
7 *246:36 *1797:A 4.04875 
*END

*D_NET *247 0.0088749
*CONN
*I *1856:S0 I *D sky130_fd_sc_hd__mux4_1
*I *1855:S1 I *D sky130_fd_sc_hd__mux4_1
*I *1853:S0 I *D sky130_fd_sc_hd__mux4_1
*I *1851:S1 I *D sky130_fd_sc_hd__mux4_1
*I *2042:Q O *D sky130_fd_sc_hd__dlxtp_1
*CAP
1 *1856:S0 0
2 *1855:S1 0.000319501
3 *1853:S0 0.000152299
4 *1851:S1 0.000690273
5 *2042:Q 0.000299321
6 *247:34 0.00108934
7 *247:32 0.00114658
8 *247:10 0.000879633
9 *1851:S1 *1851:S0 8.88576e-05
10 *1851:S1 *1853:A2 3.42078e-05
11 *1851:S1 *1853:S1 1.00941e-05
12 *1851:S1 *1854:A2 0.000286208
13 *1851:S1 *1854:B1 9.0378e-05
14 *1851:S1 *1858:B1 4.7043e-05
15 *1851:S1 *1867:A2 0.00035627
16 *1851:S1 *1867:S0 0
17 *1851:S1 *263:10 0.000116158
18 *1851:S1 *263:19 0.00024846
19 *1851:S1 *416:14 0
20 *1851:S1 *487:32 3.4005e-05
21 *1851:S1 *500:28 7.73272e-05
22 *1853:S0 *1853:A3 6.71882e-05
23 *1855:S1 *1857:A0 4.56749e-05
24 *1855:S1 *1857:A1 1.9488e-05
25 *1855:S1 *635:42 0.000340528
26 *247:10 *736:DIODE 0.000108946
27 *247:10 *524:142 3.64998e-06
28 *247:10 *649:134 5.84444e-05
29 *247:10 *662:77 5.40136e-05
30 *247:32 *1868:A 6.76335e-05
31 *247:32 *1871:S0 1.00941e-05
32 *247:32 *1871:S1 4.47504e-06
33 *247:32 *264:12 0.000164812
34 *247:32 *596:50 6.40998e-05
35 *247:32 *649:29 0.000169658
36 *247:32 *649:134 6.29963e-05
37 *247:32 *651:45 4.24562e-05
38 *247:32 *658:27 6.07298e-05
39 *247:32 *659:12 0.000149738
40 *247:32 *659:25 0.000304915
41 *247:34 *1853:A2 2.46089e-05
42 *247:34 *1868:A 0.000233131
43 *247:34 *1869:A2 1.29572e-05
44 *247:34 *1874:A1 3.60648e-06
45 *247:34 *248:37 4.20205e-05
46 *247:34 *263:19 8.31963e-05
47 *247:34 *263:36 9.11242e-05
48 *247:34 *264:12 7.62916e-05
49 *247:34 *264:40 0
50 *247:34 *583:82 2.11651e-05
51 *2220:A *1855:S1 5.48747e-05
52 *2222:A *1855:S1 0.000164971
53 *2222:A *247:32 0.000250785
54 *146:67 *1851:S1 5.0676e-05
*RES
1 *2042:Q *247:10 7.845 
2 *247:10 *247:32 13.5053 
3 *247:32 *247:34 5.8425 
4 *247:34 *1851:S1 19.395 
5 *247:34 *1853:S0 5.445 
6 *247:32 *1855:S1 7.1349 
7 *247:10 *1856:S0 3.6 
*END

*D_NET *248 0.00822139
*CONN
*I *1855:S0 I *D sky130_fd_sc_hd__mux4_1
*I *1853:S1 I *D sky130_fd_sc_hd__mux4_1
*I *1851:S0 I *D sky130_fd_sc_hd__mux4_1
*I *1856:S1 I *D sky130_fd_sc_hd__mux4_1
*I *2043:Q O *D sky130_fd_sc_hd__dlxtp_1
*CAP
1 *1855:S0 4.80454e-05
2 *1853:S1 0.000159112
3 *1851:S0 0.00036577
4 *1856:S1 4.81604e-05
5 *2043:Q 0.000340505
6 *248:37 0.000724202
7 *248:35 0.00075178
8 *248:16 0.000893081
9 *1851:S0 *263:10 6.28765e-05
10 *1851:S0 *263:19 8.99572e-05
11 *1851:S0 *649:43 4.44882e-05
12 *1851:S0 *664:51 0.000880412
13 *1853:S1 *1867:S0 1.00941e-05
14 *1855:S0 *1855:A3 8.35106e-05
15 *248:16 *736:DIODE 0.000150351
16 *248:16 *649:134 6.72196e-05
17 *248:16 *662:77 7.1242e-05
18 *248:16 *681:67 0.000240029
19 *248:35 *1848:A2 0.00022907
20 *248:35 *1868:A 1.58858e-05
21 *248:35 *1871:S0 0.000337675
22 *248:35 *1871:S1 0.000280058
23 *248:35 *264:12 0.000231529
24 *248:35 *635:42 1.3849e-05
25 *248:35 *649:29 6.15941e-06
26 *248:35 *658:12 6.37491e-05
27 *248:35 *661:37 2.22315e-05
28 *248:35 *664:45 0.000203488
29 *248:35 *664:51 1.98158e-05
30 *248:35 *681:67 0.000178334
31 *248:37 *263:19 9.01918e-05
32 *248:37 *263:36 4.63725e-05
33 *248:37 *264:12 9.28013e-05
34 *248:37 *583:82 4.27774e-05
35 *248:37 *664:51 0.000507018
36 *1851:S1 *1851:S0 8.88576e-05
37 *1851:S1 *1853:S1 1.00941e-05
38 *2222:A *248:35 4.99965e-05
39 *2236:A *248:35 8.18381e-05
40 *2239:A *248:35 5.63183e-05
41 *145:35 *1853:S1 3.70013e-05
42 *146:67 *1851:S0 0.000271902
43 *147:27 *1853:S1 1.63614e-05
44 *147:47 *248:16 8.01432e-05
45 *147:47 *248:35 7.50104e-05
46 *150:35 *1853:S1 0
47 *247:34 *248:37 4.20205e-05
*RES
1 *2043:Q *248:16 13.9 
2 *248:16 *1856:S1 4.395 
3 *248:16 *248:35 12.0526 
4 *248:35 *248:37 6.0975 
5 *248:37 *1851:S0 15.5625 
6 *248:37 *1853:S1 5.16183 
7 *248:35 *1855:S0 4.395 
*END

*D_NET *249 0.00553969
*CONN
*I *1875:S1 I *D sky130_fd_sc_hd__mux4_1
*I *2026:Q O *D sky130_fd_sc_hd__dlxtp_1
*CAP
1 *1875:S1 0.00146097
2 *2026:Q 0.00146097
3 *1875:S1 *1825:C_N 5.97512e-05
4 *1875:S1 *2180:A 0.000257084
5 *1875:S1 *409:32 1.19128e-05
6 *1875:S1 *569:58 0.000150287
7 *1875:S1 *582:40 5.5795e-06
8 *1875:S1 *587:118 7.55797e-05
9 *1875:S1 *593:46 0.000114342
10 *1875:S1 *593:94 6.73335e-06
11 *1875:S1 *596:140 0.000193766
12 *1875:S1 *654:41 2.06843e-05
13 *1875:S1 *658:109 0.000182355
14 *1875:S1 *661:203 0.000215584
15 *1875:S1 *662:177 5.12569e-05
16 *1875:S1 *667:64 0.00018955
17 *1875:S1 *671:111 0.000129835
18 *1875:S1 *672:124 2.51095e-05
19 *1875:S1 *673:124 3.70546e-05
20 *1875:S1 *680:46 0.000180738
21 *1875:S1 *684:35 0.000285661
22 *1875:S1 *684:46 0.000127579
23 *1875:S1 *701:52 9.21826e-05
24 *145:71 *1875:S1 6.10955e-05
25 *150:35 *1875:S1 0.000129835
26 *159:77 *1875:S1 1.42012e-05
*RES
1 *2026:Q *1875:S1 26.1686 
*END

*D_NET *250 0.00106382
*CONN
*I *1852:A I *D sky130_fd_sc_hd__or2_1
*I *1802:A I *D sky130_fd_sc_hd__inv_2
*I *2044:Q O *D sky130_fd_sc_hd__dlxtp_1
*CAP
1 *1852:A 5.03948e-05
2 *1802:A 0
3 *2044:Q 0.000244658
4 *250:10 0.000295053
5 *1852:A *416:14 0.00011178
6 *250:10 *1803:A 7.22354e-05
7 *250:10 *1858:B2 4.94457e-05
8 *145:35 *1852:A 5.843e-05
9 *145:35 *250:10 9.24127e-05
10 *147:27 *1852:A 3.09233e-05
11 *147:27 *250:10 0
12 *148:19 *250:10 5.8486e-05
*RES
1 *2044:Q *250:10 8.355 
2 *250:10 *1802:A 3.6 
3 *250:10 *1852:A 5.235 
*END

*D_NET *251 0.00130465
*CONN
*I *1854:B1 I *D sky130_fd_sc_hd__o21a_1
*I *1803:A I *D sky130_fd_sc_hd__inv_2
*I *2045:Q O *D sky130_fd_sc_hd__dlxtp_1
*CAP
1 *1854:B1 0.00011335
2 *1803:A 0.000222744
3 *2045:Q 0
4 *251:6 0.000336094
5 *1803:A *1858:A2 3.05373e-05
6 *1803:A *500:28 9.50342e-06
7 *1854:B1 *1851:A2 1.79536e-05
8 *1854:B1 *1858:A2 0.000119713
9 *1854:B1 *500:28 0.000185405
10 *1851:S1 *1854:B1 9.0378e-05
11 *146:67 *1803:A 0
12 *146:67 *1854:B1 0
13 *147:27 *1803:A 0.000100909
14 *148:19 *1803:A 5.83121e-06
15 *250:10 *1803:A 7.22354e-05
*RES
1 *2045:Q *251:6 3.6 
2 *251:6 *1803:A 8.34 
3 *251:6 *1854:B1 7.275 
*END

*D_NET *252 0.00132313
*CONN
*I *1831:C1 I *D sky130_fd_sc_hd__a211oi_1
*I *1835:A1 I *D sky130_fd_sc_hd__a41o_1
*I *2046:Q O *D sky130_fd_sc_hd__dlxtp_1
*CAP
1 *1831:C1 0.0001414
2 *1835:A1 0.000116816
3 *2046:Q 0
4 *252:4 0.000258216
5 *1831:C1 *1831:B1 0.000198051
6 *1831:C1 *1832:A 0.000121547
7 *1831:C1 *1832:C_N 8.65961e-05
8 *1831:C1 *253:14 1.08758e-05
9 *1831:C1 *682:29 7.99009e-05
10 *1835:A1 *1833:A2 7.23602e-05
11 *1835:A1 *1835:A2 1.88466e-05
12 *1835:A1 *1835:A4 8.49205e-05
13 *1835:A1 *1835:B1 4.82863e-05
14 *1835:A1 *2272:A 2.25119e-05
15 *1835:A1 *253:14 1.47256e-05
16 *1835:A1 *254:35 2.55587e-05
17 *1835:A1 *487:32 2.25161e-05
*RES
1 *2046:Q *252:4 1.6 
2 *252:4 *1835:A1 8.225 
3 *252:4 *1831:C1 5.425 
*END

*D_NET *253 0.00385743
*CONN
*I *1829:S I *D sky130_fd_sc_hd__mux2_1
*I *1830:A_N I *D sky130_fd_sc_hd__and3b_1
*I *1834:B I *D sky130_fd_sc_hd__nand2_1
*I *1832:A I *D sky130_fd_sc_hd__or3b_1
*I *1833:A2 I *D sky130_fd_sc_hd__o21ai_1
*I *2047:Q O *D sky130_fd_sc_hd__dlxtp_1
*CAP
1 *1829:S 9.16926e-05
2 *1830:A_N 1.36534e-05
3 *1834:B 0
4 *1832:A 2.28574e-05
5 *1833:A2 0.000311635
6 *2047:Q 0.000144133
7 *253:47 0.000151382
8 *253:36 0.000114201
9 *253:14 0.00039322
10 *253:10 0.000271025
11 *1829:S *1820:A 2.05056e-05
12 *1829:S *1851:A3 0.000158175
13 *1829:S *579:84 0.000155497
14 *1829:S *649:53 4.11718e-05
15 *1829:S *650:76 0.000107205
16 *1830:A_N *579:84 4.66108e-05
17 *1830:A_N *650:76 4.66108e-05
18 *1832:A *682:29 0.000111559
19 *1833:A2 *1835:A2 7.06865e-05
20 *1833:A2 *1835:A4 0.000192125
21 *1833:A2 *1835:B1 3.59784e-05
22 *1833:A2 *493:16 3.50033e-05
23 *253:10 *493:16 0.000124007
24 *253:14 *487:32 1.83847e-05
25 *253:14 *682:29 0.000201508
26 *253:36 *487:32 0.000135896
27 *253:47 *487:32 0.000159969
28 *1831:C1 *1832:A 0.000121547
29 *1831:C1 *253:14 1.08758e-05
30 *1835:A1 *1833:A2 7.23602e-05
31 *1835:A1 *253:14 1.47256e-05
32 *160:25 *253:10 0.000117832
33 *160:25 *253:36 0.000194937
34 *160:25 *253:47 0.000150466
*RES
1 *2047:Q *253:10 6.12 
2 *253:10 *253:14 3.83 
3 *253:14 *1833:A2 10.1 
4 *253:14 *1832:A 2.74 
5 *253:10 *253:36 2.4 
6 *253:36 *1834:B 3.6 
7 *253:36 *253:47 3.89 
8 *253:47 *1830:A_N 2.05 
9 *253:47 *1829:S 4.48 
*END

*D_NET *254 0.00262784
*CONN
*I *1833:B1 I *D sky130_fd_sc_hd__o21ai_1
*I *1832:B I *D sky130_fd_sc_hd__or3b_1
*I *1798:A I *D sky130_fd_sc_hd__inv_1
*I *1830:B I *D sky130_fd_sc_hd__and3b_1
*I *2048:Q O *D sky130_fd_sc_hd__dlxtp_1
*CAP
1 *1833:B1 5.17708e-05
2 *1832:B 0
3 *1798:A 0.000103791
4 *1830:B 9.6782e-05
5 *2048:Q 0.000173363
6 *254:37 0.000132939
7 *254:35 0.000298638
8 *254:10 0.000487864
9 *1798:A *1831:B1 3.09233e-05
10 *1798:A *493:16 6.45045e-05
11 *1830:B *1834:A 6.32598e-05
12 *1830:B *1835:A2 1.73877e-05
13 *1830:B *2272:A 0.000219692
14 *1830:B *579:84 5.02905e-05
15 *254:10 *1834:A 2.29937e-05
16 *254:10 *1835:A4 8.40269e-05
17 *254:35 *1831:B1 5.21307e-05
18 *254:35 *1833:A1 0
19 *254:35 *1834:A 8.36279e-05
20 *254:35 *1835:A2 4.66108e-05
21 *254:35 *1835:A3 4.82863e-05
22 *254:35 *1835:A4 1.46744e-05
23 *254:35 *1835:B1 0.000134439
24 *254:37 *1831:B1 3.8003e-05
25 *1835:A1 *254:35 2.55587e-05
26 *143:7 *1798:A 9.79625e-05
27 *143:9 *1798:A 7.09383e-05
28 *143:9 *1833:B1 5.07376e-05
29 *143:9 *254:35 3.24318e-05
30 *143:9 *254:37 3.42142e-05
31 *160:25 *1798:A 0
*RES
1 *2048:Q *254:10 4.495 
2 *254:10 *1830:B 8.255 
3 *254:10 *254:35 6.83 
4 *254:35 *254:37 0.87 
5 *254:37 *1798:A 6.45375 
6 *254:37 *1832:B 3.6 
7 *254:35 *1833:B1 4.665 
*END

*D_NET *255 0.00539299
*CONN
*I *1847:S0 I *D sky130_fd_sc_hd__mux4_1
*I *1848:S1 I *D sky130_fd_sc_hd__mux4_1
*I *1843:S1 I *D sky130_fd_sc_hd__mux4_1
*I *1845:S0 I *D sky130_fd_sc_hd__mux4_1
*I *2049:Q O *D sky130_fd_sc_hd__dlxtp_1
*CAP
1 *1847:S0 9.44892e-05
2 *1848:S1 3.73699e-05
3 *1843:S1 0.000197958
4 *1845:S0 0.000343016
5 *2049:Q 0.0003165
6 *255:41 0.000281049
7 *255:39 0.000450923
8 *255:12 0.000970228
9 *1843:S1 *1849:A0 0.000136495
10 *1843:S1 *1849:S 0.000157842
11 *1843:S1 *2389:A 7.44482e-05
12 *1843:S1 *493:16 6.36907e-05
13 *1843:S1 *579:84 0.00013354
14 *1843:S1 *583:28 1.78126e-05
15 *1845:S0 *1850:A2 5.44311e-05
16 *1845:S0 *2272:A 8.48067e-05
17 *1845:S0 *257:14 2.68526e-05
18 *1845:S0 *602:166 0.00027003
19 *1845:S0 *643:10 2.31296e-05
20 *1845:S0 *650:47 0.00012736
21 *1845:S0 *650:49 0.000206055
22 *1845:S0 *664:14 2.92496e-05
23 *1847:S0 *1849:A0 0.000150658
24 *1847:S0 *2389:A 0.000228436
25 *1847:S0 *579:84 5.79711e-05
26 *1848:S1 *1848:A0 2.76356e-05
27 *1848:S1 *664:41 4.41506e-05
28 *255:12 *1848:A0 6.55623e-06
29 *255:12 *1848:A1 4.41506e-05
30 *255:12 *1848:A3 0
31 *255:12 *643:10 9.58047e-05
32 *255:12 *664:14 4.66108e-05
33 *255:12 *664:41 0
34 *255:39 *256:8 0.00015896
35 *255:39 *650:47 9.044e-05
36 *255:39 *664:14 8.31963e-05
37 *255:41 *1849:A0 0.000126304
38 *255:41 *2389:A 0.000134836
*RES
1 *2049:Q *255:12 8.31 
2 *255:12 *1845:S0 12.15 
3 *255:12 *255:39 9.025 
4 *255:39 *255:41 1.635 
5 *255:41 *1843:S1 9.135 
6 *255:41 *1848:S1 4.395 
7 *255:39 *1847:S0 6.705 
*END

*D_NET *256 0.00334597
*CONN
*I *1847:S1 I *D sky130_fd_sc_hd__mux4_1
*I *1845:S1 I *D sky130_fd_sc_hd__mux4_1
*I *1843:S0 I *D sky130_fd_sc_hd__mux4_1
*I *1848:S0 I *D sky130_fd_sc_hd__mux4_1
*I *2050:Q O *D sky130_fd_sc_hd__dlxtp_1
*CAP
1 *1847:S1 0.000144049
2 *1845:S1 0.000110233
3 *1843:S0 4.4267e-05
4 *1848:S0 3.60984e-05
5 *2050:Q 0.000358551
6 *256:21 0.00027394
7 *256:10 0.000216672
8 *256:8 0.000563734
9 *1843:S0 *1843:A3 4.82919e-05
10 *1843:S0 *650:47 0
11 *1845:S1 *1850:A1 8.0494e-05
12 *1845:S1 *1850:A2 2.03321e-05
13 *1845:S1 *653:38 0.000201606
14 *1847:S1 *1849:A0 2.76356e-05
15 *1847:S1 *650:47 8.83315e-05
16 *1847:S1 *653:38 0.000246793
17 *1848:S0 *650:47 0
18 *256:10 *650:47 4.52884e-05
19 *256:10 *653:38 0.000112123
20 *256:21 *1850:A1 1.197e-05
21 *256:21 *650:47 0.000230435
22 *256:21 *653:38 0.000326168
23 *255:39 *256:8 0.00015896
*RES
1 *2050:Q *256:8 7.5 
2 *256:8 *256:10 1.38 
3 *256:10 *1848:S0 4.05 
4 *256:10 *256:21 3.93 
5 *256:21 *1843:S0 4.5 
6 *256:21 *1845:S1 6.45 
7 *256:8 *1847:S1 7.305 
*END

*D_NET *257 0.00347143
*CONN
*I *1849:S I *D sky130_fd_sc_hd__mux2_1
*I *1844:A I *D sky130_fd_sc_hd__or2_1
*I *1800:A I *D sky130_fd_sc_hd__inv_1
*I *2051:Q O *D sky130_fd_sc_hd__dlxtp_1
*CAP
1 *1849:S 9.92989e-05
2 *1844:A 2.89741e-05
3 *1800:A 2.60612e-05
4 *2051:Q 0.000522211
5 *257:29 0.000242567
6 *257:14 0.000662566
7 *1800:A *652:44 2.45303e-05
8 *1844:A *655:24 2.49909e-05
9 *1849:S *493:16 0.00033607
10 *1849:S *579:84 1.9668e-05
11 *1849:S *583:28 5.92191e-05
12 *257:14 *1845:A1 0.000193286
13 *257:14 *1845:A2 3.84487e-05
14 *257:14 *1846:A1 6.64299e-05
15 *257:14 *1846:A2 7.23533e-05
16 *257:14 *1850:A2 3.67779e-05
17 *257:14 *500:28 0.000196479
18 *257:14 *648:22 1.53032e-05
19 *257:14 *652:44 6.39944e-05
20 *257:29 *493:16 0.000175673
21 *257:29 *500:28 0.000155601
22 *257:29 *583:28 5.40057e-05
23 *257:29 *652:44 8.13422e-05
24 *257:29 *653:54 7.06865e-05
25 *1843:S1 *1849:S 0.000157842
26 *1845:S0 *257:14 2.68526e-05
27 *159:39 *257:14 1.58871e-05
28 *160:25 *257:14 4.31222e-06
*RES
1 *2051:Q *257:14 13.745 
2 *257:14 *1800:A 2.19625 
3 *257:14 *257:29 5.63 
4 *257:29 *1844:A 4.05 
5 *257:29 *1849:S 7.53 
*END

*D_NET *258 0.0024371
*CONN
*I *1801:A I *D sky130_fd_sc_hd__inv_1
*I *1846:B1 I *D sky130_fd_sc_hd__o21a_1
*I *2052:Q O *D sky130_fd_sc_hd__dlxtp_1
*CAP
1 *1801:A 0.000146587
2 *1846:B1 0.000261483
3 *2052:Q 0
4 *258:6 0.00040807
5 *1801:A *1843:A1 5.15407e-05
6 *1801:A *2277:A 9.27125e-05
7 *1801:A *2388:A 0.000233341
8 *1801:A *626:148 0.00024846
9 *1846:B1 *1845:A0 1.88904e-05
10 *1846:B1 *2388:A 0.00029779
11 *1846:B1 *500:28 0.000156915
12 *1846:B1 *626:148 0.000103983
13 *1846:B1 *652:44 0.000267056
14 *157:31 *1846:B1 0.000122798
15 *160:25 *1846:B1 2.7478e-05
*RES
1 *2052:Q *258:6 3.6 
2 *258:6 *1846:B1 10.83 
3 *258:6 *1801:A 8.12625 
*END

*D_NET *259 0.0014434
*CONN
*I *1842:A1 I *D sky130_fd_sc_hd__a41o_1
*I *1838:C1 I *D sky130_fd_sc_hd__a211oi_1
*I *2053:Q O *D sky130_fd_sc_hd__dlxtp_1
*CAP
1 *1842:A1 0
2 *1838:C1 0.00013476
3 *2053:Q 0.000126182
4 *259:12 0.000260943
5 *1838:C1 *1842:A4 2.95721e-05
6 *1838:C1 *1842:B1 0.000218805
7 *1838:C1 *505:22 2.26387e-05
8 *1838:C1 *643:50 0.000104619
9 *1838:C1 *672:190 2.43092e-05
10 *259:12 *1839:A 0.000230537
11 *259:12 *261:12 7.14241e-05
12 *259:12 *591:126 0.000219613
13 *159:39 *259:12 0
*RES
1 *2053:Q *259:12 9.155 
2 *259:12 *1838:C1 8.885 
3 *259:12 *1842:A1 1.6 
*END

*D_NET *260 0.000637146
*CONN
*I *1875:S0 I *D sky130_fd_sc_hd__mux4_1
*I *2027:Q O *D sky130_fd_sc_hd__dlxtp_1
*CAP
1 *1875:S0 0.000125587
2 *2027:Q 0.000125587
3 *1875:S0 *1887:A1 6.33103e-05
4 *1875:S0 *642:106 5.83121e-06
5 *1875:S0 *664:166 0.000132605
6 *1875:A1 *1875:S0 5.16211e-05
7 *145:71 *1875:S0 0.000132605
*RES
1 *2027:Q *1875:S0 10.32 
*END

*D_NET *261 0.00382665
*CONN
*I *1839:A I *D sky130_fd_sc_hd__or3b_1
*I *1836:S I *D sky130_fd_sc_hd__mux2_1
*I *1840:A2 I *D sky130_fd_sc_hd__o21ai_1
*I *1837:A_N I *D sky130_fd_sc_hd__and3b_1
*I *1841:B I *D sky130_fd_sc_hd__nand2_1
*I *2054:Q O *D sky130_fd_sc_hd__dlxtp_1
*CAP
1 *1839:A 0.00034638
2 *1836:S 0.000281288
3 *1840:A2 0.000121002
4 *1837:A_N 0.00013982
5 *1841:B 0
6 *2054:Q 0
7 *261:21 0.000281633
8 *261:19 0.000320292
9 *261:12 0.000163845
10 *261:4 0.000492031
11 *1836:S *1838:A2 8.35106e-05
12 *1836:S *1840:A1 0.000233358
13 *1836:S *1840:B1 0.000153826
14 *1836:S *1841:A 2.49909e-05
15 *1836:S *1842:A3 4.66108e-05
16 *1836:S *1842:A4 0.000122331
17 *1837:A_N *1912:A0 2.49909e-05
18 *1837:A_N *2278:A 0.00011099
19 *1837:A_N *262:6 1.77595e-05
20 *1837:A_N *618:24 0
21 *1839:A *1839:B 8.23457e-05
22 *1839:A *1842:A2 7.11235e-06
23 *1839:A *1842:A4 6.33103e-05
24 *1839:A *2278:A 4.66108e-05
25 *1839:A *591:126 9.80032e-06
26 *1839:A *662:140 7.05813e-05
27 *1840:A2 *1840:A1 3.21081e-06
28 *1840:A2 *1840:B1 4.56729e-05
29 *1840:A2 *1841:A 4.66108e-05
30 *261:12 *591:126 3.25529e-05
31 *261:12 *618:24 0.000131265
32 *261:12 *628:112 0
33 *159:39 *261:12 2.09527e-05
34 *259:12 *1839:A 0.000230537
35 *259:12 *261:12 7.14241e-05
*RES
1 *2054:Q *261:4 1.6 
2 *261:4 *261:12 7.0825 
3 *261:12 *1841:B 1.6 
4 *261:12 *261:19 0.4875 
5 *261:19 *261:21 0.36 
6 *261:21 *1837:A_N 8.24 
7 *261:21 *1840:A2 3.79 
8 *261:19 *1836:S 7.51 
9 *261:4 *1839:A 7.6 
*END

*D_NET *262 0.00262115
*CONN
*I *1839:B I *D sky130_fd_sc_hd__or3b_1
*I *1840:B1 I *D sky130_fd_sc_hd__o21ai_1
*I *1799:A I *D sky130_fd_sc_hd__inv_1
*I *1837:B I *D sky130_fd_sc_hd__and3b_1
*I *2055:Q O *D sky130_fd_sc_hd__dlxtp_1
*CAP
1 *1839:B 0.000102311
2 *1840:B1 5.12621e-05
3 *1799:A 7.23839e-05
4 *1837:B 0
5 *2055:Q 0.000161685
6 *262:28 0.00024015
7 *262:15 0.000252778
8 *262:6 0.000255503
9 *1799:A *1837:C 5.89912e-05
10 *1799:A *1838:A1 6.95739e-05
11 *1799:A *2167:A 5.63214e-05
12 *1799:A *2326:A 3.99339e-05
13 *1799:A *643:50 1.94684e-05
14 *1799:A *652:34 4.01019e-05
15 *1799:A *664:6 5.83121e-06
16 *1799:A *664:103 3.01974e-05
17 *1839:B *1838:A1 0.000112123
18 *1839:B *1838:B1 0.000107634
19 *1840:B1 *1840:A1 4.66108e-05
20 *262:6 *1912:A0 5.33804e-05
21 *262:15 *1912:A0 6.33103e-05
22 *262:28 *1837:C 6.61973e-05
23 *262:28 *1838:A1 0.00024728
24 *262:28 *1838:B1 0.000135896
25 *262:28 *643:50 1.86911e-05
26 *1836:S *1840:B1 0.000153826
27 *1837:A_N *262:6 1.77595e-05
28 *1839:A *1839:B 8.23457e-05
29 *1840:A2 *1840:B1 4.56729e-05
30 *154:41 *1799:A 1.3926e-05
*RES
1 *2055:Q *262:6 3.43 
2 *262:6 *1837:B 1.6 
3 *262:6 *262:15 3.14 
4 *262:15 *1799:A 5.77875 
5 *262:15 *262:28 2.91 
6 *262:28 *1840:B1 5.07 
7 *262:28 *1839:B 5.775 
*END

*D_NET *263 0.00539398
*CONN
*I *1871:S0 I *D sky130_fd_sc_hd__mux4_1
*I *1872:S1 I *D sky130_fd_sc_hd__mux4_1
*I *1869:S0 I *D sky130_fd_sc_hd__mux4_1
*I *1867:S1 I *D sky130_fd_sc_hd__mux4_1
*I *2028:Q O *D sky130_fd_sc_hd__dlxtp_1
*CAP
1 *1871:S0 0.000416494
2 *1872:S1 4.34509e-05
3 *1869:S0 0
4 *1867:S1 0
5 *2028:Q 0.000295854
6 *263:36 0.000935388
7 *263:19 0.000603793
8 *263:10 0.000424204
9 *1871:S0 *1857:A1 2.05957e-05
10 *1871:S0 *1868:A 4.88568e-05
11 *1871:S0 *645:14 7.17696e-05
12 *1871:S0 *646:32 0.000124496
13 *1871:S0 *649:29 2.10433e-05
14 *1871:S0 *658:10 0.000132709
15 *1871:S0 *658:12 9.98943e-06
16 *1871:S0 *661:16 1.88602e-05
17 *1871:S0 *661:81 5.68601e-05
18 *1872:S1 *661:12 5.83121e-06
19 *263:10 *2034:GATE 0.000194267
20 *263:10 *634:84 5.49035e-05
21 *263:36 *1855:A2 6.95704e-05
22 *263:36 *1857:A0 6.93179e-05
23 *263:36 *1857:A1 0.000110631
24 *263:36 *1868:A 0
25 *263:36 *1869:A2 6.90889e-06
26 *263:36 *1869:A3 4.65607e-05
27 *263:36 *1870:A2 0.000111906
28 *263:36 *1872:A2 1.00941e-05
29 *263:36 *264:40 0.000172318
30 *263:36 *653:54 2.8585e-06
31 *1851:S0 *263:10 6.28765e-05
32 *1851:S0 *263:19 8.99572e-05
33 *1851:S1 *263:10 0.000116158
34 *1851:S1 *263:19 0.00024846
35 *2221:A *1872:S1 3.08892e-05
36 *2236:A *1871:S0 4.44515e-05
37 *147:27 *1871:S0 5.23931e-05
38 *149:23 *1871:S0 1.06059e-05
39 *247:32 *1871:S0 1.00941e-05
40 *247:34 *263:19 8.31963e-05
41 *247:34 *263:36 9.11242e-05
42 *248:35 *1871:S0 0.000337675
43 *248:37 *263:19 9.01918e-05
44 *248:37 *263:36 4.63725e-05
*RES
1 *2028:Q *263:10 8.19 
2 *263:10 *1867:S1 3.6 
3 *263:10 *263:19 3.93 
4 *263:19 *1869:S0 3.6 
5 *263:19 *263:36 13.015 
6 *263:36 *1872:S1 4.395 
7 *263:36 *1871:S0 10.2041 
*END

*D_NET *264 0.00408082
*CONN
*I *1869:S1 I *D sky130_fd_sc_hd__mux4_1
*I *1867:S0 I *D sky130_fd_sc_hd__mux4_1
*I *1871:S1 I *D sky130_fd_sc_hd__mux4_1
*I *1872:S0 I *D sky130_fd_sc_hd__mux4_1
*I *2029:Q O *D sky130_fd_sc_hd__dlxtp_1
*CAP
1 *1869:S1 3.52028e-05
2 *1867:S0 0.000162668
3 *1871:S1 0.000278512
4 *1872:S0 2.31267e-05
5 *2029:Q 7.53802e-05
6 *264:40 0.000510854
7 *264:12 0.000427115
8 *264:6 0.00051384
9 *1867:S0 *1853:A2 0.000110579
10 *1867:S0 *1854:A2 0.000139245
11 *1867:S0 *1857:A0 8.76645e-06
12 *1867:S0 *1867:A1 1.56428e-05
13 *1867:S0 *1867:A3 5.53249e-06
14 *1867:S0 *1869:A2 3.97171e-05
15 *1867:S0 *487:32 0.000102184
16 *1867:S0 *647:46 2.49909e-05
17 *1869:S1 *1857:A0 1.00941e-05
18 *1871:S1 *1868:A 6.83488e-05
19 *1871:S1 *1872:A2 1.17701e-05
20 *1871:S1 *1872:A3 3.83194e-05
21 *1871:S1 *646:32 0.00010231
22 *1871:S1 *664:41 5.12969e-06
23 *1872:S0 *1872:A3 4.66108e-05
24 *264:6 *1868:B 1.1392e-05
25 *264:6 *583:82 3.91427e-06
26 *264:12 *649:29 3.11771e-06
27 *264:40 *1857:A0 1.88174e-05
28 *264:40 *1868:A 4.19782e-05
29 *264:40 *1869:A2 9.67081e-06
30 *264:40 *1870:B1 0.000121643
31 *264:40 *1874:A1 3.86814e-05
32 *1851:S1 *1867:S0 0
33 *1853:S1 *1867:S0 1.00941e-05
34 *2221:A *1871:S1 3.77372e-06
35 *2222:A *1871:S1 3.32198e-05
36 *147:47 *1871:S1 6.29385e-06
37 *247:32 *1871:S1 4.47504e-06
38 *247:32 *264:12 0.000164812
39 *247:34 *264:12 7.62916e-05
40 *247:34 *264:40 0
41 *248:35 *1871:S1 0.000280058
42 *248:35 *264:12 0.000231529
43 *248:37 *264:12 9.28013e-05
44 *263:36 *264:40 0.000172318
*RES
1 *2029:Q *264:6 2.395 
2 *264:6 *264:12 7.93 
3 *264:12 *1872:S0 2.05 
4 *264:12 *1871:S1 10.865 
5 *264:6 *264:40 7.2125 
6 *264:40 *1867:S0 8.1075 
7 *264:40 *1869:S1 4.2825 
*END

*D_NET *265 0.00778898
*CONN
*I *1806:A I *D sky130_fd_sc_hd__inv_1
*I *1873:S I *D sky130_fd_sc_hd__mux2_1
*I *1868:A I *D sky130_fd_sc_hd__or2_1
*I *2030:Q O *D sky130_fd_sc_hd__dlxtp_1
*CAP
1 *1806:A 0.000413898
2 *1873:S 0
3 *1868:A 0.000589766
4 *2030:Q 0.000564696
5 *265:18 0.000658369
6 *265:14 0.0010472
7 *1806:A *1807:A 0.000209179
8 *1806:A *266:10 0.000466255
9 *1806:A *567:32 0.000144973
10 *1868:A *1855:A2 7.41391e-05
11 *1868:A *1872:A2 6.71803e-06
12 *1868:A *1874:A1 7.6571e-05
13 *1868:A *583:82 1.76403e-05
14 *1868:A *661:81 4.76263e-05
15 *265:14 *266:10 0.000273179
16 *265:14 *634:78 0.000181126
17 *265:14 *647:123 0.000151658
18 *265:14 *661:81 0
19 *1871:S0 *1868:A 4.88568e-05
20 *1871:S1 *1868:A 6.83488e-05
21 *2220:A *1806:A 5.13794e-06
22 *2221:A *1806:A 0.000147494
23 *2222:A *1868:A 0.000185593
24 *2223:A *265:14 8.88956e-05
25 *2225:A *265:14 1.6541e-05
26 *2226:A *265:14 9.19823e-05
27 *2232:A *1868:A 0.000236161
28 *2232:A *265:18 0.000335552
29 *2233:A *1806:A 7.19771e-05
30 *2234:A *265:14 1.93765e-05
31 *2234:A *265:18 6.27029e-05
32 *2235:A *1868:A 8.23457e-05
33 *2235:A *265:18 0.000232301
34 *2237:A *1806:A 1.22898e-05
35 *2237:A *265:14 0.000114201
36 *2238:A *265:14 0
37 *149:23 *1806:A 0.000687603
38 *247:32 *1868:A 6.76335e-05
39 *247:34 *1868:A 0.000233131
40 *248:35 *1868:A 1.58858e-05
41 *263:36 *1868:A 0
42 *264:40 *1868:A 4.19782e-05
*RES
1 *2030:Q *265:14 15.435 
2 *265:14 *265:18 5.21 
3 *265:18 *1868:A 20.88 
4 *265:18 *1873:S 1.6 
5 *265:14 *1806:A 17.0662 
*END

*D_NET *266 0.00438027
*CONN
*I *1870:B1 I *D sky130_fd_sc_hd__o21a_1
*I *1807:A I *D sky130_fd_sc_hd__inv_2
*I *2031:Q O *D sky130_fd_sc_hd__dlxtp_1
*CAP
1 *1870:B1 0.000417623
2 *1807:A 0.000146815
3 *2031:Q 0.000348837
4 *266:10 0.000913276
5 *1807:A *567:32 0.00011741
6 *1870:B1 *1870:A1 2.26024e-05
7 *1870:B1 *1874:A1 8.40213e-05
8 *1870:B1 *1874:A2 0.00038296
9 *1870:B1 *1874:B1 2.68464e-05
10 *1870:B1 *487:32 4.66108e-05
11 *1870:B1 *583:82 3.21081e-06
12 *266:10 *2031:D 6.97034e-05
13 *266:10 *567:32 6.49326e-05
14 *266:10 *634:78 3.86814e-05
15 *266:10 *634:84 6.15141e-06
16 *266:10 *657:18 0.000602382
17 *1806:A *1807:A 0.000209179
18 *1806:A *266:10 0.000466255
19 *2234:A *266:10 1.79483e-05
20 *264:40 *1870:B1 0.000121643
21 *265:14 *266:10 0.000273179
*RES
1 *2031:Q *266:10 14.28 
2 *266:10 *1807:A 7.14 
3 *266:10 *1870:B1 11.325 
*END

*D_NET *267 0.00251163
*CONN
*I *1817:C1 I *D sky130_fd_sc_hd__a211oi_1
*I *1821:A1 I *D sky130_fd_sc_hd__a41o_1
*I *2032:Q O *D sky130_fd_sc_hd__dlxtp_1
*CAP
1 *1817:C1 0.000245687
2 *1821:A1 0.000178136
3 *2032:Q 0.000135672
4 *267:14 0.000559495
5 *1817:C1 *1817:A1 2.98807e-05
6 *1817:C1 *1817:B1 2.75229e-05
7 *1817:C1 *268:27 1.14486e-05
8 *1817:C1 *650:76 5.83121e-06
9 *1821:A1 *1816:A_N 9.07409e-05
10 *1821:A1 *1819:A2 5.83121e-06
11 *1821:A1 *1821:B1 4.66108e-05
12 *1821:A1 *2048:D 0.000137571
13 *1821:A1 *582:20 0.000381022
14 *267:14 *2183:A 4.11678e-06
15 *267:14 *2388:A 4.0822e-05
16 *267:14 *268:27 2.231e-05
17 *146:67 *1817:C1 0.000261113
18 *153:39 *1817:C1 0.000108788
19 *153:39 *267:14 5.32707e-05
20 *157:31 *1821:A1 8.34516e-05
21 *157:31 *267:14 4.01535e-05
22 *159:39 *1817:C1 3.16057e-06
23 *160:25 *1817:C1 1.89738e-05
24 *181:21 *267:14 2.00196e-05
*RES
1 *2032:Q *267:14 5.2503 
2 *267:14 *1821:A1 9.1175 
3 *267:14 *1817:C1 5.88663 
*END

*D_NET *268 0.00272539
*CONN
*I *1818:A I *D sky130_fd_sc_hd__or3b_1
*I *1815:S I *D sky130_fd_sc_hd__mux2_1
*I *1820:B I *D sky130_fd_sc_hd__nand2_1
*I *1819:A1 I *D sky130_fd_sc_hd__o21ai_1
*I *1816:A_N I *D sky130_fd_sc_hd__and3b_1
*I *2033:Q O *D sky130_fd_sc_hd__dlxtp_1
*CAP
1 *1818:A 0.000126489
2 *1815:S 0
3 *1820:B 5.32066e-05
4 *1819:A1 9.78947e-05
5 *1816:A_N 3.39941e-05
6 *2033:Q 0.000100844
7 *268:55 0.000126489
8 *268:31 0.000209302
9 *268:27 0.000224441
10 *268:8 0.000301078
11 *1818:A *1815:A1 0.000223329
12 *1819:A1 *1820:A 2.1065e-05
13 *1820:B *1820:A 1.56633e-05
14 *1820:B *1821:A4 8.73389e-06
15 *268:8 *2390:A 3.37953e-05
16 *268:27 *650:76 5.2476e-05
17 *268:31 *650:76 0.000130827
18 *1817:C1 *268:27 1.14486e-05
19 *1819:B1 *1819:A1 3.23256e-06
20 *1821:A1 *1816:A_N 9.07409e-05
21 *146:67 *268:27 0.000159776
22 *157:31 *1816:A_N 9.30787e-05
23 *160:25 *268:27 5.98468e-05
24 *160:25 *268:31 0.000129539
25 *181:21 *268:27 0.000395791
26 *267:14 *268:27 2.231e-05
*RES
1 *2033:Q *268:8 4.74 
2 *268:8 *1816:A_N 4.725 
3 *268:8 *268:27 2.36317 
4 *268:27 *268:31 3.635 
5 *268:31 *1819:A1 3.1225 
6 *268:31 *1820:B 2.77 
7 *268:27 *268:55 2 
8 *268:55 *1815:S 1.6 
9 *268:55 *1818:A 3.775 
*END

*D_NET *269 0.00271766
*CONN
*I *1892:S0 I *D sky130_fd_sc_hd__mux4_1
*I *1992:Q O *D sky130_fd_sc_hd__dlxtp_1
*CAP
1 *1892:S0 0.000713495
2 *1992:Q 0.000713495
3 *1892:S0 *1823:B 0.000118081
4 *1892:S0 *1892:A2 9.03042e-05
5 *1892:S0 *1892:A3 0.000211742
6 *1892:S0 *2102:A 4.66108e-05
7 *1892:S0 *479:46 9.37e-05
8 *1892:S0 *480:70 1.74678e-05
9 *1892:S0 *603:68 0.000119866
10 *1892:S0 *652:181 0.000443258
11 *1823:C *1892:S0 1.06624e-05
12 *245:16 *1892:S0 2.0893e-05
13 *245:22 *1892:S0 0.000118081
*RES
1 *1992:Q *1892:S0 16.1 
*END

*D_NET *270 0.00236947
*CONN
*I *1892:S1 I *D sky130_fd_sc_hd__mux4_1
*I *1993:Q O *D sky130_fd_sc_hd__dlxtp_1
*CAP
1 *1892:S1 0.000563733
2 *1993:Q 0.000563733
3 *1892:S1 *1824:A2 4.87569e-05
4 *1892:S1 *1825:C_N 0.000149031
5 *1892:S1 *2038:D 6.13283e-05
6 *1892:S1 *593:94 0.000262082
7 *1892:S1 *597:44 3.97892e-05
8 *1892:S1 *618:40 3.07883e-05
9 *1892:S1 *693:38 2.95721e-05
10 *1892:S1 *708:42 3.47307e-05
11 *1822:S *1892:S1 0.000585927
*RES
1 *1993:Q *1892:S1 17.82 
*END

*D_NET *271 0.000666661
*CONN
*I *1887:S1 I *D sky130_fd_sc_hd__mux4_1
*I *2002:Q O *D sky130_fd_sc_hd__dlxtp_1
*CAP
1 *1887:S1 0.000158785
2 *2002:Q 0.000158785
3 *1887:S1 *569:58 2.49909e-05
4 *1887:S1 *650:236 0.000122261
5 *1887:S1 *707:83 9.073e-05
6 *1887:A3 *1887:S1 6.17724e-06
7 *234:94 *1887:S1 4.74773e-05
8 *236:93 *1887:S1 3.05038e-05
9 *236:116 *1887:S1 2.69514e-05
*RES
1 *2002:Q *1887:S1 10.83 
*END

*D_NET *272 0.000503956
*CONN
*I *1887:S0 I *D sky130_fd_sc_hd__mux4_1
*I *2003:Q O *D sky130_fd_sc_hd__dlxtp_1
*CAP
1 *1887:S0 0.000138076
2 *2003:Q 0.000138076
3 *1887:S0 *2292:A 1.56428e-05
4 *1887:S0 *2321:A 6.57653e-06
5 *1887:S0 *517:50 8.53113e-06
6 *1887:S0 *676:48 0.000133039
7 *1887:S0 *702:30 2.36084e-05
8 *1887:S0 *707:83 4.04052e-05
*RES
1 *2003:Q *1887:S0 10.095 
*END

*D_NET *273 0.00101229
*CONN
*I *1886:S1 I *D sky130_fd_sc_hd__mux4_1
*I *2004:Q O *D sky130_fd_sc_hd__dlxtp_1
*CAP
1 *1886:S1 0.000336141
2 *2004:Q 0.000336141
3 *1886:S1 *1886:S0 0.000228855
4 *1886:S1 *2005:GATE 4.82863e-05
5 *1886:S1 *2335:A 6.28687e-05
6 *1886:S1 *483:80 0
*RES
1 *2004:Q *1886:S1 11.79 
*END

*D_NET *274 0.00121616
*CONN
*I *1886:S0 I *D sky130_fd_sc_hd__mux4_1
*I *2005:Q O *D sky130_fd_sc_hd__dlxtp_1
*CAP
1 *1886:S0 0.000193353
2 *2005:Q 0.000193353
3 *1886:S0 *1894:A3 6.41825e-07
4 *1886:S0 *2121:A 0.000306816
5 *1886:S0 *2341:A 0.0001578
6 *1886:S0 *632:174 1.23107e-05
7 *1886:S0 *698:175 0.000123027
8 *1886:S1 *1886:S0 0.000228855
*RES
1 *2005:Q *1886:S0 12.66 
*END

*D_NET *275 0.000606163
*CONN
*I *1885:S1 I *D sky130_fd_sc_hd__mux4_1
*I *2006:Q O *D sky130_fd_sc_hd__dlxtp_1
*CAP
1 *1885:S1 0.000220291
2 *2006:Q 0.000220291
3 *1885:S1 *2081:A 4.77757e-05
4 *1885:S1 *673:48 0.000117804
*RES
1 *2006:Q *1885:S1 6.77 
*END

*D_NET *276 0.00197069
*CONN
*I *1885:S0 I *D sky130_fd_sc_hd__mux4_1
*I *2007:Q O *D sky130_fd_sc_hd__dlxtp_1
*CAP
1 *1885:S0 0.000680394
2 *2007:Q 0.000680394
3 *1885:S0 *1964:GATE 5.74263e-05
4 *1885:S0 *2318:A 2.28356e-05
5 *1885:S0 *491:96 2.39315e-06
6 *1885:S0 *524:14 0.000229946
7 *1885:S0 *535:26 1.78199e-05
8 *1885:S0 *553:28 2.05641e-05
9 *1885:S0 *635:102 9.58678e-06
10 *1885:S0 *708:84 0.000126254
11 *1885:A3 *1885:S0 7.12494e-05
12 *146:89 *1885:S0 3.41878e-05
13 *160:133 *1885:S0 1.7635e-05
*RES
1 *2007:Q *1885:S0 11.2974 
*END

*D_NET *277 0.00115275
*CONN
*I *1884:S0 I *D sky130_fd_sc_hd__mux4_1
*I *2008:Q O *D sky130_fd_sc_hd__dlxtp_1
*CAP
1 *1884:S0 0.000314206
2 *2008:Q 0.000314206
3 *1884:S0 *2322:A 8.12631e-05
4 *1884:S0 *661:203 0.000219052
5 *1884:S0 *693:82 0.000224022
*RES
1 *2008:Q *1884:S0 13.065 
*END

*D_NET *278 0.00169445
*CONN
*I *1884:S1 I *D sky130_fd_sc_hd__mux4_1
*I *2009:Q O *D sky130_fd_sc_hd__dlxtp_1
*CAP
1 *1884:S1 0.000489094
2 *2009:Q 0.000489094
3 *1884:S1 *1884:A0 2.49909e-05
4 *1884:S1 *1884:A2 2.16392e-05
5 *1884:S1 *1884:A3 8.32973e-05
6 *1884:S1 *1907:S0 3.77372e-06
7 *1884:S1 *2322:A 5.07362e-05
8 *1884:S1 *658:133 0.000239671
9 *1884:S1 *673:124 0.000241422
10 *1884:S1 *708:42 5.07362e-05
*RES
1 *2009:Q *1884:S1 18.97 
*END

*D_NET *279 0.000581353
*CONN
*I *1883:S0 I *D sky130_fd_sc_hd__mux4_1
*I *2010:Q O *D sky130_fd_sc_hd__dlxtp_1
*CAP
1 *1883:S0 9.81038e-05
2 *2010:Q 9.81038e-05
3 *1883:S0 *1883:A0 0.000122802
4 *1883:S0 *2073:A 6.58423e-05
5 *1883:S0 *483:90 1.7635e-05
6 *146:99 *1883:S0 0.000136495
7 *150:87 *1883:S0 4.23703e-05
*RES
1 *2010:Q *1883:S0 9.975 
*END

*D_NET *280 0.00143913
*CONN
*I *1883:S1 I *D sky130_fd_sc_hd__mux4_1
*I *2011:Q O *D sky130_fd_sc_hd__dlxtp_1
*CAP
1 *1883:S1 0.000356661
2 *2011:Q 0.000356661
3 *1883:S1 *2341:A 0.000135971
4 *1883:S1 *2366:A 0.00024373
5 *1883:S1 *2369:A 0.00015829
6 *1883:S1 *564:8 6.07575e-06
7 *710:DIODE *1883:S1 0
8 *742:DIODE *1883:S1 0.000161829
9 *2150:A *1883:S1 1.19928e-05
10 *2153:A *1883:S1 5.83121e-06
11 *2158:A *1883:S1 0
12 *151:85 *1883:S1 2.09302e-06
*RES
1 *2011:Q *1883:S1 14.85 
*END

*D_NET *281 0.00174914
*CONN
*I *1891:S0 I *D sky130_fd_sc_hd__mux4_1
*I *1994:Q O *D sky130_fd_sc_hd__dlxtp_1
*CAP
1 *1891:S0 0.000518209
2 *1994:Q 0.000518209
3 *1891:S0 *1891:A0 1.14169e-05
4 *1891:S0 *1891:A1 9.76407e-06
5 *1891:S0 *1995:D 0.000115614
6 *1891:S0 *2351:A 4.17841e-05
7 *1891:S0 *2376:A 7.01359e-05
8 *1891:S0 *613:42 0.000123629
9 *1891:S0 *630:26 4.28674e-05
10 *1891:S0 *630:50 6.55328e-05
11 *1891:S0 *631:18 0.000169225
12 *1891:S0 *670:45 1.16578e-05
13 *1891:S0 *679:97 7.26176e-06
14 *1891:S0 *687:28 4.38278e-05
*RES
1 *1994:Q *1891:S0 17.385 
*END

*D_NET *282 0.000924222
*CONN
*I *1882:S1 I *D sky130_fd_sc_hd__mux4_1
*I *2012:Q O *D sky130_fd_sc_hd__dlxtp_1
*CAP
1 *1882:S1 0.000240703
2 *2012:Q 0.000240703
3 *1882:S1 *2335:A 6.14974e-05
4 *1882:S1 *2343:A 0.000262805
5 FrameData_O[24] *1882:S1 0.000118513
*RES
1 *2012:Q *1882:S1 11.1 
*END

*D_NET *283 0.00298916
*CONN
*I *1882:S0 I *D sky130_fd_sc_hd__mux4_1
*I *2013:Q O *D sky130_fd_sc_hd__dlxtp_1
*CAP
1 *1882:S0 0.000680854
2 *2013:Q 0.000680854
3 *1882:S0 *738:DIODE 1.88656e-05
4 *1882:S0 *1814:A2 8.53113e-06
5 *1882:S0 *1906:A2 6.10352e-05
6 *1882:S0 *1914:S0 0.000308195
7 *1882:S0 *1949:D 3.59784e-05
8 *1882:S0 *1949:GATE 0.00026102
9 *1882:S0 *2068:A 1.06688e-05
10 *1882:S0 *2084:A 0.000110882
11 *1882:S0 *2334:A 0.000166281
12 *1882:S0 *2353:A 0.000307216
13 *1882:S0 *2354:A 0.000175306
14 *1883:A3 *1882:S0 0.000163477
*RES
1 *2013:Q *1882:S0 21.18 
*END

*D_NET *284 0.00420078
*CONN
*I *1881:S1 I *D sky130_fd_sc_hd__mux4_1
*I *2014:Q O *D sky130_fd_sc_hd__dlxtp_1
*CAP
1 *1881:S1 0.000948916
2 *2014:Q 0.000948916
3 *1881:S1 *1811:S0 0.000129947
4 *1881:S1 *1812:A0 6.17086e-06
5 *1881:S1 *1881:A0 0.000569456
6 *1881:S1 *2063:A 7.23602e-05
7 *1881:S1 *2305:A 8.17173e-05
8 *1881:S1 *2312:A 0.000159278
9 *1881:S1 *479:130 2.68017e-05
10 *1881:S1 *514:94 0.000131723
11 *1881:S1 *586:92 2.76039e-06
12 *1881:S1 *597:60 5.50767e-05
13 *1881:S1 *618:112 0.000159085
14 *1881:S1 *676:48 7.20524e-05
15 *1881:S1 *708:84 0.00010698
16 E6BEG[5] *1881:S1 8.66454e-06
17 *151:85 *1881:S1 0.000694033
18 *236:22 *1881:S1 2.68464e-05
*RES
1 *2014:Q *1881:S1 15.9519 
*END

*D_NET *285 0.00115577
*CONN
*I *1881:S0 I *D sky130_fd_sc_hd__mux4_1
*I *2015:Q O *D sky130_fd_sc_hd__dlxtp_1
*CAP
1 *1881:S0 0.000289904
2 *2015:Q 0.000289904
3 *1881:S0 *1881:A0 8.23457e-05
4 *1881:S0 *2063:A 3.2424e-05
5 *1881:S0 *517:50 1.1392e-05
6 *1881:S0 *637:114 0.000252192
7 *1881:S0 *677:26 1.14169e-05
8 *1881:A1 *1881:S0 5.93299e-05
9 *235:113 *1881:S0 0.000126865
*RES
1 *2015:Q *1881:S0 9.59 
*END

*D_NET *286 0.0013812
*CONN
*I *1880:S1 I *D sky130_fd_sc_hd__mux4_1
*I *2016:Q O *D sky130_fd_sc_hd__dlxtp_1
*CAP
1 *1880:S1 0.000383587
2 *2016:Q 0.000383587
3 *1880:S1 *2086:A 6.3379e-05
4 *1880:S1 *2142:A 2.68526e-05
5 *1880:S1 *544:46 8.23457e-05
6 *1880:S1 *624:108 3.23284e-05
7 *1880:S1 *626:100 0.000181311
8 *1880:S1 *626:102 0.000137078
9 *1880:S1 *628:90 1.14169e-05
10 *1880:S1 *643:50 1.09662e-05
11 *1880:S1 *668:95 0
12 *181:56 *1880:S1 6.83447e-05
*RES
1 *2016:Q *1880:S1 17.71 
*END

*D_NET *287 0.00191163
*CONN
*I *1880:S0 I *D sky130_fd_sc_hd__mux4_1
*I *2017:Q O *D sky130_fd_sc_hd__dlxtp_1
*CAP
1 *1880:S0 0.000625075
2 *2017:Q 0.000625075
3 *1880:S0 *2279:A 2.39856e-05
4 *1880:S0 *590:18 0.000155601
5 *1880:S0 *590:49 0.000111925
6 *1880:S0 *613:107 0.000105612
7 *1880:S0 *613:138 1.77595e-05
8 *1880:S0 *680:10 9.43274e-05
9 *1880:S0 *684:124 0.000118081
10 *1880:S0 *689:92 2.48724e-05
11 D_config_C_bit0 *1880:S0 9.32049e-06
*RES
1 *2017:Q *1880:S0 16.245 
*END

*D_NET *288 0.00142216
*CONN
*I *1879:S1 I *D sky130_fd_sc_hd__mux4_1
*I *2018:Q O *D sky130_fd_sc_hd__dlxtp_1
*CAP
1 *1879:S1 0.000414072
2 *2018:Q 0.000414072
3 *1879:S1 *1879:A2 4.7003e-05
4 *1879:S1 *533:44 0.000281258
5 *1879:S1 *659:116 0.000204883
6 *143:47 *1879:S1 4.15756e-05
7 *150:35 *1879:S1 1.92979e-05
*RES
1 *2018:Q *1879:S1 13.83 
*END

*D_NET *289 0.000902494
*CONN
*I *1879:S0 I *D sky130_fd_sc_hd__mux4_1
*I *2019:Q O *D sky130_fd_sc_hd__dlxtp_1
*CAP
1 *1879:S0 0.000290184
2 *2019:Q 0.000290184
3 *1879:S0 *664:166 0.000137887
4 *1879:S0 *693:38 0.000137887
5 *1879:S0 *701:52 3.49355e-05
6 *149:75 *1879:S0 1.14169e-05
*RES
1 *2019:Q *1879:S0 11.355 
*END

*D_NET *290 0.000445834
*CONN
*I *1878:S0 I *D sky130_fd_sc_hd__mux4_1
*I *2020:Q O *D sky130_fd_sc_hd__dlxtp_1
*CAP
1 *1878:S0 8.23637e-05
2 *2020:Q 8.23637e-05
3 *1878:S0 *2345:A 1.56428e-05
4 *1878:S0 *2350:A 0.000132732
5 *153:129 *1878:S0 0.000132732
*RES
1 *2020:Q *1878:S0 9.285 
*END

*D_NET *291 0.000905142
*CONN
*I *1878:S1 I *D sky130_fd_sc_hd__mux4_1
*I *2021:Q O *D sky130_fd_sc_hd__dlxtp_1
*CAP
1 *1878:S1 0.00030721
2 *2021:Q 0.00030721
3 *1878:S1 *2057:D 2.3091e-05
4 *1878:S1 *2331:A 1.34352e-05
5 *1878:S1 *2350:A 2.76356e-05
6 *1878:S1 *480:108 6.88421e-05
7 *1878:S1 *480:153 3.97748e-05
8 *1878:S1 *590:145 5.53549e-06
9 *1878:S1 *643:164 0.000112409
*RES
1 *2021:Q *1878:S1 11.445 
*END

*D_NET *292 0.00111932
*CONN
*I *1891:S1 I *D sky130_fd_sc_hd__mux4_1
*I *1995:Q O *D sky130_fd_sc_hd__dlxtp_1
*CAP
1 *1891:S1 0.000419812
2 *1995:Q 0.000419812
3 *1891:S1 *1891:A2 8.53113e-06
4 *1891:S1 *2143:A 5.02217e-05
5 *1891:S1 *630:50 9.40874e-05
6 *1891:S1 *631:18 0.000126854
7 *1891:S1 *694:92 0
*RES
1 *1995:Q *1891:S1 14.52 
*END

*D_NET *293 0.00207853
*CONN
*I *1877:S0 I *D sky130_fd_sc_hd__mux4_1
*I *2022:Q O *D sky130_fd_sc_hd__dlxtp_1
*CAP
1 *1877:S0 0.000643145
2 *2022:Q 0.000643145
3 *1877:S0 *1877:S1 0.00028247
4 *1877:S0 *2082:A 9.47267e-06
5 *1877:S0 *2089:A 0.000222736
6 *1877:S0 *597:60 4.56768e-05
7 *1877:A2 *1877:S0 8.76765e-05
8 *2161:A *1877:S0 0.000132789
9 *143:109 *1877:S0 1.14169e-05
*RES
1 *2022:Q *1877:S0 16.575 
*END

*D_NET *294 0.00086511
*CONN
*I *1877:S1 I *D sky130_fd_sc_hd__mux4_1
*I *2023:Q O *D sky130_fd_sc_hd__dlxtp_1
*CAP
1 *1877:S1 0.000213252
2 *2023:Q 0.000213252
3 *1877:S1 *2082:A 3.69837e-05
4 *1877:S1 *597:60 8.09021e-06
5 *1877:S0 *1877:S1 0.00028247
6 *181:56 *1877:S1 0.000111061
*RES
1 *2023:Q *1877:S1 11.46 
*END

*D_NET *295 0.00106175
*CONN
*I *1890:S0 I *D sky130_fd_sc_hd__mux4_1
*I *1996:Q O *D sky130_fd_sc_hd__dlxtp_1
*CAP
1 *1890:S0 0.000291664
2 *1996:Q 0.000291664
3 *1890:S0 *1809:A0 0.000187321
4 *1890:S0 *1890:A2 9.50342e-06
5 *1890:S0 *1894:S1 7.23602e-05
6 *1890:S0 *1996:D 5.79443e-05
7 *1883:A2 *1890:S0 0.00013114
8 *233:99 *1890:S0 2.01541e-05
*RES
1 *1996:Q *1890:S0 12.915 
*END

*D_NET *296 0.000253092
*CONN
*I *1890:S1 I *D sky130_fd_sc_hd__mux4_1
*I *1997:Q O *D sky130_fd_sc_hd__dlxtp_1
*CAP
1 *1890:S1 3.35858e-05
2 *1997:Q 3.35858e-05
3 *1890:S1 *634:186 6.74079e-05
4 *1890:S1 *669:45 0.000118513
*RES
1 *1997:Q *1890:S1 8.58 
*END

*D_NET *297 0.00125778
*CONN
*I *1889:S0 I *D sky130_fd_sc_hd__mux4_1
*I *1998:Q O *D sky130_fd_sc_hd__dlxtp_1
*CAP
1 *1889:S0 0.000422175
2 *1998:Q 0.000422175
3 *1889:S0 *2331:A 3.3485e-05
4 *1889:S0 *514:22 8.52883e-05
5 *1889:S0 *585:66 0.000153816
6 *1889:S0 *659:227 0
7 *1889:S0 *691:44 1.09931e-05
8 *1889:S0 *691:72 1.07806e-05
9 *1889:S0 *695:90 7.06865e-05
10 *1889:S0 *695:103 4.83831e-05
*RES
1 *1998:Q *1889:S0 13.125 
*END

*D_NET *298 0.000871551
*CONN
*I *1889:S1 I *D sky130_fd_sc_hd__mux4_1
*I *1999:Q O *D sky130_fd_sc_hd__dlxtp_1
*CAP
1 *1889:S1 0.000126681
2 *1999:Q 0.000126681
3 *1889:S1 *542:30 0.000286043
4 *1889:S1 *667:154 0.000284376
5 FrameData_O[5] *1889:S1 4.77719e-05
*RES
1 *1999:Q *1889:S1 11.07 
*END

*D_NET *299 0.00124805
*CONN
*I *1888:S0 I *D sky130_fd_sc_hd__mux4_1
*I *2000:Q O *D sky130_fd_sc_hd__dlxtp_1
*CAP
1 *1888:S0 0.00039067
2 *2000:Q 0.00039067
3 *1888:S0 *1888:A0 1.47406e-05
4 *1888:S0 *1888:S1 7.42723e-05
5 *1888:S0 *631:65 0.000115187
6 *1888:S0 *677:42 0.000149459
7 *1888:A3 *1888:S0 1.08758e-05
8 *143:109 *1888:S0 0.000102177
9 *157:91 *1888:S0 0
*RES
1 *2000:Q *1888:S0 13.875 
*END

*D_NET *300 0.00173557
*CONN
*I *1888:S1 I *D sky130_fd_sc_hd__mux4_1
*I *2001:Q O *D sky130_fd_sc_hd__dlxtp_1
*CAP
1 *1888:S1 0.000785981
2 *2001:Q 0.000785981
3 *1888:S1 *1888:A0 5.75805e-06
4 *1888:S1 *1888:A1 1.56428e-05
5 *1888:S1 *1888:A2 8.77681e-06
6 *1888:S1 *708:84 2.54418e-05
7 *1888:A3 *1888:S1 3.37113e-05
8 *1888:S0 *1888:S1 7.42723e-05
*RES
1 *2001:Q *1888:S1 13.25 
*END

*D_NET *301 0.0016808
*CONN
*I *1908:S1 I *D sky130_fd_sc_hd__mux4_1
*I *1960:Q O *D sky130_fd_sc_hd__dlxtp_1
*CAP
1 *1908:S1 0.000483958
2 *1960:Q 0.000483958
3 *1908:S1 *2074:A 0.000134297
4 *1908:S1 *513:86 7.00225e-05
5 *1908:S1 *674:40 3.4246e-06
6 *1908:S1 *679:59 0.000300175
7 *1908:S1 *703:60 6.90889e-06
8 *1908:S1 *703:72 0.000148546
9 *143:117 *1908:S1 4.95063e-05
*RES
1 *1960:Q *1908:S1 15.12 
*END

*D_NET *302 0.00152164
*CONN
*I *1908:S0 I *D sky130_fd_sc_hd__mux4_1
*I *1961:Q O *D sky130_fd_sc_hd__dlxtp_1
*CAP
1 *1908:S0 0.000311578
2 *1961:Q 0.000311578
3 *1908:S0 *1878:A0 3.59657e-05
4 *1908:S0 *1908:A0 0.000454099
5 *1908:S0 *703:72 0.000348311
6 *153:129 *1908:S0 6.01098e-05
*RES
1 *1961:Q *1908:S0 14.58 
*END

*D_NET *303 0.000879068
*CONN
*I *1903:S0 I *D sky130_fd_sc_hd__mux4_1
*I *1970:Q O *D sky130_fd_sc_hd__dlxtp_1
*CAP
1 *1903:S0 0.000129966
2 *1970:Q 0.000129966
3 *1903:S0 *2284:A 0.000303842
4 *1903:S0 *2286:A 2.23608e-05
5 *1903:S0 *650:236 0.000103578
6 *1903:S0 *696:26 0.000162584
7 *148:51 *1903:S0 2.67716e-05
*RES
1 *1970:Q *1903:S0 11.325 
*END

*D_NET *304 0.000547021
*CONN
*I *1903:S1 I *D sky130_fd_sc_hd__mux4_1
*I *1971:Q O *D sky130_fd_sc_hd__dlxtp_1
*CAP
1 *1903:S1 0.000126399
2 *1971:Q 0.000126399
3 *1903:S1 *2292:A 3.85204e-05
4 *1903:S1 *686:46 5.8054e-05
5 *1903:S1 *707:83 0.000130434
6 *148:51 *1903:S1 6.72143e-05
*RES
1 *1971:Q *1903:S1 9.63 
*END

*D_NET *305 0.000745988
*CONN
*I *1902:S0 I *D sky130_fd_sc_hd__mux4_1
*I *1972:Q O *D sky130_fd_sc_hd__dlxtp_1
*CAP
1 *1902:S0 7.86525e-05
2 *1972:Q 7.86525e-05
3 *1902:S0 *1902:A0 1.48873e-05
4 *1902:S0 *1902:A1 4.75959e-05
5 *1902:S0 *1902:A2 0.000298342
6 *1902:S0 *1902:A3 0.000227858
*RES
1 *1972:Q *1902:S0 6.065 
*END

*D_NET *306 0.000413628
*CONN
*I *1902:S1 I *D sky130_fd_sc_hd__mux4_1
*I *1973:Q O *D sky130_fd_sc_hd__dlxtp_1
*CAP
1 *1902:S1 8.56369e-05
2 *1973:Q 8.56369e-05
3 *1902:S1 *650:236 0.000109551
4 *1902:S1 *698:129 4.66108e-05
5 *1902:S1 *702:30 2.95556e-05
6 *1902:S1 *707:83 5.66369e-05
*RES
1 *1973:Q *1902:S1 9.03 
*END

*D_NET *307 0.000242169
*CONN
*I *1901:S0 I *D sky130_fd_sc_hd__mux4_1
*I *1974:Q O *D sky130_fd_sc_hd__dlxtp_1
*CAP
1 *1901:S0 2.57715e-05
2 *1974:Q 2.57715e-05
3 *1901:S0 *1901:A3 9.71067e-05
4 *1901:S0 *2379:A 9.35189e-05
*RES
1 *1974:Q *1901:S0 8.325 
*END

*D_NET *308 0.00145131
*CONN
*I *1901:S1 I *D sky130_fd_sc_hd__mux4_1
*I *1975:Q O *D sky130_fd_sc_hd__dlxtp_1
*CAP
1 *1901:S1 0.000350679
2 *1975:Q 0.000350679
3 *1901:S1 *1901:A2 9.9535e-05
4 *1901:S1 *2100:A 4.82919e-05
5 *1901:S1 *2381:A 0.000318878
6 *1901:S1 *615:14 0.000156762
7 *725:DIODE *1901:S1 1.19928e-05
8 *2149:A *1901:S1 0.000114492
*RES
1 *1975:Q *1901:S1 13.83 
*END

*D_NET *309 0.000719349
*CONN
*I *1900:S0 I *D sky130_fd_sc_hd__mux4_1
*I *1976:Q O *D sky130_fd_sc_hd__dlxtp_1
*CAP
1 *1900:S0 0.000263225
2 *1976:Q 0.000263225
3 *1900:S0 *2013:GATE 1.14169e-05
4 *1900:S0 *595:28 9.07407e-05
5 *1900:S0 *679:72 9.07407e-05
*RES
1 *1976:Q *1900:S0 10.5 
*END

*D_NET *310 0.00393385
*CONN
*I *1900:S1 I *D sky130_fd_sc_hd__mux4_1
*I *1977:Q O *D sky130_fd_sc_hd__dlxtp_1
*CAP
1 *1900:S1 0.000861981
2 *1977:Q 0.000861981
3 *1900:S1 *1893:A3 0.00010197
4 *1900:S1 *1900:A1 8.33571e-05
5 *1900:S1 *2081:A 8.23457e-05
6 *1900:S1 *2094:A 2.49909e-05
7 *1900:S1 *2350:A 0.000103085
8 *1900:S1 *524:14 9.97834e-06
9 *1900:S1 *535:16 0.000273195
10 *1900:S1 *558:50 0.00030378
11 *1900:S1 *593:118 0.000122041
12 *1900:S1 *667:174 5.56205e-06
13 *1900:S1 *669:53 0.000113826
14 *1900:S1 *669:75 5.53549e-06
15 *1900:S1 *689:114 6.63225e-05
16 *742:DIODE *1900:S1 7.53186e-05
17 *148:89 *1900:S1 0.00033527
18 *233:80 *1900:S1 0.000503315
*RES
1 *1977:Q *1900:S1 17.0147 
*END

*D_NET *311 0.0013549
*CONN
*I *1899:S0 I *D sky130_fd_sc_hd__mux4_1
*I *1978:Q O *D sky130_fd_sc_hd__dlxtp_1
*CAP
1 *1899:S0 0.000207091
2 *1978:Q 0.000207091
3 *1899:S0 *1893:A1 0.000124376
4 *1899:S0 *2333:A 0.000124591
5 *1899:S0 *2335:A 0.000290254
6 *1899:S0 *2362:A 1.46216e-05
7 *1899:S0 *539:26 0.000118081
8 *1899:S0 *542:30 1.08856e-05
9 *1899:S0 *650:254 9.31831e-06
10 *1899:S0 *667:154 0.000135916
11 *233:80 *1899:S0 0.000112679
*RES
1 *1978:Q *1899:S0 13.545 
*END

*D_NET *312 0.00221993
*CONN
*I *1899:S1 I *D sky130_fd_sc_hd__mux4_1
*I *1979:Q O *D sky130_fd_sc_hd__dlxtp_1
*CAP
1 *1899:S1 0.000764499
2 *1979:Q 0.000764499
3 *1899:S1 *1979:D 3.9232e-05
4 *1899:S1 *1979:GATE 0.000104482
5 *1899:S1 *2353:A 8.73389e-06
6 *1899:S1 *2360:A 4.77757e-05
7 *1899:S1 *539:26 8.43255e-05
8 *1899:S1 *593:118 9.57611e-05
9 *1899:S1 *634:176 9.60582e-07
10 *1899:S1 *645:82 8.13313e-06
11 *1899:S1 *667:154 7.88603e-05
12 *1899:S1 *667:174 1.67381e-05
13 *1899:S1 *673:106 8.46591e-05
14 *234:14 *1899:S1 0.000121275
*RES
1 *1979:Q *1899:S1 18.21 
*END

*D_NET *313 0.00410162
*CONN
*I *1907:S0 I *D sky130_fd_sc_hd__mux4_1
*I *1962:Q O *D sky130_fd_sc_hd__dlxtp_1
*CAP
1 *1907:S0 0.00128804
2 *1962:Q 0.00128804
3 *1907:S0 *1884:A0 1.19928e-05
4 *1907:S0 *1884:A2 0.000113071
5 *1907:S0 *1884:A3 0.000517319
6 *1907:S0 *1907:A0 5.38372e-05
7 *1907:S0 *1907:A3 1.68397e-05
8 *1907:S0 *1962:GATE 4.28819e-05
9 *1907:S0 *587:118 2.19562e-06
10 *1907:S0 *636:50 8.73389e-06
11 *1907:S0 *671:53 3.59784e-05
12 *1907:S0 *675:174 0.00018955
13 *1907:S0 *692:64 0.000192135
14 *1884:S1 *1907:S0 3.77372e-06
15 *159:77 *1907:S0 0.000337218
*RES
1 *1962:Q *1907:S0 21.14 
*END

*D_NET *314 0.00160087
*CONN
*I *1898:S0 I *D sky130_fd_sc_hd__mux4_1
*I *1980:Q O *D sky130_fd_sc_hd__dlxtp_1
*CAP
1 *1898:S0 0.000569138
2 *1980:Q 0.000569138
3 *1898:S0 *1847:A2 1.92979e-05
4 *1898:S0 *1982:D 0.000126891
5 *1898:S0 *2278:A 1.93765e-05
6 *1898:S0 *626:148 1.79483e-05
7 *1898:S0 *632:22 0.000254221
8 *1898:S0 *655:16 1.92979e-05
9 *1898:S0 *658:27 5.56633e-06
*RES
1 *1980:Q *1898:S0 10.717 
*END

*D_NET *315 0.00135559
*CONN
*I *1898:S1 I *D sky130_fd_sc_hd__mux4_1
*I *1981:Q O *D sky130_fd_sc_hd__dlxtp_1
*CAP
1 *1898:S1 0.000564902
2 *1981:Q 0.000564902
3 *1898:S1 *650:47 0.000112893
4 *1898:S1 *653:38 0.000112893
*RES
1 *1981:Q *1898:S1 13.86 
*END

*D_NET *316 0.000673657
*CONN
*I *1897:S0 I *D sky130_fd_sc_hd__mux4_1
*I *1982:Q O *D sky130_fd_sc_hd__dlxtp_1
*CAP
1 *1897:S0 0.000101719
2 *1982:Q 0.000101719
3 *1897:S0 *1897:A0 9.77048e-06
4 *1897:S0 *1897:A3 0.000158443
5 *1897:S0 *1897:S1 0.000302006
*RES
1 *1982:Q *1897:S0 6.065 
*END

*D_NET *317 0.0024532
*CONN
*I *1897:S1 I *D sky130_fd_sc_hd__mux4_1
*I *1983:Q O *D sky130_fd_sc_hd__dlxtp_1
*CAP
1 *1897:S1 0.000943806
2 *1983:Q 0.000943806
3 *1897:S1 *1897:A2 1.54111e-05
4 *1897:S1 *1897:A3 6.06867e-05
5 *1897:S1 *2097:A 5.69803e-05
6 *1897:S1 *672:190 0.000104045
7 *1897:S1 *672:194 2.64559e-05
8 *1897:S0 *1897:S1 0.000302006
*RES
1 *1983:Q *1897:S1 15.755 
*END

*D_NET *318 0.00123706
*CONN
*I *1896:S0 I *D sky130_fd_sc_hd__mux4_1
*I *1984:Q O *D sky130_fd_sc_hd__dlxtp_1
*CAP
1 *1896:S0 0.000305913
2 *1984:Q 0.000305913
3 *1896:S0 *586:92 0.000132709
4 *1896:S0 *631:65 0.000132115
5 *1896:S0 *634:154 8.23457e-05
6 *1896:S0 *660:115 5.16211e-05
7 *1896:S0 *693:82 0.000226446
*RES
1 *1984:Q *1896:S0 12.495 
*END

*D_NET *319 0.00286738
*CONN
*I *1896:S1 I *D sky130_fd_sc_hd__mux4_1
*I *1985:Q O *D sky130_fd_sc_hd__dlxtp_1
*CAP
1 *1896:S1 0.000861465
2 *1985:Q 0.000861465
3 *1896:S1 *2022:D 2.62017e-05
4 *1896:S1 *2022:GATE 0.000221733
5 *1896:S1 *586:92 6.31732e-05
6 *1896:S1 *596:140 5.83121e-06
7 *1896:S1 *597:60 0.000302205
8 *1896:S1 *660:115 2.76356e-05
9 *1896:S1 *675:130 0.000225285
10 *2161:A *1896:S1 3.23391e-05
11 *145:83 *1896:S1 0.000240049
*RES
1 *1985:Q *1896:S1 20.52 
*END

*D_NET *320 0.00115508
*CONN
*I *1895:S1 I *D sky130_fd_sc_hd__mux4_1
*I *1986:Q O *D sky130_fd_sc_hd__dlxtp_1
*CAP
1 *1895:S1 0.000255998
2 *1986:Q 0.000255998
3 *1895:S1 *659:83 5.92191e-05
4 *1895:S1 *664:143 6.36139e-05
5 *1895:S1 *693:38 0.000315462
6 *1895:S1 *708:22 0.000204786
*RES
1 *1986:Q *1895:S1 12.705 
*END

*D_NET *321 0.000659539
*CONN
*I *1895:S0 I *D sky130_fd_sc_hd__mux4_1
*I *1987:Q O *D sky130_fd_sc_hd__dlxtp_1
*CAP
1 *1895:S0 0.000119305
2 *1987:Q 0.000119305
3 *1895:S0 *1895:A0 1.94027e-05
4 *1895:S0 *1895:A1 0.000155601
5 *1895:S0 *659:83 9.76407e-06
6 *1895:S0 *662:140 0.000153816
7 *1895:S0 *705:49 8.23457e-05
*RES
1 *1987:Q *1895:S0 6.065 
*END

*D_NET *322 0.00284407
*CONN
*I *1894:S0 I *D sky130_fd_sc_hd__mux4_1
*I *1988:Q O *D sky130_fd_sc_hd__dlxtp_1
*CAP
1 *1894:S0 0.000827033
2 *1988:Q 0.000827033
3 *1894:S0 *1894:A2 1.32668e-05
4 *1894:S0 *1894:A3 7.84476e-05
5 *1894:S0 *1974:D 0.00041379
6 *1894:S0 *1975:D 4.89295e-05
7 *1894:S0 *2100:A 1.83538e-05
8 *1894:S0 *2337:A 4.66108e-05
9 *1894:S0 *2381:A 0.000122331
10 *1894:S0 *491:102 5.67339e-05
11 *159:101 *1894:S0 2.69493e-05
12 *160:133 *1894:S0 0.000364587
*RES
1 *1988:Q *1894:S0 20.31 
*END

*D_NET *323 0.00423079
*CONN
*I *1894:S1 I *D sky130_fd_sc_hd__mux4_1
*I *1989:Q O *D sky130_fd_sc_hd__dlxtp_1
*CAP
1 *1894:S1 0.0010745
2 *1989:Q 0.0010745
3 *1894:S1 *1809:A0 0.00115317
4 *1894:S1 *1809:A3 9.76802e-05
5 *1894:S1 *1809:S0 0
6 *1894:S1 *1894:A2 1.00941e-05
7 *1894:S1 *1909:S0 1.25121e-05
8 *1894:S1 *1909:S1 0
9 *1894:S1 *1933:D 3.03775e-05
10 *1894:S1 *1997:GATE 1.77665e-05
11 *1894:S1 *2317:A 0.000312182
12 *1894:S1 *2343:A 8.18705e-05
13 *1894:S1 *635:112 1.56428e-05
14 *1894:S1 *694:134 3.31204e-05
15 *1883:A2 *1894:S1 0.000245014
16 *1890:S0 *1894:S1 7.23602e-05
17 *148:111 *1894:S1 0
*RES
1 *1989:Q *1894:S1 29.49 
*END

*D_NET *324 0.00216469
*CONN
*I *1907:S1 I *D sky130_fd_sc_hd__mux4_1
*I *1963:Q O *D sky130_fd_sc_hd__dlxtp_1
*CAP
1 *1907:S1 0.000666339
2 *1963:Q 0.000666339
3 *1907:S1 *1827:A 0.000550225
4 *1907:S1 *2321:A 0.000109551
5 *1907:S1 *538:72 6.03315e-05
6 *1907:S1 *650:236 0.000111906
*RES
1 *1963:Q *1907:S1 15.93 
*END

*D_NET *325 0.000688894
*CONN
*I *1893:S1 I *D sky130_fd_sc_hd__mux4_1
*I *1990:Q O *D sky130_fd_sc_hd__dlxtp_1
*CAP
1 *1893:S1 0.000243294
2 *1990:Q 0.000243294
3 *1893:S1 *1890:A1 0.000108199
4 *1893:S1 *2101:A 9.41067e-05
*RES
1 *1990:Q *1893:S1 7.46 
*END

*D_NET *326 0.00146043
*CONN
*I *1893:S0 I *D sky130_fd_sc_hd__mux4_1
*I *1991:Q O *D sky130_fd_sc_hd__dlxtp_1
*CAP
1 *1893:S0 0.000578323
2 *1991:Q 0.000578323
3 *1893:S0 *1890:A0 6.36139e-05
4 *1893:S0 *1890:A2 6.33103e-05
5 *1893:S0 *1991:D 1.74678e-05
6 *1893:S0 *634:186 0
7 *1893:S0 *669:45 7.00115e-05
8 *148:111 *1893:S0 8.93844e-05
*RES
1 *1991:Q *1893:S0 13.95 
*END

*D_NET *327 0.0026483
*CONN
*I *1906:S0 I *D sky130_fd_sc_hd__mux4_1
*I *1964:Q O *D sky130_fd_sc_hd__dlxtp_1
*CAP
1 *1906:S0 0.000583785
2 *1964:Q 0.000583785
3 *1906:S0 *1814:A2 2.35379e-05
4 *1906:S0 *2334:A 0.000370661
5 *1906:S0 *2335:A 0.000477689
6 *1906:S0 *2338:A 0.00054985
7 *233:80 *1906:S0 5.89925e-05
*RES
1 *1964:Q *1906:S0 18.195 
*END

*D_NET *328 0.000597051
*CONN
*I *1906:S1 I *D sky130_fd_sc_hd__mux4_1
*I *1965:Q O *D sky130_fd_sc_hd__dlxtp_1
*CAP
1 *1906:S1 0.000190278
2 *1965:Q 0.000190278
3 *1906:S1 *2076:A 2.76356e-05
4 *1906:S1 *2336:A 0.00018886
*RES
1 *1965:Q *1906:S1 6.77 
*END

*D_NET *329 0.00223051
*CONN
*I *1905:S0 I *D sky130_fd_sc_hd__mux4_1
*I *1966:Q O *D sky130_fd_sc_hd__dlxtp_1
*CAP
1 *1905:S0 0.000388079
2 *1966:Q 0.000388079
3 *1905:S0 *1905:A3 0.000128956
4 *1905:S0 *1913:A1 0.000179008
5 *1905:S0 *2030:D 0.000119246
6 *1905:S0 *2284:A 4.76263e-05
7 *1905:S0 *685:22 5.33085e-05
8 *1905:S0 *707:83 0.000207062
9 E1BEG[1] *1905:S0 2.25119e-05
10 *2247:A *1905:S0 1.56428e-05
11 *144:75 *1905:S0 0.000237946
12 *148:51 *1905:S0 0.00044304
*RES
1 *1966:Q *1905:S0 24.65 
*END

*D_NET *330 0.000467137
*CONN
*I *1905:S1 I *D sky130_fd_sc_hd__mux4_1
*I *1967:Q O *D sky130_fd_sc_hd__dlxtp_1
*CAP
1 *1905:S1 0.000101993
2 *1967:Q 0.000101993
3 *1905:S1 *2287:A 0.000146999
4 *1905:S1 *704:70 0.000116151
*RES
1 *1967:Q *1905:S1 9.375 
*END

*D_NET *331 0.000418303
*CONN
*I *1904:S0 I *D sky130_fd_sc_hd__mux4_1
*I *1968:Q O *D sky130_fd_sc_hd__dlxtp_1
*CAP
1 *1904:S0 0.000100858
2 *1968:Q 0.000100858
3 *1904:S0 *593:46 9.35189e-05
4 *1904:S0 *628:90 9.5433e-05
5 *1904:S0 *689:92 2.76356e-05
*RES
1 *1968:Q *1904:S0 9.12 
*END

*D_NET *332 0.00106089
*CONN
*I *1904:S1 I *D sky130_fd_sc_hd__mux4_1
*I *1969:Q O *D sky130_fd_sc_hd__dlxtp_1
*CAP
1 *1904:S1 0.000330439
2 *1969:Q 0.000330439
3 *1904:S1 *1880:A2 0
4 *1904:S1 *486:35 0
5 *1904:S1 *626:126 7.00115e-05
6 *1904:S1 *689:92 5.83121e-06
7 *181:21 *1904:S1 0.000226258
8 *181:56 *1904:S1 9.79155e-05
*RES
1 *1969:Q *1904:S1 16.57 
*END

*D_NET *333 0.00113445
*CONN
*I *1811:S0 I *D sky130_fd_sc_hd__mux4_1
*I *1938:Q O *D sky130_fd_sc_hd__dlxtp_1
*CAP
1 *1811:S0 0.000308879
2 *1938:Q 0.000308879
3 *1811:S0 *1811:A0 2.65814e-06
4 *1811:S0 *2306:A 7.9642e-06
5 *1811:S0 *2312:A 2.1703e-05
6 *1811:S0 *2320:A 9.40887e-05
7 *1811:S0 *535:76 8.23457e-05
8 E6BEG[4] *1811:S0 2.28997e-05
9 E6BEG[5] *1811:S0 6.67742e-05
10 *1811:A3 *1811:S0 4.66108e-05
11 *1881:S1 *1811:S0 0.000129947
12 *234:44 *1811:S0 4.16993e-05
*RES
1 *1938:Q *1811:S0 12.855 
*END

*D_NET *334 0.000865784
*CONN
*I *1811:S1 I *D sky130_fd_sc_hd__mux4_1
*I *1939:Q O *D sky130_fd_sc_hd__dlxtp_1
*CAP
1 *1811:S1 0.000146228
2 *1939:Q 0.000146228
3 *1811:S1 *650:236 4.7676e-05
4 *1811:S1 *650:254 0.000228278
5 *1811:A3 *1811:S1 7.10964e-06
6 *160:115 *1811:S1 0.000290263
7 *236:22 *1811:S1 0
*RES
1 *1939:Q *1811:S1 10.98 
*END

*D_NET *335 0.000614931
*CONN
*I *1810:S0 I *D sky130_fd_sc_hd__mux4_1
*I *1940:Q O *D sky130_fd_sc_hd__dlxtp_1
*CAP
1 *1810:S0 0.000190426
2 *1940:Q 0.000190426
3 *1810:S0 *1810:A1 0.000118081
4 *1810:S0 *664:125 9.68391e-05
5 *1810:S0 *664:143 1.91597e-05
*RES
1 *1940:Q *1810:S0 6.065 
*END

*D_NET *336 0.000781697
*CONN
*I *1810:S1 I *D sky130_fd_sc_hd__mux4_1
*I *1941:Q O *D sky130_fd_sc_hd__dlxtp_1
*CAP
1 *1810:S1 0.000177608
2 *1941:Q 0.000177608
3 *1810:S1 *2295:A 0.000192497
4 *1810:S1 *700:12 0.000116158
5 *147:75 *1810:S1 0.000117825
*RES
1 *1941:Q *1810:S1 10.41 
*END

*D_NET *337 0.00130193
*CONN
*I *1809:S0 I *D sky130_fd_sc_hd__mux4_1
*I *1942:Q O *D sky130_fd_sc_hd__dlxtp_1
*CAP
1 *1809:S0 0.000365181
2 *1942:Q 0.000365181
3 *1809:S0 *1909:S1 0.000265941
4 *1809:S0 *2351:A 0.000305628
5 *1894:S1 *1809:S0 0
*RES
1 *1942:Q *1809:S0 13.23 
*END

*D_NET *338 0.000703874
*CONN
*I *1809:S1 I *D sky130_fd_sc_hd__mux4_1
*I *1943:Q O *D sky130_fd_sc_hd__dlxtp_1
*CAP
1 *1809:S1 0.000249712
2 *1943:Q 0.000249712
3 *1809:S1 *519:16 2.27571e-05
4 *1809:S1 *535:112 0.000116158
5 *1809:S1 *678:49 6.28765e-05
6 *711:DIODE *1809:S1 2.65814e-06
*RES
1 *1943:Q *1809:S1 10.755 
*END

*D_NET *339 0.00161547
*CONN
*I *1808:S0 I *D sky130_fd_sc_hd__mux4_1
*I *1944:Q O *D sky130_fd_sc_hd__dlxtp_1
*CAP
1 *1808:S0 0.000359636
2 *1944:Q 0.000359636
3 *1808:S0 *1808:A0 9.50342e-06
4 *1808:S0 *1808:A1 0.000146358
5 *1808:S0 *1908:A2 0.000111824
6 *1808:S0 *2066:A 0.000106338
7 *1808:S0 *2164:A 7.68729e-05
8 *1808:S0 *2297:A 0.000135775
9 *1808:S0 *2331:A 1.19928e-05
10 *1808:S0 *677:26 7.23533e-05
11 *1808:S0 *693:142 0.00010467
12 *143:117 *1808:S0 0.000120513
*RES
1 *1944:Q *1808:S0 15.09 
*END

*D_NET *340 0.000304107
*CONN
*I *1808:S1 I *D sky130_fd_sc_hd__mux4_1
*I *1945:Q O *D sky130_fd_sc_hd__dlxtp_1
*CAP
1 *1808:S1 3.868e-05
2 *1945:Q 3.868e-05
3 *1808:S1 *502:65 0.000112182
4 *1808:S1 *679:59 0.000114565
*RES
1 *1945:Q *1808:S1 8.58 
*END

*D_NET *341 0.00159726
*CONN
*I *1915:S0 I *D sky130_fd_sc_hd__mux4_1
*I *1946:Q O *D sky130_fd_sc_hd__dlxtp_1
*CAP
1 *1915:S0 0.000305063
2 *1946:Q 0.000305063
3 *1915:S0 *2299:A 0.000425447
4 *1915:S0 *2319:A 8.92239e-05
5 *1915:S0 *660:99 4.66108e-05
6 *1915:S0 *676:48 0.000425855
*RES
1 *1946:Q *1915:S0 14.325 
*END

*D_NET *342 0.00167515
*CONN
*I *1915:S1 I *D sky130_fd_sc_hd__mux4_1
*I *1947:Q O *D sky130_fd_sc_hd__dlxtp_1
*CAP
1 *1915:S1 0.000539698
2 *1947:Q 0.000539698
3 *1915:S1 *1881:A2 5.83121e-06
4 *1915:S1 *2089:A 0.000179035
5 *1915:S1 *2314:A 6.07575e-06
6 *1915:S1 *2316:A 3.93101e-05
7 *1915:S1 *2321:A 8.80752e-05
8 *1915:S1 *650:236 8.93004e-05
9 *1915:S1 *660:99 0.00015893
10 EE4BEG[5] *1915:S1 2.91924e-05
*RES
1 *1947:Q *1915:S1 16.8225 
*END

*D_NET *343 0.00104484
*CONN
*I *1914:S0 I *D sky130_fd_sc_hd__mux4_1
*I *1948:Q O *D sky130_fd_sc_hd__dlxtp_1
*CAP
1 *1914:S0 0.000173305
2 *1948:Q 0.000173305
3 *1914:S0 *2334:A 0.000306521
4 *1914:S0 *2339:A 8.35106e-05
5 *1882:S0 *1914:S0 0.000308195
*RES
1 *1948:Q *1914:S0 11.67 
*END

*D_NET *344 0.000320033
*CONN
*I *1914:S1 I *D sky130_fd_sc_hd__mux4_1
*I *1949:Q O *D sky130_fd_sc_hd__dlxtp_1
*CAP
1 *1914:S1 5.60181e-05
2 *1949:Q 5.60181e-05
3 *1914:S1 *1914:A2 7.9642e-06
4 *1914:S1 *2337:A 6.48316e-05
5 *1914:S1 *576:42 0.000135201
*RES
1 *1949:Q *1914:S1 8.835 
*END

*D_NET *345 0.00117319
*CONN
*I *1913:S0 I *D sky130_fd_sc_hd__mux4_1
*I *1950:Q O *D sky130_fd_sc_hd__dlxtp_1
*CAP
1 *1913:S0 0.000459192
2 *1950:Q 0.000459192
3 *1913:S0 *1913:A0 2.84944e-05
4 *1913:S0 *1913:A2 0.000226311
*RES
1 *1950:Q *1913:S0 8.96 
*END

*D_NET *346 0.000720318
*CONN
*I *1913:S1 I *D sky130_fd_sc_hd__mux4_1
*I *1951:Q O *D sky130_fd_sc_hd__dlxtp_1
*CAP
1 *1913:S1 0.000201319
2 *1951:Q 0.000201319
3 *1913:S1 *2069:A 6.33103e-05
4 *1913:S1 *2292:A 0.000113821
5 *1913:S1 *485:20 0.000113821
6 *1913:S1 *689:24 2.67275e-05
*RES
1 *1951:Q *1913:S1 10.41 
*END

*D_NET *347 0.0003809
*CONN
*I *1912:S0 I *D sky130_fd_sc_hd__mux4_1
*I *1952:Q O *D sky130_fd_sc_hd__dlxtp_1
*CAP
1 *1912:S0 6.55733e-05
2 *1952:Q 6.55733e-05
3 *1912:S0 *1912:A0 9.21068e-05
4 *1912:S0 *613:138 4.79946e-05
5 *1912:S0 *628:90 2.47313e-05
6 *1912:S0 *706:38 8.49205e-05
*RES
1 *1952:Q *1912:S0 9.12 
*END

*D_NET *348 0.00153999
*CONN
*I *1912:S1 I *D sky130_fd_sc_hd__mux4_1
*I *1953:Q O *D sky130_fd_sc_hd__dlxtp_1
*CAP
1 *1912:S1 0.00060277
2 *1953:Q 0.00060277
3 *1912:S1 *1956:D 4.61701e-06
4 *1912:S1 *486:18 0
5 *1912:S1 *486:35 7.9642e-06
6 *1912:S1 *618:40 0.000273019
7 *1912:S1 *706:38 4.88478e-05
8 *181:21 *1912:S1 0
*RES
1 *1953:Q *1912:S1 15.315 
*END

*D_NET *349 0.00132736
*CONN
*I *1911:S0 I *D sky130_fd_sc_hd__mux4_1
*I *1954:Q O *D sky130_fd_sc_hd__dlxtp_1
*CAP
1 *1911:S0 0.000215694
2 *1954:Q 0.000215694
3 *1911:S0 *597:20 4.82919e-05
4 *1911:S0 *597:44 0.000432765
5 *1911:S0 *658:109 2.01565e-05
6 *1911:S0 *659:83 0.000178875
7 *1911:S0 *664:166 0.000198145
8 *1911:S0 *708:22 4.36573e-06
9 *1911:S0 *708:42 1.33707e-05
*RES
1 *1954:Q *1911:S0 13.2 
*END

*D_NET *350 0.000550376
*CONN
*I *1911:S1 I *D sky130_fd_sc_hd__mux4_1
*I *1955:Q O *D sky130_fd_sc_hd__dlxtp_1
*CAP
1 *1911:S1 0.000120376
2 *1955:Q 0.000120376
3 *1911:S1 *533:44 0.000131197
4 *1911:S1 *699:66 4.60061e-05
5 *143:47 *1911:S1 0.000132422
*RES
1 *1955:Q *1911:S1 9.63 
*END

*D_NET *351 0.00170149
*CONN
*I *1910:S1 I *D sky130_fd_sc_hd__mux4_1
*I *1956:Q O *D sky130_fd_sc_hd__dlxtp_1
*CAP
1 *1910:S1 0.000547994
2 *1956:Q 0.000547994
3 *1910:S1 *1910:S0 8.35068e-05
4 *1910:S1 *1957:D 1.16854e-05
5 *1910:S1 *2036:D 5.83121e-06
6 *1910:S1 *486:18 8.49041e-05
7 *1910:S1 *659:83 0.000156621
8 *1910:S1 *668:115 2.39856e-05
9 *1910:S1 *668:130 8.23457e-05
10 *243:42 *1910:S1 0.000156621
*RES
1 *1956:Q *1910:S1 15.525 
*END

*D_NET *352 0.00045598
*CONN
*I *1910:S0 I *D sky130_fd_sc_hd__mux4_1
*I *1957:Q O *D sky130_fd_sc_hd__dlxtp_1
*CAP
1 *1910:S0 9.13145e-05
2 *1957:Q 9.13145e-05
3 *1910:S0 *1911:A0 9.57555e-05
4 *1910:S1 *1910:S0 8.35068e-05
5 *154:85 *1910:S0 9.40887e-05
*RES
1 *1957:Q *1910:S0 9.12 
*END

*D_NET *353 0.00141611
*CONN
*I *1909:S1 I *D sky130_fd_sc_hd__mux4_1
*I *1958:Q O *D sky130_fd_sc_hd__dlxtp_1
*CAP
1 *1909:S1 0.000242728
2 *1958:Q 0.000242728
3 *1909:S1 *1809:A3 2.38541e-05
4 *1909:S1 *1909:A2 6.10014e-05
5 *1909:S1 *2351:A 0.000121817
6 *1809:S0 *1909:S1 0.000265941
7 *1894:S1 *1909:S1 0
8 *148:111 *1909:S1 0.000458043
*RES
1 *1958:Q *1909:S1 13.8 
*END

*D_NET *354 0.00189122
*CONN
*I *1909:S0 I *D sky130_fd_sc_hd__mux4_1
*I *1959:Q O *D sky130_fd_sc_hd__dlxtp_1
*CAP
1 *1909:S0 0.000283997
2 *1959:Q 0.000283997
3 *1909:S0 *1809:A0 0.00047945
4 *1909:S0 *1909:A0 1.56428e-05
5 *1909:S0 *1909:A1 4.66108e-05
6 *1909:S0 *1959:D 2.49909e-05
7 *1909:S0 *2103:A 0.000139238
8 *1909:S0 *2317:A 0.000171017
9 *1909:S0 *2377:A 0.000132748
10 *1909:S0 *491:96 0.000301016
11 *1894:S1 *1909:S0 1.25121e-05
*RES
1 *1959:Q *1909:S0 16.11 
*END

*D_NET *355 0.00141996
*CONN
*I *1814:S1 I *D sky130_fd_sc_hd__mux4_1
*I *1932:Q O *D sky130_fd_sc_hd__dlxtp_1
*CAP
1 *1814:S1 0.000356406
2 *1932:Q 0.000356406
3 *1814:S1 *1814:A0 8.49205e-05
4 *1814:S1 *1814:A1 4.66108e-05
5 *1814:S1 *1814:A2 2.05864e-05
6 *1814:S1 *1814:S0 0.000339315
7 *1814:S1 *1886:A1 1.1561e-05
8 *1814:S1 *2012:GATE 0.000140487
9 *1814:S1 *479:174 6.36715e-05
*RES
1 *1932:Q *1814:S1 14.46 
*END

*D_NET *356 0.000724614
*CONN
*I *1814:S0 I *D sky130_fd_sc_hd__mux4_1
*I *1933:Q O *D sky130_fd_sc_hd__dlxtp_1
*CAP
1 *1814:S0 0.000192649
2 *1933:Q 0.000192649
3 *1814:S1 *1814:S0 0.000339315
*RES
1 *1933:Q *1814:S0 6.41 
*END

*D_NET *357 0.00072238
*CONN
*I *1813:S0 I *D sky130_fd_sc_hd__mux4_1
*I *1934:Q O *D sky130_fd_sc_hd__dlxtp_1
*CAP
1 *1813:S0 0.000144099
2 *1934:Q 0.000144099
3 *1813:S0 *2305:A 0.000157214
4 *1813:S0 *2311:A 0.000118081
5 *1813:S0 *542:30 0.000158888
*RES
1 *1934:Q *1813:S0 10.23 
*END

*D_NET *358 0.00065062
*CONN
*I *1813:S1 I *D sky130_fd_sc_hd__mux4_1
*I *1935:Q O *D sky130_fd_sc_hd__dlxtp_1
*CAP
1 *1813:S1 0.000187286
2 *1935:Q 0.000187286
3 *1813:S1 *2313:A 5.93408e-05
4 *1813:S1 *2360:A 4.66108e-05
5 *1813:S1 *567:90 8.80742e-05
6 *710:DIODE *1813:S1 8.53113e-06
7 *234:44 *1813:S1 5.63903e-05
8 *235:45 *1813:S1 1.71013e-05
*RES
1 *1935:Q *1813:S1 10.32 
*END

*D_NET *359 0.00106645
*CONN
*I *1812:S0 I *D sky130_fd_sc_hd__mux4_1
*I *1936:Q O *D sky130_fd_sc_hd__dlxtp_1
*CAP
1 *1812:S0 0.000250427
2 *1936:Q 0.000250427
3 *1812:S0 *1812:A0 8.23457e-05
4 *1812:S0 *2001:D 8.29272e-06
5 *1812:S0 *590:112 0.000123838
6 *1812:S0 *652:181 8.26936e-05
7 *1812:S0 *654:88 5.83121e-06
8 *1812:S0 *665:18 8.73389e-06
9 *1812:S0 *677:57 9.14049e-05
10 *1812:S0 *693:82 0.000162455
*RES
1 *1936:Q *1812:S0 12.51 
*END

*D_NET *360 0.00127073
*CONN
*I *1812:S1 I *D sky130_fd_sc_hd__mux4_1
*I *1937:Q O *D sky130_fd_sc_hd__dlxtp_1
*CAP
1 *1812:S1 0.000450096
2 *1937:Q 0.000450096
3 *1812:S1 *1812:A2 1.42711e-05
4 *1812:S1 *2000:D 4.03783e-05
5 *1812:S1 *2000:GATE 1.81672e-05
6 *1812:S1 *590:112 2.64891e-05
7 *1812:S1 *634:154 2.49909e-05
8 *1812:S1 *643:116 5.43696e-05
9 *1812:S1 *665:18 6.75675e-05
10 *1812:S1 *672:124 0.000111914
11 *1812:S1 *677:42 1.2385e-05
*RES
1 *1937:Q *1812:S1 13.725 
*END

*D_NET *361 0.00133162
*CONN
*I *2060:A I *D sky130_fd_sc_hd__buf_1
*I *1814:X O *D sky130_fd_sc_hd__mux4_1
*CAP
1 *2060:A 0.000237932
2 *1814:X 0.000237932
3 *2060:A *2352:A 0.000121517
4 *2060:A *2354:A 0.000120655
5 *2060:A *483:80 9.30787e-05
6 *2060:A *514:22 0.000105973
7 *2060:A *576:42 0
8 FrameData_O[28] *2060:A 0.000414531
*RES
1 *1814:X *2060:A 13.62 
*END

*D_NET *362 0.00182611
*CONN
*I *2061:A I *D sky130_fd_sc_hd__buf_1
*I *1813:X O *D sky130_fd_sc_hd__mux4_1
*CAP
1 *2061:A 0.000733862
2 *1813:X 0.000733862
3 *2061:A *645:82 6.33103e-05
4 *1813:A2 *2061:A 1.10377e-05
5 *235:14 *2061:A 0.000158063
6 *235:21 *2061:A 5.99586e-05
7 *235:93 *2061:A 6.60149e-05
*RES
1 *1813:X *2061:A 12.065 
*END

*D_NET *363 9.47853e-05
*CONN
*I *2062:A I *D sky130_fd_sc_hd__buf_1
*I *1812:X O *D sky130_fd_sc_hd__mux4_1
*CAP
1 *2062:A 2.01587e-05
2 *1812:X 2.01587e-05
3 *2062:A *637:114 4.77719e-05
4 *2062:A *665:18 6.69608e-06
*RES
1 *1812:X *2062:A 3.65 
*END

*D_NET *364 0.000786706
*CONN
*I *2063:A I *D sky130_fd_sc_hd__clkbuf_1
*I *1811:X O *D sky130_fd_sc_hd__mux4_1
*CAP
1 *2063:A 0.000219089
2 *1811:X 0.000219089
3 *2063:A *2320:A 0.000154977
4 *2063:A *517:50 6.46059e-05
5 *1881:A1 *2063:A 4.00541e-06
6 *1881:S0 *2063:A 3.2424e-05
7 *1881:S1 *2063:A 7.23602e-05
8 *236:22 *2063:A 2.01565e-05
*RES
1 *1811:X *2063:A 10.77 
*END

*D_NET *365 0.000586577
*CONN
*I *2064:A I *D sky130_fd_sc_hd__clkbuf_1
*I *1810:X O *D sky130_fd_sc_hd__mux4_1
*CAP
1 *2064:A 0.000153545
2 *1810:X 0.000153545
3 *2064:A *695:16 1.35894e-05
4 *2064:A *702:30 0.000132115
5 *151:23 *2064:A 0.000133782
*RES
1 *1810:X *2064:A 9.975 
*END

*D_NET *366 0.000452161
*CONN
*I *2065:A I *D sky130_fd_sc_hd__buf_1
*I *1809:X O *D sky130_fd_sc_hd__mux4_1
*CAP
1 *2065:A 8.54037e-05
2 *1809:X 8.54037e-05
3 *2065:A *2010:GATE 5.81434e-06
4 *2065:A *483:90 0.00013777
5 *2065:A *576:42 0.00013777
*RES
1 *1809:X *2065:A 9.285 
*END

*D_NET *367 0.00204679
*CONN
*I *2066:A I *D sky130_fd_sc_hd__buf_1
*I *1808:X O *D sky130_fd_sc_hd__mux4_1
*CAP
1 *2066:A 0.000341123
2 *1808:X 0.000341123
3 *2066:A *1878:A0 1.64078e-05
4 *2066:A *2331:A 0.000192497
5 *2066:A *2345:A 0.000245161
6 *2066:A *480:108 9.39426e-05
7 *2066:A *502:65 0.000234181
8 *1808:S0 *2066:A 0.000106338
9 *153:129 *2066:A 0.00047602
*RES
1 *1808:X *2066:A 17.16 
*END

*D_NET *368 0.000259818
*CONN
*I *2067:A I *D sky130_fd_sc_hd__clkbuf_1
*I *1915:X O *D sky130_fd_sc_hd__mux4_1
*CAP
1 *2067:A 3.77055e-05
2 *1915:X 3.77055e-05
3 *2067:A *660:99 6.51658e-05
4 EE4BEG[5] *2067:A 0.000119242
*RES
1 *1915:X *2067:A 4.34 
*END

*D_NET *369 0.00379468
*CONN
*I *2068:A I *D sky130_fd_sc_hd__buf_1
*I *1914:X O *D sky130_fd_sc_hd__mux4_1
*CAP
1 *2068:A 0.000899345
2 *1914:X 0.000899345
3 *2068:A *737:DIODE 0.00026102
4 *2068:A *1814:A2 2.95848e-05
5 *2068:A *1949:D 0.000646799
6 *2068:A *2013:GATE 7.09866e-05
7 *2068:A *2105:A 4.77757e-05
8 *2068:A *2291:A 4.89295e-05
9 *2068:A *2332:A 7.58604e-05
10 *2068:A *2334:A 0.000229396
11 *2068:A *553:28 5.47121e-05
12 *2068:A *568:188 0.000188936
13 *2068:A *650:254 8.23457e-05
14 *2068:A *691:72 0.000185238
15 *2068:A *704:110 1.71207e-05
16 *2068:A *708:113 3.59531e-06
17 FrameData_O[12] *2068:A 4.30166e-05
18 *1882:S0 *2068:A 1.06688e-05
*RES
1 *1914:X *2068:A 25.08 
*END

*D_NET *370 0.000716412
*CONN
*I *2069:A I *D sky130_fd_sc_hd__clkbuf_1
*I *1913:X O *D sky130_fd_sc_hd__mux4_1
*CAP
1 *2069:A 0.000115181
2 *1913:X 0.000115181
3 *2069:A *644:24 0.000115184
4 *2069:A *689:24 0.000190712
5 *1913:S1 *2069:A 6.33103e-05
6 *143:47 *2069:A 0.000116844
*RES
1 *1913:X *2069:A 10.41 
*END

*D_NET *371 0.000968673
*CONN
*I *2070:A I *D sky130_fd_sc_hd__clkbuf_1
*I *1912:X O *D sky130_fd_sc_hd__mux4_1
*CAP
1 *2070:A 0.000164974
2 *1912:X 0.000164974
3 *2070:A *618:40 5.53549e-06
4 *2070:A *643:50 0.000282388
5 *2070:A *706:38 8.23457e-05
6 *159:77 *2070:A 0.000268457
*RES
1 *1912:X *2070:A 11.415 
*END

*D_NET *372 0.00166389
*CONN
*I *2071:A I *D sky130_fd_sc_hd__clkbuf_1
*I *1911:X O *D sky130_fd_sc_hd__mux4_1
*CAP
1 *2071:A 0.00044472
2 *1911:X 0.00044472
3 *2071:A *1903:A2 8.72102e-05
4 *2071:A *2079:A 0.000133771
5 *2071:A *2294:A 0.00022707
6 *2071:A *686:46 0.000130119
7 *2071:A *688:30 4.11718e-05
8 *2243:A *2071:A 2.49909e-05
9 *147:75 *2071:A 0.000130119
*RES
1 *1911:X *2071:A 14.925 
*END

*D_NET *373 9.88592e-05
*CONN
*I *2072:A I *D sky130_fd_sc_hd__clkbuf_1
*I *1910:X O *D sky130_fd_sc_hd__mux4_1
*CAP
1 *2072:A 2.61242e-05
2 *1910:X 2.61242e-05
3 *2072:A *1910:A2 4.66108e-05
*RES
1 *1910:X *2072:A 3.65 
*END

*D_NET *374 0.001098
*CONN
*I *2073:A I *D sky130_fd_sc_hd__buf_1
*I *1909:X O *D sky130_fd_sc_hd__mux4_1
*CAP
1 *2073:A 0.000355009
2 *1909:X 0.000355009
3 *2073:A *1883:A0 2.49909e-05
4 *2073:A *2126:A 0.000135533
5 *2073:A *704:119 6.83659e-05
6 *1883:S0 *2073:A 6.58423e-05
7 *150:87 *2073:A 1.86036e-05
8 *151:85 *2073:A 7.46509e-05
*RES
1 *1909:X *2073:A 12.39 
*END

*D_NET *375 0.000848209
*CONN
*I *2074:A I *D sky130_fd_sc_hd__buf_1
*I *1908:X O *D sky130_fd_sc_hd__mux4_1
*CAP
1 *2074:A 0.000244605
2 *1908:X 0.000244605
3 *2074:A *1908:A2 8.53224e-05
4 *2074:A *677:26 6.3124e-06
5 *1908:S1 *2074:A 0.000134297
6 *143:117 *2074:A 0.000133067
*RES
1 *1908:X *2074:A 11.01 
*END

*D_NET *376 0.000286312
*CONN
*I *2075:A I *D sky130_fd_sc_hd__clkbuf_1
*I *1907:X O *D sky130_fd_sc_hd__mux4_1
*CAP
1 *2075:A 3.1521e-05
2 *1907:X 3.1521e-05
3 *2075:A *481:88 2.01504e-05
4 *2075:A *516:54 0.000119609
5 EE4BEG[4] *2075:A 8.35106e-05
*RES
1 *1907:X *2075:A 4.34 
*END

*D_NET *377 0.000680756
*CONN
*I *2076:A I *D sky130_fd_sc_hd__buf_1
*I *1906:X O *D sky130_fd_sc_hd__mux4_1
*CAP
1 *2076:A 0.000238523
2 *1906:X 0.000238523
3 *2076:A *2336:A 6.3124e-06
4 *2076:A *593:118 6.20406e-05
5 *2076:A *669:53 0.000107721
6 *1906:S1 *2076:A 2.76356e-05
*RES
1 *1906:X *2076:A 10.41 
*END

*D_NET *378 0.0012728
*CONN
*I *2077:A I *D sky130_fd_sc_hd__clkbuf_1
*I *1905:X O *D sky130_fd_sc_hd__mux4_1
*CAP
1 *2077:A 0.000380388
2 *1905:X 0.000380388
3 *2077:A *1905:A2 0.000106259
4 *2077:A *2287:A 0.000285973
5 *2077:A *704:70 9.14872e-05
6 *2247:A *2077:A 2.83031e-05
*RES
1 *1905:X *2077:A 13.485 
*END

*D_NET *379 0.000615852
*CONN
*I *2078:A I *D sky130_fd_sc_hd__buf_1
*I *1904:X O *D sky130_fd_sc_hd__mux4_1
*CAP
1 *2078:A 0.000113558
2 *1904:X 0.000113558
3 *2078:A *2169:A 4.66108e-05
4 *2078:A *626:126 0.000262805
5 *2078:A *667:8 4.60061e-05
6 *2078:A *689:24 3.3314e-05
*RES
1 *1904:X *2078:A 6.08 
*END

*D_NET *380 0.00257426
*CONN
*I *2079:A I *D sky130_fd_sc_hd__clkbuf_1
*I *1903:X O *D sky130_fd_sc_hd__mux4_1
*CAP
1 *2079:A 0.000793537
2 *1903:X 0.000793537
3 *2079:A *1879:A2 2.76356e-05
4 *2079:A *1903:A2 2.68464e-05
5 *2079:A *2292:A 0.00014704
6 *2079:A *524:142 0.000295005
7 *2079:A *594:48 1.1254e-05
8 *2079:A *671:113 1.79483e-05
9 *2079:A *685:30 9.43585e-05
10 *2079:A *690:65 2.10433e-05
11 *2079:A *707:83 5.84716e-05
12 E1BEG[2] *2079:A 0
13 *2071:A *2079:A 0.000133771
14 *2243:A *2079:A 0.000153816
*RES
1 *1903:X *2079:A 15.8033 
*END

*D_NET *381 0.000639379
*CONN
*I *2080:A I *D sky130_fd_sc_hd__buf_1
*I *1886:X O *D sky130_fd_sc_hd__mux4_1
*CAP
1 *2080:A 0.000290652
2 *1886:X 0.000290652
3 *2080:A *1894:A3 0
4 *2080:A *2335:A 0
5 *2080:A *483:80 8.53113e-06
6 *2080:A *536:26 4.95436e-05
7 *147:101 *2080:A 0
*RES
1 *1886:X *2080:A 12.015 
*END

*D_NET *382 0.00177828
*CONN
*I *2081:A I *D sky130_fd_sc_hd__clkbuf_1
*I *1885:X O *D sky130_fd_sc_hd__mux4_1
*CAP
1 *2081:A 0.0002982
2 *1885:X 0.0002982
3 *2081:A *1900:A1 5.76167e-05
4 *2081:A *593:118 0.000463765
5 *2081:A *673:48 4.66108e-05
6 *2081:A *691:88 1.8325e-05
7 *2081:A *708:113 0
8 *1885:S1 *2081:A 4.77757e-05
9 *1900:S1 *2081:A 8.23457e-05
10 *145:83 *2081:A 0.000465438
*RES
1 *1885:X *2081:A 15.555 
*END

*D_NET *383 0.00081422
*CONN
*I *2090:A I *D sky130_fd_sc_hd__buf_1
*I *1876:X O *D sky130_fd_sc_hd__mux4_1
*CAP
1 *2090:A 0.000279904
2 *1876:X 0.000279904
3 *2090:A *2027:GATE 5.83121e-06
4 *2090:A *624:82 0.000130386
5 *2090:A *643:79 6.55079e-05
6 *2090:A *675:192 5.26865e-05
*RES
1 *1876:X *2090:A 11.01 
*END

*D_NET *384 0.000416056
*CONN
*I *2091:A I *D sky130_fd_sc_hd__clkbuf_1
*I *1875:X O *D sky130_fd_sc_hd__mux4_1
*CAP
1 *2091:A 0.000103923
2 *1875:X 0.000103923
3 *2091:A *517:50 7.3664e-05
4 *2091:A *685:49 0.000134546
5 *2091:A *690:65 0
*RES
1 *1875:X *2091:A 9.285 
*END

*D_NET *385 0.000679487
*CONN
*I *2082:A I *D sky130_fd_sc_hd__clkbuf_1
*I *1884:X O *D sky130_fd_sc_hd__mux4_1
*CAP
1 *2082:A 0.000176186
2 *1884:X 0.000176186
3 *2082:A *2307:A 9.25457e-05
4 *1877:S0 *2082:A 9.47267e-06
5 *1877:S1 *2082:A 3.69837e-05
6 *143:109 *2082:A 5.0887e-05
7 *150:57 *2082:A 6.72143e-05
8 *181:56 *2082:A 7.00115e-05
*RES
1 *1884:X *2082:A 10.725 
*END

*D_NET *386 0.000565774
*CONN
*I *2083:A I *D sky130_fd_sc_hd__buf_1
*I *1883:X O *D sky130_fd_sc_hd__mux4_1
*CAP
1 *2083:A 0.000226592
2 *1883:X 0.000226592
3 *2083:A *2308:A 0
4 *710:DIODE *2083:A 3.6218e-05
5 *713:DIODE *2083:A 4.88478e-05
6 *2155:A *2083:A 0
7 *147:105 *2083:A 2.75229e-05
*RES
1 *1883:X *2083:A 10.755 
*END

*D_NET *387 0.00182958
*CONN
*I *2084:A I *D sky130_fd_sc_hd__clkbuf_1
*I *1882:X O *D sky130_fd_sc_hd__mux4_1
*CAP
1 *2084:A 0.000695835
2 *1882:X 0.000695835
3 *2084:A *1882:A1 6.33103e-05
4 *2084:A *1882:A2 1.54111e-05
5 *2084:A *2334:A 0.000144997
6 *2084:A *2354:A 2.0458e-05
7 *2084:A *542:30 1.19928e-05
8 *1882:S0 *2084:A 0.000110882
9 *1883:A3 *2084:A 7.0862e-05
*RES
1 *1882:X *2084:A 16.215 
*END

*D_NET *388 0.000257278
*CONN
*I *2085:A I *D sky130_fd_sc_hd__clkbuf_1
*I *1881:X O *D sky130_fd_sc_hd__mux4_1
*CAP
1 *2085:A 3.57122e-05
2 *1881:X 3.57122e-05
3 *2085:A *2305:A 0.000119691
4 *2085:A *514:94 6.61627e-05
*RES
1 *1881:X *2085:A 4.34 
*END

*D_NET *389 0.00103784
*CONN
*I *2086:A I *D sky130_fd_sc_hd__buf_1
*I *1880:X O *D sky130_fd_sc_hd__mux4_1
*CAP
1 *2086:A 0.000293923
2 *1880:X 0.000293923
3 *2086:A *1880:A2 6.33103e-05
4 *2086:A *1955:D 8.41307e-05
5 *2086:A *544:46 8.52883e-05
6 *2086:A *643:50 6.95331e-05
7 *2086:A *668:95 3.77437e-05
8 *2086:A *705:49 4.66108e-05
9 *1880:S1 *2086:A 6.3379e-05
*RES
1 *1880:X *2086:A 12.015 
*END

*D_NET *390 0.000604962
*CONN
*I *2087:A I *D sky130_fd_sc_hd__clkbuf_1
*I *1879:X O *D sky130_fd_sc_hd__mux4_1
*CAP
1 *2087:A 0.000202948
2 *1879:X 0.000202948
3 *2087:A *1884:A0 0.000109962
4 *2087:A *659:116 1.90818e-05
5 *143:47 *2087:A 7.00225e-05
*RES
1 *1879:X *2087:A 10.065 
*END

*D_NET *391 0.000847905
*CONN
*I *2088:A I *D sky130_fd_sc_hd__clkbuf_1
*I *1878:X O *D sky130_fd_sc_hd__mux4_1
*CAP
1 *2088:A 0.000121561
2 *1878:X 0.000121561
3 *2088:A *2006:D 2.49909e-05
4 *2088:A *693:142 0.000289896
5 *143:117 *2088:A 0.000289896
*RES
1 *1878:X *2088:A 11.07 
*END

*D_NET *392 0.00273297
*CONN
*I *2089:A I *D sky130_fd_sc_hd__clkbuf_1
*I *1877:X O *D sky130_fd_sc_hd__mux4_1
*CAP
1 *2089:A 0.000728344
2 *1877:X 0.000728344
3 *2089:A *733:DIODE 6.59891e-05
4 *2089:A *1947:D 2.42043e-05
5 *2089:A *2316:A 0.000266072
6 *2089:A *597:60 0.00017908
7 *2089:A *667:74 0.000114955
8 *2089:A *667:87 3.52425e-05
9 *2089:A *675:174 8.36335e-05
10 *1877:S0 *2089:A 0.000222736
11 *1915:S1 *2089:A 0.000179035
12 *143:109 *2089:A 2.20014e-05
13 *144:111 *2089:A 8.33341e-05
*RES
1 *1877:X *2089:A 24.085 
*END

*D_NET *393 0.00220119
*CONN
*I *2092:A I *D sky130_fd_sc_hd__clkbuf_1
*I *1902:X O *D sky130_fd_sc_hd__mux4_1
*CAP
1 *2092:A 0.000487987
2 *1902:X 0.000487987
3 *2092:A *2290:A 0.000281541
4 *2092:A *2298:A 0.000281541
5 *2092:A *2299:A 0.000157452
6 *2092:A *2300:A 4.66108e-05
7 *2092:A *481:88 5.83121e-06
8 *2092:A *653:172 1.16854e-05
9 E2BEGb[2] *2092:A 0.000235401
10 E2BEGb[4] *2092:A 0.00012165
11 *234:94 *2092:A 8.35068e-05
*RES
1 *1902:X *2092:A 18.12 
*END

*D_NET *394 0.000408236
*CONN
*I *2093:A I *D sky130_fd_sc_hd__buf_1
*I *1901:X O *D sky130_fd_sc_hd__mux4_1
*CAP
1 *2093:A 0.000146918
2 *1901:X 0.000146918
3 *2093:A *2100:A 4.18603e-06
4 *2093:A *2377:A 0
5 *2093:A *2382:A 7.06865e-05
6 *2093:A *556:22 3.95269e-05
*RES
1 *1901:X *2093:A 9.63 
*END

*D_NET *395 0.00291136
*CONN
*I *2102:A I *D sky130_fd_sc_hd__clkbuf_1
*I *1892:X O *D sky130_fd_sc_hd__mux4_1
*CAP
1 *2102:A 0.000724706
2 *1892:X 0.000724706
3 *2102:A *2027:D 3.69766e-05
4 *2102:A *533:44 4.66108e-05
5 *2102:A *593:94 0.00038493
6 *2102:A *596:140 6.90795e-05
7 *2102:A *634:78 0.000212334
8 *2102:A *668:81 3.86479e-05
9 *2102:A *671:111 9.02064e-05
10 *1892:S0 *2102:A 4.66108e-05
11 *143:109 *2102:A 5.83121e-06
12 *150:57 *2102:A 1.7635e-05
13 *159:77 *2102:A 0.000492528
14 *181:56 *2102:A 2.05571e-05
*RES
1 *1892:X *2102:A 13.7385 
*END

*D_NET *396 0.00179163
*CONN
*I *2103:A I *D sky130_fd_sc_hd__buf_1
*I *1891:X O *D sky130_fd_sc_hd__mux4_1
*CAP
1 *2103:A 0.000417254
2 *1891:X 0.000417254
3 *2103:A *1809:A1 7.00889e-06
4 *2103:A *2100:A 1.73877e-05
5 *2103:A *2317:A 0.000139858
6 *2103:A *2377:A 0.000453741
7 *743:DIODE *2103:A 1.03368e-05
8 *1909:S0 *2103:A 0.000139238
9 *159:101 *2103:A 0.00018955
*RES
1 *1891:X *2103:A 15.525 
*END

*D_NET *397 7.39567e-05
*CONN
*I *2104:A I *D sky130_fd_sc_hd__buf_1
*I *1890:X O *D sky130_fd_sc_hd__mux4_1
*CAP
1 *2104:A 2.32169e-05
2 *1890:X 2.32169e-05
3 *2104:A *2334:A 2.75229e-05
*RES
1 *1890:X *2104:A 3.65 
*END

*D_NET *398 0.0037101
*CONN
*I *2105:A I *D sky130_fd_sc_hd__clkbuf_1
*I *1889:X O *D sky130_fd_sc_hd__mux4_1
*CAP
1 *2105:A 0.000841059
2 *1889:X 0.000841059
3 *2105:A *2057:CLK 1.56428e-05
4 *2105:A *2095:A 0.00010163
5 *2105:A *2162:A 4.60061e-05
6 *2105:A *2313:A 6.94437e-05
7 *2105:A *2330:A 0.000503798
8 *2105:A *478:6 9.41067e-05
9 *2105:A *553:28 0.000465076
10 *2105:A *634:176 6.61627e-05
11 *2105:A *635:102 0
12 *2068:A *2105:A 4.77757e-05
13 *145:83 *2105:A 0.000308335
14 *150:77 *2105:A 0.000310001
*RES
1 *1889:X *2105:A 28.75 
*END

*D_NET *399 0.000411226
*CONN
*I *2106:A I *D sky130_fd_sc_hd__clkbuf_1
*I *1888:X O *D sky130_fd_sc_hd__mux4_1
*CAP
1 *2106:A 5.67609e-05
2 *1888:X 5.67609e-05
3 *2106:A *516:54 0.000112893
4 *2106:A *708:84 0.00011321
5 *235:113 *2106:A 2.49909e-05
6 *236:22 *2106:A 4.66108e-05
*RES
1 *1888:X *2106:A 9.03 
*END

*D_NET *400 0.00299734
*CONN
*I *2107:A I *D sky130_fd_sc_hd__clkbuf_1
*I *1887:X O *D sky130_fd_sc_hd__mux4_1
*CAP
1 *2107:A 0.000765444
2 *1887:X 0.000765444
3 *2107:A *2289:A 4.66108e-05
4 *2107:A *2290:A 0.000140579
5 *2107:A *2291:A 2.67422e-05
6 *2107:A *2302:A 9.98756e-05
7 *2107:A *481:88 5.04735e-05
8 *2107:A *517:50 0.000160588
9 *2107:A *645:64 0.000208441
10 *2107:A *647:244 6.33103e-05
11 *2107:A *650:236 4.17092e-05
12 *2107:A *659:175 2.68526e-05
13 *2107:A *691:16 0.000140579
14 *2107:A *698:129 3.09423e-06
15 *2107:A *702:30 0.00015826
16 E2BEG[5] *2107:A 2.22315e-05
17 E2BEG[6] *2107:A 0.000265113
18 *236:93 *2107:A 1.19928e-05
*RES
1 *1887:X *2107:A 14.8853 
*END

*D_NET *401 8.86884e-05
*CONN
*I *2094:A I *D sky130_fd_sc_hd__buf_1
*I *1900:X O *D sky130_fd_sc_hd__mux4_1
*CAP
1 *2094:A 1.93533e-05
2 *1900:X 1.93533e-05
3 *2094:A *1900:A1 2.49909e-05
4 *1900:S1 *2094:A 2.49909e-05
*RES
1 *1900:X *2094:A 3.65 
*END

*D_NET *402 0.000729817
*CONN
*I *2095:A I *D sky130_fd_sc_hd__clkbuf_1
*I *1899:X O *D sky130_fd_sc_hd__mux4_1
*CAP
1 *2095:A 0.000105682
2 *1899:X 0.000105682
3 *2095:A *2313:A 0.000190712
4 *2095:A *645:82 0.000113221
5 FrameData_O[7] *2095:A 0.000112892
6 *2105:A *2095:A 0.00010163
*RES
1 *1899:X *2095:A 10.41 
*END

*D_NET *403 0.000925354
*CONN
*I *2096:A I *D sky130_fd_sc_hd__buf_1
*I *1898:X O *D sky130_fd_sc_hd__mux4_1
*CAP
1 *2096:A 0.000360117
2 *1898:X 0.000360117
3 *2096:A *727:DIODE 8.53113e-06
4 *2096:A *1898:A2 1.54111e-05
5 *2096:A *648:16 6.10863e-05
6 *2096:A *653:38 0.000118513
7 *2096:A *656:52 1.5781e-06
*RES
1 *1898:X *2096:A 11.79 
*END

*D_NET *404 0.0012144
*CONN
*I *2097:A I *D sky130_fd_sc_hd__buf_1
*I *1897:X O *D sky130_fd_sc_hd__mux4_1
*CAP
1 *2097:A 0.000354995
2 *1897:X 0.000354995
3 *2097:A *653:32 0
4 *2097:A *655:14 0.000285654
5 *2097:A *657:44 0.000161777
6 *1897:S1 *2097:A 5.69803e-05
*RES
1 *1897:X *2097:A 13.395 
*END

*D_NET *405 0.000538005
*CONN
*I *2098:A I *D sky130_fd_sc_hd__clkbuf_1
*I *1896:X O *D sky130_fd_sc_hd__mux4_1
*CAP
1 *2098:A 0.000114251
2 *1896:X 0.000114251
3 *2098:A *2330:A 0.000160935
4 *2098:A *596:140 1.31297e-05
5 *2098:A *676:48 0.000135439
*RES
1 *1896:X *2098:A 9.63 
*END

*D_NET *406 0.000104608
*CONN
*I *2099:A I *D sky130_fd_sc_hd__clkbuf_1
*I *1895:X O *D sky130_fd_sc_hd__mux4_1
*CAP
1 *2099:A 1.65033e-05
2 *1895:X 1.65033e-05
3 *2099:A *1895:A2 4.66108e-05
4 *2099:A *2328:A 2.49909e-05
*RES
1 *1895:X *2099:A 3.65 
*END

*D_NET *407 0.000783217
*CONN
*I *2100:A I *D sky130_fd_sc_hd__buf_1
*I *1894:X O *D sky130_fd_sc_hd__mux4_1
*CAP
1 *2100:A 0.00029431
2 *1894:X 0.00029431
3 *2100:A *2317:A 7.23602e-05
4 *2100:A *2381:A 2.8185e-05
5 *2100:A *556:22 0
6 *725:DIODE *2100:A 5.83121e-06
7 *1894:S0 *2100:A 1.83538e-05
8 *1901:S1 *2100:A 4.82919e-05
9 *2093:A *2100:A 4.18603e-06
10 *2103:A *2100:A 1.73877e-05
11 *148:111 *2100:A 0
*RES
1 *1894:X *2100:A 11.565 
*END

*D_NET *408 0.000856233
*CONN
*I *2101:A I *D sky130_fd_sc_hd__buf_1
*I *1893:X O *D sky130_fd_sc_hd__mux4_1
*CAP
1 *2101:A 0.000272394
2 *1893:X 0.000272394
3 *2101:A *1809:A0 0.000108669
4 *2101:A *635:112 0.000108669
5 *1893:S1 *2101:A 9.41067e-05
*RES
1 *1893:X *2101:A 11.1 
*END

*D_NET *409 0.0188294
*CONN
*I *2162:A I *D sky130_fd_sc_hd__clkbuf_16
*I *2166:X O *D sky130_fd_sc_hd__clkbuf_16
*CAP
1 *2162:A 0.00116002
2 *2166:X 0.00200438
3 *409:32 0.0031644
4 *2162:A *732:DIODE 8.96103e-05
5 *2162:A *733:DIODE 5.02814e-06
6 *2162:A *2307:A 0.000197573
7 *2162:A *2313:A 0.000334805
8 *2162:A *2360:A 0.000815699
9 *2162:A *516:54 0.000512054
10 *2162:A *520:56 3.96153e-05
11 *2162:A *677:26 0.000138606
12 *2162:A *708:84 0.000148556
13 *409:32 *733:DIODE 0.00115778
14 *409:32 *2326:A 7.8632e-06
15 *409:32 *479:46 4.8632e-05
16 *409:32 *479:130 5.75683e-05
17 *409:32 *482:30 0.000532948
18 *409:32 *483:80 2.22315e-05
19 *409:32 *567:90 0.000380997
20 *409:32 *569:58 8.99412e-05
21 *409:32 *579:52 1.46319e-05
22 *409:32 *591:102 7.83962e-05
23 *409:32 *591:126 8.53113e-06
24 *409:32 *596:140 7.8632e-05
25 *409:32 *618:112 7.56727e-05
26 *409:32 *631:112 6.52988e-05
27 *409:32 *634:78 0.000284039
28 *409:32 *642:38 0.000106911
29 *409:32 *642:55 0.000336204
30 *409:32 *642:106 0.000598116
31 *409:32 *652:139 0.000296364
32 *409:32 *662:142 0.000209913
33 *409:32 *667:64 3.24984e-05
34 *409:32 *668:95 0.000782658
35 *409:32 *668:107 0.000309429
36 *409:32 *668:109 0.000464115
37 *409:32 *673:124 4.64853e-05
38 *409:32 *701:52 0.000892436
39 *409:32 *705:10 4.87234e-06
40 *409:32 *705:49 0.000355595
41 *1875:S1 *409:32 1.19128e-05
42 *2105:A *2162:A 4.60061e-05
43 *143:47 *409:32 7.8632e-06
44 *144:111 *2162:A 0.000221738
45 *145:83 *2162:A 0.000516494
46 *150:57 *2162:A 0.00185246
47 *150:57 *409:32 0.000118136
48 *159:77 *409:32 0.000105649
*RES
1 *2166:X *409:32 34.0131 
2 *409:32 *2162:A 37.4175 
*END

*D_NET *410 0.000887566
*CONN
*I *1817:A1 I *D sky130_fd_sc_hd__a211oi_1
*I *1796:Y O *D sky130_fd_sc_hd__inv_1
*CAP
1 *1817:A1 0.00020156
2 *1796:Y 0.00020156
3 *1817:A1 *1817:A2 0.000365939
4 *1817:A1 *650:76 6.83488e-05
5 *1817:C1 *1817:A1 2.98807e-05
6 *160:25 *1817:A1 1.15436e-05
7 *239:24 *1817:A1 8.73389e-06
*RES
1 *1796:Y *1817:A1 11.3025 
*END

*D_NET *411 0.000575644
*CONN
*I *1824:A1 I *D sky130_fd_sc_hd__a211oi_1
*I *1797:Y O *D sky130_fd_sc_hd__inv_1
*CAP
1 *1824:A1 0.000196293
2 *1797:Y 0.000196293
3 *1824:A1 *658:133 0
4 *1797:A *1824:A1 4.32329e-05
5 *245:59 *1824:A1 0.000139825
*RES
1 *1797:Y *1824:A1 6.0125 
*END

*D_NET *412 0.000560898
*CONN
*I *1831:A1 I *D sky130_fd_sc_hd__a211oi_1
*I *1798:Y O *D sky130_fd_sc_hd__inv_1
*CAP
1 *1831:A1 0.000280449
2 *1798:Y 0.000280449
3 *143:9 *1831:A1 0
4 *146:67 *1831:A1 0
*RES
1 *1798:Y *1831:A1 10.4175 
*END

*D_NET *413 0.00158337
*CONN
*I *1838:A1 I *D sky130_fd_sc_hd__a211oi_1
*I *1799:Y O *D sky130_fd_sc_hd__inv_1
*CAP
1 *1838:A1 0.000214907
2 *1799:Y 0.000214907
3 *1838:A1 *1838:A2 0.000245206
4 *1838:A1 *1838:B1 3.13459e-05
5 *1838:A1 *2167:A 1.54111e-05
6 *1838:A1 *626:126 2.73118e-05
7 *1838:A1 *662:140 0.000116165
8 *1799:A *1838:A1 6.95739e-05
9 *1839:B *1838:A1 0.000112123
10 *154:41 *1838:A1 0.000289135
11 *262:28 *1838:A1 0.00024728
*RES
1 *1799:Y *1838:A1 14.4675 
*END

*D_NET *414 0.000161198
*CONN
*I *1846:A1 I *D sky130_fd_sc_hd__o21a_1
*I *1800:Y O *D sky130_fd_sc_hd__inv_1
*CAP
1 *1846:A1 1.4169e-05
2 *1800:Y 1.4169e-05
3 *1846:A1 *652:44 6.64299e-05
4 *257:14 *1846:A1 6.64299e-05
*RES
1 *1800:Y *1846:A1 3.8225 
*END

*D_NET *415 0.000624557
*CONN
*I *1850:B2 I *D sky130_fd_sc_hd__a22o_1
*I *1801:Y O *D sky130_fd_sc_hd__inv_1
*CAP
1 *1850:B2 0.000135758
2 *1801:Y 0.000135758
3 *1850:B2 *1843:A1 0.000283513
4 *1850:B2 *1850:B1 4.41506e-05
5 *1850:B2 *2277:A 2.53771e-05
*RES
1 *1801:Y *1850:B2 6.2525 
*END

*D_NET *416 0.00116841
*CONN
*I *1854:A1 I *D sky130_fd_sc_hd__o21a_1
*I *1857:S I *D sky130_fd_sc_hd__mux2_1
*I *1802:Y O *D sky130_fd_sc_hd__inv_2
*CAP
1 *1854:A1 0.000138769
2 *1857:S 0
3 *1802:Y 0.000202483
4 *416:14 0.000341252
5 *1854:A1 *1857:A0 2.30292e-05
6 *1854:A1 *1857:A1 0.000161984
7 *1854:A1 *1858:B1 1.83756e-05
8 *1854:A1 *487:32 5.83121e-06
9 *416:14 *1858:B1 0
10 *416:14 *487:32 0
11 *1851:S1 *416:14 0
12 *1852:A *416:14 0.00011178
13 *147:27 *416:14 0.00016491
*RES
1 *1802:Y *416:14 9.83 
2 *416:14 *1857:S 1.6 
3 *416:14 *1854:A1 4.48 
*END

*D_NET *417 0.000481521
*CONN
*I *1858:B2 I *D sky130_fd_sc_hd__a22o_1
*I *1803:Y O *D sky130_fd_sc_hd__inv_2
*CAP
1 *1858:B2 0.000176546
2 *1803:Y 0.000176546
3 *1858:B2 *1858:A1 2.50123e-05
4 *147:27 *1858:B2 5.39718e-05
5 *250:10 *1858:B2 4.94457e-05
*RES
1 *1803:Y *1858:B2 10.185 
*END

*D_NET *418 0.00286904
*CONN
*I *1862:A1 I *D sky130_fd_sc_hd__o21a_1
*I *1804:Y O *D sky130_fd_sc_hd__inv_1
*CAP
1 *1862:A1 0.000698955
2 *1804:Y 0.000698955
3 *1862:A1 *1860:B 0.000283303
4 *1862:A1 *1865:A1 0.000171578
5 *1862:A1 *1866:A1 4.11718e-05
6 *1862:A1 *1866:A2 4.56749e-05
7 *1862:A1 *1866:B2 2.68496e-05
8 *1862:A1 *481:30 0.000110557
9 *1862:A1 *637:67 5.86847e-05
10 *1862:A1 *647:123 2.42901e-05
11 *1804:A *1862:A1 2.32514e-05
12 *1860:A *1862:A1 0.000160314
13 *2264:A *1862:A1 0.000253363
14 *2265:A *1862:A1 0.000207555
15 *2270:A *1862:A1 6.45348e-05
*RES
1 *1804:Y *1862:A1 22.6725 
*END

*D_NET *419 0.0027567
*CONN
*I *1866:B2 I *D sky130_fd_sc_hd__a22o_1
*I *1805:Y O *D sky130_fd_sc_hd__inv_2
*CAP
1 *1866:B2 0.000877947
2 *1805:Y 0.000877947
3 *1866:B2 *1860:B 0.000186183
4 *1866:B2 *1865:A1 0
5 *1866:B2 *1866:B1 0.000132275
6 *1866:B2 *647:133 0.000161813
7 *1866:B2 *650:164 0.000414375
8 *1866:B2 *708:22 3.1562e-06
9 *1804:A *1866:B2 1.93087e-05
10 *1862:A1 *1866:B2 2.68496e-05
11 *2254:A *1866:B2 3.79595e-05
12 *2266:A *1866:B2 1.88904e-05
13 *242:14 *1866:B2 0
*RES
1 *1805:Y *1866:B2 20.475 
*END

*D_NET *420 0.00145992
*CONN
*I *1870:A1 I *D sky130_fd_sc_hd__o21a_1
*I *1806:Y O *D sky130_fd_sc_hd__inv_1
*CAP
1 *1870:A1 0.000433723
2 *1806:Y 0.000433723
3 *1870:A1 *1857:A1 0
4 *1870:A1 *1874:A1 9.58678e-06
5 *1870:A1 *1874:A2 8.18163e-05
6 *1870:A1 *1874:B1 4.94474e-05
7 *1870:A1 *1874:B2 7.4027e-05
8 *1870:A1 *487:32 0
9 *1870:A1 *642:38 1.92979e-05
10 *1870:A1 *647:28 0
11 *1870:B1 *1870:A1 2.26024e-05
12 *147:27 *1870:A1 0.000326925
13 *149:23 *1870:A1 8.77495e-06
*RES
1 *1806:Y *1870:A1 15.3225 
*END

*D_NET *421 0.000249355
*CONN
*I *1874:B2 I *D sky130_fd_sc_hd__a22o_1
*I *1807:Y O *D sky130_fd_sc_hd__inv_2
*CAP
1 *1874:B2 4.42264e-05
2 *1807:Y 4.42264e-05
3 *1874:B2 *1874:A1 1.09366e-05
4 *1874:B2 *1874:B1 8.53113e-06
5 *1870:A1 *1874:B2 7.4027e-05
6 *149:23 *1874:B2 6.74079e-05
*RES
1 *1807:Y *1874:B2 8.58 
*END

*D_NET *422 0.00130496
*CONN
*I *1817:A2 I *D sky130_fd_sc_hd__a211oi_1
*I *1815:X O *D sky130_fd_sc_hd__mux2_1
*CAP
1 *1817:A2 0.000269788
2 *1815:X 0.000269788
3 *1817:A2 *650:76 1.74629e-05
4 *1796:A *1817:A2 9.20563e-05
5 *1817:A1 *1817:A2 0.000365939
6 *159:39 *1817:A2 0.000170166
7 *239:43 *1817:A2 0.000119762
*RES
1 *1815:X *1817:A2 12.7725 
*END

*D_NET *423 0.000341425
*CONN
*I *1817:B1 I *D sky130_fd_sc_hd__a211oi_1
*I *1816:X O *D sky130_fd_sc_hd__and3b_1
*CAP
1 *1817:B1 0.000137051
2 *1816:X 0.000137051
3 *1817:B1 *650:59 2.49909e-05
4 *1817:B1 *650:76 1.48096e-05
5 *1817:C1 *1817:B1 2.75229e-05
*RES
1 *1816:X *1817:B1 5.405 
*END

*D_NET *424 0.00197465
*CONN
*I *1821:B1 I *D sky130_fd_sc_hd__a41o_1
*I *1817:Y O *D sky130_fd_sc_hd__a211oi_1
*CAP
1 *1821:B1 0.000361613
2 *1817:Y 0.000361613
3 *1821:B1 *1815:A0 0.000175734
4 *1821:B1 *1819:A2 0.000102144
5 *1821:B1 *1821:A2 0.00048427
6 *1821:B1 *1821:A3 1.08758e-05
7 *1821:B1 *1821:A4 9.50342e-06
8 *1821:B1 *2183:A 1.44809e-05
9 *1821:B1 *2272:A 6.98926e-05
10 *1821:B1 *582:20 4.17687e-05
11 *1819:B1 *1821:B1 1.76403e-05
12 *1821:A1 *1821:B1 4.66108e-05
13 *160:25 *1821:B1 0.000268188
14 *181:21 *1821:B1 1.03191e-05
*RES
1 *1817:Y *1821:B1 14.3874 
*END

*D_NET *425 0.00140402
*CONN
*I *1821:A2 I *D sky130_fd_sc_hd__a41o_1
*I *1818:X O *D sky130_fd_sc_hd__or3b_1
*CAP
1 *1821:A2 0.000276315
2 *1818:X 0.000276315
3 *1821:A2 *1815:A0 2.02787e-05
4 *1821:A2 *1821:A3 4.82919e-05
5 *1821:A2 *2183:A 1.7635e-05
6 *1821:A2 *2272:A 0.000140754
7 *1821:A2 *582:20 9.82856e-06
8 *1821:B1 *1821:A2 0.00048427
9 *181:21 *1821:A2 0.000130337
*RES
1 *1818:X *1821:A2 11.5524 
*END

*D_NET *426 0.000164099
*CONN
*I *1821:A3 I *D sky130_fd_sc_hd__a41o_1
*I *1819:Y O *D sky130_fd_sc_hd__o21ai_1
*CAP
1 *1821:A3 3.88237e-05
2 *1819:Y 3.88237e-05
3 *1821:A3 *1819:A2 1.6408e-05
4 *1819:B1 *1821:A3 1.08758e-05
5 *1821:A2 *1821:A3 4.82919e-05
6 *1821:B1 *1821:A3 1.08758e-05
*RES
1 *1819:Y *1821:A3 3.995 
*END

*D_NET *427 0.00131078
*CONN
*I *1821:A4 I *D sky130_fd_sc_hd__a41o_1
*I *1820:Y O *D sky130_fd_sc_hd__nand2_1
*CAP
1 *1821:A4 0.00038604
2 *1820:Y 0.00038604
3 *1821:A4 *1820:A 8.78775e-05
4 *1821:A4 *2183:A 0.000113821
5 *1821:A4 *487:32 6.83488e-05
6 *1821:A4 *579:84 0.000126584
7 *1821:A4 *582:20 5.54826e-05
8 *1820:B *1821:A4 8.73389e-06
9 *1821:B1 *1821:A4 9.50342e-06
10 *160:25 *1821:A4 6.83488e-05
*RES
1 *1820:Y *1821:A4 17.11 
*END

*D_NET *428 0.00147214
*CONN
*I *1824:A2 I *D sky130_fd_sc_hd__a211oi_1
*I *1822:X O *D sky130_fd_sc_hd__mux2_1
*CAP
1 *1824:A2 0.000290548
2 *1822:X 0.000290548
3 *1824:A2 *1824:B1 0.00024671
4 *1824:A2 *1828:A3 0.000108706
5 *1824:A2 *2041:D 1.29462e-05
6 *1824:A2 *479:46 6.77939e-05
7 *1824:A2 *479:60 0.000100291
8 *1824:A2 *593:94 3.29266e-07
9 *1824:A2 *643:116 0
10 *1824:A2 *661:203 6.24871e-05
11 *1824:A2 *662:177 2.76099e-05
12 *1824:A2 *668:81 0.000167349
13 *1824:A2 *673:124 4.46808e-07
14 *1892:S1 *1824:A2 4.87569e-05
15 *245:59 *1824:A2 3.82728e-05
16 *246:10 *1824:A2 9.34171e-06
*RES
1 *1822:X *1824:A2 14.6475 
*END

*D_NET *429 0.000892833
*CONN
*I *1824:B1 I *D sky130_fd_sc_hd__a211oi_1
*I *1823:X O *D sky130_fd_sc_hd__and3b_1
*CAP
1 *1824:B1 0.00016359
2 *1823:X 0.00016359
3 *1823:C *1824:B1 0.000176536
4 *1824:A2 *1824:B1 0.00024671
5 *246:6 *1824:B1 4.66108e-05
6 *246:10 *1824:B1 6.83488e-05
7 *246:36 *1824:B1 2.74473e-05
*RES
1 *1823:X *1824:B1 10.905 
*END

*D_NET *430 0.00144908
*CONN
*I *1828:B1 I *D sky130_fd_sc_hd__a41o_1
*I *1824:Y O *D sky130_fd_sc_hd__a211oi_1
*CAP
1 *1828:B1 0.000314018
2 *1824:Y 0.000314018
3 *1828:B1 *1828:A4 0.000274061
4 *1828:B1 *2041:D 2.39856e-05
5 *1828:B1 *582:94 0.000131168
6 *1828:B1 *658:133 7.21623e-05
7 *1828:A1 *1828:B1 4.77757e-05
8 *244:8 *1828:B1 0.000153816
9 *246:6 *1828:B1 0.000118081
*RES
1 *1824:Y *1828:B1 13.185 
*END

*D_NET *431 0.000307797
*CONN
*I *1828:A2 I *D sky130_fd_sc_hd__a41o_1
*I *1825:X O *D sky130_fd_sc_hd__or3b_1
*CAP
1 *1828:A2 0.000104123
2 *1825:X 0.000104123
3 *1828:A2 *1828:A4 8.23457e-05
4 *1828:A2 *1972:D 1.19928e-05
5 *1828:A2 *693:82 0
6 *1828:A1 *1828:A2 5.21135e-06
*RES
1 *1825:X *1828:A2 5.06 
*END

*D_NET *432 0.00042251
*CONN
*I *1828:A3 I *D sky130_fd_sc_hd__a41o_1
*I *1826:Y O *D sky130_fd_sc_hd__o21ai_1
*CAP
1 *1828:A3 9.02783e-05
2 *1826:Y 9.02783e-05
3 *1828:A3 *668:81 0.000108257
4 *1797:A *1828:A3 1.91597e-05
5 *1824:A2 *1828:A3 0.000108706
6 *246:36 *1828:A3 5.83121e-06
*RES
1 *1826:Y *1828:A3 9.03 
*END

*D_NET *433 0.00151802
*CONN
*I *1828:A4 I *D sky130_fd_sc_hd__a41o_1
*I *1827:Y O *D sky130_fd_sc_hd__nand2_1
*CAP
1 *1828:A4 0.000319837
2 *1827:Y 0.000319837
3 *1828:A4 *1972:D 0.000337827
4 *1828:A4 *2391:A 6.03315e-05
5 *1828:A4 *582:94 8.2513e-05
6 *1828:A4 *618:112 0
7 *1828:A4 *693:82 0
8 *1828:A1 *1828:A4 2.54952e-05
9 *1828:A2 *1828:A4 8.23457e-05
10 *1828:B1 *1828:A4 0.000274061
11 *244:8 *1828:A4 1.5771e-05
*RES
1 *1827:Y *1828:A4 15 
*END

*D_NET *434 0.0010645
*CONN
*I *1831:A2 I *D sky130_fd_sc_hd__a211oi_1
*I *1829:X O *D sky130_fd_sc_hd__mux2_1
*CAP
1 *1831:A2 0.000219853
2 *1829:X 0.000219853
3 *1831:A2 *1832:C_N 0.000313678
4 *1831:A2 *1833:A1 9.37731e-05
5 *1831:A2 *2044:D 0
6 *1831:A2 *2045:D 4.24292e-06
7 *1831:A2 *2045:GATE 0.000101118
8 *1831:A2 *649:43 3.24984e-05
9 *1831:A2 *649:53 3.00381e-05
10 *1831:A2 *682:29 4.94474e-05
*RES
1 *1829:X *1831:A2 12.465 
*END

*D_NET *435 0.00143603
*CONN
*I *1831:B1 I *D sky130_fd_sc_hd__a211oi_1
*I *1830:X O *D sky130_fd_sc_hd__and3b_1
*CAP
1 *1831:B1 0.000364142
2 *1830:X 0.000364142
3 *1831:B1 *1832:C_N 2.30292e-05
4 *1831:B1 *1851:A3 0.000119866
5 *1831:B1 *493:16 0.000245741
6 *1798:A *1831:B1 3.09233e-05
7 *1831:C1 *1831:B1 0.000198051
8 *254:35 *1831:B1 5.21307e-05
9 *254:37 *1831:B1 3.8003e-05
*RES
1 *1830:X *1831:B1 14.235 
*END

*D_NET *436 0.00091676
*CONN
*I *1835:B1 I *D sky130_fd_sc_hd__a41o_1
*I *1831:Y O *D sky130_fd_sc_hd__a211oi_1
*CAP
1 *1835:B1 0.000173975
2 *1831:Y 0.000173975
3 *1835:B1 *1832:C_N 4.84717e-05
4 *1835:B1 *1835:A3 8.57024e-05
5 *1835:B1 *1835:A4 8.05167e-05
6 *1833:A2 *1835:B1 3.59784e-05
7 *1835:A1 *1835:B1 4.82863e-05
8 *143:9 *1835:B1 0.000135415
9 *254:35 *1835:B1 0.000134439
*RES
1 *1831:Y *1835:B1 11.7 
*END

*D_NET *437 0.000562819
*CONN
*I *1835:A2 I *D sky130_fd_sc_hd__a41o_1
*I *1832:X O *D sky130_fd_sc_hd__or3b_1
*CAP
1 *1835:A2 0.000113773
2 *1832:X 0.000113773
3 *1835:A2 *1834:A 8.53113e-06
4 *1835:A2 *2272:A 0
5 *1835:A2 *493:16 0.00017321
6 *1830:B *1835:A2 1.73877e-05
7 *1833:A2 *1835:A2 7.06865e-05
8 *1835:A1 *1835:A2 1.88466e-05
9 *254:35 *1835:A2 4.66108e-05
*RES
1 *1832:X *1835:A2 9.795 
*END

*D_NET *438 0.000190918
*CONN
*I *1835:A3 I *D sky130_fd_sc_hd__a41o_1
*I *1833:Y O *D sky130_fd_sc_hd__o21ai_1
*CAP
1 *1835:A3 2.84644e-05
2 *1833:Y 2.84644e-05
3 *1835:B1 *1835:A3 8.57024e-05
4 *254:35 *1835:A3 4.82863e-05
*RES
1 *1833:Y *1835:A3 3.995 
*END

*D_NET *439 0.000792754
*CONN
*I *1835:A4 I *D sky130_fd_sc_hd__a41o_1
*I *1834:Y O *D sky130_fd_sc_hd__nand2_1
*CAP
1 *1835:A4 0.000144099
2 *1834:Y 0.000144099
3 *1835:A4 *2272:A 4.82919e-05
4 *1833:A2 *1835:A4 0.000192125
5 *1835:A1 *1835:A4 8.49205e-05
6 *1835:B1 *1835:A4 8.05167e-05
7 *254:10 *1835:A4 8.40269e-05
8 *254:35 *1835:A4 1.46744e-05
*RES
1 *1834:Y *1835:A4 6.77 
*END

*D_NET *440 0.000916868
*CONN
*I *1838:A2 I *D sky130_fd_sc_hd__a211oi_1
*I *1836:X O *D sky130_fd_sc_hd__mux2_1
*CAP
1 *1838:A2 0.000153215
2 *1836:X 0.000153215
3 *1838:A2 *626:126 0.000268285
4 *1838:A2 *662:140 1.34361e-05
5 *1836:S *1838:A2 8.35106e-05
6 *1838:A1 *1838:A2 0.000245206
*RES
1 *1836:X *1838:A2 11.16 
*END

*D_NET *441 0.00115419
*CONN
*I *1838:B1 I *D sky130_fd_sc_hd__a211oi_1
*I *1837:X O *D sky130_fd_sc_hd__and3b_1
*CAP
1 *1838:B1 0.00014746
2 *1837:X 0.00014746
3 *1838:B1 *1842:A3 0.000116165
4 *1838:B1 *505:22 2.96329e-05
5 *1838:B1 *591:126 0.000134836
6 *1838:B1 *643:50 0.000146255
7 *1838:B1 *662:140 0.000157503
8 *1838:A1 *1838:B1 3.13459e-05
9 *1839:B *1838:B1 0.000107634
10 *262:28 *1838:B1 0.000135896
*RES
1 *1837:X *1838:B1 12.66 
*END

*D_NET *442 0.000604486
*CONN
*I *1842:B1 I *D sky130_fd_sc_hd__a41o_1
*I *1838:Y O *D sky130_fd_sc_hd__a211oi_1
*CAP
1 *1842:B1 0.000123778
2 *1838:Y 0.000123778
3 *1842:B1 *672:190 0.000138126
4 *1838:C1 *1842:B1 0.000218805
*RES
1 *1838:Y *1842:B1 9.975 
*END

*D_NET *443 0.00027334
*CONN
*I *1842:A2 I *D sky130_fd_sc_hd__a41o_1
*I *1839:X O *D sky130_fd_sc_hd__or3b_1
*CAP
1 *1842:A2 9.69214e-05
2 *1839:X 9.69214e-05
3 *1842:A2 *1842:A4 1.99427e-05
4 *1842:A2 *591:126 4.66108e-05
5 *1842:A2 *662:140 5.83121e-06
6 *1839:A *1842:A2 7.11235e-06
*RES
1 *1839:X *1842:A2 4.34 
*END

*D_NET *444 0.0004225
*CONN
*I *1842:A3 I *D sky130_fd_sc_hd__a41o_1
*I *1840:Y O *D sky130_fd_sc_hd__o21ai_1
*CAP
1 *1842:A3 7.17792e-05
2 *1840:Y 7.17792e-05
3 *1842:A3 *505:22 0.000116165
4 *1836:S *1842:A3 4.66108e-05
5 *1838:B1 *1842:A3 0.000116165
*RES
1 *1840:Y *1842:A3 9.03 
*END

*D_NET *445 0.000868844
*CONN
*I *1842:A4 I *D sky130_fd_sc_hd__a41o_1
*I *1841:Y O *D sky130_fd_sc_hd__nand2_1
*CAP
1 *1842:A4 0.000178743
2 *1841:Y 0.000178743
3 *1842:A4 *505:22 0.000136606
4 *1842:A4 *591:126 8.33476e-05
5 *1842:A4 *672:190 5.6248e-05
6 *1836:S *1842:A4 0.000122331
7 *1838:C1 *1842:A4 2.95721e-05
8 *1839:A *1842:A4 6.33103e-05
9 *1842:A2 *1842:A4 1.99427e-05
*RES
1 *1841:Y *1842:A4 11.115 
*END

*D_NET *446 0.000206167
*CONN
*I *1844:B I *D sky130_fd_sc_hd__or2_1
*I *1843:X O *D sky130_fd_sc_hd__mux4_1
*CAP
1 *1844:B 3.00159e-05
2 *1843:X 3.00159e-05
3 *1844:B *597:12 4.05358e-05
4 *1844:B *681:44 9.5433e-05
5 *143:9 *1844:B 1.01661e-05
*RES
1 *1843:X *1844:B 8.325 
*END

*D_NET *447 0.00141996
*CONN
*I *1850:A1 I *D sky130_fd_sc_hd__a22o_1
*I *1844:X O *D sky130_fd_sc_hd__or2_1
*CAP
1 *1850:A1 0.000402957
2 *1844:X 0.000402957
3 *1850:A1 *1845:A2 5.07419e-05
4 *1850:A1 *1846:A2 5.75805e-06
5 *1850:A1 *1850:A2 0.000300801
6 *1850:A1 *650:47 0.00012282
7 *1850:A1 *655:24 4.1457e-05
8 *1845:S1 *1850:A1 8.0494e-05
9 *256:21 *1850:A1 1.197e-05
*RES
1 *1844:X *1850:A1 14.085 
*END

*D_NET *448 0.000718578
*CONN
*I *1846:A2 I *D sky130_fd_sc_hd__o21a_1
*I *1845:X O *D sky130_fd_sc_hd__mux4_1
*CAP
1 *1846:A2 0.00021194
2 *1845:X 0.00021194
3 *1846:A2 *1845:A2 2.49909e-05
4 *1846:A2 *653:54 7.23533e-05
5 *1846:A2 *655:24 0.000119242
6 *1850:A1 *1846:A2 5.75805e-06
7 *257:14 *1846:A2 7.23533e-05
*RES
1 *1845:X *1846:A2 10.245 
*END

*D_NET *449 0.00124802
*CONN
*I *1850:A2 I *D sky130_fd_sc_hd__a22o_1
*I *1846:X O *D sky130_fd_sc_hd__o21a_1
*CAP
1 *1850:A2 0.000233522
2 *1846:X 0.000233522
3 *1850:A2 *1845:A3 0.000118513
4 *1850:A2 *2272:A 8.93951e-05
5 *1850:A2 *500:28 4.82919e-05
6 *1850:A2 *650:47 7.96104e-06
7 *1850:A2 *650:49 8.68401e-05
8 *1850:A2 *653:38 0
9 *1850:A2 *653:54 0
10 *1845:S0 *1850:A2 5.44311e-05
11 *1845:S1 *1850:A2 2.03321e-05
12 *1850:A1 *1850:A2 0.000300801
13 *159:39 *1850:A2 1.7635e-05
14 *257:14 *1850:A2 3.67779e-05
*RES
1 *1846:X *1850:A2 13.365 
*END

*D_NET *450 0.00188497
*CONN
*I *1849:A0 I *D sky130_fd_sc_hd__mux2_1
*I *1847:X O *D sky130_fd_sc_hd__mux4_1
*CAP
1 *1849:A0 0.000510545
2 *1847:X 0.000510545
3 *1849:A0 *1847:A2 9.3229e-06
4 *1849:A0 *579:84 0.000413458
5 *1843:S1 *1849:A0 0.000136495
6 *1847:S0 *1849:A0 0.000150658
7 *1847:S1 *1849:A0 2.76356e-05
8 *255:41 *1849:A0 0.000126304
*RES
1 *1847:X *1849:A0 16.05 
*END

*D_NET *451 0.000608824
*CONN
*I *1849:A1 I *D sky130_fd_sc_hd__mux2_1
*I *1848:X O *D sky130_fd_sc_hd__mux4_1
*CAP
1 *1849:A1 0.000193034
2 *1848:X 0.000193034
3 *1849:A1 *1843:A1 3.65439e-05
4 *1849:A1 *597:12 6.95753e-05
5 *1849:A1 *644:24 0.000116637
*RES
1 *1848:X *1849:A1 9.9 
*END

*D_NET *452 0.00026189
*CONN
*I *1850:B1 I *D sky130_fd_sc_hd__a22o_1
*I *1849:X O *D sky130_fd_sc_hd__mux2_1
*CAP
1 *1850:B1 0.000102873
2 *1849:X 0.000102873
3 *1850:B1 *1843:A1 1.19928e-05
4 *1850:B2 *1850:B1 4.41506e-05
*RES
1 *1849:X *1850:B1 4.7 
*END

*D_NET *453 8.26329e-05
*CONN
*I *1852:B I *D sky130_fd_sc_hd__or2_1
*I *1851:X O *D sky130_fd_sc_hd__mux4_1
*CAP
1 *1852:B 1.68517e-05
2 *1851:X 1.68517e-05
3 *147:27 *1852:B 4.89295e-05
*RES
1 *1851:X *1852:B 3.65 
*END

*D_NET *454 0.00120336
*CONN
*I *1858:A1 I *D sky130_fd_sc_hd__a22o_1
*I *1852:X O *D sky130_fd_sc_hd__or2_1
*CAP
1 *1858:A1 0.000589172
2 *1852:X 0.000589172
3 *1858:B2 *1858:A1 2.50123e-05
*RES
1 *1852:X *1858:A1 10.16 
*END

*D_NET *455 0.00234481
*CONN
*I *1854:A2 I *D sky130_fd_sc_hd__o21a_1
*I *1853:X O *D sky130_fd_sc_hd__mux4_1
*CAP
1 *1854:A2 0.000375919
2 *1853:X 0.000375919
3 *1854:A2 *1867:A3 1.52862e-05
4 *1854:A2 *487:32 0.000820712
5 *1854:A2 *647:46 0.000331523
6 *1851:S1 *1854:A2 0.000286208
7 *1867:S0 *1854:A2 0.000139245
*RES
1 *1853:X *1854:A2 18.225 
*END

*D_NET *456 0.000804748
*CONN
*I *1858:A2 I *D sky130_fd_sc_hd__a22o_1
*I *1854:X O *D sky130_fd_sc_hd__o21a_1
*CAP
1 *1858:A2 0.000237676
2 *1854:X 0.000237676
3 *1858:A2 *1851:A2 1.92979e-05
4 *1803:A *1858:A2 3.05373e-05
5 *1854:B1 *1858:A2 0.000119713
6 *146:67 *1858:A2 0.000159847
*RES
1 *1854:X *1858:A2 12.45 
*END

*D_NET *457 0.00396657
*CONN
*I *1857:A0 I *D sky130_fd_sc_hd__mux2_1
*I *1855:X O *D sky130_fd_sc_hd__mux4_1
*CAP
1 *1857:A0 0.000655794
2 *1855:X 0.000655794
3 *1857:A0 *1857:A1 0.00140501
4 *1857:A0 *1870:A2 0.000111906
5 *1857:A0 *487:32 0.000950645
6 *1854:A1 *1857:A0 2.30292e-05
7 *1855:S1 *1857:A0 4.56749e-05
8 *1867:S0 *1857:A0 8.76645e-06
9 *1869:S1 *1857:A0 1.00941e-05
10 *2220:A *1857:A0 1.17262e-05
11 *263:36 *1857:A0 6.93179e-05
12 *264:40 *1857:A0 1.88174e-05
*RES
1 *1855:X *1857:A0 25.665 
*END

*D_NET *458 0.00545841
*CONN
*I *1857:A1 I *D sky130_fd_sc_hd__mux2_1
*I *1856:X O *D sky130_fd_sc_hd__mux4_1
*CAP
1 *1857:A1 0.00115531
2 *1856:X 0.00115531
3 *1857:A1 *1873:A1 0.00013415
4 *1857:A1 *1874:B1 0
5 *1857:A1 *487:32 0.000294502
6 *1857:A1 *647:28 0.000170855
7 *1857:A1 *649:10 4.66108e-05
8 *1857:A1 *658:10 6.52756e-05
9 *1857:A1 *658:12 0.000146083
10 *1857:A1 *661:81 0.000572616
11 *1854:A1 *1857:A1 0.000161984
12 *1855:S1 *1857:A1 1.9488e-05
13 *1857:A0 *1857:A1 0.00140501
14 *1870:A1 *1857:A1 0
15 *1871:S0 *1857:A1 2.05957e-05
16 *147:27 *1857:A1 0
17 *263:36 *1857:A1 0.000110631
*RES
1 *1856:X *1857:A1 35.295 
*END

*D_NET *459 0.00053155
*CONN
*I *1858:B1 I *D sky130_fd_sc_hd__a22o_1
*I *1857:X O *D sky130_fd_sc_hd__mux2_1
*CAP
1 *1858:B1 0.000207021
2 *1857:X 0.000207021
3 *1858:B1 *500:28 0
4 *1851:S1 *1858:B1 4.7043e-05
5 *1854:A1 *1858:B1 1.83756e-05
6 *147:27 *1858:B1 5.2089e-05
7 *416:14 *1858:B1 0
*RES
1 *1857:X *1858:B1 10.815 
*END

*D_NET *460 0.00201922
*CONN
*I *1860:B I *D sky130_fd_sc_hd__or2_1
*I *1859:X O *D sky130_fd_sc_hd__mux4_1
*CAP
1 *1860:B 0.00043135
2 *1859:X 0.00043135
3 *1860:B *481:30 6.59587e-06
4 *1860:B *647:189 0.000201117
5 *1804:A *1860:B 5.1991e-05
6 *1862:A1 *1860:B 0.000283303
7 *1866:B2 *1860:B 0.000186183
8 *2264:A *1860:B 0.000255687
9 *2266:A *1860:B 6.21133e-05
10 *2267:A *1860:B 4.36573e-06
11 *2270:A *1860:B 0.000105162
*RES
1 *1859:X *1860:B 17.235 
*END

*D_NET *461 0.00334281
*CONN
*I *1866:A1 I *D sky130_fd_sc_hd__a22o_1
*I *1860:X O *D sky130_fd_sc_hd__or2_1
*CAP
1 *1866:A1 0.000640237
2 *1860:X 0.000640237
3 *1866:A1 *1861:A3 9.68083e-06
4 *1866:A1 *1862:A2 0.000405095
5 *1866:A1 *1866:A2 0.000726847
6 *1866:A1 *1866:B1 3.82018e-05
7 *1866:A1 *2037:D 8.08153e-06
8 *1866:A1 *650:164 2.52941e-05
9 *1866:A1 *653:12 6.25451e-05
10 *1866:A1 *660:51 0
11 *1866:A1 *699:40 9.04004e-05
12 *1859:S1 *1866:A1 7.24094e-05
13 *1860:A *1866:A1 0.000117415
14 *1862:A1 *1866:A1 4.11718e-05
15 *1862:B1 *1866:A1 3.09164e-05
16 *1864:S1 *1866:A1 5.79855e-05
17 *2270:A *1866:A1 0.000159327
18 *146:67 *1866:A1 0.000216968
*RES
1 *1860:X *1866:A1 20.6447 
*END

*D_NET *462 0.00103651
*CONN
*I *1862:A2 I *D sky130_fd_sc_hd__o21a_1
*I *1861:X O *D sky130_fd_sc_hd__mux4_1
*CAP
1 *1862:A2 0.000214515
2 *1861:X 0.000214515
3 *1862:A2 *1861:A3 5.35969e-06
4 *1862:A2 *2037:D 7.17949e-05
5 *1862:A2 *650:164 4.75576e-05
6 *1862:A2 *660:51 4.43813e-05
7 *1866:A1 *1862:A2 0.000405095
8 *2265:A *1862:A2 3.32916e-05
*RES
1 *1861:X *1862:A2 12.6 
*END

*D_NET *463 0.00262339
*CONN
*I *1866:A2 I *D sky130_fd_sc_hd__a22o_1
*I *1862:X O *D sky130_fd_sc_hd__o21a_1
*CAP
1 *1866:A2 0.000464562
2 *1862:X 0.000464562
3 *1866:A2 *1861:A3 0.00026258
4 *1866:A2 *494:16 4.8854e-05
5 *1866:A2 *651:185 0.000122184
6 *1866:A2 *653:12 7.26457e-06
7 *1804:A *1866:A2 0
8 *1860:A *1866:A2 0.00016573
9 *1862:A1 *1866:A2 4.56749e-05
10 *1864:S1 *1866:A2 2.96134e-05
11 *1866:A1 *1866:A2 0.000726847
12 *242:14 *1866:A2 0.000285517
*RES
1 *1862:X *1866:A2 19.38 
*END

*D_NET *464 0.00174206
*CONN
*I *1865:A0 I *D sky130_fd_sc_hd__mux2_1
*I *1863:X O *D sky130_fd_sc_hd__mux4_1
*CAP
1 *1865:A0 0.000727132
2 *1863:X 0.000727132
3 *1865:A0 *1859:A0 1.56428e-05
4 *1865:A0 *1859:A2 9.54903e-05
5 *1865:A0 *1861:A3 2.53191e-06
6 *1804:A *1865:A0 6.87204e-05
7 *1859:S0 *1865:A0 2.04328e-05
8 *1863:S1 *1865:A0 3.64998e-06
9 *147:47 *1865:A0 2.76356e-05
10 *240:20 *1865:A0 1.16516e-05
11 *241:23 *1865:A0 4.20415e-05
*RES
1 *1863:X *1865:A0 15.42 
*END

*D_NET *465 0.00220813
*CONN
*I *1865:A1 I *D sky130_fd_sc_hd__mux2_1
*I *1864:X O *D sky130_fd_sc_hd__mux4_1
*CAP
1 *1865:A1 0.000483869
2 *1864:X 0.000483869
3 *1865:A1 *1866:B1 8.41307e-05
4 *1865:A1 *647:123 0.000288897
5 *1865:A1 *651:185 0.000416946
6 *1804:A *1865:A1 4.88478e-05
7 *1862:A1 *1865:A1 0.000171578
8 *1866:B2 *1865:A1 0
9 *2254:A *1865:A1 0.000229988
*RES
1 *1864:X *1865:A1 17.73 
*END

*D_NET *466 0.00088299
*CONN
*I *1866:B1 I *D sky130_fd_sc_hd__a22o_1
*I *1865:X O *D sky130_fd_sc_hd__mux2_1
*CAP
1 *1866:B1 0.000239832
2 *1865:X 0.000239832
3 *1804:A *1866:B1 0.000109108
4 *1865:A1 *1866:B1 8.41307e-05
5 *1866:A1 *1866:B1 3.82018e-05
6 *1866:B2 *1866:B1 0.000132275
7 *2254:A *1866:B1 3.96088e-05
*RES
1 *1865:X *1866:B1 11.67 
*END

*D_NET *467 0.00138828
*CONN
*I *1868:B I *D sky130_fd_sc_hd__or2_1
*I *1867:X O *D sky130_fd_sc_hd__mux4_1
*CAP
1 *1868:B 0.000315434
2 *1867:X 0.000315434
3 *1868:B *1869:A1 6.79601e-05
4 *1868:B *2113:A 0
5 *1868:B *583:82 0.000192125
6 *1868:B *651:45 0.000128763
7 *1868:B *651:47 3.16621e-05
8 *1868:B *651:49 0.000137746
9 *1868:B *651:51 0.000187759
10 *143:9 *1868:B 0
11 *264:6 *1868:B 1.1392e-05
*RES
1 *1867:X *1868:B 14.745 
*END

*D_NET *468 0.00117585
*CONN
*I *1874:A1 I *D sky130_fd_sc_hd__a22o_1
*I *1868:X O *D sky130_fd_sc_hd__or2_1
*CAP
1 *1874:A1 0.000321602
2 *1868:X 0.000321602
3 *1874:A1 *1843:A0 0.000108556
4 *1874:A1 *1874:B1 5.18317e-06
5 *1874:A1 *487:32 3.18211e-05
6 *1874:A1 *635:42 1.20855e-05
7 *1868:A *1874:A1 7.6571e-05
8 *1870:A1 *1874:A1 9.58678e-06
9 *1870:B1 *1874:A1 8.40213e-05
10 *1874:B2 *1874:A1 1.09366e-05
11 *147:27 *1874:A1 0.000151594
12 *247:34 *1874:A1 3.60648e-06
13 *264:40 *1874:A1 3.86814e-05
*RES
1 *1868:X *1874:A1 10.7291 
*END

*D_NET *469 0.000767156
*CONN
*I *1870:A2 I *D sky130_fd_sc_hd__o21a_1
*I *1869:X O *D sky130_fd_sc_hd__mux4_1
*CAP
1 *1870:A2 0.000266457
2 *1869:X 0.000266457
3 *1870:A2 *487:32 1.04292e-05
4 *1857:A0 *1870:A2 0.000111906
5 *263:36 *1870:A2 0.000111906
*RES
1 *1869:X *1870:A2 10.755 
*END

*D_NET *470 0.000715541
*CONN
*I *1874:A2 I *D sky130_fd_sc_hd__a22o_1
*I *1870:X O *D sky130_fd_sc_hd__o21a_1
*CAP
1 *1874:A2 0.000125383
2 *1870:X 0.000125383
3 *1870:A1 *1874:A2 8.18163e-05
4 *1870:B1 *1874:A2 0.00038296
*RES
1 *1870:X *1874:A2 6.71 
*END

*D_NET *471 0.000257319
*CONN
*I *1873:A0 I *D sky130_fd_sc_hd__mux2_1
*I *1871:X O *D sky130_fd_sc_hd__mux4_1
*CAP
1 *1873:A0 7.31631e-05
2 *1871:X 7.31631e-05
3 *1873:A0 *1873:A1 9.09788e-06
4 *1873:A0 *661:81 3.4222e-05
5 *1873:A0 *662:16 4.77719e-05
6 *2235:A *1873:A0 1.99007e-05
*RES
1 *1871:X *1873:A0 8.52 
*END

*D_NET *472 0.000655227
*CONN
*I *1873:A1 I *D sky130_fd_sc_hd__mux2_1
*I *1872:X O *D sky130_fd_sc_hd__mux4_1
*CAP
1 *1873:A1 0.000208503
2 *1872:X 0.000208503
3 *1873:A1 *1874:B1 0
4 *1873:A1 *661:12 8.64421e-05
5 *1873:A1 *661:81 8.53113e-06
6 *1857:A1 *1873:A1 0.00013415
7 *1873:A0 *1873:A1 9.09788e-06
8 *2237:A *1873:A1 0
*RES
1 *1872:X *1873:A1 10.695 
*END

*D_NET *473 0.00121518
*CONN
*I *1874:B1 I *D sky130_fd_sc_hd__a22o_1
*I *1873:X O *D sky130_fd_sc_hd__mux2_1
*CAP
1 *1874:B1 0.000353669
2 *1873:X 0.000353669
3 *1874:B1 *487:32 0
4 *1857:A1 *1874:B1 0
5 *1870:A1 *1874:B1 4.94474e-05
6 *1870:B1 *1874:B1 2.68464e-05
7 *1873:A1 *1874:B1 0
8 *1874:A1 *1874:B1 5.18317e-06
9 *1874:B2 *1874:B1 8.53113e-06
10 *2220:A *1874:B1 0.000128592
11 *2232:A *1874:B1 4.66108e-05
12 *2233:A *1874:B1 3.76935e-05
13 *2237:A *1874:B1 0.000162318
14 *149:23 *1874:B1 4.26248e-05
*RES
1 *1873:X *1874:B1 13.815 
*END

*D_NET *474 0.000827214
*CONN
*I *2163:A I *D sky130_fd_sc_hd__clkbuf_16
*I *2161:X O *D sky130_fd_sc_hd__clkbuf_16
*CAP
1 *2163:A 0.000142454
2 *2161:X 0.000142454
3 *2163:A *1934:GATE 2.68526e-05
4 *2163:A *2358:A 0.000191305
5 *2163:A *597:60 7.06865e-05
6 *2163:A *645:82 0.000253461
*RES
1 *2161:X *2163:A 10.815 
*END

*D_NET *475 0.00521328
*CONN
*I *2165:A I *D sky130_fd_sc_hd__clkbuf_16
*I *2164:A I *D sky130_fd_sc_hd__clkbuf_16
*I *2162:X O *D sky130_fd_sc_hd__clkbuf_16
*CAP
1 *2165:A 0.000117468
2 *2164:A 0.000389172
3 *2162:X 0.000391016
4 *475:8 0.000897657
5 *2164:A *1808:A0 0.000521259
6 *2164:A *1808:A1 0.000145133
7 *2164:A *1908:A2 0.000120539
8 *2164:A *2160:A 0.000332551
9 *2164:A *558:50 0.000103664
10 *2164:A *631:65 0.00063417
11 *2164:A *677:26 0.000245206
12 *2165:A *2006:D 3.09233e-05
13 *2165:A *2057:CLK 0.000137783
14 *2165:A *558:50 0.000141661
15 *2165:A *677:26 0.000418198
16 *475:8 *2313:A 0.00051001
17 *1808:S0 *2164:A 7.68729e-05
*RES
1 *2162:X *475:8 8.535 
2 *475:8 *2164:A 17.475 
3 *475:8 *2165:A 8.55 
*END

*D_NET *476 0.000856727
*CONN
*I *2160:A I *D sky130_fd_sc_hd__buf_2
*I *2163:X O *D sky130_fd_sc_hd__clkbuf_16
*CAP
1 *2160:A 9.58128e-05
2 *2163:X 9.58128e-05
3 *2160:A *558:50 0.000332551
4 *2164:A *2160:A 0.000332551
*RES
1 *2163:X *2160:A 11.13 
*END

*D_NET *477 0.00239597
*CONN
*I *2056:CLK I *D sky130_fd_sc_hd__dfxtp_1
*I *2059:CLK I *D sky130_fd_sc_hd__dfxtp_1
*I *2164:X O *D sky130_fd_sc_hd__clkbuf_16
*CAP
1 *2056:CLK 4.38958e-05
2 *2059:CLK 0.00022867
3 *2164:X 0.000368409
4 *477:10 0.000640975
5 *2056:CLK *553:28 0.00013598
6 *2056:CLK *631:65 2.28376e-05
7 *2056:CLK *634:176 8.5242e-05
8 *2059:CLK *2059:D 0.000104065
9 *2059:CLK *585:66 4.55681e-05
10 *477:10 *2311:A 0.000405006
11 *477:10 *553:28 0.000156828
12 *477:10 *634:176 0.000158495
*RES
1 *2164:X *477:10 9.39 
2 *477:10 *2059:CLK 6.825 
3 *477:10 *2056:CLK 5.235 
*END

*D_NET *478 0.00443589
*CONN
*I *2058:CLK I *D sky130_fd_sc_hd__dfxtp_1
*I *2057:CLK I *D sky130_fd_sc_hd__dfxtp_1
*I *2165:X O *D sky130_fd_sc_hd__clkbuf_16
*CAP
1 *2058:CLK 0.000290157
2 *2057:CLK 0.000377126
3 *2165:X 0.0002492
4 *478:6 0.000916482
5 *2057:CLK *2006:D 5.83121e-06
6 *2057:CLK *2057:D 0.00010604
7 *2057:CLK *558:50 0.00013611
8 *2057:CLK *595:28 6.3124e-06
9 *2058:CLK *519:40 0.000572262
10 *2058:CLK *553:28 0.00038933
11 *2058:CLK *632:152 0.000159801
12 *2058:CLK *662:196 0.000976553
13 *478:6 *634:176 3.1562e-06
14 *2105:A *2057:CLK 1.56428e-05
15 *2105:A *478:6 9.41067e-05
16 *2165:A *2057:CLK 0.000137783
*RES
1 *2165:X *478:6 4.465 
2 *478:6 *2057:CLK 11.24 
3 *478:6 *2058:CLK 17.18 
*END

*D_NET *479 0.0525474
*CONN
*I *1892:A3 I *D sky130_fd_sc_hd__mux4_1
*I *1902:A3 I *D sky130_fd_sc_hd__mux4_1
*I *1884:A2 I *D sky130_fd_sc_hd__mux4_1
*I *1886:A1 I *D sky130_fd_sc_hd__mux4_1
*I *1814:A1 I *D sky130_fd_sc_hd__mux4_1
*I *1882:A1 I *D sky130_fd_sc_hd__mux4_1
*I *2056:D I *D sky130_fd_sc_hd__dfxtp_1
*I *2186:X O *D sky130_fd_sc_hd__buf_2
*CAP
1 *1892:A3 0.000203644
2 *1902:A3 0.000644148
3 *1884:A2 0.000147457
4 *1886:A1 0.000106243
5 *1814:A1 2.61242e-05
6 *1882:A1 8.74384e-05
7 *2056:D 0.000255426
8 *2186:X 0.00480958
9 *479:174 0.000331118
10 *479:161 0.00155028
11 *479:130 0.00359994
12 *479:62 0.0023719
13 *479:60 0.00132423
14 *479:46 0.00153807
15 *479:30 0.00560795
16 *1882:A1 *542:30 4.66108e-05
17 *1886:A1 *1886:A2 4.66108e-05
18 *1886:A1 *2012:GATE 4.07468e-05
19 *1886:A1 *483:90 4.28819e-05
20 *1886:A1 *576:42 6.88567e-05
21 *1892:A3 *1892:A2 5.79655e-05
22 *1892:A3 *698:68 4.88478e-05
23 *1902:A3 *1826:A2 0.00047543
24 *1902:A3 *1902:A0 4.75959e-05
25 *1902:A3 *1902:A1 4.43871e-06
26 *1902:A3 *1902:A2 5.74791e-05
27 *1902:A3 *538:72 9.31311e-05
28 *1902:A3 *596:140 8.97006e-07
29 *1902:A3 *675:174 9.66687e-05
30 *2056:D *1935:GATE 8.23457e-05
31 *2056:D *2360:A 9.48664e-05
32 *2056:D *593:118 6.36139e-05
33 *2056:D *669:108 0.000553462
34 *479:30 *1848:A1 0.000401993
35 *479:30 *1921:D 0.000144096
36 *479:30 *2049:D 1.70441e-05
37 *479:30 *483:80 0.00214163
38 *479:30 *569:58 1.29049e-05
39 *479:30 *590:14 0.000705347
40 *479:30 *591:102 2.22315e-05
41 *479:30 *596:50 0.000235578
42 *479:30 *600:74 0.000700175
43 *479:30 *601:10 0.000565003
44 *479:30 *613:146 4.24179e-05
45 *479:30 *632:16 7.31209e-05
46 *479:30 *640:24 1.54061e-06
47 *479:30 *640:28 0.000291869
48 *479:30 *644:46 0.000101164
49 *479:30 *648:16 0.000129951
50 *479:30 *652:139 0.00144963
51 *479:30 *658:58 0.000251758
52 *479:46 *2038:D 0.000157615
53 *479:46 *593:94 2.72194e-05
54 *479:46 *630:84 0.000920881
55 *479:46 *631:112 0.000210441
56 *479:46 *635:42 0.00115142
57 *479:46 *662:142 3.93921e-05
58 *479:46 *662:177 1.30972e-05
59 *479:46 *668:81 6.69156e-06
60 *479:46 *668:95 0.000253958
61 *479:46 *673:124 0.000125532
62 *479:46 *687:114 2.2955e-05
63 *479:60 *593:94 0.000244479
64 *479:60 *597:44 9.49323e-05
65 *479:60 *662:177 0
66 *479:60 *668:81 0.000104139
67 *479:60 *698:68 0.000299555
68 *479:62 *597:60 0.000398893
69 *479:62 *671:70 0.000292335
70 *479:130 *733:DIODE 1.88656e-05
71 *479:130 *1881:A0 6.17446e-06
72 *479:130 *1915:A1 6.22902e-05
73 *479:130 *2291:A 0.000393075
74 *479:130 *2296:A 6.93749e-05
75 *479:130 *2316:A 2.10433e-05
76 *479:130 *2326:A 0.000300125
77 *479:130 *2327:A 7.39548e-05
78 *479:130 *2328:A 0.000147832
79 *479:130 *2333:A 0.000255513
80 *479:130 *517:50 9.34801e-05
81 *479:130 *519:46 0.000197648
82 *479:130 *535:76 7.3162e-05
83 *479:130 *567:90 5.08304e-06
84 *479:130 *585:66 0.000106494
85 *479:130 *596:140 4.02697e-05
86 *479:130 *597:60 0.000154568
87 *479:130 *618:112 0.000170068
88 *479:130 *631:112 0.00020681
89 *479:130 *650:236 7.58555e-05
90 *479:130 *660:99 1.26248e-05
91 *479:130 *660:115 0.000127976
92 *479:130 *667:154 0.000536463
93 *479:130 *675:174 3.88392e-05
94 *479:130 *676:48 0.000383207
95 *479:130 *703:60 1.62783e-05
96 *479:161 *1886:A2 0.000411124
97 *479:161 *1899:A2 0.00020861
98 *479:161 *1934:D 3.83194e-05
99 *479:161 *1978:GATE 5.83121e-06
100 *479:161 *2338:A 2.35435e-05
101 *479:161 *2353:A 1.7635e-05
102 *479:161 *2377:A 0.000209
103 *479:161 *524:49 3.64998e-06
104 *479:161 *524:180 0.000222005
105 *479:161 *542:30 0.000275911
106 *479:161 *636:166 5.83121e-06
107 *479:161 *659:227 0.000426977
108 *479:161 *673:106 0.0004598
109 *479:161 *708:84 0.000235407
110 *479:161 *708:99 0.00014924
111 *479:174 *1886:A2 0.000512772
112 *479:174 *2012:GATE 8.41082e-05
113 *479:174 *2377:A 9.79743e-05
114 *1814:S1 *1814:A1 4.66108e-05
115 *1814:S1 *1886:A1 1.1561e-05
116 *1814:S1 *479:174 6.36715e-05
117 *1823:C *479:46 3.64998e-06
118 *1824:A2 *479:46 6.77939e-05
119 *1824:A2 *479:60 0.000100291
120 *1881:A1 *479:130 0.000452123
121 *1881:S1 *479:130 2.68017e-05
122 *1884:S1 *1884:A2 2.16392e-05
123 *1892:S0 *1892:A3 0.000211742
124 *1892:S0 *479:46 9.37e-05
125 *1902:S0 *1902:A3 0.000227858
126 *1907:S0 *1884:A2 0.000113071
127 *2084:A *1882:A1 6.33103e-05
128 *2219:A *479:30 0.000289878
129 *143:109 *479:62 5.39259e-05
130 *143:109 *479:130 8.66691e-05
131 *144:111 *479:130 0.000315331
132 *146:99 *1886:A1 0.000179015
133 *146:99 *479:174 1.93765e-05
134 *150:35 *479:30 0.00172891
135 *150:57 *479:130 5.7287e-05
136 *151:85 *479:161 1.23015e-05
137 *152:15 *479:30 0
138 *153:39 *479:30 0.00103435
139 *154:41 *479:30 0.000764624
140 *159:77 *479:30 1.74943e-05
141 *159:101 *479:130 4.76222e-05
142 *160:85 *479:30 0.000409999
143 *160:115 *479:130 4.53384e-05
144 *160:133 *479:130 5.02892e-05
145 *160:133 *479:161 0.00161079
146 *181:21 *479:30 0.000674082
147 *233:25 *479:130 4.90071e-05
148 *233:25 *479:161 0.000241264
149 *233:62 *479:161 6.06649e-05
150 *235:45 *479:161 3.73066e-05
151 *409:32 *479:46 4.8632e-05
152 *409:32 *479:130 5.75683e-05
*RES
1 *2186:X *479:30 49.6815 
2 *479:30 *479:46 12.0916 
3 *479:46 *479:60 6.03957 
4 *479:60 *479:62 4.8225 
5 *479:62 *479:130 41.3982 
6 *479:130 *2056:D 9.60375 
7 *479:130 *479:161 41.15 
8 *479:161 *1882:A1 5.1 
9 *479:161 *479:174 6.48 
10 *479:174 *1814:A1 4.05 
11 *479:174 *1886:A1 6.885 
12 *479:62 *1884:A2 6.0525 
13 *479:60 *1902:A3 17.23 
14 *479:46 *1892:A3 5.62 
*END

*D_NET *480 0.0300805
*CONN
*I *2122:A I *D sky130_fd_sc_hd__clkbuf_1
*I *1974:D I *D sky130_fd_sc_hd__dlxtp_1
*I *1942:D I *D sky130_fd_sc_hd__dlxtp_1
*I *2006:D I *D sky130_fd_sc_hd__dlxtp_1
*I *2038:D I *D sky130_fd_sc_hd__dlxtp_1
*I *2187:X O *D sky130_fd_sc_hd__clkbuf_2
*CAP
1 *2122:A 5.82562e-05
2 *1974:D 0.000509695
3 *1942:D 0
4 *2006:D 0.000516006
5 *2038:D 0.000295306
6 *2187:X 0.00482254
7 *480:159 0.000573497
8 *480:153 0.00175132
9 *480:108 0.00302918
10 *480:70 0.00423394
11 *1974:D *1901:A2 3.64675e-05
12 *1974:D *1901:A3 0.000521497
13 *1974:D *1958:D 4.49945e-05
14 *1974:D *2351:A 0.000118081
15 *1974:D *2378:A 1.83847e-05
16 *1974:D *519:16 5.61453e-05
17 *1974:D *556:22 0.000383946
18 *1974:D *615:14 1.46216e-05
19 *1974:D *686:58 0.000146469
20 *2006:D *558:50 0.000162325
21 *2006:D *595:28 0.000111083
22 *2006:D *662:196 4.6368e-06
23 *2006:D *677:8 4.87465e-06
24 *2006:D *677:26 2.13396e-05
25 *2038:D *652:139 4.66108e-05
26 *2038:D *662:142 0.000116165
27 *2038:D *662:177 3.97827e-05
28 *2038:D *668:81 8.23457e-05
29 *2122:A *1959:D 3.68999e-05
30 *2122:A *631:18 8.23457e-05
31 *480:70 *1992:D 5.74791e-05
32 *480:70 *1993:GATE 9.09788e-06
33 *480:70 *2279:A 7.89975e-05
34 *480:70 *2347:A 0.000481039
35 *480:70 *2350:A 2.22315e-05
36 *480:70 *2391:A 1.0522e-05
37 *480:70 *482:76 0.000127747
38 *480:70 *544:46 0.000468815
39 *480:70 *557:44 0.000259687
40 *480:70 *582:94 0.00039278
41 *480:70 *586:44 4.11678e-06
42 *480:70 *587:118 0
43 *480:70 *590:112 2.22315e-05
44 *480:70 *591:102 0.000777258
45 *480:70 *593:94 3.58193e-05
46 *480:70 *602:70 7.4533e-05
47 *480:70 *603:68 0.00024185
48 *480:70 *618:112 0.000237451
49 *480:70 *624:58 0.000377539
50 *480:70 *626:70 0.000727545
51 *480:70 *627:106 3.172e-05
52 *480:70 *628:68 7.50992e-05
53 *480:70 *629:18 6.51658e-05
54 *480:70 *629:58 1.92979e-05
55 *480:70 *652:181 0.000145719
56 *480:70 *674:80 5.0117e-05
57 *480:70 *675:56 5.01321e-05
58 *480:70 *680:50 0.000156762
59 *480:70 *687:24 2.0734e-05
60 *480:70 *687:92 0.000143495
61 *480:108 *1878:A1 3.50435e-05
62 *480:108 *1944:GATE 0.000174007
63 *480:108 *2331:A 0.000241643
64 *480:108 *2345:A 0
65 *480:108 *502:14 2.01259e-05
66 *480:108 *502:65 8.73389e-06
67 *480:108 *557:44 9.2419e-05
68 *480:108 *590:145 0.0001276
69 *480:108 *643:164 6.34895e-05
70 *480:108 *679:59 1.1008e-05
71 *480:108 *698:175 4.37173e-05
72 *480:153 *2345:A 0.000437832
73 *480:153 *2347:A 0.000799261
74 *480:153 *2350:A 0
75 *480:153 *2362:A 7.59037e-05
76 *480:153 *491:57 8.31725e-06
77 *480:153 *535:16 1.98547e-06
78 *480:153 *557:44 2.25816e-05
79 *480:153 *579:32 0.000153615
80 *480:153 *590:145 3.20245e-05
81 *480:153 *590:170 5.63198e-05
82 *480:153 *591:48 0.000463049
83 *480:153 *615:14 0
84 *480:153 *630:50 0.000789562
85 *480:153 *630:66 9.58678e-06
86 *480:153 *631:18 0.000269916
87 *480:153 *670:65 8.71796e-06
88 *480:153 *673:48 1.63662e-05
89 *480:153 *673:185 0.000173918
90 *480:153 *694:92 0
91 *480:159 *615:14 0.000201114
92 *480:159 *694:92 0.000196998
93 *1822:S *2038:D 0.000333651
94 *1822:S *480:70 3.53953e-05
95 *1878:S1 *480:108 6.88421e-05
96 *1878:S1 *480:153 3.97748e-05
97 *1892:S0 *480:70 1.74678e-05
98 *1892:S1 *2038:D 6.13283e-05
99 *1894:S0 *1974:D 0.00041379
100 *2057:CLK *2006:D 5.83121e-06
101 *2066:A *480:108 9.39426e-05
102 *2088:A *2006:D 2.49909e-05
103 *2165:A *2006:D 3.09233e-05
104 *2209:A *480:70 3.97719e-05
105 *2211:A *480:70 0.000107452
106 *2214:A *480:70 0.000216323
107 *143:117 *1974:D 0.000284594
108 *154:85 *480:70 7.01868e-05
109 *157:91 *480:70 4.85022e-06
110 *158:71 *480:70 0.000464847
111 *159:101 *1974:D 4.28313e-05
112 *160:133 *1974:D 1.18235e-05
113 *243:42 *2038:D 1.56428e-05
114 *479:46 *2038:D 0.000157615
*RES
1 *2187:X *480:70 46.4823 
2 *480:70 *2038:D 12.185 
3 *2187:X *480:108 22.27 
4 *480:108 *2006:D 15.265 
5 *480:108 *480:153 25.9793 
6 *480:153 *480:159 6.4 
7 *480:159 *1942:D 1.6 
8 *480:159 *1974:D 20.9 
9 *480:153 *2122:A 2.74 
*END

*D_NET *481 0.0169097
*CONN
*I *1877:A0 I *D sky130_fd_sc_hd__mux4_1
*I *1915:A1 I *D sky130_fd_sc_hd__mux4_1
*I *1907:A1 I *D sky130_fd_sc_hd__mux4_1
*I *2265:X O *D sky130_fd_sc_hd__buf_1
*CAP
1 *1877:A0 2.21004e-05
2 *1915:A1 0.000165965
3 *1907:A1 4.67504e-05
4 *2265:X 0.00203434
5 *481:94 0.00049615
6 *481:88 0.00199555
7 *481:30 0.00372436
8 *1907:A1 *517:50 0.000110776
9 *1915:A1 *517:50 6.67382e-05
10 *1915:A1 *660:115 4.66108e-05
11 *481:30 *2037:GATE 0.000131849
12 *481:30 *483:80 1.56428e-05
13 *481:30 *525:32 5.21484e-05
14 *481:30 *560:44 0.00011229
15 *481:30 *594:48 7.55606e-05
16 *481:30 *637:67 0.000474501
17 *481:30 *647:189 0
18 *481:30 *650:164 2.80576e-05
19 *481:30 *651:209 0.000325414
20 *481:30 *660:87 0.000866682
21 *481:30 *695:16 0.0004148
22 *481:30 *695:66 7.9642e-06
23 *481:30 *699:40 0.000207721
24 *481:88 *1877:A1 4.77719e-05
25 *481:88 *2290:A 0.001307
26 *481:88 *2291:A 4.12303e-05
27 *481:88 *2298:A 0.000129362
28 *481:88 *2300:A 0.00040139
29 *481:88 *2327:A 1.91597e-05
30 *481:88 *516:54 9.00909e-05
31 *481:88 *538:72 4.18189e-05
32 *481:88 *545:72 0.000262151
33 *481:88 *560:66 6.21084e-05
34 *481:88 *647:244 6.37377e-05
35 *481:88 *653:237 1.67131e-05
36 *481:88 *660:87 3.09774e-05
37 *481:88 *691:16 0.000566316
38 *481:88 *704:70 6.75188e-05
39 E2BEG[3] *481:88 2.36687e-05
40 E2BEG[5] *481:88 2.22315e-05
41 E2BEG[7] *481:88 6.03272e-05
42 E2BEGb[0] *481:88 2.5956e-05
43 E2BEGb[1] *481:88 1.56824e-05
44 E2BEGb[2] *481:88 8.23457e-05
45 E2BEGb[4] *481:88 1.87786e-05
46 EE4BEG[1] *481:88 1.88904e-05
47 EE4BEG[4] *481:88 0.000118081
48 *1860:B *481:30 6.59587e-06
49 *1862:A1 *481:30 0.000110557
50 *1877:A2 *481:88 0.000149874
51 *1877:A2 *481:94 9.59423e-05
52 *1877:A3 *1915:A1 3.99339e-05
53 *2075:A *481:88 2.01504e-05
54 *2092:A *481:88 5.83121e-06
55 *2107:A *481:88 5.04735e-05
56 *2244:A *481:30 0.000103095
57 *2248:A *481:30 1.79536e-05
58 *2255:A *481:30 6.26668e-05
59 *2256:A *481:30 0
60 *2257:A *481:30 8.41703e-06
61 *2268:A *481:30 0.000113982
62 *142:31 *481:30 0.000114678
63 *148:89 *481:88 0.00015634
64 *149:75 *481:88 0.000308992
65 *151:23 *481:30 0.000119246
66 *159:77 *1907:A1 9.98744e-05
67 *159:77 *1915:A1 9.19284e-06
68 *159:101 *1907:A1 4.36573e-06
69 *159:101 *1915:A1 0.0002051
70 *160:85 *481:88 8.89188e-05
71 *479:130 *1915:A1 6.22902e-05
*RES
1 *2265:X *481:30 48.72 
2 *481:30 *481:88 49.5728 
3 *481:88 *481:94 5.225 
4 *481:94 *1907:A1 4.98 
5 *481:94 *1915:A1 7.26 
6 *481:88 *1877:A0 1.96 
*END

*D_NET *482 0.0341362
*CONN
*I *1908:A2 I *D sky130_fd_sc_hd__mux4_1
*I *1808:A1 I *D sky130_fd_sc_hd__mux4_1
*I *1878:A0 I *D sky130_fd_sc_hd__mux4_1
*I *2266:X O *D sky130_fd_sc_hd__dlymetal6s2s_1
*CAP
1 *1908:A2 0.000216484
2 *1808:A1 0.000270408
3 *1878:A0 0.000607149
4 *2266:X 0.00332216
5 *482:105 0.000804308
6 *482:76 0.00177114
7 *482:66 0.00236098
8 *482:30 0.00483656
9 *1808:A1 *1808:A0 5.8847e-05
10 *1808:A1 *1813:A0 2.39856e-05
11 *1808:A1 *2058:D 0
12 *1878:A0 *1878:A1 3.64998e-06
13 *1878:A0 *1908:A0 2.68526e-05
14 *1878:A0 *2345:A 0.000185377
15 *1878:A0 *502:8 0.000131615
16 *1878:A0 *502:14 0.000507915
17 *1878:A0 *502:65 5.89072e-05
18 *1878:A0 *557:44 1.15688e-05
19 *1878:A0 *668:14 0.000590795
20 *1878:A0 *670:65 8.35106e-05
21 *1878:A0 *693:117 2.84508e-05
22 *1878:A0 *703:72 2.19562e-06
23 *1908:A2 *513:37 2.16392e-05
24 *1908:A2 *677:26 4.6368e-06
25 *482:30 *2019:D 0.000337616
26 *482:30 *2281:A 0.000191335
27 *482:30 *483:80 0.000338419
28 *482:30 *514:94 0.000731829
29 *482:30 *583:82 1.4641e-05
30 *482:30 *594:48 0.00125087
31 *482:30 *596:50 0.000143849
32 *482:30 *602:123 0.000310224
33 *482:30 *626:96 0.00026102
34 *482:30 *627:106 0.000298526
35 *482:30 *635:42 0.000102702
36 *482:30 *642:38 0.000115256
37 *482:30 *661:112 0.00149816
38 *482:30 *662:142 0.000530624
39 *482:30 *672:148 0.000799086
40 *482:30 *694:76 0.000799714
41 *482:30 *704:70 0.000375469
42 *482:66 *2039:D 0.000737932
43 *482:66 *2362:A 0.000332029
44 *482:66 *568:42 7.89983e-05
45 *482:66 *627:106 0.00134407
46 *482:66 *628:68 0.000332029
47 *482:66 *675:56 9.03508e-06
48 *482:76 *2279:A 0.000142647
49 *482:76 *2347:A 2.90597e-05
50 *482:76 *2350:A 0.000253407
51 *482:76 *591:48 4.17092e-05
52 *482:76 *629:58 0.000620669
53 *482:76 *669:155 0.000147475
54 *482:76 *675:56 0.000423624
55 *482:76 *675:64 2.67815e-06
56 *482:76 *693:117 0.000175549
57 *482:105 *513:86 1.37966e-05
58 *482:105 *631:65 4.95724e-05
59 *482:105 *669:155 0.00021175
60 *482:105 *672:52 4.06072e-05
61 *482:105 *693:117 0.000107538
62 *1808:S0 *1808:A1 0.000146358
63 *1808:S0 *1908:A2 0.000111824
64 *1908:S0 *1878:A0 3.59657e-05
65 *2066:A *1878:A0 1.64078e-05
66 *2074:A *1908:A2 8.53224e-05
67 *2164:A *1808:A1 0.000145133
68 *2164:A *1908:A2 0.000120539
69 *2266:A *482:30 3.60024e-06
70 *2267:A *482:30 4.04619e-05
71 *2268:A *482:30 4.95164e-05
72 *2269:A *482:30 0.000325014
73 *2271:A *482:76 6.59674e-05
74 *142:57 *482:30 0.00092721
75 *142:57 *482:66 6.69115e-05
76 *142:89 *482:66 0.000330039
77 *142:89 *482:76 0.000154216
78 *153:105 *482:66 1.77665e-05
79 *153:129 *1878:A0 2.16389e-05
80 *153:129 *482:66 2.49909e-05
81 *154:99 *482:76 1.75583e-05
82 *156:51 *482:66 0.000217221
83 *156:59 *482:66 0.00142918
84 *242:14 *482:30 0
85 *409:32 *482:30 0.000532948
86 *480:70 *482:76 0.000127747
*RES
1 *2266:X *482:30 48.3692 
2 *482:30 *482:66 49.235 
3 *482:66 *482:76 9.38237 
4 *482:76 *1878:A0 22.3425 
5 *482:76 *482:105 1.2372 
6 *482:105 *1808:A1 8.2575 
7 *482:105 *1908:A2 7.815 
*END

*D_NET *483 0.0426202
*CONN
*I *1883:A0 I *D sky130_fd_sc_hd__mux4_1
*I *1909:A2 I *D sky130_fd_sc_hd__mux4_1
*I *1809:A1 I *D sky130_fd_sc_hd__mux4_1
*I *2267:X O *D sky130_fd_sc_hd__clkbuf_2
*CAP
1 *1883:A0 7.08959e-05
2 *1909:A2 5.10738e-05
3 *1809:A1 0.000224584
4 *2267:X 0.00784283
5 *483:102 0.000594749
6 *483:90 0.0013524
7 *483:80 0.00880524
8 *1809:A1 *1809:A3 4.9253e-06
9 *1883:A0 *576:42 0.000109123
10 *1909:A2 *1809:A3 0.000116158
11 *1909:A2 *1909:A0 1.10377e-05
12 *1909:A2 *1909:A1 2.05864e-05
13 *1909:A2 *694:134 9.50342e-06
14 *483:80 *733:DIODE 0.000419252
15 *483:80 *1861:A0 0
16 *483:80 *2003:GATE 1.54272e-05
17 *483:80 *2284:A 0.000234659
18 *483:80 *2290:A 9.10236e-05
19 *483:80 *2297:A 0.000169668
20 *483:80 *2299:A 0.000556459
21 *483:80 *2302:A 1.60594e-05
22 *483:80 *2317:A 0.00401599
23 *483:80 *2321:A 0.000462856
24 *483:80 *2328:A 7.07207e-05
25 *483:80 *2335:A 0
26 *483:80 *2345:A 9.5799e-06
27 *483:80 *517:50 7.10991e-06
28 *483:80 *519:46 0.000289741
29 *483:80 *533:44 2.17397e-05
30 *483:80 *538:72 0.000556187
31 *483:80 *545:72 9.51343e-05
32 *483:80 *558:50 1.074e-05
33 *483:80 *569:58 0.000446705
34 *483:80 *576:42 0
35 *483:80 *579:52 0.00035715
36 *483:80 *579:54 2.482e-05
37 *483:80 *596:50 0.000490178
38 *483:80 *634:78 0.000869312
39 *483:80 *636:50 7.88934e-05
40 *483:80 *642:38 6.17086e-05
41 *483:80 *642:106 9.9511e-05
42 *483:80 *651:209 0.000107452
43 *483:80 *653:14 0
44 *483:80 *653:20 0
45 *483:80 *653:172 0
46 *483:80 *658:58 0.00112768
47 *483:80 *665:38 0.000211844
48 *483:80 *665:50 3.20047e-05
49 *483:80 *675:174 8.46805e-05
50 *483:80 *686:46 0.00393933
51 *483:80 *690:65 9.23627e-05
52 *483:80 *694:76 9.3231e-06
53 *483:80 *697:62 0.000557757
54 *483:80 *702:30 0.000101234
55 *483:80 *703:60 0.000458864
56 *483:80 *706:38 0.000208705
57 *483:80 *707:83 0.000184272
58 *483:90 *1886:A2 0.000130302
59 *483:90 *2004:D 0.000117832
60 *483:90 *524:180 0.000128214
61 *483:90 *576:42 0.000275486
62 *483:102 *1809:A3 5.6361e-05
63 *483:102 *2011:GATE 9.67081e-06
64 *483:102 *2317:A 0.000433558
65 *483:102 *678:49 7.9642e-06
66 *483:102 *696:26 0.000204567
67 *483:102 *696:30 4.36315e-05
68 E6BEG[3] *483:80 1.29049e-05
69 EE4BEG[4] *483:80 0.000117092
70 EE4BEG[5] *483:80 0.000126451
71 EE4BEG[6] *483:80 7.33639e-05
72 FrameData_O[28] *483:80 0.000185479
73 FrameData_O[30] *483:80 0.000390331
74 FrameData_O[31] *483:80 5.56205e-06
75 *743:DIODE *1809:A1 3.76746e-05
76 *1860:A *483:80 1.3758e-05
77 *1883:S0 *1883:A0 0.000122802
78 *1883:S0 *483:90 1.7635e-05
79 *1886:A1 *483:90 4.28819e-05
80 *1886:S1 *483:80 0
81 *1909:S1 *1909:A2 6.10014e-05
82 *2060:A *483:80 9.30787e-05
83 *2065:A *483:90 0.00013777
84 *2073:A *1883:A0 2.49909e-05
85 *2080:A *483:80 8.53113e-06
86 *2103:A *1809:A1 7.00889e-06
87 *2268:A *483:80 5.09765e-05
88 *2269:A *483:80 0.000125067
89 *143:47 *483:80 0.000107452
90 *146:99 *483:90 0.000681685
91 *147:101 *483:80 0
92 *148:111 *483:102 1.88904e-05
93 *150:35 *483:80 2.22315e-05
94 *150:87 *1883:A0 1.7824e-05
95 *160:85 *483:80 0.000388384
96 *242:14 *483:80 4.61701e-06
97 *409:32 *483:80 2.22315e-05
98 *479:30 *483:80 0.00214163
99 *481:30 *483:80 1.56428e-05
100 *482:30 *483:80 0.000338419
*RES
1 *2267:X *483:80 44.969 
2 *483:80 *483:90 18.6425 
3 *483:90 *483:102 5.39643 
4 *483:102 *1809:A1 4.495 
5 *483:102 *1909:A2 7.17875 
6 *483:90 *1883:A0 5.5575 
*END

*D_NET *484 0.0159566
*CONN
*I *1884:A0 I *D sky130_fd_sc_hd__mux4_1
*I *1810:A1 I *D sky130_fd_sc_hd__mux4_1
*I *1910:A2 I *D sky130_fd_sc_hd__mux4_1
*I *2268:X O *D sky130_fd_sc_hd__buf_1
*CAP
1 *1884:A0 0.00210164
2 *1810:A1 3.61815e-05
3 *1910:A2 0.000184806
4 *2268:X 0.000479869
5 *484:29 0.0021959
6 *484:18 0.000722747
7 *1810:A1 *664:125 4.66108e-05
8 *1810:A1 *664:143 8.23457e-05
9 *1884:A0 *733:DIODE 7.8632e-06
10 *1884:A0 *1827:A 6.02792e-05
11 *1884:A0 *1879:A2 0.000151284
12 *1884:A0 *1881:A2 8.00602e-05
13 *1884:A0 *1884:A1 8.35106e-05
14 *1884:A0 *1884:A3 0.000450007
15 *1884:A0 *2297:A 9.03209e-05
16 *1884:A0 *2302:A 0.000173183
17 *1884:A0 *485:20 0.00106257
18 *1884:A0 *517:50 3.4779e-05
19 *1884:A0 *533:44 3.96263e-05
20 *1884:A0 *582:94 4.00503e-05
21 *1884:A0 *587:118 8.71841e-05
22 *1884:A0 *596:140 0.000112892
23 *1884:A0 *600:74 0.000202761
24 *1884:A0 *634:78 0.000828995
25 *1884:A0 *634:154 0.000247121
26 *1884:A0 *635:42 1.90963e-05
27 *1884:A0 *636:50 0.000818771
28 *1884:A0 *659:116 4.27883e-06
29 *1884:A0 *661:132 1.03572e-05
30 *1884:A0 *667:64 0.000151982
31 *1884:A0 *671:111 0.000677287
32 *1884:A0 *675:174 0.000118818
33 *1884:A0 *675:176 0.00026646
34 *1884:A0 *675:192 2.05571e-05
35 *1884:A0 *685:30 1.83975e-05
36 *1884:A0 *685:49 6.3837e-05
37 *1884:A0 *690:65 1.24447e-05
38 *1884:A0 *692:22 0.000280901
39 *1884:A0 *692:37 0.00026281
40 *1884:A0 *692:64 0.000128346
41 *1884:A0 *693:82 1.84688e-05
42 *1884:A0 *694:76 0.000175324
43 *1884:A0 *701:52 0.000203837
44 *1910:A2 *1910:A0 8.16031e-05
45 *1910:A2 *1910:A3 0.000207008
46 *484:18 *2035:D 3.93162e-05
47 *484:18 *2037:GATE 1.05984e-05
48 *484:18 *485:20 0.000285637
49 *484:18 *664:125 0.000154977
50 *484:18 *676:99 2.10214e-05
51 *484:29 *485:20 0.000203488
52 *1810:S0 *1810:A1 0.000118081
53 *1884:S1 *1884:A0 2.49909e-05
54 *1907:S0 *1884:A0 1.19928e-05
55 *2072:A *1910:A2 4.66108e-05
56 *2087:A *1884:A0 0.000109962
57 *2265:A *484:18 2.86975e-05
58 *143:9 *484:18 0.000222166
59 *143:47 *1884:A0 1.46216e-05
60 *144:31 *1884:A0 0.000794984
61 *144:31 *484:18 0.000507871
62 *144:31 *484:29 0.00019317
63 *144:111 *1884:A0 2.52096e-05
*RES
1 *2268:X *484:18 17.755 
2 *484:18 *1910:A2 7.3275 
3 *484:18 *484:29 2.4 
4 *484:29 *1810:A1 4.74 
5 *484:29 *1884:A0 49.331 
*END

*D_NET *485 0.00827571
*CONN
*I *1903:A2 I *D sky130_fd_sc_hd__mux4_1
*I *1879:A2 I *D sky130_fd_sc_hd__mux4_1
*I *1911:A2 I *D sky130_fd_sc_hd__mux4_1
*I *2269:X O *D sky130_fd_sc_hd__buf_1
*CAP
1 *1903:A2 0.000291676
2 *1879:A2 0.000391606
3 *1911:A2 0.000121727
4 *2269:X 0.000992958
5 *485:29 0.000728566
6 *485:20 0.00115997
7 *1879:A2 *1875:A2 5.4003e-05
8 *1879:A2 *533:44 0.000315146
9 *1879:A2 *659:116 4.28819e-05
10 *1879:A2 *685:49 0.000151284
11 *1879:A2 *708:42 2.86817e-05
12 *1903:A2 *1911:A3 1.91597e-05
13 *1903:A2 *676:85 4.41506e-05
14 *1911:A2 *1911:A3 0.00011121
15 *485:20 *1905:A0 4.32962e-05
16 *485:20 *2037:D 1.74678e-05
17 *485:20 *2292:A 0.000222836
18 *485:20 *600:74 0.000183381
19 *485:20 *634:78 4.12303e-05
20 *485:20 *635:42 2.35896e-05
21 *485:20 *637:46 8.84507e-05
22 *485:20 *664:125 0.000479463
23 *485:20 *690:65 1.33949e-05
24 *485:20 *692:22 0.000344968
25 *485:29 *1911:A3 3.83194e-05
26 *1879:S1 *1879:A2 4.7003e-05
27 *1884:A0 *1879:A2 0.000151284
28 *1884:A0 *485:20 0.00106257
29 *1913:S1 *485:20 0.000113821
30 *2071:A *1903:A2 8.72102e-05
31 *2079:A *1879:A2 2.76356e-05
32 *2079:A *1903:A2 2.68464e-05
33 *2269:A *485:20 4.66826e-05
34 *143:47 *1879:A2 0.000213474
35 *148:51 *1903:A2 5.37305e-05
36 *236:124 *1879:A2 6.90889e-06
37 *484:18 *485:20 0.000285637
38 *484:29 *485:20 0.000203488
*RES
1 *2269:X *485:20 29.8095 
2 *485:20 *1911:A2 3.6025 
3 *485:20 *485:29 0.795 
4 *485:29 *1879:A2 18.7537 
5 *485:29 *1903:A2 6.3625 
*END

*D_NET *486 0.00961558
*CONN
*I *1880:A2 I *D sky130_fd_sc_hd__mux4_1
*I *1904:A2 I *D sky130_fd_sc_hd__mux4_1
*I *1912:A2 I *D sky130_fd_sc_hd__mux4_1
*I *2270:X O *D sky130_fd_sc_hd__buf_1
*CAP
1 *1880:A2 0.00111327
2 *1904:A2 0.000112226
3 *1912:A2 1.23857e-05
4 *2270:X 0.00156134
5 *486:35 0.00146193
6 *486:18 0.00181015
7 *1880:A2 *1884:A1 9.50342e-06
8 *1880:A2 *1987:D 1.9872e-05
9 *1880:A2 *505:22 0.000119866
10 *1880:A2 *587:44 0.000162242
11 *1880:A2 *618:40 0.000304801
12 *1880:A2 *624:108 4.41506e-05
13 *1880:A2 *626:126 0.000367716
14 *1880:A2 *640:34 1.252e-05
15 *1880:A2 *643:50 0.000177144
16 *1880:A2 *673:143 3.92306e-05
17 *1904:A2 *1904:A3 4.31192e-06
18 *1904:A2 *626:126 8.39427e-05
19 *1904:A2 *689:24 0.000125345
20 *1912:A2 *706:38 1.10377e-05
21 *486:18 *1956:D 1.83975e-05
22 *486:18 *1957:D 0.000409785
23 *486:18 *2036:D 4.41506e-05
24 *486:18 *2037:D 9.76407e-06
25 *486:18 *525:32 0.000278781
26 *486:18 *628:90 0.000192242
27 *486:18 *700:12 9.60582e-07
28 *486:35 *618:40 0.00015951
29 *486:35 *628:90 0
30 *1904:S1 *1880:A2 0
31 *1904:S1 *486:35 0
32 *1910:S1 *486:18 8.49041e-05
33 *1912:S1 *486:18 0
34 *1912:S1 *486:35 7.9642e-06
35 *2086:A *1880:A2 6.33103e-05
36 *2269:A *486:18 2.86975e-05
37 *147:75 *486:18 3.32976e-05
38 *151:23 *486:18 3.32976e-05
39 *159:77 *1880:A2 0.000337376
40 *181:21 *486:18 1.09923e-05
41 *181:21 *486:35 0
42 *181:56 *1880:A2 0.00034916
*RES
1 *2270:X *486:18 26.86 
2 *486:18 *1912:A2 3.79875 
3 *486:18 *486:35 4.095 
4 *486:35 *1904:A2 6.49125 
5 *486:35 *1880:A2 38.0925 
*END

*D_NET *487 0.00894047
*CONN
*I *2384:A I *D sky130_fd_sc_hd__buf_2
*I *1874:X O *D sky130_fd_sc_hd__a22o_1
*CAP
1 *2384:A 0.000711012
2 *1874:X 0.00188857
3 *487:32 0.00259959
4 *2384:A *1918:D 0.000241883
5 *2384:A *1919:GATE 3.43327e-05
6 *2384:A *2046:D 1.91597e-05
7 *2384:A *2046:GATE 1.08758e-05
8 *2384:A *2388:A 4.94474e-05
9 *2384:A *579:86 2.75145e-05
10 *2384:A *582:20 4.82863e-05
11 *2384:A *583:28 5.75467e-05
12 *2384:A *666:151 2.68526e-05
13 *487:32 *2046:D 4.7101e-05
14 *487:32 *2046:GATE 4.21973e-05
15 *487:32 *2272:A 0.000366801
16 *487:32 *682:29 2.97373e-05
17 *1821:A4 *487:32 6.83488e-05
18 *1835:A1 *487:32 2.25161e-05
19 *1851:S1 *487:32 3.4005e-05
20 *1854:A1 *487:32 5.83121e-06
21 *1854:A2 *487:32 0.000820712
22 *1857:A0 *487:32 0.000950645
23 *1857:A1 *487:32 0.000294502
24 *1867:S0 *487:32 0.000102184
25 *1870:A1 *487:32 0
26 *1870:A2 *487:32 1.04292e-05
27 *1870:B1 *487:32 4.66108e-05
28 *1874:A1 *487:32 3.18211e-05
29 *1874:B1 *487:32 0
30 *147:27 *487:32 0
31 *160:25 *487:32 3.77104e-05
32 *253:14 *487:32 1.83847e-05
33 *253:36 *487:32 0.000135896
34 *253:47 *487:32 0.000159969
35 *416:14 *487:32 0
*RES
1 *1874:X *487:32 49.93 
2 *487:32 *2384:A 12.01 
*END

*D_NET *488 0.00178625
*CONN
*I *2385:A I *D sky130_fd_sc_hd__buf_2
*I *1821:X O *D sky130_fd_sc_hd__a41o_1
*CAP
1 *2385:A 0.000550661
2 *1821:X 0.000550661
3 *2385:A *1916:D 4.66108e-05
4 *2385:A *1916:GATE 3.27419e-05
5 *2385:A *2386:A 8.51862e-05
6 *2385:A *2388:A 0.000263057
7 *2385:A *557:104 0.000257329
8 *2385:A *641:8 0
*RES
1 *1821:X *2385:A 17.385 
*END

*D_NET *489 0.00593161
*CONN
*I *2386:A I *D sky130_fd_sc_hd__buf_2
*I *1916:Q O *D sky130_fd_sc_hd__dlxtp_1
*CAP
1 *2386:A 0.000909036
2 *1916:Q 0.000909036
3 *2386:A *1917:D 1.92979e-05
4 *2386:A *2277:A 0.000115177
5 *2386:A *2391:A 0.00036532
6 *2386:A *2393:A 7.48344e-05
7 *2386:A *2394:A 0.000308567
8 *2386:A *500:28 0.000135896
9 *2386:A *557:104 0.00105173
10 *2386:A *639:58 0.000333313
11 *2386:A *639:60 0
12 *2386:A *640:24 0.000532233
13 *2386:A *666:56 9.37731e-05
14 *2219:A *2386:A 0.00012372
15 *2385:A *2386:A 8.51862e-05
16 *153:39 *2386:A 0.000796318
17 *160:85 *2386:A 7.81669e-05
*RES
1 *1916:Q *2386:A 36.6 
*END

*D_NET *490 0.00908516
*CONN
*I *2387:A I *D sky130_fd_sc_hd__buf_2
*I *1917:Q O *D sky130_fd_sc_hd__dlxtp_1
*CAP
1 *2387:A 0.000436286
2 *1917:Q 0.00136015
3 *490:16 0.00179644
4 *2387:A *2184:A 0.000198759
5 *2387:A *2389:A 1.56428e-05
6 *2387:A *568:122 0.000266085
7 *2387:A *618:24 0.00019027
8 *2387:A *683:10 0.000597926
9 *2387:A *683:18 0.000115254
10 *2387:A *683:106 0.000287344
11 *490:16 *1917:GATE 4.09723e-05
12 *490:16 *2273:A 0.000416575
13 *490:16 *2277:A 2.43547e-05
14 *490:16 *2393:A 8.52003e-06
15 *490:16 *496:20 0.000852334
16 *490:16 *557:104 0.000715024
17 *490:16 *583:28 0.000703743
18 *490:16 *640:24 0.000129223
19 *490:16 *666:56 4.73517e-05
20 *490:16 *666:132 3.91427e-06
21 A_config_C_bit1 *2387:A 8.23457e-05
22 C_I_top *490:16 1.49438e-05
23 *2208:A *490:16 0.000129898
24 *156:39 *2387:A 0.000651796
*RES
1 *1917:Q *490:16 35.59 
2 *490:16 *2387:A 19.29 
*END

*D_NET *491 0.0300425
*CONN
*I *1943:D I *D sky130_fd_sc_hd__dlxtp_1
*I *1975:D I *D sky130_fd_sc_hd__dlxtp_1
*I *2123:A I *D sky130_fd_sc_hd__buf_1
*I *2007:D I *D sky130_fd_sc_hd__dlxtp_1
*I *2039:D I *D sky130_fd_sc_hd__dlxtp_1
*I *2188:X O *D sky130_fd_sc_hd__clkbuf_2
*CAP
1 *1943:D 0
2 *1975:D 0.000401792
3 *2123:A 0
4 *2007:D 0.000207004
5 *2039:D 0.00382435
6 *2188:X 9.56081e-05
7 *491:102 0.000676417
8 *491:96 0.0014886
9 *491:57 0.0027698
10 *491:14 0.00526877
11 *1975:D *2143:A 2.31229e-05
12 *1975:D *2376:A 0.000487297
13 *1975:D *631:18 0.000489651
14 *2007:D *2338:A 0.000155601
15 *2007:D *558:50 0.00010467
16 *2007:D *595:28 0.000106344
17 *2007:D *677:104 3.64998e-06
18 *2039:D *2347:A 3.68634e-05
19 *2039:D *2362:A 0.00194839
20 *2039:D *2391:A 4.28819e-05
21 *2039:D *587:118 4.10355e-05
22 *2039:D *618:112 0.000112925
23 *2039:D *627:106 7.33639e-05
24 *2039:D *628:68 0.000228038
25 *2039:D *644:115 0.00116623
26 *2039:D *652:181 1.38174e-05
27 *2039:D *658:109 1.5479e-05
28 *2039:D *658:133 0.000208193
29 *2039:D *672:124 4.42853e-05
30 *491:14 *2347:A 5.30924e-05
31 *491:14 *512:18 1.7635e-05
32 *491:14 *675:102 1.88656e-05
33 *491:57 *1964:GATE 6.5451e-05
34 *491:57 *2020:D 0.000284625
35 *491:57 *2347:A 0.000314689
36 *491:57 *2362:A 0
37 *491:57 *579:32 5.32158e-05
38 *491:57 *590:170 5.53841e-05
39 *491:57 *626:70 0.000807489
40 *491:57 *627:106 0.000221846
41 *491:57 *628:68 0.000440999
42 *491:57 *672:18 0.000110081
43 *491:96 *738:DIODE 0.000159714
44 *491:96 *1809:A0 0.00102427
45 *491:96 *1964:GATE 6.25379e-05
46 *491:96 *2337:A 0.000565876
47 *491:96 *2350:A 1.23417e-05
48 *491:96 *2377:A 0.000228174
49 *491:96 *519:16 1.91597e-05
50 *491:96 *613:42 2.3093e-05
51 *491:96 *630:66 0.0011432
52 *491:96 *632:152 9.27036e-05
53 *491:96 *635:112 0.000318046
54 *491:96 *669:45 0.000453533
55 *491:96 *689:114 0.000239385
56 *491:102 *1943:GATE 8.40213e-05
57 *491:102 *2337:A 1.56428e-05
58 *491:102 *519:16 0.000118081
59 *1885:S0 *491:96 2.39315e-06
60 *1894:S0 *1975:D 4.89295e-05
61 *1894:S0 *491:102 5.67339e-05
62 *1909:S0 *491:96 0.000301016
63 *2187:A *2039:D 8.63921e-05
64 *2188:A *2039:D 0.000230426
65 *2188:A *491:14 3.3846e-05
66 *2190:A *491:57 1.09082e-05
67 *2209:A *2039:D 0.000119176
68 *2210:A *2039:D 0.000239903
69 *2211:A *2039:D 2.03757e-05
70 *156:59 *2039:D 0.000947223
71 *157:91 *2039:D 0.000161609
72 *480:153 *491:57 8.31725e-06
73 *482:66 *2039:D 0.000737932
*RES
1 *2188:X *491:14 4.9079 
2 *491:14 *2039:D 20.538 
3 *491:14 *491:57 4.59607 
4 *491:57 *2007:D 8.5025 
5 *491:57 *491:96 23.3114 
6 *491:96 *491:102 4.62 
7 *491:102 *2123:A 1.6 
8 *491:102 *1975:D 15.26 
9 *491:96 *1943:D 1.6 
*END

*D_NET *492 0.00723167
*CONN
*I *2388:A I *D sky130_fd_sc_hd__buf_2
*I *1918:Q O *D sky130_fd_sc_hd__dlxtp_1
*CAP
1 *2388:A 0.00191007
2 *1918:Q 0.00191007
3 *2388:A *1920:D 9.08126e-05
4 *2388:A *2278:A 0.0008788
5 *2388:A *505:22 0.000271077
6 *2388:A *600:74 0
7 *2388:A *618:24 0
8 *2388:A *626:148 0.000249219
9 *2388:A *641:8 0
10 *2388:A *641:21 0
11 *1801:A *2388:A 0.000233341
12 *1846:B1 *2388:A 0.00029779
13 *2384:A *2388:A 4.94474e-05
14 *2385:A *2388:A 0.000263057
15 *156:39 *2388:A 0
16 *157:31 *2388:A 0.00103716
17 *267:14 *2388:A 4.0822e-05
*RES
1 *1918:Q *2388:A 49.08 
*END

*D_NET *493 0.0149785
*CONN
*I *2389:A I *D sky130_fd_sc_hd__buf_2
*I *1919:Q O *D sky130_fd_sc_hd__dlxtp_1
*CAP
1 *2389:A 0.00158719
2 *1919:Q 0.00190507
3 *493:16 0.00349227
4 *2389:A *1847:A3 0.000245702
5 *2389:A *2055:D 0.000373573
6 *2389:A *2184:A 0.000445971
7 *2389:A *560:44 0.000214158
8 *2389:A *579:84 4.81428e-05
9 *2389:A *587:44 0.000487211
10 *2389:A *618:24 3.76596e-05
11 *2389:A *644:24 8.83088e-05
12 *2389:A *659:56 0.000364433
13 *2389:A *681:59 0.00031351
14 *2389:A *683:106 0.000577096
15 *2389:A *684:144 0.000119866
16 *493:16 *1829:A0 6.57949e-06
17 *493:16 *1834:A 7.40395e-05
18 *493:16 *2047:D 0.00069142
19 *493:16 *500:28 0.00101888
20 *493:16 *579:84 0.000108614
21 *493:16 *583:28 0.000183972
22 *493:16 *591:142 0.000132261
23 *493:16 *648:28 0.000176967
24 *493:16 *648:49 2.3528e-05
25 *493:16 *681:44 0.000308893
26 *493:16 *681:59 0.000281874
27 *1798:A *493:16 6.45045e-05
28 *1831:B1 *493:16 0.000245741
29 *1833:A2 *493:16 3.50033e-05
30 *1835:A2 *493:16 0.00017321
31 *1843:S1 *2389:A 7.44482e-05
32 *1843:S1 *493:16 6.36907e-05
33 *1847:S0 *2389:A 0.000228436
34 *1849:S *493:16 0.00033607
35 *2387:A *2389:A 1.56428e-05
36 *143:9 *493:16 0
37 *160:25 *493:16 0
38 *253:10 *493:16 0.000124007
39 *255:41 *2389:A 0.000134836
40 *257:29 *493:16 0.000175673
*RES
1 *1919:Q *493:16 43.335 
2 *493:16 *2389:A 40.945 
*END

*D_NET *494 0.0126638
*CONN
*I *2390:A I *D sky130_fd_sc_hd__buf_2
*I *1866:X O *D sky130_fd_sc_hd__a22o_1
*CAP
1 *2390:A 0.00233425
2 *1866:X 0.00160018
3 *494:16 0.00393443
4 *2390:A *1815:A1 5.78601e-05
5 *2390:A *1818:C_N 4.47209e-05
6 *2390:A *1920:D 0.000118081
7 *2390:A *2033:D 0.000157378
8 *2390:A *2117:A 0.000133933
9 *2390:A *601:8 4.44849e-05
10 *2390:A *602:166 0.000118081
11 *2390:A *647:63 0.000108761
12 *2390:A *648:49 0.000119242
13 *494:16 *596:50 0.000809699
14 *494:16 *651:185 0.000478762
15 *1796:A *2390:A 9.37374e-05
16 *1866:A2 *494:16 4.8854e-05
17 *2218:A *494:16 0.000411739
18 *2232:A *494:16 0.00012865
19 *142:31 *494:16 0.000371052
20 *151:15 *494:16 0.00112241
21 *239:24 *2390:A 0.000298436
22 *239:43 *2390:A 9.52263e-05
23 *268:8 *2390:A 3.37953e-05
*RES
1 *1866:X *494:16 45.89 
2 *494:16 *2390:A 32.305 
*END

*D_NET *495 0.0223003
*CONN
*I *2391:A I *D sky130_fd_sc_hd__buf_2
*I *1828:X O *D sky130_fd_sc_hd__a41o_1
*CAP
1 *2391:A 0.00449299
2 *1828:X 0.00449299
3 *2391:A *1972:D 0.000118081
4 *2391:A *2180:A 0.000125211
5 *2391:A *2279:A 0.00049585
6 *2391:A *2281:A 0.000107452
7 *2391:A *2395:A 0.00143655
8 *2391:A *544:46 0.0015517
9 *2391:A *586:44 0.00114637
10 *2391:A *591:102 0.000145532
11 *2391:A *603:68 0.000134793
12 *2391:A *616:44 0.000198493
13 *2391:A *624:58 2.22315e-05
14 *2391:A *631:112 0.00147809
15 *2391:A *632:16 0.000164892
16 *2391:A *637:46 1.63588e-05
17 *2391:A *640:24 0.000230176
18 *2391:A *652:181 9.46182e-05
19 C_I_top *2391:A 1.69185e-05
20 *1828:A4 *2391:A 6.03315e-05
21 *2039:D *2391:A 4.28819e-05
22 *2208:A *2391:A 0.000102614
23 *2209:A *2391:A 0.000101118
24 *2386:A *2391:A 0.00036532
25 *154:41 *2391:A 0.000779309
26 *154:85 *2391:A 0.00117754
27 *157:31 *2391:A 0.00210043
28 *158:23 *2391:A 0.00107629
29 *160:85 *2391:A 1.4641e-05
30 *480:70 *2391:A 1.0522e-05
*RES
1 *1828:X *2391:A 34.9031 
*END

*D_NET *496 0.00951486
*CONN
*I *2392:A I *D sky130_fd_sc_hd__buf_2
*I *1920:Q O *D sky130_fd_sc_hd__dlxtp_1
*CAP
1 *2392:A 0.000515249
2 *1920:Q 0.000986028
3 *496:20 0.00150128
4 *2392:A *2139:A 4.66108e-05
5 *2392:A *601:10 0.00132519
6 *2392:A *624:118 0.00132186
7 *2392:A *631:112 0.000191335
8 *496:20 *2032:D 0.000120608
9 *496:20 *2273:A 0.000306286
10 *496:20 *2395:A 0.00137346
11 *496:20 *583:28 0.000416975
12 *496:20 *590:12 0.000119756
13 *496:20 *624:122 0
14 *496:20 *624:130 0.000141599
15 *496:20 *638:24 0.000109898
16 *154:41 *496:20 0.000186385
17 *490:16 *496:20 0.000852334
*RES
1 *1920:Q *496:20 36.16 
2 *496:20 *2392:A 22.74 
*END

*D_NET *497 0.00582397
*CONN
*I *2393:A I *D sky130_fd_sc_hd__buf_2
*I *1921:Q O *D sky130_fd_sc_hd__dlxtp_1
*CAP
1 *2393:A 0.000931116
2 *1921:Q 0.000931116
3 *2393:A *2273:A 0.000221358
4 *2393:A *2274:A 0.000123396
5 *2393:A *2277:A 0.000115177
6 *2393:A *2394:A 0.00143099
7 *2393:A *557:58 0.000407458
8 *2393:A *666:56 9.71067e-05
9 *2393:A *672:190 3.96284e-05
10 *2393:A *684:130 0.000148992
11 *2393:A *684:136 0.000166346
12 A_config_C_bit0 *2393:A 6.06593e-05
13 A_config_C_bit2 *2393:A 1.7635e-05
14 A_config_C_bit3 *2393:A 0.000100765
15 B_config_C_bit0 *2393:A 1.88656e-05
16 D_I_top *2393:A 8.3739e-05
17 D_T_top *2393:A 1.92979e-05
18 *2386:A *2393:A 7.48344e-05
19 *156:51 *2393:A 0.000268434
20 *157:31 *2393:A 0.000342253
21 *157:53 *2393:A 0.000114958
22 *160:85 *2393:A 0.000101323
23 *490:16 *2393:A 8.52003e-06
*RES
1 *1921:Q *2393:A 35.655 
*END

*D_NET *498 0.00502132
*CONN
*I *2394:A I *D sky130_fd_sc_hd__buf_2
*I *1922:Q O *D sky130_fd_sc_hd__dlxtp_1
*CAP
1 *2394:A 0.000583943
2 *1922:Q 0.000583943
3 *2394:A *2276:A 0.000625492
4 *2394:A *624:130 4.92062e-05
5 *2394:A *639:58 0.000881511
6 *2394:A *684:130 0.000179227
7 *2394:A *684:136 0.000163019
8 B_config_C_bit0 *2394:A 1.88656e-05
9 *2386:A *2394:A 0.000308567
10 *2393:A *2394:A 0.00143099
11 *156:51 *2394:A 0.000196552
*RES
1 *1922:Q *2394:A 29.775 
*END

*D_NET *499 0.010307
*CONN
*I *2395:A I *D sky130_fd_sc_hd__buf_2
*I *1923:Q O *D sky130_fd_sc_hd__dlxtp_1
*CAP
1 *2395:A 0.00137644
2 *1923:Q 0.00137644
3 *2395:A *2273:A 0.000857398
4 *2395:A *586:44 0.00140759
5 *2395:A *587:44 8.41703e-06
6 *2395:A *638:24 0.00230385
7 *2395:A *684:130 1.92979e-05
8 A_config_C_bit2 *2395:A 1.11766e-05
9 B_config_C_bit3 *2395:A 2.85535e-05
10 C_config_C_bit0 *2395:A 6.85149e-05
11 *2391:A *2395:A 0.00143655
12 *157:31 *2395:A 3.92756e-05
13 *496:20 *2395:A 0.00137346
*RES
1 *1923:Q *2395:A 41.2311 
*END

*D_NET *500 0.00822112
*CONN
*I *2396:A I *D sky130_fd_sc_hd__buf_2
*I *1858:X O *D sky130_fd_sc_hd__a22o_1
*CAP
1 *2396:A 0
2 *1858:X 0.00215966
3 *500:28 0.00215966
4 *500:28 *1851:A2 1.54111e-05
5 *500:28 *1851:A3 0.000386945
6 *500:28 *1924:GATE 3.96284e-05
7 *500:28 *2144:A 3.30017e-05
8 *500:28 *640:24 0.000137563
9 *500:28 *641:23 2.76356e-05
10 *500:28 *647:46 5.6605e-05
11 *500:28 *648:49 0.000263286
12 *500:28 *649:53 0.000193801
13 *500:28 *652:44 3.63733e-05
14 *500:28 *653:54 0.000229911
15 *500:28 *666:32 0.000118585
16 *500:28 *681:44 0.000338219
17 *1803:A *500:28 9.50342e-06
18 *1846:B1 *500:28 0.000156915
19 *1850:A2 *500:28 4.82919e-05
20 *1851:S1 *500:28 7.73272e-05
21 *1854:B1 *500:28 0.000185405
22 *1858:B1 *500:28 0
23 *2386:A *500:28 0.000135896
24 *143:9 *500:28 0
25 *147:27 *500:28 4.05358e-05
26 *257:14 *500:28 0.000196479
27 *257:29 *500:28 0.000155601
28 *493:16 *500:28 0.00101888
*RES
1 *1858:X *500:28 49.88 
2 *500:28 *2396:A 3.6 
*END

*D_NET *501 0.00770035
*CONN
*I *2272:A I *D sky130_fd_sc_hd__buf_2
*I *1835:X O *D sky130_fd_sc_hd__a41o_1
*CAP
1 *2272:A 0.00183305
2 *1835:X 0.00183305
3 *2272:A *1843:A0 2.72392e-05
4 *2272:A *1843:A1 0.000347371
5 *2272:A *1843:A3 4.79224e-05
6 *2272:A *579:84 0.00119486
7 *2272:A *582:20 0.000435977
8 *2272:A *648:22 0.000369622
9 *2272:A *655:16 0.000182269
10 *2272:A *655:24 0.000137886
11 *1821:A2 *2272:A 0.000140754
12 *1821:B1 *2272:A 6.98926e-05
13 *1830:B *2272:A 0.000219692
14 *1835:A1 *2272:A 2.25119e-05
15 *1835:A2 *2272:A 0
16 *1835:A4 *2272:A 4.82919e-05
17 *1845:S0 *2272:A 8.48067e-05
18 *1850:A2 *2272:A 8.93951e-05
19 *150:35 *2272:A 0.000129951
20 *160:25 *2272:A 2.69219e-05
21 *239:24 *2272:A 9.20976e-05
22 *487:32 *2272:A 0.000366801
*RES
1 *1835:X *2272:A 47.305 
*END

*D_NET *502 0.0147461
*CONN
*I *1976:D I *D sky130_fd_sc_hd__dlxtp_1
*I *2124:A I *D sky130_fd_sc_hd__clkbuf_1
*I *2008:D I *D sky130_fd_sc_hd__dlxtp_1
*I *2040:D I *D sky130_fd_sc_hd__dlxtp_1
*I *1944:D I *D sky130_fd_sc_hd__dlxtp_1
*I *2189:X O *D sky130_fd_sc_hd__buf_1
*CAP
1 *1976:D 8.19512e-05
2 *2124:A 0.000149761
3 *2008:D 0
4 *2040:D 0.000174148
5 *1944:D 2.08101e-05
6 *2189:X 0.000133254
7 *502:105 0.000467181
8 *502:79 0.000739117
9 *502:65 0.00185978
10 *502:14 0.00151666
11 *502:8 0.000569761
12 *1976:D *673:6 1.91597e-05
13 *1976:D *673:21 2.10214e-05
14 *2040:D *582:94 0
15 *2040:D *587:118 0.000239966
16 *2040:D *618:112 0.000181633
17 *2040:D *633:78 0.000121031
18 *2040:D *634:10 4.28819e-05
19 *2040:D *636:50 2.92496e-05
20 *2040:D *671:30 0.000157602
21 *2124:A *1976:GATE 9.53428e-06
22 *2124:A *535:16 0.000105331
23 *2124:A *673:6 0.000120407
24 *502:8 *1878:A1 4.77719e-05
25 *502:8 *1928:GATE 3.83194e-05
26 *502:8 *2347:A 0.000121023
27 *502:8 *668:14 0.000267116
28 *502:8 *670:65 5.14775e-05
29 *502:14 *1878:A1 6.23541e-06
30 *502:14 *557:44 0.00050225
31 *502:65 *1808:A3 0.000201463
32 *502:65 *2345:A 0
33 *502:65 *513:37 0.00014804
34 *502:65 *513:86 0.00035681
35 *502:65 *634:154 0.000143174
36 *502:65 *643:116 0
37 *502:65 *643:164 1.83975e-05
38 *502:65 *671:10 5.83121e-06
39 *502:65 *672:52 0.000379551
40 *502:65 *674:40 6.74067e-05
41 *502:65 *674:80 2.25106e-05
42 *502:65 *679:59 0.000708993
43 *502:65 *693:84 7.47145e-05
44 *502:65 *693:117 0.000215013
45 *502:65 *693:142 1.84424e-05
46 *502:65 *698:68 0.000850643
47 *502:79 *1888:A1 6.23541e-06
48 *502:79 *2322:A 8.5684e-05
49 *502:79 *582:94 0.000203389
50 *502:79 *634:154 0.000148849
51 *502:79 *635:10 3.64998e-06
52 *502:79 *635:102 2.10959e-05
53 *502:79 *636:50 4.66108e-05
54 *502:79 *636:159 1.08129e-05
55 *502:79 *643:116 0.000100749
56 *502:79 *675:130 0.000215139
57 *502:79 *677:61 0
58 *502:79 *687:92 5.87861e-05
59 *502:79 *693:82 9.22251e-05
60 *502:105 *1878:A1 5.50183e-07
61 *502:105 *557:44 0.000517788
62 *502:105 *670:65 0.000487129
63 *1808:S1 *502:65 0.000112182
64 *1878:A0 *502:8 0.000131615
65 *1878:A0 *502:14 0.000507915
66 *1878:A0 *502:65 5.89072e-05
67 *2066:A *502:65 0.000234181
68 *2175:A *2124:A 7.22152e-05
69 *153:129 *1976:D 8.23457e-05
70 *153:129 *2124:A 3.83194e-05
71 *153:129 *502:14 4.91825e-05
72 *153:129 *502:65 0
73 *153:129 *502:105 2.77532e-05
74 *157:91 *502:65 0.000112893
75 *157:91 *502:79 0.00028564
76 *480:108 *502:14 2.01259e-05
77 *480:108 *502:65 8.73389e-06
*RES
1 *2189:X *502:8 7.5 
2 *502:8 *502:14 9.02 
3 *502:14 *1944:D 1.96 
4 *502:14 *502:65 49.61 
5 *502:65 *502:79 16.555 
6 *502:79 *2040:D 10.925 
7 *502:79 *2008:D 1.6 
8 *502:8 *502:105 9.035 
9 *502:105 *2124:A 5.185 
10 *502:105 *1976:D 3.085 
*END

*D_NET *503 0.00822297
*CONN
*I *2273:A I *D sky130_fd_sc_hd__buf_2
*I *1924:Q O *D sky130_fd_sc_hd__dlxtp_1
*CAP
1 *2273:A 0.001177
2 *1924:Q 0.001177
3 *2273:A *1876:A2 8.23457e-05
4 *2273:A *1927:D 0.000205903
5 *2273:A *2274:A 0.00152757
6 *2273:A *557:58 0.000116797
7 *2273:A *624:130 0.000138968
8 *2273:A *631:116 0.000103313
9 *2273:A *638:24 2.4997e-05
10 *2273:A *640:24 4.03499e-05
11 *2273:A *672:190 2.2142e-05
12 A_config_C_bit0 *2273:A 2.09442e-05
13 A_config_C_bit1 *2273:A 0.000127062
14 C_I_top *2273:A 7.23533e-05
15 D_I_top *2273:A 8.3739e-05
16 D_T_top *2273:A 1.92979e-05
17 *2393:A *2273:A 0.000221358
18 *2395:A *2273:A 0.000857398
19 *157:31 *2273:A 8.7815e-05
20 *157:53 *2273:A 0.000925821
21 *160:85 *2273:A 0.000467931
22 *490:16 *2273:A 0.000416575
23 *496:20 *2273:A 0.000306286
*RES
1 *1924:Q *2273:A 49.245 
*END

*D_NET *504 0.00615296
*CONN
*I *2274:A I *D sky130_fd_sc_hd__buf_2
*I *1925:Q O *D sky130_fd_sc_hd__dlxtp_1
*CAP
1 *2274:A 0.00101408
2 *1925:Q 0.00101408
3 *2274:A *1876:A2 1.19928e-05
4 *2274:A *1927:D 4.77719e-05
5 *2274:A *1952:GATE 0.000142294
6 *2274:A *505:22 6.33103e-05
7 *2274:A *568:112 0.000257159
8 *2274:A *587:44 0.00017409
9 *2274:A *638:24 0.00108958
10 *2274:A *672:190 8.7152e-06
11 *2274:A *684:130 0.00058878
12 A_config_C_bit2 *2274:A 1.88656e-05
13 C_config_C_bit0 *2274:A 7.9642e-06
14 C_config_C_bit1 *2274:A 6.33103e-05
15 *2273:A *2274:A 0.00152757
16 *2393:A *2274:A 0.000123396
*RES
1 *1925:Q *2274:A 45.395 
*END

*D_NET *505 0.00935017
*CONN
*I *2275:A I *D sky130_fd_sc_hd__buf_2
*I *1926:Q O *D sky130_fd_sc_hd__dlxtp_1
*CAP
1 *2275:A 3.63286e-05
2 *1926:Q 0.00230303
3 *505:22 0.00233936
4 *505:22 *1926:D 0.000170532
5 *505:22 *1986:D 8.23457e-05
6 *505:22 *1986:GATE 4.88555e-05
7 *505:22 *591:126 0.000445722
8 *505:22 *602:166 3.96088e-05
9 *505:22 *626:126 3.82323e-06
10 *505:22 *626:148 8.73389e-06
11 *505:22 *643:50 0.00176228
12 *505:22 *651:137 0.000326354
13 *505:22 *652:34 5.83121e-06
14 *505:22 *668:109 0.000583075
15 *505:22 *668:115 0.000342347
16 *505:22 *672:190 3.31994e-05
17 A_config_C_bit2 *505:22 1.68871e-05
18 C_config_C_bit1 *505:22 2.81365e-05
19 *1838:B1 *505:22 2.96329e-05
20 *1838:C1 *505:22 2.26387e-05
21 *1842:A3 *505:22 0.000116165
22 *1842:A4 *505:22 0.000136606
23 *1880:A2 *505:22 0.000119866
24 *2274:A *505:22 6.33103e-05
25 *2388:A *505:22 0.000271077
26 *157:53 *2275:A 0
27 *159:77 *505:22 1.44356e-05
*RES
1 *1926:Q *505:22 49.955 
2 *505:22 *2275:A 2.215 
*END

*D_NET *506 0.00566662
*CONN
*I *2276:A I *D sky130_fd_sc_hd__buf_2
*I *1927:Q O *D sky130_fd_sc_hd__dlxtp_1
*CAP
1 *2276:A 0.00075686
2 *1927:Q 0.00075686
3 *2276:A *1926:D 0
4 *2276:A *1927:D 6.58339e-05
5 *2276:A *1953:D 0.000171341
6 *2276:A *587:44 0.00109625
7 *2276:A *594:48 3.63701e-06
8 *2276:A *624:118 4.66108e-05
9 *2276:A *639:30 3.23112e-05
10 *2276:A *639:58 0.00154682
11 *2276:A *640:34 4.66108e-05
12 *2276:A *684:130 6.8316e-05
13 *2276:A *689:92 0.000301761
14 *2394:A *2276:A 0.000625492
15 *156:51 *2276:A 0.000147915
*RES
1 *1927:Q *2276:A 32.61 
*END

*D_NET *507 0.00230724
*CONN
*I *2277:A I *D sky130_fd_sc_hd__buf_2
*I *1850:X O *D sky130_fd_sc_hd__a22o_1
*CAP
1 *2277:A 0.000892946
2 *1850:X 0.000892946
3 *2277:A *1843:A1 9.52613e-06
4 *2277:A *666:56 0.000139025
5 *1801:A *2277:A 9.27125e-05
6 *1850:B2 *2277:A 2.53771e-05
7 *2386:A *2277:A 0.000115177
8 *2393:A *2277:A 0.000115177
9 *490:16 *2277:A 2.43547e-05
*RES
1 *1850:X *2277:A 18 
*END

*D_NET *508 0.00523335
*CONN
*I *2278:A I *D sky130_fd_sc_hd__buf_2
*I *1842:X O *D sky130_fd_sc_hd__a41o_1
*CAP
1 *2278:A 0.00112529
2 *1842:X 0.00112529
3 *2278:A *2134:A 0.000156758
4 *2278:A *591:126 8.38897e-06
5 *2278:A *618:24 0.00011432
6 *2278:A *626:148 0.000464566
7 *2278:A *627:118 0.000220327
8 *2278:A *672:190 0.00096264
9 *1837:A_N *2278:A 0.00011099
10 *1839:A *2278:A 4.66108e-05
11 *1898:S0 *2278:A 1.93765e-05
12 *2388:A *2278:A 0.0008788
*RES
1 *1842:X *2278:A 32.61 
*END

*D_NET *509 0.0168247
*CONN
*I *2279:A I *D sky130_fd_sc_hd__buf_2
*I *1928:Q O *D sky130_fd_sc_hd__dlxtp_1
*CAP
1 *2279:A 0.00310714
2 *1928:Q 0.00310714
3 *2279:A *1880:A0 2.32546e-05
4 *2279:A *1928:D 1.56428e-05
5 *2279:A *2108:A 3.98648e-05
6 *2279:A *2280:A 0.000323146
7 *2279:A *2282:A 0.000108651
8 *2279:A *2347:A 2.22315e-05
9 *2279:A *512:18 0.000490509
10 *2279:A *544:46 0.000283704
11 *2279:A *582:40 0.000110762
12 *2279:A *582:94 0.000912099
13 *2279:A *591:102 2.23648e-05
14 *2279:A *600:122 0.000222092
15 *2279:A *603:68 0.00189439
16 *2279:A *613:95 0.000216766
17 *2279:A *613:107 0.000194658
18 *2279:A *616:44 0.000533303
19 *2279:A *624:58 0.000939728
20 *2279:A *626:70 0.000865099
21 *2279:A *628:68 0.000973945
22 *2279:A *654:96 0.000491203
23 *2279:A *680:46 6.21955e-05
24 *2279:A *684:124 0.00010481
25 *2279:A *689:92 0.000253778
26 D_config_C_bit0 *2279:A 2.20014e-05
27 D_config_C_bit1 *2279:A 8.54145e-05
28 D_config_C_bit3 *2279:A 9.73612e-05
29 *718:DIODE *2279:A 1.88656e-05
30 *1880:S0 *2279:A 2.39856e-05
31 *2193:A *2279:A 0.000107452
32 *2230:A *2279:A 6.69087e-05
33 *2271:A *2279:A 0.000103741
34 *2391:A *2279:A 0.00049585
35 *142:57 *2279:A 7.97096e-05
36 *153:105 *2279:A 0.000183322
37 *480:70 *2279:A 7.89975e-05
38 *482:76 *2279:A 0.000142647
*RES
1 *1928:Q *2279:A 44.8118 
*END

*D_NET *510 0.0101797
*CONN
*I *2280:A I *D sky130_fd_sc_hd__buf_2
*I *1929:Q O *D sky130_fd_sc_hd__dlxtp_1
*CAP
1 *2280:A 0.000158723
2 *1929:Q 0.00146435
3 *510:28 0.00162307
4 *2280:A *2282:A 0.000112811
5 *2280:A *613:95 0.000451817
6 *510:28 *2025:D 2.49909e-05
7 *510:28 *2282:A 2.03814e-05
8 *510:28 *512:18 3.51666e-05
9 *510:28 *556:46 0.000360526
10 *510:28 *603:68 7.12477e-05
11 *510:28 *616:44 0.000715172
12 *510:28 *626:70 9.43218e-05
13 *510:28 *627:106 0.000268139
14 *510:28 *629:58 0.000273605
15 *510:28 *633:30 1.45232e-05
16 *510:28 *638:16 0.000701694
17 *510:28 *638:74 2.11536e-05
18 *510:28 *639:30 0.000113797
19 *510:28 *658:109 2.05583e-05
20 *510:28 *674:80 0.000135548
21 *510:28 *684:8 5.75554e-06
22 *2214:A *510:28 8.23457e-05
23 *2252:A *510:28 4.04634e-05
24 *2279:A *2280:A 0.000323146
25 *153:59 *510:28 0.000220206
26 *153:105 *510:28 4.66108e-05
27 *154:99 *510:28 0.000780523
28 *157:53 *510:28 3.64998e-06
29 *157:91 *510:28 0.00101156
30 *158:71 *510:28 0.00098385
*RES
1 *1929:Q *510:28 49.95 
2 *510:28 *2280:A 11.06 
*END

*D_NET *511 0.0191949
*CONN
*I *2281:A I *D sky130_fd_sc_hd__buf_2
*I *1930:Q O *D sky130_fd_sc_hd__dlxtp_1
*CAP
1 *2281:A 0.00127187
2 *1930:Q 0.000354153
3 *511:12 0.00220409
4 *511:8 0.00128637
5 *2281:A *1876:A2 0.000111459
6 *2281:A *544:46 4.26884e-05
7 *2281:A *557:46 0.00168564
8 *2281:A *591:102 0.000175629
9 *2281:A *600:122 0.000894026
10 *2281:A *602:123 0.000192321
11 *2281:A *624:58 6.1934e-05
12 *2281:A *626:96 0.000447601
13 *2281:A *628:68 0.00135521
14 *2281:A *638:16 0.00106696
15 *2281:A *680:46 1.1732e-05
16 *2281:A *694:76 3.26607e-05
17 *511:8 *602:20 0
18 *511:12 *556:26 0.000191099
19 *511:12 *557:46 9.11728e-06
20 *511:12 *568:42 0.000120874
21 *511:12 *633:34 0.00370941
22 *511:12 *694:76 0.000779449
23 *723:DIODE *511:12 8.97006e-07
24 *742:DIODE *511:12 0.00166367
25 *2205:A *2281:A 1.89491e-05
26 *2209:A *2281:A 6.29056e-05
27 *2230:A *2281:A 9.39388e-06
28 *2391:A *2281:A 0.000107452
29 *142:89 *2281:A 0.000272632
30 *158:75 *511:12 0.000863407
31 *482:30 *2281:A 0.000191335
*RES
1 *1930:Q *511:8 7.845 
2 *511:8 *511:12 46.77 
3 *511:12 *2281:A 39.4345 
*END

*D_NET *512 0.0157904
*CONN
*I *2282:A I *D sky130_fd_sc_hd__buf_2
*I *1931:Q O *D sky130_fd_sc_hd__dlxtp_1
*CAP
1 *2282:A 0.0010203
2 *1931:Q 0.00130034
3 *512:18 0.00232064
4 *2282:A *2025:D 0.000300299
5 *2282:A *2347:A 8.97006e-07
6 *2282:A *546:31 0.00197165
7 *2282:A *602:70 3.96263e-05
8 *2282:A *629:35 3.47757e-05
9 *2282:A *629:52 0.000477343
10 *2282:A *637:46 0.000143107
11 *2282:A *638:74 0.000132262
12 *2282:A *639:30 7.07253e-05
13 *2282:A *654:20 3.99932e-05
14 *2282:A *679:8 2.98256e-05
15 *2282:A *679:59 1.68627e-05
16 *2282:A *687:92 0.00015609
17 *512:18 *1813:A0 0.000493323
18 *512:18 *1928:GATE 0.000331466
19 *512:18 *1960:GATE 0.00011456
20 *512:18 *2020:GATE 0.00033369
21 *512:18 *2347:A 0.000153776
22 *512:18 *524:14 2.10433e-05
23 *512:18 *579:32 0.000117474
24 *512:18 *591:48 0.00111619
25 *512:18 *603:68 0.000242399
26 *512:18 *625:10 1.92642e-05
27 *512:18 *628:26 6.18754e-05
28 *512:18 *629:69 2.37321e-05
29 *512:18 *654:96 9.31706e-05
30 *512:18 *674:40 0.00017523
31 *512:18 *674:114 0.00102561
32 *512:18 *675:56 7.01859e-05
33 *512:18 *675:102 0.000165459
34 *512:18 *687:92 0.00020888
35 *512:18 *698:68 7.91584e-06
36 *512:18 *698:175 0.000169048
37 *2187:A *512:18 8.00712e-05
38 *2188:A *512:18 4.18147e-05
39 *2190:A *512:18 8.0175e-05
40 *2191:A *512:18 8.37189e-05
41 *2192:A *512:18 4.04634e-05
42 *2252:A *512:18 4.04634e-05
43 *2263:A *512:18 0.000248657
44 *2279:A *2282:A 0.000108651
45 *2279:A *512:18 0.000490509
46 *2280:A *2282:A 0.000112811
47 *142:89 *512:18 1.38676e-05
48 *153:105 *2282:A 9.39388e-06
49 *154:85 *2282:A 0.00107498
50 *158:71 *2282:A 5.29399e-05
51 *158:71 *512:18 0.00023965
52 *491:14 *512:18 1.7635e-05
53 *510:28 *2282:A 2.03814e-05
54 *510:28 *512:18 3.51666e-05
*RES
1 *1931:Q *512:18 47.085 
2 *512:18 *2282:A 34.56 
*END

*D_NET *513 0.016661
*CONN
*I *1977:D I *D sky130_fd_sc_hd__dlxtp_1
*I *2041:D I *D sky130_fd_sc_hd__dlxtp_1
*I *2009:D I *D sky130_fd_sc_hd__dlxtp_1
*I *1945:D I *D sky130_fd_sc_hd__dlxtp_1
*I *2125:A I *D sky130_fd_sc_hd__clkbuf_1
*I *2190:X O *D sky130_fd_sc_hd__buf_1
*CAP
1 *1977:D 0.00017906
2 *2041:D 0.000629049
3 *2009:D 0.000201482
4 *1945:D 0.000195008
5 *2125:A 2.51931e-05
6 *2190:X 0.000543024
7 *513:86 0.00208175
8 *513:37 0.00207916
9 *513:12 0.00065813
10 *513:10 0.000722084
11 *1945:D *582:94 4.97522e-05
12 *1945:D *625:8 9.35851e-05
13 *1977:D *1977:GATE 3.64998e-06
14 *1977:D *2339:A 0.000308647
15 *1977:D *2350:A 0
16 *1977:D *670:65 3.94887e-05
17 *1977:D *673:21 7.00115e-05
18 *1977:D *673:34 3.91191e-05
19 *1977:D *673:185 4.01535e-05
20 *2041:D *618:112 2.76356e-05
21 *2041:D *630:84 0.00061919
22 *2041:D *658:133 0.000220738
23 *2041:D *661:203 1.08856e-05
24 *2041:D *668:81 0.000570836
25 *2041:D *673:106 2.76356e-05
26 *2041:D *673:124 7.0334e-05
27 *2041:D *675:140 0.000119242
28 *2125:A *2338:A 4.66108e-05
29 *513:10 *2020:GATE 1.56428e-05
30 *513:10 *2350:A 0
31 *513:37 *1893:A3 0.000117918
32 *513:37 *2338:A 0.000381473
33 *513:37 *519:40 0.000835006
34 *513:37 *679:59 0.00102951
35 *513:37 *693:117 3.0632e-05
36 *513:37 *693:142 4.04634e-05
37 *513:86 *1813:A0 5.10132e-05
38 *513:86 *1888:A0 0.000125229
39 *513:86 *2297:A 0.000108176
40 *513:86 *591:48 2.33514e-05
41 *513:86 *625:8 3.27231e-05
42 *513:86 *631:65 0
43 *513:86 *634:154 0.000160294
44 *513:86 *643:116 0.000276754
45 *513:86 *643:164 9.40935e-05
46 *513:86 *658:133 0.000309343
47 *513:86 *672:52 0.00015347
48 *513:86 *674:40 2.38758e-05
49 *513:86 *675:140 0.000162318
50 *513:86 *679:59 0.00059002
51 *513:86 *693:117 6.17446e-06
52 *1824:A2 *2041:D 1.29462e-05
53 *1828:B1 *2041:D 2.39856e-05
54 *1908:A2 *513:37 2.16392e-05
55 *1908:S1 *513:86 7.00225e-05
56 *143:109 *513:86 0.000845313
57 *143:117 *513:37 9.23473e-05
58 *143:117 *513:86 0.000102996
59 *153:129 *1977:D 0.000126298
60 *153:129 *513:10 0.00013507
61 *153:129 *513:86 0
62 *157:91 *513:86 0.00033763
63 *245:59 *2041:D 8.53113e-06
64 *246:6 *2041:D 0.000120789
65 *246:36 *2041:D 5.83121e-06
66 *482:105 *513:86 1.37966e-05
67 *502:65 *513:37 0.00014804
68 *502:65 *513:86 0.00035681
*RES
1 *2190:X *513:10 9.825 
2 *513:10 *513:12 2 
3 *513:12 *2125:A 2.05 
4 *513:12 *513:37 27.455 
5 *513:37 *1945:D 5.14 
6 *513:37 *513:86 36.4493 
7 *513:86 *2009:D 4.12 
8 *513:86 *2041:D 20.84 
9 *513:10 *1977:D 8.235 
*END

*D_NET *514 0.0317347
*CONN
*I *2283:A I *D sky130_fd_sc_hd__buf_2
*I *729:DIODE I *D sky130_fd_sc_hd__diode_2
*I *2060:X O *D sky130_fd_sc_hd__buf_1
*CAP
1 *2283:A 4.165e-05
2 *729:DIODE 0
3 *2060:X 0.00157152
4 *514:94 0.00691706
5 *514:22 0.00844692
6 *2283:A *699:66 8.23457e-05
7 *514:22 *2331:A 4.77757e-05
8 *514:22 *2346:A 5.89842e-05
9 *514:22 *2352:A 0.000420797
10 *514:22 *2359:A 1.41165e-05
11 *514:22 *524:49 0.000368225
12 *514:22 *536:26 0
13 *514:22 *564:16 0.00169525
14 *514:22 *564:52 0.000333655
15 *514:22 *567:96 0.000662744
16 *514:22 *695:90 0.00010163
17 *514:22 *704:90 0.000401491
18 *514:94 *1881:A0 5.31006e-05
19 *514:94 *1881:A2 1.54111e-05
20 *514:94 *2291:A 0.00170401
21 *514:94 *2304:A 3.89311e-05
22 *514:94 *2305:A 3.98777e-05
23 *514:94 *2308:A 5.69107e-05
24 *514:94 *2312:A 8.23457e-05
25 *514:94 *2318:A 0.000415883
26 *514:94 *2359:A 0.000105903
27 *514:94 *528:36 2.2228e-05
28 *514:94 *531:62 0.000408435
29 *514:94 *533:44 1.79483e-05
30 *514:94 *535:76 0.000110762
31 *514:94 *538:72 0.00112918
32 *514:94 *539:26 4.26162e-05
33 *514:94 *545:72 3.65956e-05
34 *514:94 *559:46 1.49294e-05
35 *514:94 *567:90 0.000332417
36 *514:94 *569:58 1.29049e-05
37 *514:94 *585:66 0.000280436
38 *514:94 *594:48 4.11615e-05
39 *514:94 *635:42 0.000442605
40 *514:94 *644:46 5.83121e-06
41 *514:94 *650:254 1.88656e-05
42 *514:94 *653:172 1.29049e-05
43 *514:94 *659:213 2.28645e-05
44 *514:94 *659:227 1.37292e-05
45 *514:94 *665:38 8.08394e-05
46 *514:94 *665:83 0.000714108
47 *514:94 *676:48 0
48 *514:94 *686:46 5.80352e-06
49 *514:94 *695:90 1.27848e-05
50 *514:94 *699:66 0.000118081
51 E1BEG[0] *514:94 3.92756e-05
52 E1BEG[1] *514:94 1.06015e-05
53 E6BEG[0] *514:94 1.24541e-05
54 E6BEG[11] *514:94 0.000378144
55 E6BEG[3] *514:94 3.76587e-05
56 FrameData_O[19] *514:22 0.000725917
57 FrameData_O[1] *514:94 0.000196442
58 FrameData_O[22] *514:22 4.11718e-05
59 FrameData_O[28] *514:22 4.06895e-05
60 FrameData_O[29] *514:22 0.00038244
61 FrameData_O[2] *514:22 0
62 FrameData_O[30] *514:22 0.000135759
63 FrameData_O[5] *514:94 1.91931e-05
64 FrameData_O[6] *514:94 3.33486e-06
65 *1881:S1 *514:94 0.000131723
66 *1889:S0 *514:22 8.52883e-05
67 *2060:A *514:22 0.000105973
68 *2085:A *514:94 6.61627e-05
69 *2243:A *514:94 5.56633e-06
70 *143:47 *514:94 2.10433e-05
71 *146:89 *514:94 4.14715e-05
72 *148:89 *514:94 0.000420112
73 *149:93 *514:94 3.72071e-05
74 *149:111 *514:94 0.000189386
75 *159:101 *514:94 2.22315e-05
76 *235:45 *514:94 1.52427e-05
77 *235:93 *514:94 0.000257955
78 *235:113 *514:94 5.83121e-06
79 *482:30 *514:94 0.000731829
*RES
1 *2060:X *514:22 49.85 
2 *514:22 *514:94 44.9719 
3 *514:94 *729:DIODE 1.6 
4 *514:94 *2283:A 2.395 
*END

*D_NET *515 0.0163542
*CONN
*I *2284:A I *D sky130_fd_sc_hd__buf_2
*I *2061:X O *D sky130_fd_sc_hd__buf_1
*CAP
1 *2284:A 0.00300735
2 *2061:X 0.00300735
3 *2284:A *1885:A2 0.00145473
4 *2284:A *1903:A3 6.2706e-05
5 *2284:A *1999:D 1.38481e-05
6 *2284:A *2030:D 1.79536e-05
7 *2284:A *2286:A 0.000183323
8 *2284:A *2287:A 9.50342e-06
9 *2284:A *2288:A 7.83475e-05
10 *2284:A *2302:A 5.63183e-05
11 *2284:A *516:54 0
12 *2284:A *520:56 9.57815e-05
13 *2284:A *545:72 0.0013996
14 *2284:A *558:50 0.00053612
15 *2284:A *567:90 0.000328903
16 *2284:A *583:82 0.00223103
17 *2284:A *585:66 9.4675e-06
18 *2284:A *596:140 2.29603e-05
19 *2284:A *618:112 1.40573e-05
20 *2284:A *635:102 0.00109634
21 *2284:A *642:38 0.000202845
22 *2284:A *642:106 0.00022114
23 *2284:A *645:64 0.000331147
24 *2284:A *650:236 3.68784e-05
25 *2284:A *665:83 0.000210995
26 *2284:A *673:106 0.000111186
27 *2284:A *685:22 0.000137213
28 *2284:A *696:26 0.000162983
29 *2284:A *697:62 1.17036e-05
30 *2284:A *702:30 0.000212588
31 *2284:A *704:70 2.04694e-05
32 *2284:A *707:83 7.84003e-05
33 E1BEG[1] *2284:A 2.74512e-05
34 *1903:S0 *2284:A 0.000303842
35 *1905:S0 *2284:A 4.76263e-05
36 *148:89 *2284:A 3.753e-05
37 *151:85 *2284:A 6.39407e-05
38 *159:101 *2284:A 2.22315e-05
39 *160:133 *2284:A 0.000205856
40 *234:58 *2284:A 4.78174e-05
41 *483:80 *2284:A 0.000234659
*RES
1 *2061:X *2284:A 33.2155 
*END

*D_NET *516 0.0151664
*CONN
*I *2285:A I *D sky130_fd_sc_hd__buf_2
*I *2062:X O *D sky130_fd_sc_hd__buf_1
*CAP
1 *2285:A 0.000749847
2 *2062:X 0.00266996
3 *516:54 0.0034198
4 *2285:A *709:DIODE 0.000113297
5 *2285:A *2286:A 8.35106e-05
6 *2285:A *2294:A 3.21081e-06
7 *2285:A *594:48 0.00033544
8 *2285:A *647:244 6.33103e-05
9 *2285:A *659:175 0.000136122
10 *2285:A *691:16 7.90792e-05
11 *2285:A *704:70 0.00026416
12 *516:54 *1881:A2 0.000112091
13 *516:54 *2298:A 4.64317e-05
14 *516:54 *2317:A 4.74788e-06
15 *516:54 *2321:A 0.000129154
16 *516:54 *2326:A 0.000181202
17 *516:54 *2330:A 0.000184454
18 *516:54 *2333:A 4.86654e-05
19 *516:54 *520:56 2.22315e-05
20 *516:54 *538:72 0.000106123
21 *516:54 *545:72 1.53785e-05
22 *516:54 *567:90 0.000172722
23 *516:54 *569:58 5.82744e-05
24 *516:54 *596:140 1.1561e-05
25 *516:54 *600:122 0.000596338
26 *516:54 *635:102 4.06024e-05
27 *516:54 *637:114 4.63462e-05
28 *516:54 *650:236 0.000408957
29 *516:54 *653:237 0.000372217
30 *516:54 *676:48 1.2176e-05
31 *516:54 *677:26 8.9997e-05
32 *516:54 *686:46 0.000111197
33 *516:54 *691:44 0.000348689
34 *516:54 *703:60 8.70254e-05
35 *516:54 *704:70 1.13272e-05
36 *516:54 *708:84 0.000118317
37 E2BEG[4] *2285:A 1.7635e-05
38 E2BEGb[4] *2285:A 1.88656e-05
39 EE4BEG[13] *516:54 0
40 EE4BEG[4] *516:54 1.91597e-05
41 *2075:A *516:54 0.000119609
42 *2106:A *516:54 0.000112893
43 *2162:A *516:54 0.000512054
44 *2243:A *2285:A 0.000110118
45 *2284:A *516:54 0
46 *144:75 *2285:A 0.000308709
47 *144:111 *516:54 3.96263e-05
48 *148:51 *2285:A 6.80244e-05
49 *148:89 *516:54 0.000135831
50 *149:75 *2285:A 0.000436651
51 *151:33 *2285:A 0.000838862
52 *151:33 *516:54 0.00038135
53 *160:85 *516:54 0.000240759
54 *234:58 *516:54 0
55 *234:94 *2285:A 0.000462182
56 *481:88 *516:54 9.00909e-05
*RES
1 *2062:X *516:54 43.525 
2 *516:54 *2285:A 25.9725 
*END

*D_NET *517 0.011464
*CONN
*I *2286:A I *D sky130_fd_sc_hd__buf_2
*I *2063:X O *D sky130_fd_sc_hd__clkbuf_1
*CAP
1 *2286:A 0.000297055
2 *2063:X 0.00196025
3 *517:50 0.00225731
4 *2286:A *650:236 0.000107028
5 *2286:A *696:26 9.76758e-05
6 *2286:A *702:30 0.000186751
7 *517:50 *732:DIODE 0.000441918
8 *517:50 *1885:A2 0.000107996
9 *517:50 *1887:A0 6.28477e-05
10 *517:50 *2288:A 0.000130755
11 *517:50 *2292:A 0.000435258
12 *517:50 *2294:A 0.000129057
13 *517:50 *2296:A 8.73147e-06
14 *517:50 *2299:A 8.61609e-05
15 *517:50 *2316:A 1.46216e-05
16 *517:50 *2321:A 0
17 *517:50 *535:76 0.000165884
18 *517:50 *538:72 0.000439865
19 *517:50 *593:94 0
20 *517:50 *596:140 8.73165e-05
21 *517:50 *642:106 0.000120863
22 *517:50 *660:115 0.000135667
23 *517:50 *665:50 1.10172e-05
24 *517:50 *671:111 0.000106501
25 *517:50 *675:174 0.000812909
26 *517:50 *676:48 0.000174099
27 *517:50 *676:85 5.62985e-05
28 *517:50 *685:49 4.39271e-05
29 *517:50 *686:46 1.86911e-05
30 *517:50 *690:65 0.000317069
31 *517:50 *692:64 1.8279e-05
32 *517:50 *702:30 7.64555e-05
33 *517:50 *707:83 0.00014011
34 *517:50 *708:84 0
35 *1877:A3 *517:50 4.17687e-05
36 *1879:A1 *517:50 3.20554e-05
37 *1881:S0 *517:50 1.1392e-05
38 *1884:A0 *517:50 3.4779e-05
39 *1887:S0 *517:50 8.53113e-06
40 *1903:S0 *2286:A 2.23608e-05
41 *1907:A1 *517:50 0.000110776
42 *1915:A1 *517:50 6.67382e-05
43 *2063:A *517:50 6.46059e-05
44 *2091:A *517:50 7.3664e-05
45 *2107:A *517:50 0.000160588
46 *2243:A *2286:A 8.35106e-05
47 *2284:A *2286:A 0.000183323
48 *2285:A *2286:A 8.35106e-05
49 *144:111 *517:50 0.000617623
50 *148:51 *2286:A 1.1432e-05
51 *159:77 *517:50 1.08732e-05
52 *234:58 *517:50 0.000677537
53 *235:113 *517:50 1.9943e-05
54 *479:130 *517:50 9.34801e-05
55 *483:80 *517:50 7.10991e-06
*RES
1 *2063:X *517:50 48.8607 
2 *517:50 *2286:A 13.5325 
*END

*D_NET *518 0.00222445
*CONN
*I *2287:A I *D sky130_fd_sc_hd__buf_2
*I *2064:X O *D sky130_fd_sc_hd__clkbuf_1
*CAP
1 *2287:A 0.000413491
2 *2064:X 0.000413491
3 *2287:A *1905:A2 3.56649e-05
4 *2287:A *637:67 0.000151761
5 *2287:A *647:189 1.20052e-05
6 *2287:A *689:24 4.82919e-05
7 *2287:A *702:30 0.000544299
8 *2287:A *704:70 2.9076e-05
9 E1BEG[1] *2287:A 4.66108e-05
10 *1905:S1 *2287:A 0.000146999
11 *2077:A *2287:A 0.000285973
12 *2253:A *2287:A 3.7837e-05
13 *2260:A *2287:A 4.94474e-05
14 *2284:A *2287:A 9.50342e-06
*RES
1 *2064:X *2287:A 18.165 
*END

*D_NET *519 0.0295307
*CONN
*I *2288:A I *D sky130_fd_sc_hd__buf_2
*I *709:DIODE I *D sky130_fd_sc_hd__diode_2
*I *2065:X O *D sky130_fd_sc_hd__buf_1
*CAP
1 *2288:A 0.000301838
2 *709:DIODE 0.00038526
3 *2065:X 0.00124389
4 *519:46 0.0023196
5 *519:40 0.00350174
6 *519:16 0.00311312
7 *709:DIODE *2294:A 0.000204789
8 *709:DIODE *661:132 5.89925e-05
9 *2288:A *524:142 1.46084e-05
10 *2288:A *701:52 9.2563e-06
11 *2288:A *702:30 8.00143e-05
12 *2288:A *707:83 8.35106e-05
13 *519:16 *1890:A0 8.35106e-05
14 *519:16 *669:45 2.25347e-05
15 *519:16 *679:72 0.000130756
16 *519:16 *679:85 0.000175337
17 *519:40 *1890:A0 0.000717035
18 *519:40 *1893:A3 9.55821e-06
19 *519:40 *2015:D 4.95724e-05
20 *519:40 *2058:D 1.92979e-05
21 *519:40 *2291:A 0.000792145
22 *519:40 *2304:A 4.45122e-06
23 *519:40 *2331:A 0.00016286
24 *519:40 *553:28 0.00108942
25 *519:40 *593:118 0.000462393
26 *519:40 *595:28 8.23457e-05
27 *519:40 *613:42 0.000199807
28 *519:40 *615:14 1.8279e-05
29 *519:40 *618:112 2.16634e-05
30 *519:40 *630:66 0.00115786
31 *519:40 *631:112 2.22315e-05
32 *519:40 *632:152 0.000149899
33 *519:40 *636:159 8.26578e-05
34 *519:40 *662:196 5.1524e-05
35 *519:40 *689:114 0.000432534
36 *519:46 *2326:A 0.00151357
37 *519:46 *569:58 8.39109e-05
38 *519:46 *579:52 3.59979e-05
39 *519:46 *630:66 0.000108612
40 *519:46 *631:112 8.17521e-05
41 *519:46 *634:154 0.000644405
42 *519:46 *636:50 0.00171708
43 *519:46 *688:30 0.000141541
44 *711:DIODE *519:16 0.000377729
45 *1809:S1 *519:16 2.27571e-05
46 *1974:D *519:16 5.61453e-05
47 *2058:CLK *519:40 0.000572262
48 *2243:A *709:DIODE 3.19771e-05
49 *2284:A *2288:A 7.83475e-05
50 *2285:A *709:DIODE 0.000113297
51 *142:57 *2288:A 0.000301553
52 *142:57 *519:46 0.000722319
53 *143:117 *519:16 0.00100192
54 *143:117 *519:40 0.00187392
55 *145:71 *519:46 0.000237745
56 *147:75 *709:DIODE 5.89925e-05
57 *149:75 *2288:A 0.000155601
58 *159:101 *519:16 0.00075456
59 *479:130 *519:46 0.000197648
60 *483:80 *519:46 0.000289741
61 *491:96 *519:16 1.91597e-05
62 *491:102 *519:16 0.000118081
63 *513:37 *519:40 0.000835006
64 *517:50 *2288:A 0.000130755
*RES
1 *2065:X *519:16 31.18 
2 *519:16 *519:40 47.9802 
3 *519:40 *519:46 6.42167 
4 *519:46 *709:DIODE 10.0175 
5 *519:46 *2288:A 7.08663 
*END

*D_NET *520 0.0161611
*CONN
*I *2289:A I *D sky130_fd_sc_hd__buf_2
*I *2066:X O *D sky130_fd_sc_hd__buf_1
*CAP
1 *2289:A 0.000675101
2 *2066:X 0.00240076
3 *520:56 0.00307586
4 *2289:A *2321:A 0.000167432
5 *2289:A *2328:A 0.000823598
6 *2289:A *659:175 8.84213e-05
7 *2289:A *661:132 0.000347887
8 *2289:A *661:203 6.26955e-05
9 *2289:A *665:50 5.83121e-06
10 *2289:A *676:48 0.000741714
11 *2289:A *686:46 0.000402396
12 *2289:A *702:30 2.18318e-05
13 *520:56 *732:DIODE 1.31227e-05
14 *520:56 *1826:A2 0.00022707
15 *520:56 *1946:GATE 1.56428e-05
16 *520:56 *1998:GATE 0.000120789
17 *520:56 *2015:D 2.22315e-05
18 *520:56 *2296:A 0.000828852
19 *520:56 *2307:A 8.10457e-05
20 *520:56 *2331:A 4.79712e-05
21 *520:56 *2342:A 0.000823679
22 *520:56 *538:72 0.000246214
23 *520:56 *553:28 0.000296755
24 *520:56 *558:50 0.000104294
25 *520:56 *567:90 9.35828e-06
26 *520:56 *579:52 0.000103315
27 *520:56 *586:92 3.64327e-05
28 *520:56 *600:122 7.88279e-05
29 *520:56 *632:152 0.000228089
30 *520:56 *634:154 2.22315e-05
31 *520:56 *634:176 0.000692284
32 *520:56 *635:102 0.000234788
33 *520:56 *642:106 0.000175818
34 *520:56 *662:196 4.14424e-05
35 *520:56 *686:46 0.000110744
36 *520:56 *688:30 0.000106321
37 *520:56 *689:114 0.000768013
38 *520:56 *692:64 2.32919e-05
39 *520:56 *701:52 0.000525057
40 *520:56 *708:42 8.43255e-05
41 *2107:A *2289:A 4.66108e-05
42 *2162:A *520:56 3.96153e-05
43 *2284:A *520:56 9.57815e-05
44 *144:111 *520:56 3.79555e-05
45 *148:89 *520:56 0
46 *159:77 *520:56 1.38676e-05
47 *159:101 *520:56 0.000518533
48 *234:58 *520:56 0.000276518
49 *236:22 *520:56 0.000228468
50 *516:54 *520:56 2.22315e-05
*RES
1 *2066:X *520:56 49.7649 
2 *520:56 *2289:A 23.0728 
*END

*D_NET *521 0.00613314
*CONN
*I *2290:A I *D sky130_fd_sc_hd__buf_2
*I *2067:X O *D sky130_fd_sc_hd__clkbuf_1
*CAP
1 *2290:A 0.00112399
2 *2067:X 0.00112399
3 *2290:A *2298:A 7.09614e-05
4 *2290:A *2300:A 0.000194504
5 *2290:A *545:72 6.50892e-05
6 *2290:A *560:66 0.000436552
7 *2290:A *647:244 5.38986e-06
8 *2290:A *653:172 0.000131881
9 *2290:A *660:99 0.000153816
10 *2290:A *691:16 0.000111329
11 E2BEG[1] *2290:A 4.09663e-05
12 E2BEG[5] *2290:A 2.05641e-05
13 E2BEGb[0] *2290:A 0.00014284
14 E2BEGb[1] *2290:A 1.88656e-05
15 E2BEGb[2] *2290:A 9.81097e-05
16 EE4BEG[5] *2290:A 1.66957e-05
17 EE4BEG[6] *2290:A 6.31816e-05
18 *1877:A3 *2290:A 8.73487e-05
19 *2092:A *2290:A 0.000281541
20 *2107:A *2290:A 0.000140579
21 *148:89 *2290:A 0.000119246
22 *149:75 *2290:A 0.000159963
23 *234:94 *2290:A 0.000110082
24 *236:40 *2290:A 1.7635e-05
25 *481:88 *2290:A 0.001307
26 *483:80 *2290:A 9.10236e-05
*RES
1 *2067:X *2290:A 34.335 
*END

*D_NET *522 0.0227993
*CONN
*I *2291:A I *D sky130_fd_sc_hd__buf_2
*I *2068:X O *D sky130_fd_sc_hd__buf_1
*CAP
1 *2291:A 0.00457964
2 *2068:X 0.00457964
3 *2291:A *1881:A2 3.77855e-05
4 *2291:A *1915:A3 0.000125603
5 *2291:A *2013:GATE 4.77719e-05
6 *2291:A *2297:A 0.000133148
7 *2291:A *2326:A 0.000144028
8 *2291:A *2330:A 8.23185e-05
9 *2291:A *538:72 0.000141541
10 *2291:A *568:188 1.47376e-05
11 *2291:A *569:58 0.00111314
12 *2291:A *613:42 0.000721683
13 *2291:A *618:112 3.91209e-05
14 *2291:A *630:66 1.4641e-05
15 *2291:A *631:65 0.00176249
16 *2291:A *631:112 0.000242335
17 *2291:A *632:107 0.000652871
18 *2291:A *632:152 0.00125315
19 *2291:A *636:159 0.000349072
20 *2291:A *642:106 0.000215532
21 *2291:A *643:164 8.33423e-05
22 *2291:A *645:64 3.69766e-05
23 *2291:A *653:172 0.000561582
24 *2291:A *659:175 0.000119866
25 *2291:A *665:83 0.000182355
26 *2291:A *673:48 0.000282511
27 *2291:A *698:68 2.22315e-05
28 *2291:A *698:129 1.66925e-05
29 *2291:A *703:60 0.00141506
30 E2BEG[2] *2291:A 1.91597e-05
31 *1877:A3 *2291:A 0.000267564
32 *2068:A *2291:A 4.89295e-05
33 *2107:A *2291:A 2.67422e-05
34 *143:109 *2291:A 4.23033e-05
35 *147:75 *2291:A 8.35106e-05
36 *148:111 *2291:A 0.000129528
37 *160:133 *2291:A 0.000280202
38 *479:130 *2291:A 0.000393075
39 *481:88 *2291:A 4.12303e-05
40 *514:94 *2291:A 0.00170401
41 *519:40 *2291:A 0.000792145
*RES
1 *2068:X *2291:A 29.2695 
*END

*D_NET *523 0.00585126
*CONN
*I *2292:A I *D sky130_fd_sc_hd__buf_2
*I *2069:X O *D sky130_fd_sc_hd__clkbuf_1
*CAP
1 *2292:A 0.000960915
2 *2069:X 0.000960915
3 *2292:A *1905:A0 0.000393019
4 *2292:A *2294:A 2.05571e-05
5 *2292:A *637:46 0.00019312
6 *2292:A *637:67 7.14699e-05
7 *2292:A *676:48 1.08758e-05
8 *2292:A *685:22 0.000347389
9 *2292:A *685:30 9.04081e-05
10 *2292:A *686:46 0.000818014
11 *2292:A *689:24 4.82863e-05
12 *2292:A *690:65 6.66779e-05
13 *2292:A *705:10 4.94457e-05
14 *2292:A *707:28 0.000154981
15 *2292:A *707:83 7.09968e-05
16 *1887:S0 *2292:A 1.56428e-05
17 *1903:S1 *2292:A 3.85204e-05
18 *1913:S1 *2292:A 0.000113821
19 *2079:A *2292:A 0.00014704
20 *147:75 *2292:A 0.000523413
21 *148:51 *2292:A 1.51856e-05
22 *236:116 *2292:A 8.247e-05
23 *485:20 *2292:A 0.000222836
24 *517:50 *2292:A 0.000435258
*RES
1 *2069:X *2292:A 38.1395 
*END

*D_NET *524 0.049565
*CONN
*I *2010:D I *D sky130_fd_sc_hd__dlxtp_1
*I *2126:A I *D sky130_fd_sc_hd__clkbuf_1
*I *736:DIODE I *D sky130_fd_sc_hd__diode_2
*I *2042:D I *D sky130_fd_sc_hd__dlxtp_1
*I *1946:D I *D sky130_fd_sc_hd__dlxtp_1
*I *1978:D I *D sky130_fd_sc_hd__dlxtp_1
*I *2191:X O *D sky130_fd_sc_hd__clkbuf_2
*CAP
1 *2010:D 0.000100431
2 *2126:A 0.000312621
3 *736:DIODE 0.000136599
4 *2042:D 0
5 *1946:D 0.000570385
6 *1978:D 0
7 *2191:X 0.00118161
8 *524:180 0.00181744
9 *524:142 0.00498309
10 *524:67 0.00569193
11 *524:49 0.00217556
12 *524:18 0.0019089
13 *524:14 0.00259438
14 *1946:D *1946:GATE 3.64998e-06
15 *1946:D *2314:A 8.35068e-05
16 *1946:D *2319:A 0.000228952
17 *1946:D *2328:A 0.000354726
18 *1946:D *528:36 0.000384212
19 *1946:D *659:213 8.46764e-05
20 *2010:D *2010:GATE 0.00018955
21 *2126:A *2127:A 0.000100139
22 *2126:A *2341:A 1.08758e-05
23 *524:14 *1964:GATE 0.000557526
24 *524:14 *2020:D 2.39254e-06
25 *524:14 *579:32 1.92979e-05
26 *524:14 *591:48 0.000321524
27 *524:14 *672:18 0.000604809
28 *524:14 *689:114 0.000523592
29 *524:14 *698:175 9.23627e-05
30 *524:18 *542:30 1.88602e-05
31 *524:18 *659:227 1.7635e-05
32 *524:49 *2338:A 0.000254217
33 *524:49 *2340:A 0.000121023
34 *524:49 *559:46 0.0008282
35 *524:49 *564:52 6.84602e-05
36 *524:49 *594:74 0.000339085
37 *524:49 *653:275 0
38 *524:49 *697:62 8.247e-05
39 *524:49 *704:90 0.000751595
40 *524:67 *564:52 0.000192672
41 *524:67 *704:70 6.51774e-05
42 *524:142 *733:DIODE 0.000160196
43 *524:142 *2042:GATE 0.00011215
44 *524:142 *2294:A 0.000102129
45 *524:142 *2328:A 0.000112478
46 *524:142 *528:36 5.98946e-05
47 *524:142 *579:52 0.00102359
48 *524:142 *579:54 0.00213232
49 *524:142 *594:48 7.84604e-05
50 *524:142 *600:74 4.9736e-05
51 *524:142 *634:78 3.70141e-05
52 *524:142 *636:50 8.33793e-05
53 *524:142 *644:46 0.000110491
54 *524:142 *646:32 3.02789e-05
55 *524:142 *651:28 0.000186036
56 *524:142 *651:209 0.00182374
57 *524:142 *660:16 0.000227372
58 *524:142 *685:30 3.57284e-05
59 *524:142 *696:26 0.000635663
60 *524:142 *701:52 0.000382113
61 *524:142 *704:70 0.00018796
62 *524:180 *2308:A 0
63 *524:180 *2317:A 7.78168e-05
64 *524:180 *2353:A 0.000107844
65 *524:180 *2377:A 0.000221914
66 *524:180 *542:30 0.00034952
67 *524:180 *594:102 0.000562522
68 *524:180 *653:275 3.01396e-05
69 *524:180 *659:227 0.000303116
70 *524:180 *691:88 8.43255e-05
71 *524:180 *701:58 9.24781e-05
72 *524:180 *701:81 4.3249e-05
73 *524:180 *704:110 0.000584853
74 E1BEG[2] *524:142 0.000590845
75 E1BEG[3] *524:142 0.000254056
76 E6BEG[10] *524:49 0
77 EE4BEG[11] *1946:D 0.000111035
78 EE4BEG[14] *524:142 0.000144856
79 EE4BEG[15] *524:142 0.000144856
80 EE4BEG[7] *1946:D 0.000194285
81 FrameData_O[16] *524:49 0.000301472
82 FrameData_O[18] *524:49 0.000134027
83 *710:DIODE *524:180 0.000756806
84 *742:DIODE *524:14 9.58671e-05
85 *1883:A2 *2126:A 8.81506e-05
86 *1883:A2 *524:180 3.91137e-05
87 *1883:A3 *524:180 3.13447e-05
88 *1885:S0 *524:14 0.000229946
89 *1900:S1 *524:14 9.97834e-06
90 *2073:A *2126:A 0.000135533
91 *2079:A *524:142 0.000295005
92 *2288:A *524:142 1.46084e-05
93 *143:47 *524:142 0.000114662
94 *144:31 *524:142 9.04081e-05
95 *146:67 *524:142 0.000361094
96 *146:89 *1946:D 5.63183e-05
97 *146:89 *524:14 0.000143501
98 *146:89 *524:67 5.63183e-05
99 *146:89 *524:180 0.000927079
100 *146:99 *2126:A 0.000350682
101 *146:99 *524:180 1.94585e-05
102 *147:101 *524:49 0.000666347
103 *149:23 *524:142 0.000112869
104 *149:111 *524:49 0.000667692
105 *150:35 *524:142 0.00264765
106 *151:33 *1946:D 5.97512e-05
107 *151:33 *524:67 5.06849e-05
108 *151:85 *2126:A 1.44177e-05
109 *153:39 *524:142 7.50226e-05
110 *160:85 *1946:D 1.67131e-05
111 *160:115 *1946:D 2.72887e-05
112 *233:80 *524:14 0.000259099
113 *236:93 *524:142 0.000467489
114 *247:10 *736:DIODE 0.000108946
115 *247:10 *524:142 3.64998e-06
116 *248:16 *736:DIODE 0.000150351
117 *479:161 *524:49 3.64998e-06
118 *479:161 *524:180 0.000222005
119 *483:90 *524:180 0.000128214
120 *512:18 *524:14 2.10433e-05
121 *514:22 *524:49 0.000368225
*RES
1 *2191:X *524:14 8.0169 
2 *524:14 *524:18 2.2325 
3 *524:18 *1978:D 1.6 
4 *524:18 *524:49 48.885 
5 *524:49 *524:67 9.7375 
6 *524:67 *1946:D 17.7525 
7 *524:67 *524:142 24.8982 
8 *524:142 *2042:D 1.6 
9 *524:142 *736:DIODE 4.81 
10 *524:14 *524:180 19.201 
11 *524:180 *2126:A 11.13 
12 *524:180 *2010:D 5.43 
*END

*D_NET *525 0.0103777
*CONN
*I *2293:A I *D sky130_fd_sc_hd__buf_2
*I *2070:X O *D sky130_fd_sc_hd__clkbuf_1
*CAP
1 *2293:A 0.000616629
2 *2070:X 0.00217773
3 *525:32 0.00279436
4 *2293:A *2300:A 0.000309123
5 *2293:A *659:175 8.35106e-05
6 *2293:A *686:46 8.41307e-05
7 *2293:A *698:129 0.000169286
8 *2293:A *699:66 3.95618e-05
9 *525:32 *2295:A 3.62791e-05
10 *525:32 *2300:A 0.000633648
11 *525:32 *644:24 0.000112154
12 *525:32 *647:189 0.000406731
13 *525:32 *676:99 0.000141606
14 *525:32 *695:16 5.83687e-05
15 *525:32 *698:129 3.64998e-06
16 E1BEG[1] *2293:A 0.000130412
17 E1BEG[1] *525:32 0
18 E2BEG[0] *2293:A 0.000328771
19 E2BEG[2] *2293:A 1.91495e-05
20 E2BEG[3] *2293:A 5.78621e-05
21 *2240:A *525:32 0.000206358
22 *2243:A *2293:A 0.000273137
23 *2251:A *525:32 0.000103438
24 *2258:A *525:32 5.06809e-05
25 *2259:A *525:32 0.00014209
26 *143:47 *525:32 0.00012992
27 *147:75 *2293:A 8.52883e-05
28 *147:75 *525:32 0.000139933
29 *148:51 *2293:A 0.000107444
30 *148:51 *525:32 0.000605477
31 *481:30 *525:32 5.21484e-05
32 *486:18 *525:32 0.000278781
*RES
1 *2070:X *525:32 47.255 
2 *525:32 *2293:A 21.595 
*END

*D_NET *526 0.00324981
*CONN
*I *2294:A I *D sky130_fd_sc_hd__buf_2
*I *2071:X O *D sky130_fd_sc_hd__clkbuf_1
*CAP
1 *2294:A 0.000677405
2 *2071:X 0.000677405
3 *2294:A *645:64 3.49925e-05
4 *2294:A *650:236 0.000537578
5 *2294:A *688:30 0.000118081
6 *2294:A *696:26 0.000126456
7 *2294:A *698:129 0
8 *2294:A *707:83 1.88602e-05
9 *709:DIODE *2294:A 0.000204789
10 *2071:A *2294:A 0.00022707
11 *2243:A *2294:A 3.81021e-05
12 *2285:A *2294:A 3.21081e-06
13 *2292:A *2294:A 2.05571e-05
14 *142:57 *2294:A 5.00395e-05
15 *147:75 *2294:A 0.000173651
16 *148:51 *2294:A 4.0031e-05
17 *236:116 *2294:A 7.04003e-05
18 *517:50 *2294:A 0.000129057
19 *524:142 *2294:A 0.000102129
*RES
1 *2071:X *2294:A 19.5624 
*END

*D_NET *527 0.00830805
*CONN
*I *2295:A I *D sky130_fd_sc_hd__buf_2
*I *2072:X O *D sky130_fd_sc_hd__clkbuf_1
*CAP
1 *2295:A 0.00149109
2 *2072:X 0.00149109
3 *2295:A *1910:A3 2.62017e-05
4 *2295:A *1941:GATE 4.66108e-05
5 *2295:A *2037:D 4.66108e-05
6 *2295:A *560:44 0.000488072
7 *2295:A *637:67 1.44779e-05
8 *2295:A *645:20 0.00160503
9 *2295:A *659:175 0.000122197
10 *2295:A *698:129 4.66108e-05
11 E2BEG[1] *2295:A 4.00949e-05
12 E2BEG[6] *2295:A 0.00026459
13 E2BEGb[0] *2295:A 0.000156765
14 *1810:S1 *2295:A 0.000192497
15 *146:89 *2295:A 3.11471e-05
16 *148:51 *2295:A 0.000329662
17 *148:89 *2295:A 0.000354823
18 *151:33 *2295:A 0.0015242
19 *525:32 *2295:A 3.62791e-05
*RES
1 *2072:X *2295:A 47.625 
*END

*D_NET *528 0.0228518
*CONN
*I *2296:A I *D sky130_fd_sc_hd__buf_2
*I *2073:X O *D sky130_fd_sc_hd__buf_1
*CAP
1 *2296:A 0.000807477
2 *2073:X 0.00508807
3 *528:36 0.00589555
4 *2296:A *2301:A 0.000116165
5 *2296:A *2316:A 0.000473435
6 *2296:A *2328:A 0.000720212
7 *2296:A *538:72 0.000379538
8 *2296:A *569:58 0.000167099
9 *2296:A *647:244 0.000405912
10 *2296:A *661:203 4.77719e-05
11 *2296:A *667:87 6.59891e-05
12 *2296:A *667:154 7.9642e-06
13 *2296:A *671:87 8.71001e-05
14 *2296:A *671:111 6.71803e-06
15 *2296:A *686:46 3.18234e-05
16 *528:36 *2314:A 9.76964e-06
17 *528:36 *2341:A 4.66108e-05
18 *528:36 *545:72 0.000323004
19 *528:36 *564:16 0.000487581
20 *528:36 *600:122 2.22315e-05
21 *528:36 *686:46 0
22 *528:36 *686:52 0.000151511
23 *528:36 *696:26 0.00234356
24 E6BEG[0] *528:36 0.00035276
25 EE4BEG[11] *528:36 2.0851e-06
26 EE4BEG[12] *528:36 0
27 EE4BEG[13] *528:36 5.87532e-05
28 EE4BEG[14] *528:36 3.53427e-05
29 EE4BEG[15] *528:36 0.000625925
30 *711:DIODE *528:36 0.000104238
31 *1946:D *528:36 0.000384212
32 *146:89 *528:36 0.0024494
33 *151:85 *528:36 0.000106494
34 *159:101 *2296:A 5.84628e-05
35 *479:130 *2296:A 6.93749e-05
36 *514:94 *528:36 2.2228e-05
37 *517:50 *2296:A 8.73147e-06
38 *520:56 *2296:A 0.000828852
39 *524:142 *528:36 5.98946e-05
*RES
1 *2073:X *528:36 32.4157 
2 *528:36 *2296:A 27.69 
*END

*D_NET *529 0.0146522
*CONN
*I *2297:A I *D sky130_fd_sc_hd__buf_2
*I *2074:X O *D sky130_fd_sc_hd__buf_1
*CAP
1 *2297:A 0.00332605
2 *2074:X 0.00332605
3 *2297:A *733:DIODE 4.12356e-05
4 *2297:A *1808:A0 5.53549e-06
5 *2297:A *1884:A3 9.43585e-05
6 *2297:A *2302:A 4.91569e-05
7 *2297:A *2321:A 5.41873e-05
8 *2297:A *2326:A 0.000160558
9 *2297:A *558:50 7.47054e-05
10 *2297:A *632:107 0.000883303
11 *2297:A *634:78 6.17086e-06
12 *2297:A *634:154 7.8632e-06
13 *2297:A *635:42 2.22315e-05
14 *2297:A *642:106 0.000382467
15 *2297:A *643:164 0.000131278
16 *2297:A *661:203 0.000263709
17 *2297:A *665:38 0.000558314
18 *2297:A *667:64 3.43454e-05
19 *2297:A *671:30 0.00184187
20 *2297:A *672:52 4.17781e-05
21 *2297:A *686:46 0.000386624
22 *2297:A *687:92 0.000221266
23 *2297:A *689:114 1.4641e-05
24 *2297:A *693:82 0.000265267
25 *2297:A *698:68 0.000641981
26 *2297:A *702:30 0.000216482
27 *2297:A *703:60 0.000122738
28 *2297:A *707:83 0.000255758
29 EE4BEG[4] *2297:A 4.08437e-05
30 *1808:S0 *2297:A 0.000135775
31 *1884:A0 *2297:A 9.03209e-05
32 *2291:A *2297:A 0.000133148
33 *143:109 *2297:A 1.57842e-05
34 *143:117 *2297:A 0.000145327
35 *160:85 *2297:A 0.000383275
36 *483:80 *2297:A 0.000169668
37 *513:86 *2297:A 0.000108176
*RES
1 *2074:X *2297:A 23.3845 
*END

*D_NET *530 0.00279453
*CONN
*I *2298:A I *D sky130_fd_sc_hd__buf_2
*I *2075:X O *D sky130_fd_sc_hd__clkbuf_1
*CAP
1 *2298:A 0.000500866
2 *2075:X 0.000500866
3 *2298:A *2300:A 4.50748e-05
4 *2298:A *560:66 0.000255878
5 *2298:A *647:244 0.00010329
6 *2298:A *653:172 0.000131881
7 E2BEGb[1] *2298:A 6.80182e-05
8 E2BEGb[3] *2298:A 5.75434e-05
9 E2BEGb[5] *2298:A 8.13778e-05
10 E2BEGb[6] *2298:A 1.58858e-05
11 E2BEGb[7] *2298:A 5.75434e-05
12 EE4BEG[2] *2298:A 0.000100193
13 *2092:A *2298:A 0.000281541
14 *2290:A *2298:A 7.09614e-05
15 *144:75 *2298:A 5.30007e-05
16 *234:94 *2298:A 0.000294811
17 *481:88 *2298:A 0.000129362
18 *516:54 *2298:A 4.64317e-05
*RES
1 *2075:X *2298:A 20.715 
*END

*D_NET *531 0.0188398
*CONN
*I *2299:A I *D sky130_fd_sc_hd__buf_2
*I *2076:X O *D sky130_fd_sc_hd__buf_1
*CAP
1 *2299:A 0.00130802
2 *2076:X 0.0026049
3 *531:62 0.00391293
4 *2299:A *1822:A1 3.64998e-06
5 *2299:A *1907:A0 0.000188834
6 *2299:A *1915:A3 0.000183484
7 *2299:A *2301:A 1.93834e-05
8 *2299:A *2315:A 8.43317e-05
9 *2299:A *2316:A 5.83121e-06
10 *2299:A *2327:A 0.000117895
11 *2299:A *2328:A 0.00026575
12 *2299:A *538:72 0.000146809
13 *2299:A *545:72 0.000279625
14 *2299:A *583:82 0.00017772
15 *2299:A *642:106 1.66317e-05
16 *2299:A *650:236 0.000104444
17 *2299:A *651:209 5.84716e-05
18 *2299:A *675:174 1.77194e-05
19 *2299:A *676:48 0.000649704
20 *2299:A *686:46 1.93834e-05
21 *2299:A *702:30 1.21093e-05
22 *2299:A *702:41 4.0636e-05
23 *531:62 *1811:A0 2.91921e-05
24 *531:62 *1811:A1 0.000101146
25 *531:62 *1881:A2 8.93641e-05
26 *531:62 *1885:A2 9.67128e-05
27 *531:62 *2303:A 5.85628e-05
28 *531:62 *2306:A 1.70767e-05
29 *531:62 *2310:A 0.000125487
30 *531:62 *2312:A 3.15856e-05
31 *531:62 *2314:A 0.000172834
32 *531:62 *2320:A 3.63298e-05
33 *531:62 *2330:A 0.000154981
34 *531:62 *2333:A 9.35216e-05
35 *531:62 *2337:A 7.54561e-05
36 *531:62 *539:26 0.000354718
37 *531:62 *583:82 0.000118081
38 *531:62 *594:102 2.22315e-05
39 *531:62 *618:112 0.00101599
40 *531:62 *645:82 1.88656e-05
41 *531:62 *669:53 2.05641e-05
42 *531:62 *673:106 2.39315e-06
43 *531:62 *688:30 0.000873617
44 E6BEG[0] *531:62 0.000122083
45 E6BEG[11] *531:62 9.11952e-05
46 E6BEG[1] *531:62 0.000200572
47 E6BEG[9] *531:62 2.22315e-05
48 *710:DIODE *531:62 4.64726e-05
49 *1813:A2 *531:62 4.56166e-05
50 *1915:S0 *2299:A 0.000425447
51 *2092:A *2299:A 0.000157452
52 *148:89 *531:62 0.00219958
53 *149:111 *531:62 0.000445501
54 *151:85 *531:62 8.55675e-05
55 *159:101 *531:62 0.000184987
56 *235:93 *531:62 3.50767e-05
57 *483:80 *2299:A 0.000556459
58 *514:94 *531:62 0.000408435
59 *517:50 *2299:A 8.61609e-05
*RES
1 *2076:X *531:62 41.7526 
2 *531:62 *2299:A 25.1025 
*END

*D_NET *532 0.00735407
*CONN
*I *2300:A I *D sky130_fd_sc_hd__buf_2
*I *2077:X O *D sky130_fd_sc_hd__clkbuf_1
*CAP
1 *2300:A 0.00143515
2 *2077:X 0.00143515
3 *2300:A *647:244 0.000213034
4 *2300:A *650:236 9.32949e-06
5 *2300:A *689:24 2.49909e-05
6 *2300:A *691:16 5.48541e-05
7 *2300:A *695:16 0.000322283
8 *2300:A *695:66 0.000805112
9 *2300:A *698:129 0.000339459
10 *2300:A *704:70 0.000167725
11 E2BEG[0] *2300:A 0.00064224
12 E2BEGb[2] *2300:A 2.49909e-05
13 E2BEGb[3] *2300:A 5.63183e-05
14 *2092:A *2300:A 4.66108e-05
15 *2251:A *2300:A 1.37135e-05
16 *2290:A *2300:A 0.000194504
17 *2293:A *2300:A 0.000309123
18 *2298:A *2300:A 4.50748e-05
19 *144:75 *2300:A 0.000179378
20 *481:88 *2300:A 0.00040139
21 *525:32 *2300:A 0.000633648
*RES
1 *2077:X *2300:A 46.09 
*END

*D_NET *533 0.00967605
*CONN
*I *2301:A I *D sky130_fd_sc_hd__buf_2
*I *2078:X O *D sky130_fd_sc_hd__buf_1
*CAP
1 *2301:A 0.000467246
2 *2078:X 0.00179612
3 *533:44 0.00226337
4 *2301:A *2316:A 7.06865e-05
5 *2301:A *686:46 1.38403e-05
6 *2301:A *698:68 3.64998e-06
7 *2301:A *698:129 9.60727e-05
8 *533:44 *1822:A1 5.00949e-05
9 *533:44 *1875:A2 2.21813e-05
10 *533:44 *1911:A0 0.00041091
11 *533:44 *2316:A 0.00010163
12 *533:44 *2328:A 0.000261264
13 *533:44 *596:140 4.45057e-05
14 *533:44 *597:20 0.000278418
15 *533:44 *634:78 0.000102476
16 *533:44 *642:106 4.66417e-05
17 *533:44 *644:46 0.000534057
18 *533:44 *659:116 9.25119e-05
19 *533:44 *664:143 0.000181121
20 *533:44 *667:12 0.000110399
21 *533:44 *667:23 0.000200153
22 *533:44 *667:64 0.000118527
23 *533:44 *671:111 5.74791e-05
24 *533:44 *675:174 4.38521e-05
25 *533:44 *692:22 0.000206753
26 *1875:A3 *533:44 0.000220208
27 *1879:A2 *533:44 0.000315146
28 *1879:S1 *533:44 0.000281258
29 *1884:A0 *533:44 3.96263e-05
30 *1911:S1 *533:44 0.000131197
31 *2102:A *533:44 4.66108e-05
32 *2296:A *2301:A 0.000116165
33 *2299:A *2301:A 1.93834e-05
34 *143:47 *533:44 0.000293862
35 *150:35 *533:44 0.000518086
36 *181:56 *533:44 1.25121e-05
37 *236:124 *533:44 6.83488e-05
38 *483:80 *533:44 2.17397e-05
39 *514:94 *533:44 1.79483e-05
*RES
1 *2078:X *533:44 48.7017 
2 *533:44 *2301:A 9.75 
*END

*D_NET *534 0.00614235
*CONN
*I *2302:A I *D sky130_fd_sc_hd__buf_2
*I *2079:X O *D sky130_fd_sc_hd__clkbuf_1
*CAP
1 *2302:A 0.00167896
2 *2079:X 0.00167896
3 *2302:A *2321:A 0.000643379
4 *2302:A *650:236 7.07516e-05
5 *2302:A *653:172 2.22315e-05
6 *2302:A *685:49 3.96119e-05
7 *2302:A *688:30 2.05571e-05
8 *2302:A *692:22 6.76938e-05
9 *2302:A *697:62 0.000178107
10 *2302:A *698:129 0.000112497
11 *2302:A *702:30 0.000324341
12 *2302:A *704:70 0.000126602
13 *2302:A *707:83 0.00029308
14 E2BEGb[6] *2302:A 2.49909e-05
15 *1884:A0 *2302:A 0.000173183
16 *2107:A *2302:A 9.98756e-05
17 *2284:A *2302:A 5.63183e-05
18 *2297:A *2302:A 4.91569e-05
19 *144:75 *2302:A 1.79536e-05
20 *149:75 *2302:A 0.000448038
21 *483:80 *2302:A 1.60594e-05
*RES
1 *2079:X *2302:A 28.8857 
*END

*D_NET *535 0.0456633
*CONN
*I *2043:D I *D sky130_fd_sc_hd__dlxtp_1
*I *1947:D I *D sky130_fd_sc_hd__dlxtp_1
*I *733:DIODE I *D sky130_fd_sc_hd__diode_2
*I *2011:D I *D sky130_fd_sc_hd__dlxtp_1
*I *2127:A I *D sky130_fd_sc_hd__clkbuf_1
*I *1979:D I *D sky130_fd_sc_hd__dlxtp_1
*I *732:DIODE I *D sky130_fd_sc_hd__diode_2
*I *2192:X O *D sky130_fd_sc_hd__clkbuf_2
*CAP
1 *2043:D 5.544e-05
2 *1947:D 4.48176e-05
3 *733:DIODE 0.00253808
4 *2011:D 8.17609e-05
5 *2127:A 0.000197638
6 *1979:D 4.88808e-05
7 *732:DIODE 0.00284697
8 *2192:X 0.00103686
9 *535:112 0.00163081
10 *535:76 0.00341754
11 *535:26 0.00374385
12 *535:16 0.00298522
13 *732:DIODE *660:115 1.07797e-05
14 *732:DIODE *676:48 2.81395e-05
15 *732:DIODE *708:42 0.000154981
16 *732:DIODE *708:84 0.000347149
17 *733:DIODE *1885:A2 3.71563e-05
18 *733:DIODE *1910:A0 0.000118788
19 *733:DIODE *567:90 0.00238467
20 *733:DIODE *597:20 5.73577e-05
21 *733:DIODE *634:78 0.0026695
22 *733:DIODE *644:24 0.000227669
23 *733:DIODE *652:16 5.66528e-05
24 *733:DIODE *667:64 0.000127881
25 *733:DIODE *667:74 6.04784e-05
26 *733:DIODE *675:174 0.000370179
27 *1947:D *667:74 0.000169282
28 *1947:D *667:87 4.03618e-05
29 *1979:D *1979:GATE 4.66108e-05
30 *1979:D *667:174 0.000155601
31 *2011:D *2011:GATE 1.01661e-05
32 *2043:D *2042:GATE 3.80429e-05
33 *2043:D *650:12 0.000153816
34 *2043:D *683:106 4.66108e-05
35 *2127:A *1894:A0 5.83121e-06
36 *2127:A *1894:A3 3.83383e-05
37 *535:16 *2337:A 3.9316e-05
38 *535:16 *557:44 6.03272e-05
39 *535:16 *670:65 5.86739e-05
40 *535:16 *673:6 0.000120407
41 *535:16 *673:48 0.00095446
42 *535:26 *738:DIODE 0.000611559
43 *535:26 *1885:A2 2.22315e-05
44 *535:26 *2318:A 3.41952e-05
45 *535:26 *2362:A 5.27052e-05
46 *535:26 *539:26 5.25989e-05
47 *535:26 *701:58 0.000607355
48 *535:26 *708:84 3.36689e-05
49 *535:76 *1811:A0 6.75171e-06
50 *535:76 *1812:A0 0.000294742
51 *535:76 *1881:A0 2.44594e-05
52 *535:76 *1998:D 0.0006739
53 *535:76 *2304:A 0.000652865
54 *535:76 *2305:A 9.48021e-05
55 *535:76 *2311:A 1.41095e-05
56 *535:76 *2312:A 6.0978e-05
57 *535:76 *2359:A 0.000156765
58 *535:76 *539:26 0.000136884
59 *535:76 *542:30 0.000165661
60 *535:76 *596:140 9.98822e-05
61 *535:76 *618:112 0.00030183
62 *535:76 *632:152 7.3727e-06
63 *535:76 *659:213 0.00075692
64 *535:76 *665:38 5.40646e-05
65 *535:76 *667:154 0.000109417
66 *535:76 *669:75 7.7503e-05
67 *535:76 *673:106 0.000125992
68 *535:76 *676:48 8.00322e-05
69 *535:76 *691:44 0.000433993
70 *535:112 *738:DIODE 0.000169288
71 *535:112 *1809:A2 0.000193141
72 *535:112 *1894:A0 5.30358e-05
73 *535:112 *1894:A1 2.3654e-05
74 *535:112 *2011:GATE 1.23624e-05
75 *535:112 *2337:A 0.000955868
76 *535:112 *2377:A 0.000117181
77 *535:112 *667:174 0.000485859
78 *535:112 *678:49 4.07391e-05
79 *535:112 *696:26 7.68201e-05
80 *535:112 *698:175 2.00796e-05
81 *535:112 *701:58 0.000337965
82 *535:112 *704:110 8.18197e-05
83 E6BEG[2] *535:76 5.31556e-05
84 E6BEG[4] *535:76 0.000304243
85 E6BEG[6] *535:76 0.000100737
86 FrameData_O[7] *535:76 0.000157264
87 *711:DIODE *535:112 0.000253604
88 *742:DIODE *2011:D 5.66475e-05
89 *742:DIODE *535:16 0.000107883
90 *742:DIODE *535:112 1.00941e-05
91 *743:DIODE *2011:D 0
92 *743:DIODE *535:112 0
93 *1809:S1 *535:112 0.000116158
94 *1811:S0 *535:76 8.23457e-05
95 *1884:A0 *733:DIODE 7.8632e-06
96 *1885:S0 *535:26 1.78199e-05
97 *1899:S1 *1979:D 3.9232e-05
98 *1900:S1 *535:16 0.000273195
99 *2089:A *733:DIODE 6.59891e-05
100 *2089:A *1947:D 2.42043e-05
101 *2124:A *535:16 0.000105331
102 *2126:A *2127:A 0.000100139
103 *2162:A *732:DIODE 8.96103e-05
104 *2162:A *733:DIODE 5.02814e-06
105 *2297:A *733:DIODE 4.12356e-05
106 *144:31 *733:DIODE 0.000116416
107 *144:111 *732:DIODE 8.82606e-05
108 *144:111 *733:DIODE 8.53307e-05
109 *146:99 *2011:D 0
110 *148:89 *535:16 0.000214718
111 *149:45 *733:DIODE 0.000112007
112 *150:35 *733:DIODE 0.0030703
113 *150:57 *733:DIODE 0.000320469
114 *150:77 *535:112 0.000599044
115 *233:62 *535:26 6.04355e-05
116 *233:62 *535:76 0.000500649
117 *234:44 *535:76 0.000168471
118 *235:113 *535:76 0.000180217
119 *236:22 *535:76 4.41506e-05
120 *409:32 *733:DIODE 0.00115778
121 *479:130 *733:DIODE 1.88656e-05
122 *479:130 *535:76 7.3162e-05
123 *480:153 *535:16 1.98547e-06
124 *483:80 *733:DIODE 0.000419252
125 *514:94 *535:76 0.000110762
126 *517:50 *732:DIODE 0.000441918
127 *517:50 *535:76 0.000165884
128 *520:56 *732:DIODE 1.31227e-05
129 *524:142 *733:DIODE 0.000160196
*RES
1 *2192:X *535:16 10.7709 
2 *535:16 *535:26 3.49177 
3 *535:26 *535:76 48.588 
4 *535:76 *732:DIODE 15.8875 
5 *535:26 *1979:D 5.085 
6 *535:16 *535:112 14.5034 
7 *535:112 *2127:A 6.825 
8 *535:112 *2011:D 5.235 
9 *732:DIODE *733:DIODE 27.9523 
10 *732:DIODE *1947:D 4.685 
11 *733:DIODE *2043:D 4.685 
*END

*D_NET *536 0.0135068
*CONN
*I *2303:A I *D sky130_fd_sc_hd__buf_2
*I *2080:X O *D sky130_fd_sc_hd__buf_1
*CAP
1 *2303:A 2.72184e-05
2 *2080:X 0.00356755
3 *536:26 0.00359477
4 *2303:A *2320:A 5.75434e-05
5 *536:26 *1811:A0 4.3483e-05
6 *536:26 *2308:A 7.54468e-05
7 *536:26 *2346:A 0.00159249
8 *536:26 *559:46 7.33639e-05
9 *536:26 *564:16 0
10 *536:26 *585:66 0.000691381
11 *536:26 *594:102 0.000108195
12 *536:26 *596:140 0.000512617
13 *536:26 *686:46 8.5049e-05
14 *536:26 *696:26 0.000158497
15 E6BEG[4] *536:26 0.000143849
16 FrameData_O[10] *536:26 8.43887e-05
17 FrameData_O[17] *536:26 0.000723962
18 FrameData_O[19] *536:26 4.78459e-05
19 FrameData_O[22] *536:26 0.000281921
20 FrameData_O[4] *536:26 0.000593647
21 FrameData_O[7] *536:26 0.000627015
22 FrameData_O[8] *536:26 0.000271173
23 *710:DIODE *536:26 3.72428e-05
24 *2080:A *536:26 4.95436e-05
25 *147:101 *536:26 0
26 *514:22 *536:26 0
27 *531:62 *2303:A 5.85628e-05
*RES
1 *2080:X *536:26 49.5866 
2 *536:26 *2303:A 4.3425 
*END

*D_NET *537 0.0207867
*CONN
*I *2304:A I *D sky130_fd_sc_hd__buf_2
*I *2090:X O *D sky130_fd_sc_hd__buf_1
*CAP
1 *2304:A 0.00601164
2 *2090:X 0.00601164
3 *2304:A *1884:A1 0.000244479
4 *2304:A *2015:D 0.000338297
5 *2304:A *544:46 6.65854e-06
6 *2304:A *567:90 1.90394e-07
7 *2304:A *582:94 6.02792e-05
8 *2304:A *585:66 0.00120014
9 *2304:A *586:92 8.54618e-06
10 *2304:A *587:118 0.00079565
11 *2304:A *590:112 9.24781e-05
12 *2304:A *591:102 0.000362533
13 *2304:A *593:46 8.92791e-06
14 *2304:A *594:102 3.47471e-05
15 *2304:A *600:122 4.77757e-05
16 *2304:A *613:42 1.46319e-05
17 *2304:A *613:95 0.000122325
18 *2304:A *624:58 0.000106338
19 *2304:A *632:107 5.95642e-06
20 *2304:A *636:159 0.000141025
21 *2304:A *654:41 0.000119246
22 *2304:A *654:88 0.00107017
23 *2304:A *658:109 0.00010873
24 *2304:A *671:30 0.000295245
25 *2304:A *673:106 0.000124069
26 *2304:A *675:192 0.000106502
27 *2304:A *679:59 0.000138529
28 *2304:A *680:46 7.65773e-05
29 *2304:A *684:35 7.89609e-05
30 *2304:A *689:92 4.66108e-05
31 *2304:A *694:76 0.000484731
32 *2304:A *701:52 0.000774746
33 *2304:A *708:84 0.000766686
34 FrameData_O[5] *2304:A 3.89311e-05
35 FrameData_O[7] *2304:A 3.00946e-05
36 *235:45 *2304:A 0.000122377
37 *243:42 *2304:A 9.39542e-05
38 *514:94 *2304:A 3.89311e-05
39 *519:40 *2304:A 4.45122e-06
40 *535:76 *2304:A 0.000652865
*RES
1 *2090:X *2304:A 38.8216 
*END

*D_NET *538 0.0134924
*CONN
*I *2305:A I *D sky130_fd_sc_hd__buf_2
*I *2091:X O *D sky130_fd_sc_hd__clkbuf_1
*CAP
1 *2305:A 0.000888756
2 *2091:X 0.00177899
3 *538:72 0.00266774
4 *2305:A *1881:A2 9.64638e-06
5 *2305:A *2311:A 0.0001925
6 *2305:A *2312:A 2.25106e-05
7 *2305:A *542:30 0.000113006
8 *2305:A *567:90 0.000158839
9 *2305:A *650:254 0.000401696
10 *2305:A *659:213 6.69608e-06
11 *2305:A *667:154 0.000376058
12 *538:72 *1827:A 0.00029854
13 *538:72 *1902:A0 6.57653e-06
14 *538:72 *1902:A1 0
15 *538:72 *2312:A 1.88656e-05
16 *538:72 *2314:A 1.88656e-05
17 *538:72 *2321:A 6.84448e-05
18 *538:72 *2361:A 0
19 *538:72 *569:58 0.000366356
20 *538:72 *642:106 0.000109287
21 *538:72 *659:213 0.000270687
22 *538:72 *661:203 4.66108e-05
23 *538:72 *671:111 6.65718e-05
24 *538:72 *675:174 2.9976e-05
25 *538:72 *686:46 7.53186e-05
26 *538:72 *688:30 0.000113069
27 *538:72 *691:44 3.21081e-06
28 *538:72 *692:64 0.000180689
29 *538:72 *707:83 0.000477215
30 E6BEG[1] *538:72 3.57047e-05
31 E6BEG[2] *538:72 5.83121e-06
32 E6BEG[3] *538:72 6.65555e-05
33 EE4BEG[4] *538:72 5.83362e-05
34 *1813:S0 *2305:A 0.000157214
35 *1877:A3 *538:72 0.000143849
36 *1881:S1 *2305:A 8.17173e-05
37 *1902:A3 *538:72 9.31311e-05
38 *1907:S1 *538:72 6.03315e-05
39 *2085:A *2305:A 0.000119691
40 *2291:A *538:72 0.000141541
41 *2296:A *538:72 0.000379538
42 *2299:A *538:72 0.000146809
43 *149:111 *538:72 1.09931e-05
44 *160:85 *538:72 8.80013e-05
45 *234:94 *538:72 0.000195438
46 *235:93 *2305:A 0.00018587
47 *235:113 *2305:A 4.9253e-06
48 *236:40 *538:72 9.61432e-05
49 *481:88 *538:72 4.18189e-05
50 *483:80 *538:72 0.000556187
51 *514:94 *2305:A 3.98777e-05
52 *514:94 *538:72 0.00112918
53 *516:54 *538:72 0.000106123
54 *517:50 *538:72 0.000439865
55 *520:56 *538:72 0.000246214
56 *535:76 *2305:A 9.48021e-05
*RES
1 *2091:X *538:72 49.4017 
2 *538:72 *2305:A 23.615 
*END

*D_NET *539 0.00974408
*CONN
*I *2306:A I *D sky130_fd_sc_hd__buf_2
*I *2081:X O *D sky130_fd_sc_hd__clkbuf_1
*CAP
1 *2306:A 0.000351474
2 *2081:X 0.00168008
3 *539:26 0.00203155
4 *2306:A *1811:A0 3.77609e-05
5 *2306:A *1811:A1 2.76356e-05
6 *2306:A *2318:A 0.000159324
7 *2306:A *2320:A 0.000235751
8 *2306:A *2333:A 4.77757e-05
9 *539:26 *740:DIODE 8.45413e-05
10 *539:26 *1885:A2 6.34581e-05
11 *539:26 *1899:A0 2.68526e-05
12 *539:26 *1899:A1 0.000197607
13 *539:26 *1899:A2 1.54111e-05
14 *539:26 *2312:A 6.83488e-05
15 *539:26 *2314:A 0.000407109
16 *539:26 *2318:A 0.000474496
17 *539:26 *2361:A 0.000156505
18 *539:26 *645:82 0.000138642
19 *539:26 *673:106 8.53113e-06
20 *539:26 *691:44 0.000384193
21 *539:26 *691:72 1.0221e-05
22 *539:26 *708:84 0.000333686
23 *539:26 *708:99 0.000100422
24 E6BEG[1] *2306:A 0.000120655
25 E6BEG[9] *539:26 3.96088e-05
26 FrameData_O[1] *539:26 9.22383e-05
27 FrameData_O[8] *539:26 1.7309e-05
28 *1811:A3 *2306:A 3.08152e-05
29 *1811:S0 *2306:A 7.9642e-06
30 *1899:A3 *539:26 4.41506e-05
31 *1899:S0 *539:26 0.000118081
32 *1899:S1 *539:26 8.43255e-05
33 *149:111 *539:26 0.00117706
34 *160:115 *2306:A 1.7635e-05
35 *160:133 *539:26 7.91584e-06
36 *233:62 *539:26 1.5508e-05
37 *234:14 *539:26 5.96933e-06
38 *234:44 *2306:A 2.43995e-05
39 *235:93 *539:26 0.000273341
40 *236:40 *2306:A 2.18287e-05
41 *514:94 *539:26 4.26162e-05
42 *531:62 *2306:A 1.70767e-05
43 *531:62 *539:26 0.000354718
44 *535:26 *539:26 5.25989e-05
45 *535:76 *539:26 0.000136884
*RES
1 *2081:X *539:26 48.975 
2 *539:26 *2306:A 12.47 
*END

*D_NET *540 0.0074791
*CONN
*I *2307:A I *D sky130_fd_sc_hd__buf_2
*I *2082:X O *D sky130_fd_sc_hd__clkbuf_1
*CAP
1 *2307:A 0.00120127
2 *2082:X 0.00120127
3 *2307:A *1888:A2 3.65365e-06
4 *2307:A *2015:D 1.88602e-05
5 *2307:A *2311:A 0.00036939
6 *2307:A *2314:A 0.000200683
7 *2307:A *567:90 7.94912e-05
8 *2307:A *579:32 0.0001657
9 *2307:A *585:66 0.000296755
10 *2307:A *593:94 0.000220087
11 *2307:A *597:60 0.000995433
12 *2307:A *662:188 5.08231e-05
13 *2307:A *662:196 0.000446139
14 *2307:A *665:18 0.000296755
15 *2307:A *667:154 2.26024e-05
16 *2307:A *676:10 0.000296755
17 *2307:A *677:26 0.00019876
18 *2307:A *708:42 0.000545061
19 E6BEG[9] *2307:A 0.000374374
20 *710:DIODE *2307:A 8.45204e-05
21 *2082:A *2307:A 9.25457e-05
22 *2162:A *2307:A 0.000197573
23 *143:109 *2307:A 1.19928e-05
24 *236:22 *2307:A 2.75558e-05
25 *520:56 *2307:A 8.10457e-05
*RES
1 *2082:X *2307:A 44.725 
*END

*D_NET *541 0.0144058
*CONN
*I *2308:A I *D sky130_fd_sc_hd__buf_2
*I *2083:X O *D sky130_fd_sc_hd__buf_1
*CAP
1 *2308:A 0.00270962
2 *2083:X 0.00270962
3 *2308:A *1881:A0 1.88261e-05
4 *2308:A *1881:A2 0.000261211
5 *2308:A *2317:A 0.000335838
6 *2308:A *2318:A 0.00204049
7 *2308:A *2348:A 0.000881817
8 *2308:A *585:66 0.000697085
9 *2308:A *594:102 0.000224528
10 *2308:A *596:140 0.000330895
11 *2308:A *650:236 7.57578e-05
12 *2308:A *650:254 2.99599e-05
13 *2308:A *653:275 5.07294e-05
14 *710:DIODE *2308:A 0.0023692
15 *1811:A2 *2308:A 0.000100927
16 *2083:A *2308:A 0
17 *2155:A *2308:A 8.10807e-05
18 *149:111 *2308:A 0.000843536
19 *159:101 *2308:A 0.000476224
20 *235:93 *2308:A 3.60991e-05
21 *514:94 *2308:A 5.69107e-05
22 *524:180 *2308:A 0
23 *536:26 *2308:A 7.54468e-05
*RES
1 *2083:X *2308:A 25.1758 
*END

*D_NET *542 0.00827862
*CONN
*I *2309:A I *D sky130_fd_sc_hd__buf_2
*I *2084:X O *D sky130_fd_sc_hd__clkbuf_1
*CAP
1 *2309:A 0
2 *2084:X 0.00152939
3 *542:30 0.00152939
4 *542:30 *1893:A1 1.88904e-05
5 *542:30 *2115:A 0.000225285
6 *542:30 *2313:A 0.000863884
7 *542:30 *2333:A 3.79595e-05
8 *542:30 *2353:A 8.23457e-05
9 *542:30 *645:82 6.83447e-05
10 *542:30 *650:254 0.000400222
11 *542:30 *659:227 2.85764e-05
12 *542:30 *667:154 0.000342059
13 *542:30 *667:174 8.35068e-05
14 E6BEG[4] *542:30 0.000109784
15 E6BEG[8] *542:30 4.88478e-05
16 *710:DIODE *542:30 1.31297e-05
17 *1813:S0 *542:30 0.000158888
18 *1882:A1 *542:30 4.66108e-05
19 *1883:A3 *542:30 0.00032696
20 *1889:S1 *542:30 0.000286043
21 *1899:S0 *542:30 1.08856e-05
22 *2084:A *542:30 1.19928e-05
23 *2305:A *542:30 0.000113006
24 *151:85 *542:30 0.00046237
25 *160:133 *542:30 0.000670301
26 *479:161 *542:30 0.000275911
27 *524:18 *542:30 1.88602e-05
28 *524:180 *542:30 0.00034952
29 *535:76 *542:30 0.000165661
*RES
1 *2084:X *542:30 48.735 
2 *542:30 *2309:A 1.6 
*END

*D_NET *543 0.00113936
*CONN
*I *2310:A I *D sky130_fd_sc_hd__buf_2
*I *2085:X O *D sky130_fd_sc_hd__clkbuf_1
*CAP
1 *2310:A 0.000213116
2 *2085:X 0.000213116
3 *2310:A *2312:A 0.000171262
4 *2310:A *2314:A 0.000316753
5 E6BEG[4] *2310:A 0
6 E6BEG[5] *2310:A 0
7 *710:DIODE *2310:A 9.22294e-06
8 *235:93 *2310:A 9.04081e-05
9 *531:62 *2310:A 0.000125487
*RES
1 *2085:X *2310:A 12.3895 
*END

*D_NET *544 0.0229519
*CONN
*I *2311:A I *D sky130_fd_sc_hd__buf_2
*I *2086:X O *D sky130_fd_sc_hd__buf_1
*CAP
1 *2311:A 0.00134752
2 *2086:X 0.00325484
3 *544:46 0.00460237
4 *2311:A *2333:A 0.000466837
5 *2311:A *2342:A 0.000525484
6 *2311:A *2359:A 3.59721e-05
7 *2311:A *597:60 0.000156628
8 *2311:A *618:112 0.000123515
9 *2311:A *650:254 0.000347856
10 *2311:A *659:213 5.44672e-05
11 *2311:A *667:154 6.33103e-05
12 *2311:A *669:114 5.53549e-06
13 *2311:A *674:80 0.000190712
14 *2311:A *676:10 0.000213217
15 *544:46 *1813:A0 5.59313e-05
16 *544:46 *1955:D 1.91597e-05
17 *544:46 *556:46 0.000429116
18 *544:46 *557:46 1.72142e-05
19 *544:46 *568:58 0.00123858
20 *544:46 *582:94 0.000228892
21 *544:46 *585:66 1.7635e-05
22 *544:46 *586:92 0.00025631
23 *544:46 *587:44 0.00016112
24 *544:46 *587:118 1.77331e-05
25 *544:46 *590:130 0.000308252
26 *544:46 *591:48 1.66065e-05
27 *544:46 *591:102 3.12948e-05
28 *544:46 *594:48 0
29 *544:46 *602:70 0.000392201
30 *544:46 *603:72 0.000263158
31 *544:46 *616:44 1.11763e-05
32 *544:46 *624:58 6.20621e-05
33 *544:46 *626:70 0.00017881
34 *544:46 *627:106 7.33639e-05
35 *544:46 *629:58 2.34091e-05
36 *544:46 *633:30 0.000718469
37 *544:46 *637:46 0.000846211
38 *544:46 *643:50 1.03352e-05
39 *544:46 *643:164 3.63701e-06
40 *544:46 *644:115 4.45875e-05
41 *544:46 *668:107 1.67131e-05
42 *544:46 *672:124 5.49765e-05
43 *544:46 *675:56 0.000400764
44 *544:46 *684:124 1.7635e-05
45 *544:46 *689:92 1.00941e-05
46 *544:46 *693:84 2.53191e-06
47 D_config_C_bit0 *544:46 0.000338105
48 D_config_C_bit1 *544:46 7.88728e-05
49 E6BEG[11] *2311:A 8.23457e-05
50 *718:DIODE *544:46 5.1924e-05
51 *1813:S0 *2311:A 0.000118081
52 *1880:S1 *544:46 8.23457e-05
53 *1881:A1 *2311:A 7.23961e-06
54 *2086:A *544:46 8.52883e-05
55 *2205:A *544:46 7.53186e-05
56 *2279:A *544:46 0.000283704
57 *2281:A *544:46 4.26884e-05
58 *2304:A *544:46 6.65854e-06
59 *2305:A *2311:A 0.0001925
60 *2307:A *2311:A 0.00036939
61 *2391:A *544:46 0.0015517
62 *153:105 *544:46 0.000243462
63 *154:85 *544:46 6.11178e-05
64 *158:23 *544:46 9.50342e-06
65 *158:71 *544:46 0.000293037
66 *160:85 *544:46 0.000665734
67 *160:115 *2311:A 0.000108737
68 *477:10 *2311:A 0.000405006
69 *480:70 *544:46 0.000468815
70 *535:76 *2311:A 1.41095e-05
*RES
1 *2086:X *544:46 48.1247 
2 *544:46 *2311:A 39.32 
*END

*D_NET *545 0.0153528
*CONN
*I *2312:A I *D sky130_fd_sc_hd__buf_2
*I *2087:X O *D sky130_fd_sc_hd__clkbuf_1
*CAP
1 *2312:A 0.0007782
2 *2087:X 0.00243228
3 *545:72 0.00321048
4 *2312:A *740:DIODE 8.09189e-05
5 *2312:A *1811:A1 1.7635e-05
6 *2312:A *2314:A 0.000331939
7 *2312:A *567:90 6.81984e-05
8 *2312:A *665:18 3.64998e-06
9 *545:72 *1826:A2 0.000120479
10 *545:72 *1970:D 5.63183e-05
11 *545:72 *1970:GATE 4.66108e-05
12 *545:72 *2314:A 3.86814e-05
13 *545:72 *2317:A 6.03407e-05
14 *545:72 *2320:A 7.12041e-05
15 *545:72 *2322:A 0.000262805
16 *545:72 *2326:A 2.8531e-05
17 *545:72 *2328:A 8.54978e-05
18 *545:72 *2329:A 0.000265744
19 *545:72 *2333:A 0.000127445
20 *545:72 *583:82 3.27348e-05
21 *545:72 *600:122 2.20049e-05
22 *545:72 *637:46 0.00028298
23 *545:72 *642:38 4.2145e-05
24 *545:72 *645:64 0.00112833
25 *545:72 *651:209 4.40378e-05
26 *545:72 *653:237 3.75754e-05
27 *545:72 *661:132 5.79895e-05
28 *545:72 *665:83 2.39315e-06
29 *545:72 *686:46 0.000145596
30 *545:72 *688:30 1.4641e-05
31 *545:72 *692:22 4.77757e-05
32 *545:72 *694:76 9.4675e-06
33 *545:72 *702:30 1.79483e-05
34 *545:72 *704:70 0.000762998
35 E6BEG[3] *545:72 8.82745e-06
36 E6BEG[5] *2312:A 0
37 EE4BEG[0] *545:72 3.97095e-06
38 EE4BEG[10] *545:72 0.000136504
39 EE4BEG[11] *545:72 4.6055e-05
40 EE4BEG[12] *2312:A 0.000101198
41 EE4BEG[15] *545:72 1.7635e-05
42 EE4BEG[2] *545:72 0.000196936
43 EE4BEG[3] *545:72 0.000262098
44 EE4BEG[5] *545:72 0.000104536
45 EE4BEG[6] *545:72 6.13525e-05
46 *1811:S0 *2312:A 2.1703e-05
47 *1881:S1 *2312:A 0.000159278
48 *2284:A *545:72 0.0013996
49 *2290:A *545:72 6.50892e-05
50 *2299:A *545:72 0.000279625
51 *2305:A *2312:A 2.25106e-05
52 *2310:A *2312:A 0.000171262
53 *144:111 *545:72 3.85753e-05
54 *149:75 *545:72 0.000189059
55 *149:93 *2312:A 0.000230503
56 *149:111 *2312:A 7.24439e-06
57 *160:115 *545:72 3.76869e-05
58 *234:44 *2312:A 4.09804e-05
59 *235:93 *2312:A 2.05571e-05
60 *481:88 *545:72 0.000262151
61 *483:80 *545:72 9.51343e-05
62 *514:94 *2312:A 8.23457e-05
63 *514:94 *545:72 3.65956e-05
64 *516:54 *545:72 1.53785e-05
65 *528:36 *545:72 0.000323004
66 *531:62 *2312:A 3.15856e-05
67 *535:76 *2312:A 6.0978e-05
68 *538:72 *2312:A 1.88656e-05
69 *539:26 *2312:A 6.83488e-05
*RES
1 *2087:X *545:72 47.7314 
2 *545:72 *2312:A 26.2025 
*END

*D_NET *546 0.00920723
*CONN
*I *1993:D I *D sky130_fd_sc_hd__dlxtp_1
*I *1961:D I *D sky130_fd_sc_hd__dlxtp_1
*I *1929:D I *D sky130_fd_sc_hd__dlxtp_1
*I *2109:A I *D sky130_fd_sc_hd__clkbuf_1
*I *2025:D I *D sky130_fd_sc_hd__dlxtp_1
*I *2193:X O *D sky130_fd_sc_hd__buf_1
*CAP
1 *1993:D 0.000135623
2 *1961:D 6.57782e-05
3 *1929:D 3.02393e-05
4 *2109:A 1.36534e-05
5 *2025:D 0.000130378
6 *2193:X 0
7 *546:42 0.000273552
8 *546:31 0.00117244
9 *546:6 0.00111163
10 *546:4 0.000135623
11 *1961:D *672:124 0
12 *1961:D *687:92 0.000147768
13 *1961:D *698:68 0.00011178
14 *1993:D *1993:GATE 8.35106e-05
15 *1993:D *624:58 2.04193e-05
16 *2025:D *684:8 1.56428e-05
17 *2109:A *1812:A1 4.66108e-05
18 *2109:A *668:34 4.66108e-05
19 *546:31 *2342:A 4.78726e-05
20 *546:31 *2347:A 0.000161171
21 *546:31 *600:122 0.000408106
22 *546:31 *626:70 6.55244e-06
23 *546:31 *636:159 3.1562e-06
24 *546:31 *637:6 1.56428e-05
25 *546:31 *637:114 3.64998e-06
26 *546:31 *668:49 0.000241031
27 *546:31 *668:81 8.67779e-05
28 *546:31 *679:59 0.000135234
29 *546:31 *687:92 0.000298032
30 *546:42 *2342:A 0.000169718
31 *546:42 *654:88 0
32 *546:42 *674:80 1.25877e-05
33 *546:42 *687:92 0.000338115
34 *2210:A *546:31 4.0031e-05
35 *2212:A *546:31 0.000208672
36 *2213:A *546:31 1.88904e-05
37 *2282:A *2025:D 0.000300299
38 *2282:A *546:31 0.00197165
39 *153:105 *2025:D 0.000301581
40 *153:105 *546:31 0.000703547
41 *153:129 *1929:D 4.58616e-05
42 *157:111 *1929:D 0.000122801
43 *510:28 *2025:D 2.49909e-05
*RES
1 *2193:X *546:4 1.6 
2 *546:4 *546:6 2 
3 *546:6 *2025:D 7.725 
4 *546:6 *546:31 32.845 
5 *546:31 *2109:A 4.05 
6 *546:31 *546:42 4.185 
7 *546:42 *1929:D 4.74 
8 *546:42 *1961:D 5.49 
9 *546:4 *1993:D 3.805 
*END

*D_NET *547 0.00530191
*CONN
*I *2313:A I *D sky130_fd_sc_hd__buf_2
*I *2088:X O *D sky130_fd_sc_hd__clkbuf_1
*CAP
1 *2313:A 0.000969305
2 *2088:X 0.000969305
3 *2313:A *2115:A 0.000263816
4 *2313:A *2360:A 0.000150802
5 *2313:A *559:46 8.53224e-05
6 *2313:A *650:254 0.000835165
7 *1813:S1 *2313:A 5.93408e-05
8 *2095:A *2313:A 0.000190712
9 *2105:A *2313:A 6.94437e-05
10 *2162:A *2313:A 0.000334805
11 *475:8 *2313:A 0.00051001
12 *542:30 *2313:A 0.000863884
*RES
1 *2088:X *2313:A 32.085 
*END

*D_NET *548 0.00586666
*CONN
*I *2314:A I *D sky130_fd_sc_hd__buf_2
*I *2089:X O *D sky130_fd_sc_hd__clkbuf_1
*CAP
1 *2314:A 0.00126941
2 *2089:X 0.00126941
3 *2314:A *1811:A0 2.2142e-05
4 *2314:A *1881:A2 1.91597e-05
5 *2314:A *2316:A 3.93101e-05
6 *2314:A *2320:A 1.07563e-05
7 *2314:A *2328:A 8.23457e-05
8 *2314:A *600:122 2.53191e-06
9 *2314:A *667:154 0.000156142
10 E6BEG[7] *2314:A 0.000298437
11 E6BEG[9] *2314:A 2.51154e-05
12 EE4BEG[10] *2314:A 0.000337225
13 EE4BEG[12] *2314:A 0.000360713
14 EE4BEG[13] *2314:A 1.42101e-05
15 EE4BEG[14] *2314:A 9.67062e-05
16 *710:DIODE *2314:A 8.23457e-05
17 *1915:S1 *2314:A 6.07575e-06
18 *1946:D *2314:A 8.35068e-05
19 *2307:A *2314:A 0.000200683
20 *2310:A *2314:A 0.000316753
21 *2312:A *2314:A 0.000331939
22 *160:85 *2314:A 0.000112143
23 *160:115 *2314:A 8.23457e-05
24 *528:36 *2314:A 9.76964e-06
25 *531:62 *2314:A 0.000172834
26 *538:72 *2314:A 1.88656e-05
27 *539:26 *2314:A 0.000407109
28 *545:72 *2314:A 3.86814e-05
*RES
1 *2089:X *2314:A 37.36 
*END

*D_NET *549 0.00156359
*CONN
*I *2315:A I *D sky130_fd_sc_hd__buf_2
*I *2092:X O *D sky130_fd_sc_hd__clkbuf_1
*CAP
1 *2315:A 0.000369374
2 *2092:X 0.000369374
3 *2315:A *650:236 0.000358223
4 *2315:A *653:172 2.24708e-05
5 *2315:A *697:62 6.27915e-05
6 *2315:A *698:129 0.000156264
7 *2315:A *707:83 8.74489e-05
8 EE4BEG[0] *2315:A 0
9 *2299:A *2315:A 8.43317e-05
10 *144:75 *2315:A 0
11 *144:111 *2315:A 5.33085e-05
12 *234:94 *2315:A 0
*RES
1 *2092:X *2315:A 14.955 
*END

*D_NET *550 0.00553935
*CONN
*I *2316:A I *D sky130_fd_sc_hd__buf_2
*I *2102:X O *D sky130_fd_sc_hd__clkbuf_1
*CAP
1 *2316:A 0.00107851
2 *2102:X 0.00107851
3 *2316:A *1822:A1 2.59934e-06
4 *2316:A *1881:A2 1.23707e-05
5 *2316:A *1915:A3 0.000208181
6 *2316:A *2326:A 7.8632e-06
7 *2316:A *2328:A 0.000733541
8 *2316:A *558:50 0.000175629
9 *2316:A *667:87 4.74773e-05
10 *2316:A *676:48 0.000241424
11 *2316:A *686:46 0.000479569
12 *1915:S1 *2316:A 3.93101e-05
13 *2089:A *2316:A 0.000266072
14 *2296:A *2316:A 0.000473435
15 *2299:A *2316:A 5.83121e-06
16 *2301:A *2316:A 7.06865e-05
17 *2314:A *2316:A 3.93101e-05
18 *159:101 *2316:A 0.000140354
19 *234:58 *2316:A 0.00030139
20 *479:130 *2316:A 2.10433e-05
21 *517:50 *2316:A 1.46216e-05
22 *533:44 *2316:A 0.00010163
*RES
1 *2102:X *2316:A 32.1993 
*END

*D_NET *551 0.0210809
*CONN
*I *2317:A I *D sky130_fd_sc_hd__buf_2
*I *2103:X O *D sky130_fd_sc_hd__buf_1
*CAP
1 *2317:A 0.00377418
2 *2103:X 0.00377418
3 *2317:A *2333:A 3.06212e-05
4 *2317:A *2337:A 0
5 *2317:A *2377:A 0
6 *2317:A *594:74 0.00104361
7 *2317:A *653:275 0.00325332
8 *2317:A *686:46 0.000870366
9 *2317:A *696:26 0.00066594
10 *2317:A *696:30 0
11 *2317:A *697:62 0.000850644
12 EE4BEG[13] *2317:A 1.62783e-05
13 EE4BEG[14] *2317:A 0.000285195
14 EE4BEG[15] *2317:A 0.000421327
15 FrameData_O[9] *2317:A 0.000174598
16 *710:DIODE *2317:A 0.000114205
17 *1894:S1 *2317:A 0.000312182
18 *1909:S0 *2317:A 0.000171017
19 *2100:A *2317:A 7.23602e-05
20 *2103:A *2317:A 0.000139858
21 *2308:A *2317:A 0.000335838
22 *147:101 *2317:A 0.00016378
23 *148:111 *2317:A 0
24 *160:115 *2317:A 1.88904e-05
25 *483:80 *2317:A 0.00401599
26 *483:102 *2317:A 0.000433558
27 *516:54 *2317:A 4.74788e-06
28 *524:180 *2317:A 7.78168e-05
29 *545:72 *2317:A 6.03407e-05
*RES
1 *2103:X *2317:A 29.0766 
*END

*D_NET *552 0.0121571
*CONN
*I *2318:A I *D sky130_fd_sc_hd__buf_2
*I *2104:X O *D sky130_fd_sc_hd__buf_1
*CAP
1 *2318:A 0.0021271
2 *2104:X 0.0021271
3 *2318:A *1811:A0 0.000142264
4 *2318:A *1812:A0 0.000103315
5 *2318:A *1881:A2 3.82018e-05
6 *2318:A *1885:A2 4.03791e-05
7 *2318:A *2333:A 4.24435e-05
8 *2318:A *2336:A 2.03952e-05
9 *2318:A *2348:A 7.18419e-06
10 *2318:A *2377:A 0.000647987
11 *2318:A *596:140 1.00725e-05
12 *2318:A *642:106 6.37412e-05
13 *2318:A *645:82 0.00108436
14 *2318:A *665:38 0.000235735
15 *2318:A *708:84 9.44328e-05
16 *2318:A *708:99 1.39329e-05
17 E6BEG[1] *2318:A 6.03315e-05
18 *1885:S0 *2318:A 2.28356e-05
19 *2306:A *2318:A 0.000159324
20 *2308:A *2318:A 0.00204049
21 *146:89 *2318:A 6.01086e-05
22 *148:89 *2318:A 0.000183791
23 *159:101 *2318:A 0.00146816
24 *160:115 *2318:A 0.000151263
25 *234:44 *2318:A 6.54107e-05
26 *236:40 *2318:A 0.000222203
27 *514:94 *2318:A 0.000415883
28 *535:26 *2318:A 3.41952e-05
29 *539:26 *2318:A 0.000474496
*RES
1 *2104:X *2318:A 32.308 
*END

*D_NET *553 0.0104969
*CONN
*I *2319:A I *D sky130_fd_sc_hd__buf_2
*I *2105:X O *D sky130_fd_sc_hd__clkbuf_1
*CAP
1 *2319:A 0.000205591
2 *2105:X 0.00188738
3 *553:28 0.00209297
4 *2319:A *1946:GATE 9.77815e-06
5 *2319:A *2328:A 8.23457e-05
6 *553:28 *1946:GATE 1.81824e-06
7 *553:28 *1964:GATE 1.00941e-05
8 *553:28 *1998:GATE 0.000158297
9 *553:28 *2330:A 0.000107545
10 *553:28 *558:50 3.62744e-05
11 *553:28 *586:92 0.000391113
12 *553:28 *593:94 2.80998e-05
13 *553:28 *595:28 0.000238478
14 *553:28 *613:42 0.000153582
15 *553:28 *631:65 1.80801e-05
16 *553:28 *632:152 0.000126234
17 *553:28 *634:154 5.38986e-06
18 *553:28 *634:176 0.000230655
19 *553:28 *635:102 0.00020446
20 *553:28 *636:159 0.000262737
21 *553:28 *661:203 0.000137459
22 *553:28 *662:196 0.000276209
23 *553:28 *669:108 0.000436455
24 *553:28 *673:106 3.89627e-05
25 *553:28 *675:64 4.01535e-05
26 *553:28 *708:42 9.70792e-05
27 EE4BEG[13] *2319:A 1.98269e-07
28 *1885:S0 *553:28 2.05641e-05
29 *1896:A3 *553:28 0.000109431
30 *1915:S0 *2319:A 8.92239e-05
31 *1946:D *2319:A 0.000228952
32 *2056:CLK *553:28 0.00013598
33 *2058:CLK *553:28 0.00038933
34 *2068:A *553:28 5.47121e-05
35 *2105:A *553:28 0.000465076
36 *145:71 *553:28 8.50801e-06
37 *235:113 *553:28 0.000174649
38 *477:10 *553:28 0.000156828
39 *519:40 *553:28 0.00108942
40 *520:56 *553:28 0.000296755
*RES
1 *2105:X *553:28 49.5838 
2 *553:28 *2319:A 5.66125 
*END

*D_NET *554 0.00295932
*CONN
*I *2320:A I *D sky130_fd_sc_hd__buf_2
*I *2106:X O *D sky130_fd_sc_hd__clkbuf_1
*CAP
1 *2320:A 0.000878358
2 *2106:X 0.000878358
3 *2320:A *1811:A0 7.37187e-05
4 *1811:A2 *2320:A 6.90889e-06
5 *1811:A3 *2320:A 5.74791e-05
6 *1811:S0 *2320:A 9.40887e-05
7 *2063:A *2320:A 0.000154977
8 *2303:A *2320:A 5.75434e-05
9 *2306:A *2320:A 0.000235751
10 *2314:A *2320:A 1.07563e-05
11 *160:115 *2320:A 0.00017519
12 *236:22 *2320:A 0.000228656
13 *531:62 *2320:A 3.63298e-05
14 *545:72 *2320:A 7.12041e-05
*RES
1 *2106:X *2320:A 21.075 
*END

*D_NET *555 0.00787524
*CONN
*I *2321:A I *D sky130_fd_sc_hd__buf_2
*I *2107:X O *D sky130_fd_sc_hd__clkbuf_1
*CAP
1 *2321:A 0.00138262
2 *2107:X 0.00138262
3 *2321:A *1826:A2 0.000118081
4 *2321:A *1881:A2 0.00059999
5 *2321:A *2328:A 0.000294395
6 *2321:A *2330:A 4.66108e-05
7 *2321:A *2333:A 0.000290094
8 *2321:A *583:82 0.000166796
9 *2321:A *650:236 0.000595301
10 *2321:A *659:175 8.8917e-06
11 *2321:A *665:38 4.17092e-05
12 *2321:A *676:48 0.000147585
13 *2321:A *702:30 0.000558552
14 *2321:A *704:70 4.73375e-06
15 *2321:A *707:83 0.000459957
16 *1887:A3 *2321:A 1.04964e-05
17 *1887:S0 *2321:A 6.57653e-06
18 *1907:S1 *2321:A 0.000109551
19 *1915:S1 *2321:A 8.80752e-05
20 *2289:A *2321:A 0.000167432
21 *2297:A *2321:A 5.41873e-05
22 *2302:A *2321:A 0.000643379
23 *160:85 *2321:A 3.71539e-05
24 *483:80 *2321:A 0.000462856
25 *516:54 *2321:A 0.000129154
26 *517:50 *2321:A 0
27 *538:72 *2321:A 6.84448e-05
*RES
1 *2107:X *2321:A 40.1037 
*END

*D_NET *556 0.0260436
*CONN
*I *2322:A I *D sky130_fd_sc_hd__buf_2
*I *2093:X O *D sky130_fd_sc_hd__buf_1
*CAP
1 *2322:A 0.00242732
2 *2093:X 0.00111752
3 *556:46 0.00349182
4 *556:26 0.00221188
5 *556:22 0.00226491
6 *2322:A *1826:A2 0.000218639
7 *2322:A *2133:A 3.53405e-05
8 *2322:A *593:94 6.33103e-05
9 *2322:A *636:50 0.00033543
10 *2322:A *653:172 1.77665e-05
11 *2322:A *662:177 0.000391918
12 *2322:A *692:64 8.53224e-05
13 *2322:A *693:82 0.000258496
14 *2322:A *708:42 4.86912e-05
15 *556:22 *1891:A2 0.000414375
16 *556:22 *1974:GATE 4.18421e-05
17 *556:22 *2363:A 0
18 *556:22 *2378:A 1.58715e-05
19 *556:22 *2382:A 0.000130598
20 *556:22 *564:8 0.00012657
21 *556:22 *628:26 4.66826e-05
22 *556:26 *568:10 0.000296214
23 *556:26 *568:42 0.00102589
24 *556:26 *603:74 0.00114376
25 *556:26 *633:34 0.00189294
26 *556:46 *2347:A 0.000136784
27 *556:46 *557:46 0.00134041
28 *556:46 *568:42 0.000840312
29 *556:46 *582:94 0.000326442
30 *556:46 *602:70 6.14496e-05
31 *556:46 *603:74 0.00108496
32 *556:46 *616:44 0.000356295
33 *556:46 *626:70 0.000175995
34 *556:46 *627:106 0.000149333
35 *556:46 *633:34 5.94035e-05
36 *556:46 *644:115 2.10433e-05
37 *556:46 *675:56 6.15886e-05
38 *722:DIODE *556:22 0.000121031
39 *723:DIODE *556:22 0
40 *723:DIODE *556:26 0
41 *1884:S0 *2322:A 8.12631e-05
42 *1884:S1 *2322:A 5.07362e-05
43 *1974:D *556:22 0.000383946
44 *2093:A *556:22 3.95269e-05
45 *2100:A *556:22 0
46 *2149:A *556:22 8.23457e-05
47 *2189:A *556:26 0.000267443
48 *2199:A *556:26 0.000269386
49 *2211:A *556:46 0.000166476
50 *2213:A *556:46 9.88392e-05
51 *143:109 *2322:A 1.19928e-05
52 *148:111 *556:22 0.000100162
53 *153:105 *556:46 4.56489e-05
54 *154:99 *2322:A 0.000128208
55 *154:99 *556:46 0.000150219
56 *502:79 *2322:A 8.5684e-05
57 *510:28 *556:46 0.000360526
58 *511:12 *556:26 0.000191099
59 *544:46 *556:46 0.000429116
60 *545:72 *2322:A 0.000262805
*RES
1 *2093:X *556:22 27.265 
2 *556:22 *556:26 42.5025 
3 *556:26 *556:46 42.5325 
4 *556:46 *2322:A 36.215 
*END

*D_NET *557 0.0443232
*CONN
*I *2128:A I *D sky130_fd_sc_hd__clkbuf_1
*I *1948:D I *D sky130_fd_sc_hd__dlxtp_1
*I *2012:D I *D sky130_fd_sc_hd__dlxtp_1
*I *1980:D I *D sky130_fd_sc_hd__dlxtp_1
*I *1916:D I *D sky130_fd_sc_hd__dlxtp_1
*I *2044:D I *D sky130_fd_sc_hd__dlxtp_1
*I *2194:X O *D sky130_fd_sc_hd__buf_2
*CAP
1 *2128:A 0.000143031
2 *1948:D 3.70623e-05
3 *2012:D 0.000191459
4 *1980:D 6.83674e-05
5 *1916:D 1.38912e-05
6 *2044:D 0.0013507
7 *2194:X 0.000266162
8 *557:147 0.000795614
9 *557:143 0.000896203
10 *557:104 0.0031861
11 *557:58 0.0024251
12 *557:46 0.00219722
13 *557:44 0.00332697
14 *557:8 0.00211722
15 *1916:D *1916:GATE 1.34503e-05
16 *1948:D *2339:A 9.76407e-06
17 *1948:D *2344:A 4.66108e-05
18 *1980:D *2184:A 0.000107205
19 *1980:D *683:6 5.16211e-05
20 *2012:D *1886:A2 0.000470839
21 *2012:D *2343:A 4.66108e-05
22 *2044:D *1851:A2 1.68736e-05
23 *2044:D *1917:D 8.61788e-06
24 *2044:D *2045:D 0.000427742
25 *2044:D *2045:GATE 6.08805e-05
26 *2044:D *666:145 1.41633e-05
27 *2128:A *2343:A 3.64998e-06
28 *2128:A *2344:A 2.97802e-05
29 *2128:A *670:65 3.42935e-05
30 *2128:A *673:189 8.30853e-06
31 *557:8 *568:163 7.95785e-05
32 *557:8 *568:188 1.91597e-05
33 *557:44 *1878:A1 1.83975e-05
34 *557:44 *1944:GATE 8.47041e-05
35 *557:44 *2345:A 0.000389284
36 *557:44 *2347:A 0
37 *557:44 *2362:A 0.000116746
38 *557:44 *579:32 2.88307e-05
39 *557:44 *582:94 0.000157966
40 *557:44 *602:70 0.000181553
41 *557:44 *670:65 0.00013291
42 *557:44 *672:18 0
43 *557:44 *698:175 0.000154838
44 *557:46 *568:58 0.00301998
45 *557:46 *586:44 0.00144368
46 *557:46 *590:14 0.000115746
47 *557:46 *624:118 0.00249749
48 *557:46 *626:96 0.000410842
49 *557:46 *628:68 3.21799e-05
50 *557:46 *633:34 0.000881555
51 *557:46 *640:28 0.00251687
52 *557:58 *1926:D 0
53 *557:58 *2184:A 0.000196669
54 *557:58 *586:44 0.000108771
55 *557:58 *587:16 3.49355e-05
56 *557:58 *683:6 6.34651e-05
57 *557:104 *1916:GATE 5.79433e-05
58 *557:104 *1921:D 1.25877e-05
59 *557:104 *1924:D 1.67154e-05
60 *557:104 *1981:GATE 0.000112279
61 *557:104 *2116:A 8.247e-05
62 *557:104 *568:114 1.74532e-05
63 *557:104 *568:122 0.000265426
64 *557:104 *583:28 7.53115e-05
65 *557:104 *586:44 2.1724e-05
66 *557:104 *639:58 4.0368e-05
67 *557:104 *639:60 0
68 *557:104 *640:24 0.000476705
69 *557:104 *666:32 0.000153045
70 *557:104 *666:56 0.00016798
71 *557:143 *2344:A 0.000156468
72 *557:143 *579:32 0
73 *557:143 *670:65 5.50009e-05
74 *557:147 *1948:GATE 0.000159109
75 *557:147 *2339:A 1.94027e-05
76 *557:147 *2344:A 0.00164469
77 *557:147 *2353:A 0.000400594
78 A_config_C_bit1 *557:58 9.76308e-05
79 B_I_top *557:104 1.88656e-05
80 B_T_top *557:104 3.99395e-05
81 *742:DIODE *557:44 0.000172045
82 *1831:A2 *2044:D 0
83 *1878:A0 *557:44 1.15688e-05
84 *2174:A *557:8 8.52845e-05
85 *2174:A *557:44 0.000136415
86 *2174:A *557:143 2.01779e-05
87 *2208:A *557:104 9.50342e-06
88 *2219:A *557:104 0.000121945
89 *2273:A *557:58 0.000116797
90 *2281:A *557:46 0.00168564
91 *2385:A *1916:D 4.66108e-05
92 *2385:A *557:104 0.000257329
93 *2386:A *557:104 0.00105173
94 *2393:A *557:58 0.000407458
95 *142:89 *557:44 0.000153816
96 *146:67 *2044:D 9.8146e-05
97 *151:85 *2012:D 0.000469134
98 *153:59 *557:46 9.05147e-05
99 *153:129 *557:44 0.000473373
100 *153:142 *557:44 0.000195383
101 *156:39 *2044:D 4.01535e-05
102 *480:70 *557:44 0.000259687
103 *480:108 *557:44 9.2419e-05
104 *480:153 *557:44 2.25816e-05
105 *490:16 *557:104 0.000715024
106 *502:14 *557:44 0.00050225
107 *502:105 *557:44 0.000517788
108 *511:12 *557:46 9.11728e-06
109 *535:16 *557:44 6.03272e-05
110 *544:46 *557:46 1.72142e-05
111 *556:46 *557:46 0.00134041
*RES
1 *2194:X *557:8 6.81 
2 *557:8 *557:44 42.0711 
3 *557:44 *557:46 81.45 
4 *557:46 *557:58 17.46 
5 *557:58 *557:104 49.82 
6 *557:104 *2044:D 11.8233 
7 *557:104 *1916:D 2.05 
8 *557:58 *1980:D 3.085 
9 *557:8 *557:143 3.72 
10 *557:143 *557:147 17.975 
11 *557:147 *2012:D 11.765 
12 *557:147 *1948:D 2.41 
13 *557:143 *2128:A 6.03 
*END

*D_NET *558 0.0160489
*CONN
*I *2323:A I *D sky130_fd_sc_hd__buf_2
*I *2094:X O *D sky130_fd_sc_hd__buf_1
*CAP
1 *2323:A 0
2 *2094:X 0.00330289
3 *558:50 0.00330289
4 *558:50 *1809:A0 0.000400835
5 *558:50 *1900:A1 4.90039e-06
6 *558:50 *1900:A2 3.01974e-05
7 *558:50 *1998:GATE 0.00015212
8 *558:50 *2326:A 0.000387946
9 *558:50 *2328:A 7.7478e-05
10 *558:50 *2330:A 0.000231993
11 *558:50 *579:32 1.3926e-05
12 *558:50 *595:28 0.000674025
13 *558:50 *596:140 3.76587e-05
14 *558:50 *597:60 0.000133785
15 *558:50 *618:112 0.000586928
16 *558:50 *631:65 0.000262472
17 *558:50 *632:107 4.59783e-05
18 *558:50 *632:152 4.73375e-06
19 *558:50 *634:176 7.87812e-05
20 *558:50 *636:159 0.000330981
21 *558:50 *642:106 0.000152683
22 *558:50 *645:64 0.000501357
23 *558:50 *651:209 0.000372154
24 *558:50 *653:237 2.8531e-05
25 *558:50 *669:108 0.00044004
26 *558:50 *673:106 0.000143495
27 *558:50 *675:64 4.18203e-05
28 *558:50 *686:46 0.0001324
29 *558:50 *701:52 0.000548127
30 EE4BEG[4] *558:50 2.05815e-07
31 *1900:S1 *558:50 0.00030378
32 *2006:D *558:50 0.000162325
33 *2007:D *558:50 0.00010467
34 *2057:CLK *558:50 0.00013611
35 *2160:A *558:50 0.000332551
36 *2164:A *558:50 0.000103664
37 *2165:A *558:50 0.000141661
38 *2284:A *558:50 0.00053612
39 *2297:A *558:50 7.47054e-05
40 *2316:A *558:50 0.000175629
41 *145:83 *558:50 0.000804018
42 *233:80 *558:50 0.000144009
43 *234:58 *558:50 1.57264e-05
44 *234:94 *558:50 3.85204e-05
45 *236:22 *558:50 0.000402727
46 *483:80 *558:50 1.074e-05
47 *520:56 *558:50 0.000104294
48 *553:28 *558:50 3.62744e-05
*RES
1 *2094:X *558:50 49.3918 
2 *558:50 *2323:A 3.6 
*END

*D_NET *559 0.0127551
*CONN
*I *2324:A I *D sky130_fd_sc_hd__buf_2
*I *2095:X O *D sky130_fd_sc_hd__clkbuf_1
*CAP
1 *2324:A 0.00094015
2 *2095:X 0.0015564
3 *559:46 0.00249655
4 *2324:A *560:66 2.05839e-06
5 *2324:A *564:52 0.000173402
6 *2324:A *594:74 0.000930724
7 *2324:A *646:32 5.53549e-06
8 *2324:A *653:237 0.000631816
9 *2324:A *659:175 4.41506e-05
10 *2324:A *660:87 0.000313625
11 *2324:A *695:90 7.91584e-06
12 *2324:A *704:70 7.74869e-05
13 *559:46 *1889:A2 0.000107357
14 *559:46 *2333:A 6.03272e-05
15 *559:46 *2361:A 0.000307417
16 *559:46 *564:52 3.43676e-05
17 *559:46 *585:66 0.000164715
18 *559:46 *594:74 0.000509312
19 *559:46 *646:32 0.000344448
20 *559:46 *650:254 5.8678e-05
21 *559:46 *653:275 0.00031074
22 *559:46 *659:227 0.000195119
23 *559:46 *691:44 0.00029136
24 *559:46 *695:90 6.3289e-05
25 *559:46 *704:70 0.000147749
26 *559:46 *704:90 1.99559e-05
27 E6BEG[6] *559:46 0.000488818
28 EE4BEG[3] *2324:A 8.35068e-05
29 EE4BEG[7] *2324:A 3.07956e-05
30 EE4BEG[9] *2324:A 0.000308866
31 FrameData_O[3] *559:46 0.00041189
32 FrameData_O[5] *559:46 8.53224e-05
33 FrameData_O[6] *559:46 0.000117448
34 FrameData_O[7] *559:46 8.50177e-05
35 FrameData_O[8] *559:46 0
36 *710:DIODE *559:46 5.67324e-05
37 *2313:A *559:46 8.53224e-05
38 *144:75 *2324:A 0
39 *144:111 *2324:A 4.66108e-05
40 *147:99 *2324:A 0.000216173
41 *234:26 *559:46 5.20894e-06
42 *235:45 *559:46 2.22315e-05
43 *514:94 *559:46 1.49294e-05
44 *524:49 *559:46 0.0008282
45 *536:26 *559:46 7.33639e-05
*RES
1 *2095:X *559:46 40.1761 
2 *559:46 *2324:A 27.42 
*END

*D_NET *560 0.0211818
*CONN
*I *2325:A I *D sky130_fd_sc_hd__buf_2
*I *720:DIODE I *D sky130_fd_sc_hd__diode_2
*I *2096:X O *D sky130_fd_sc_hd__buf_1
*CAP
1 *2325:A 2.21004e-05
2 *720:DIODE 2.79308e-05
3 *2096:X 0.00252328
4 *560:66 0.00127927
5 *560:44 0.00375251
6 *560:44 *637:67 0.00157712
7 *560:44 *644:24 0.000399893
8 *560:44 *645:20 3.02209e-05
9 *560:44 *646:32 0.00016103
10 *560:44 *647:189 8.23457e-05
11 *560:44 *657:44 0.000157276
12 *560:44 *658:27 3.07267e-05
13 *560:44 *661:81 0.000261094
14 *560:44 *665:83 0.000639627
15 *560:44 *691:16 0.000277155
16 *560:44 *695:66 1.44839e-05
17 *560:66 *1903:A1 0.000186723
18 *560:66 *645:20 1.11423e-05
19 *560:66 *650:164 0.000501503
20 *560:66 *651:209 0.000123182
21 *560:66 *653:172 5.83121e-06
22 *560:66 *695:66 0.00153822
23 *560:66 *699:40 0.000355287
24 *560:66 *704:70 5.98468e-05
25 EE4BEG[1] *560:66 0.000262804
26 EE4BEG[2] *560:66 0.000262804
27 EE4BEG[5] *560:66 0.00020336
28 EE4BEG[6] *560:66 2.35892e-05
29 *1877:A2 *720:DIODE 2.68464e-05
30 *1877:A2 *560:66 2.49909e-05
31 *2224:A *560:44 0.000428907
32 *2225:A *560:44 0.000155251
33 *2226:A *560:44 0.000118141
34 *2266:A *560:44 0.000182975
35 *2267:A *560:44 0.000180189
36 *2290:A *560:66 0.000436552
37 *2295:A *560:44 0.000488072
38 *2298:A *560:66 0.000255878
39 *2324:A *560:66 2.05839e-06
40 *2389:A *560:44 0.000214158
41 *142:31 *560:44 0.000664297
42 *142:57 *560:66 2.65779e-05
43 *144:75 *560:66 3.81021e-05
44 *146:67 *560:44 0.000557031
45 *146:89 *560:66 0.00173327
46 *148:21 *560:44 0.00069581
47 *234:94 *560:66 7.90657e-06
48 *481:30 *560:44 0.00011229
49 *481:88 *560:66 6.21084e-05
*RES
1 *2096:X *560:44 47.1435 
2 *560:44 *560:66 43.0259 
3 *560:66 *720:DIODE 2.05 
4 *560:66 *2325:A 1.96 
*END

*D_NET *561 0.0284051
*CONN
*I *2326:A I *D sky130_fd_sc_hd__buf_2
*I *2097:X O *D sky130_fd_sc_hd__buf_1
*CAP
1 *2326:A 0.00727857
2 *2097:X 0.00727857
3 *2326:A *1837:C 2.22315e-05
4 *2326:A *1861:A0 0
5 *2326:A *1881:A2 0.000496489
6 *2326:A *568:112 1.51846e-05
7 *2326:A *569:58 0.000150934
8 *2326:A *582:40 0.00163192
9 *2326:A *591:102 0.000766809
10 *2326:A *593:46 0.000652492
11 *2326:A *602:123 0.00022345
12 *2326:A *602:131 0.000519467
13 *2326:A *602:166 1.09082e-05
14 *2326:A *627:106 0.000763023
15 *2326:A *631:112 0.00134191
16 *2326:A *637:46 0.000790032
17 *2326:A *642:106 3.92756e-05
18 *2326:A *643:50 0.000147357
19 *2326:A *644:46 0.000102222
20 *2326:A *651:137 0.000451537
21 *2326:A *652:34 2.05661e-05
22 *2326:A *664:14 7.06865e-05
23 *2326:A *687:114 0.000652885
24 *2326:A *689:92 7.33639e-05
25 *2326:A *694:76 0.000242937
26 A_config_C_bit3 *2326:A 0.000286302
27 B_config_C_bit0 *2326:A 0.000130807
28 B_config_C_bit1 *2326:A 0
29 D_config_C_bit1 *2326:A 0.000102774
30 EE4BEG[10] *2326:A 4.41506e-05
31 EE4BEG[11] *2326:A 3.98492e-06
32 EE4BEG[5] *2326:A 3.79957e-05
33 *1799:A *2326:A 3.99339e-05
34 *1877:A3 *2326:A 1.51386e-05
35 *2291:A *2326:A 0.000144028
36 *2297:A *2326:A 0.000160558
37 *2316:A *2326:A 7.8632e-06
38 *148:89 *2326:A 9.23627e-05
39 *150:57 *2326:A 0.000133655
40 *159:77 *2326:A 1.46319e-05
41 *160:85 *2326:A 0.000729228
42 *181:56 *2326:A 0.000131912
43 *234:58 *2326:A 0.000167695
44 *409:32 *2326:A 7.8632e-06
45 *479:130 *2326:A 0.000300125
46 *516:54 *2326:A 0.000181202
47 *519:46 *2326:A 0.00151357
48 *545:72 *2326:A 2.8531e-05
49 *558:50 *2326:A 0.000387946
*RES
1 *2097:X *2326:A 40.6256 
*END

*D_NET *562 0.00344297
*CONN
*I *2327:A I *D sky130_fd_sc_hd__buf_2
*I *2098:X O *D sky130_fd_sc_hd__clkbuf_1
*CAP
1 *2327:A 0.0007514
2 *2098:X 0.0007514
3 *2327:A *1877:A1 1.08758e-05
4 *2327:A *1881:A2 0.000357488
5 *2327:A *1915:A2 0.000131122
6 *2327:A *1915:A3 0.000131122
7 *2327:A *2328:A 0.000131881
8 *2327:A *2333:A 5.83121e-06
9 *2327:A *583:82 0.000198767
10 *2327:A *596:140 1.47549e-06
11 *2327:A *650:236 0.000245638
12 *2327:A *667:154 3.56979e-05
13 *2327:A *703:60 0.000238603
14 *2327:A *708:84 5.83121e-06
15 E6BEG[3] *2327:A 9.7901e-05
16 *1877:A2 *2327:A 7.86974e-05
17 *2299:A *2327:A 0.000117895
18 *160:115 *2327:A 3.37118e-05
19 *234:58 *2327:A 2.45171e-05
20 *479:130 *2327:A 7.39548e-05
21 *481:88 *2327:A 1.91597e-05
*RES
1 *2098:X *2327:A 22.4776 
*END

*D_NET *563 0.0126612
*CONN
*I *2328:A I *D sky130_fd_sc_hd__buf_2
*I *2099:X O *D sky130_fd_sc_hd__clkbuf_1
*CAP
1 *2328:A 0.00242455
2 *2099:X 0.00242455
3 *2328:A *1885:A2 0.000893509
4 *2328:A *1895:A2 5.00879e-05
5 *2328:A *2003:GATE 1.81196e-05
6 *2328:A *569:58 0
7 *2328:A *594:48 2.17484e-05
8 *2328:A *600:74 0.000124496
9 *2328:A *637:46 1.95067e-05
10 *2328:A *651:209 2.22315e-05
11 *2328:A *665:38 6.31467e-05
12 *2328:A *665:50 9.15146e-05
13 *2328:A *676:48 2.3058e-05
14 *2328:A *685:30 7.94713e-05
15 *2328:A *686:46 0.000147353
16 *2328:A *688:30 0.00062794
17 *2328:A *690:65 7.81767e-05
18 *2328:A *692:22 0.000260038
19 *2328:A *702:30 0.000568009
20 EE4BEG[13] *2328:A 0.000171376
21 *1946:D *2328:A 0.000354726
22 *2099:A *2328:A 2.49909e-05
23 *2289:A *2328:A 0.000823598
24 *2296:A *2328:A 0.000720212
25 *2299:A *2328:A 0.00026575
26 *2314:A *2328:A 8.23457e-05
27 *2316:A *2328:A 0.000733541
28 *2319:A *2328:A 8.23457e-05
29 *2321:A *2328:A 0.000294395
30 *2327:A *2328:A 0.000131881
31 *143:47 *2328:A 2.51917e-05
32 *145:71 *2328:A 0.000237049
33 *160:115 *2328:A 2.10214e-05
34 *479:130 *2328:A 0.000147832
35 *483:80 *2328:A 7.07207e-05
36 *524:142 *2328:A 0.000112478
37 *533:44 *2328:A 0.000261264
38 *545:72 *2328:A 8.54978e-05
39 *558:50 *2328:A 7.7478e-05
*RES
1 *2099:X *2328:A 49.6301 
*END

*D_NET *564 0.019435
*CONN
*I *2329:A I *D sky130_fd_sc_hd__buf_2
*I *2100:X O *D sky130_fd_sc_hd__buf_1
*CAP
1 *2329:A 0.000357624
2 *2100:X 0.00140839
3 *564:52 0.00185252
4 *564:16 0.00345877
5 *564:8 0.00337226
6 *2329:A *653:237 2.88598e-05
7 *2329:A *659:213 0.000104153
8 *564:8 *2373:A 5.5506e-05
9 *564:16 *567:96 0
10 *564:16 *704:90 0.000117811
11 *564:52 *2361:A 0.000134634
12 *564:52 *567:96 0.000503677
13 *564:52 *583:82 6.19925e-05
14 *564:52 *594:74 0.000286491
15 *564:52 *646:32 0.000175271
16 *564:52 *653:237 0.000100695
17 *564:52 *653:275 0.000189293
18 *564:52 *691:44 0.000403018
19 *564:52 *695:90 1.39329e-05
20 *564:52 *704:70 0.000550805
21 *564:52 *704:90 0.000763755
22 EE4BEG[10] *2329:A 0.000128339
23 EE4BEG[7] *2329:A 9.46859e-06
24 EE4BEG[7] *564:52 2.85364e-05
25 FrameData_O[10] *564:52 0.000116698
26 FrameData_O[14] *564:52 5.84716e-05
27 FrameData_O[15] *564:16 5.83121e-06
28 FrameData_O[2] *564:52 4.66108e-05
29 FrameData_O[4] *564:16 0.000155601
30 FrameStrobe_O[19] *564:8 6.10458e-05
31 *742:DIODE *564:8 0.000318487
32 *743:DIODE *564:8 0.000275553
33 *1883:S1 *564:8 6.07575e-06
34 *2150:A *564:8 0.000232105
35 *2158:A *564:8 4.60123e-05
36 *2324:A *564:52 0.000173402
37 *147:101 *564:52 0.000461549
38 *149:93 *564:52 0.000167409
39 *514:22 *564:16 0.00169525
40 *514:22 *564:52 0.000333655
41 *524:49 *564:52 6.84602e-05
42 *524:67 *564:52 0.000192672
43 *528:36 *564:16 0.000487581
44 *536:26 *564:16 0
45 *545:72 *2329:A 0.000265744
46 *556:22 *564:8 0.00012657
47 *559:46 *564:52 3.43676e-05
*RES
1 *2100:X *564:8 22.68 
2 *564:8 *564:16 44.89 
3 *564:16 *564:52 49.475 
4 *564:52 *2329:A 10.71 
*END

*D_NET *565 0.0130085
*CONN
*I *2330:A I *D sky130_fd_sc_hd__buf_2
*I *2101:X O *D sky130_fd_sc_hd__buf_1
*CAP
1 *2330:A 0.0023605
2 *2101:X 0.0023605
3 *2330:A *1809:A0 0.000729156
4 *2330:A *1812:A0 2.36687e-05
5 *2330:A *2339:A 0.000179721
6 *2330:A *2342:A 0.000122324
7 *2330:A *2362:A 0.000109407
8 *2330:A *583:82 8.59723e-05
9 *2330:A *595:28 0.000173858
10 *2330:A *596:140 0.000274533
11 *2330:A *600:122 8.52883e-05
12 *2330:A *630:66 0.00207995
13 *2330:A *632:152 0.000432524
14 *2330:A *673:106 7.4615e-05
15 *2330:A *676:48 0.000179826
16 *2330:A *689:114 0.00208034
17 *2330:A *703:60 7.22997e-05
18 EE4BEG[14] *2330:A 4.7003e-05
19 EE4BEG[15] *2330:A 2.76356e-05
20 *2098:A *2330:A 0.000160935
21 *2105:A *2330:A 0.000503798
22 *2291:A *2330:A 8.23185e-05
23 *2321:A *2330:A 4.66108e-05
24 *144:111 *2330:A 1.43253e-05
25 *148:111 *2330:A 2.24358e-05
26 *516:54 *2330:A 0.000184454
27 *531:62 *2330:A 0.000154981
28 *553:28 *2330:A 0.000107545
29 *558:50 *2330:A 0.000231993
*RES
1 *2101:X *2330:A 40.1825 
*END

*D_NET *566 0.0063594
*CONN
*I *2331:A I *D sky130_fd_sc_hd__buf_2
*I *2108:X O *D sky130_fd_sc_hd__clkbuf_1
*CAP
1 *2331:A 0.00163682
2 *2108:X 0.00163682
3 *2331:A *1998:D 4.77719e-05
4 *2331:A *1998:GATE 0.000746257
5 *2331:A *2057:D 0.000120704
6 *2331:A *2108:A 0.00019312
7 *2331:A *2345:A 0
8 *2331:A *2350:A 0.000139949
9 *2331:A *2356:A 0.000176767
10 *2331:A *2358:A 8.41307e-05
11 *2331:A *2359:A 0.000131166
12 *2331:A *585:66 0.000154977
13 *2331:A *595:28 0.000119242
14 *2331:A *679:59 0.000296775
15 FrameData_O[5] *2331:A 0.00012325
16 *1808:S0 *2331:A 1.19928e-05
17 *1878:S1 *2331:A 1.34352e-05
18 *1889:S0 *2331:A 3.3485e-05
19 *2066:A *2331:A 0.000192497
20 *153:129 *2331:A 0
21 *480:108 *2331:A 0.000241643
22 *514:22 *2331:A 4.77757e-05
23 *519:40 *2331:A 0.00016286
24 *520:56 *2331:A 4.79712e-05
*RES
1 *2108:X *2331:A 37.68 
*END

*D_NET *567 0.0386882
*CONN
*I *2332:A I *D sky130_fd_sc_hd__buf_2
*I *731:DIODE I *D sky130_fd_sc_hd__diode_2
*I *2118:X O *D sky130_fd_sc_hd__clkbuf_2
*CAP
1 *2332:A 0.000107298
2 *731:DIODE 3.58555e-05
3 *2118:X 0.00297972
4 *567:96 0.000829307
5 *567:90 0.00419535
6 *567:32 0.00648891
7 *2332:A *691:72 0.000179334
8 *2332:A *704:110 0.000220071
9 *567:32 *583:82 0.000150712
10 *567:32 *600:74 0.000616672
11 *567:32 *634:78 0.00112919
12 *567:32 *634:84 0.00153276
13 *567:32 *637:46 0.000159308
14 *567:32 *637:67 0.000670208
15 *567:32 *647:46 3.64998e-06
16 *567:32 *647:123 0.000132718
17 *567:32 *657:18 0.000615087
18 *567:32 *661:112 7.33639e-05
19 *567:32 *665:83 3.4589e-05
20 *567:32 *701:52 0.00112718
21 *567:90 *740:DIODE 1.45232e-05
22 *567:90 *1885:A2 0.00158013
23 *567:90 *2333:A 0.000596498
24 *567:90 *585:66 0.000107452
25 *567:90 *596:140 0.000905758
26 *567:90 *618:112 0.000459539
27 *567:90 *635:42 0.000164277
28 *567:90 *635:102 2.29603e-05
29 *567:90 *642:106 0.000728148
30 *567:90 *650:236 3.46421e-05
31 *567:90 *667:154 0.000178527
32 *567:90 *703:60 0.000244284
33 *567:96 *2346:A 0.000238735
34 *567:96 *2361:A 0.000718008
35 *567:96 *704:90 1.72133e-05
36 E6BEG[11] *567:90 0.000175996
37 E6BEG[4] *567:90 1.88656e-05
38 E6BEG[9] *567:90 4.66108e-05
39 FrameData_O[10] *2332:A 5.83121e-06
40 FrameData_O[12] *2332:A 8.23457e-05
41 FrameData_O[13] *567:96 4.01535e-05
42 FrameData_O[16] *731:DIODE 4.66108e-05
43 FrameData_O[16] *567:96 0.000225285
44 FrameData_O[1] *567:90 2.38257e-05
45 FrameData_O[3] *567:90 0.000294938
46 FrameData_O[4] *567:90 0.000158585
47 FrameData_O[5] *567:90 9.78078e-05
48 *710:DIODE *567:90 4.36408e-05
49 *733:DIODE *567:90 0.00238467
50 *1806:A *567:32 0.000144973
51 *1807:A *567:32 0.00011741
52 *1813:S1 *567:90 8.80742e-05
53 *2068:A *2332:A 7.58604e-05
54 *2227:A *567:32 3.09608e-05
55 *2228:A *567:32 0.00020914
56 *2229:A *567:32 0.000134374
57 *2231:A *567:32 1.39587e-05
58 *2284:A *567:90 0.000328903
59 *2304:A *567:90 1.90394e-07
60 *2305:A *567:90 0.000158839
61 *2307:A *567:90 7.94912e-05
62 *2312:A *567:90 6.81984e-05
63 *142:31 *567:32 0.000115718
64 *144:31 *567:32 2.26234e-05
65 *144:111 *567:90 2.6208e-05
66 *145:35 *567:32 0.00104731
67 *145:71 *567:32 0.0014159
68 *145:71 *567:90 0.000286989
69 *148:21 *567:32 3.19491e-05
70 *149:23 *567:32 0
71 *150:35 *567:32 8.63143e-05
72 *159:101 *567:90 0.000160258
73 *160:115 *567:90 0.00056208
74 *234:44 *567:90 0.000182621
75 *235:21 *567:90 6.70754e-05
76 *235:45 *567:90 0.000163687
77 *266:10 *567:32 6.49326e-05
78 *409:32 *567:90 0.000380997
79 *479:130 *567:90 5.08304e-06
80 *514:22 *567:96 0.000662744
81 *514:94 *567:90 0.000332417
82 *516:54 *567:90 0.000172722
83 *520:56 *567:90 9.35828e-06
84 *564:16 *567:96 0
85 *564:52 *567:96 0.000503677
*RES
1 *2118:X *567:32 49.8022 
2 *567:32 *567:90 41.9833 
3 *567:90 *567:96 20.9375 
4 *567:96 *731:DIODE 2.05 
5 *567:96 *2332:A 9.05 
*END

*D_NET *568 0.0460715
*CONN
*I *1949:D I *D sky130_fd_sc_hd__dlxtp_1
*I *2013:D I *D sky130_fd_sc_hd__dlxtp_1
*I *2129:A I *D sky130_fd_sc_hd__clkbuf_1
*I *1981:D I *D sky130_fd_sc_hd__dlxtp_1
*I *2045:D I *D sky130_fd_sc_hd__dlxtp_1
*I *1917:D I *D sky130_fd_sc_hd__dlxtp_1
*I *2195:X O *D sky130_fd_sc_hd__buf_2
*CAP
1 *1949:D 0.000255173
2 *2013:D 0
3 *2129:A 0
4 *1981:D 3.3047e-05
5 *2045:D 0.00104428
6 *1917:D 0.000329639
7 *2195:X 0.000401989
8 *568:188 0.00104693
9 *568:163 0.00120984
10 *568:122 0.00219937
11 *568:114 0.00100382
12 *568:112 0.00285711
13 *568:58 0.00368663
14 *568:42 0.00208615
15 *568:10 0.00193138
16 *1917:D *640:24 2.10433e-05
17 *1949:D *735:DIODE 0.000118081
18 *1949:D *1949:GATE 0.000116814
19 *1981:D *1981:GATE 1.14169e-05
20 *2045:D *1819:A2 0.000418886
21 *2045:D *1833:A1 6.94067e-05
22 *2045:D *1851:A2 0.000444224
23 *2045:D *2045:GATE 8.53113e-06
24 *568:10 *603:74 0.00030239
25 *568:10 *629:58 2.05839e-06
26 *568:42 *603:74 0.000860264
27 *568:42 *627:106 4.66108e-05
28 *568:42 *633:34 0.000978108
29 *568:42 *694:76 0.00042471
30 *568:58 *590:14 0.000296145
31 *568:58 *591:102 0.00124337
32 *568:58 *602:117 0.000504454
33 *568:58 *626:70 0.000208426
34 *568:58 *627:106 0.000445913
35 *568:58 *633:30 0.000151448
36 *568:112 *1876:A2 1.24035e-05
37 *568:112 *1925:D 0.000134386
38 *568:112 *1927:D 3.30017e-05
39 *568:112 *1927:GATE 2.65814e-06
40 *568:112 *1983:GATE 0.000206857
41 *568:112 *2016:GATE 3.28682e-05
42 *568:112 *587:44 0.00152355
43 *568:112 *591:126 3.3846e-05
44 *568:112 *594:48 0.000442283
45 *568:112 *602:166 5.82179e-05
46 *568:112 *613:138 8.82017e-05
47 *568:112 *618:24 4.8373e-05
48 *568:112 *627:106 9.37179e-05
49 *568:112 *628:90 0.000410476
50 *568:112 *628:112 0.000250548
51 *568:112 *639:30 3.899e-05
52 *568:112 *639:58 0.000497224
53 *568:112 *672:192 3.21081e-06
54 *568:112 *672:194 1.19928e-05
55 *568:112 *684:130 0.00013754
56 *568:114 *1981:GATE 0.00013375
57 *568:114 *1983:D 0
58 *568:114 *2184:A 0.000243245
59 *568:114 *639:58 0
60 *568:114 *666:76 0.000124935
61 *568:114 *672:198 0.000154954
62 *568:114 *683:10 1.38403e-05
63 *568:122 *2033:GATE 5.70587e-05
64 *568:122 *2049:D 1.7635e-05
65 *568:122 *2117:A 1.50383e-05
66 *568:122 *639:60 0.000205211
67 *568:122 *666:76 0.000380884
68 *568:122 *666:126 0.00081651
69 *568:122 *666:132 0.000116853
70 *568:122 *666:145 1.4548e-05
71 *568:122 *683:18 5.42833e-05
72 *568:122 *683:28 0.000312089
73 *568:122 *683:30 0.000223032
74 *568:122 *683:34 0.000697882
75 *568:163 *1965:GATE 0.000112538
76 *568:163 *672:18 4.77757e-05
77 *568:188 *1893:A3 2.39956e-05
78 *568:188 *1965:GATE 0.00044527
79 *568:188 *2013:GATE 2.74107e-05
80 *568:188 *2339:A 0.0003051
81 *568:188 *595:28 6.26955e-05
82 *568:188 *635:102 0.000258335
83 *568:188 *635:112 3.09164e-05
84 C_config_C_bit3 *568:112 1.88656e-05
85 *718:DIODE *568:112 0.000132349
86 *742:DIODE *568:42 0.000160365
87 *1831:A2 *2045:D 4.24292e-06
88 *1882:S0 *1949:D 3.59784e-05
89 *2044:D *1917:D 8.61788e-06
90 *2044:D *2045:D 0.000427742
91 *2068:A *1949:D 0.000646799
92 *2068:A *568:188 0.000188936
93 *2174:A *568:163 3.11409e-05
94 *2174:A *568:188 4.77719e-05
95 *2189:A *568:42 5.83121e-06
96 *2197:A *1917:D 0.000347699
97 *2197:A *568:122 0.000170867
98 *2274:A *568:112 0.000257159
99 *2291:A *568:188 1.47376e-05
100 *2326:A *568:112 1.51846e-05
101 *2386:A *1917:D 1.92979e-05
102 *2387:A *568:122 0.000266085
103 *142:89 *568:58 0.000382683
104 *146:67 *2045:D 0
105 *148:111 *568:188 0.000206932
106 *153:39 *568:112 4.73375e-06
107 *156:39 *568:122 0.000533156
108 *156:51 *568:112 0
109 *156:59 *568:42 0.000307186
110 *158:23 *568:58 0.000134003
111 *158:75 *568:42 0.000282067
112 *159:39 *568:112 0.000247776
113 *160:133 *568:188 0.000304126
114 *181:21 *1917:D 0
115 *181:21 *2045:D 0
116 *181:21 *568:112 1.20943e-05
117 *233:99 *568:188 1.44947e-05
118 *243:42 *568:112 0.00012632
119 *482:66 *568:42 7.89983e-05
120 *511:12 *568:42 0.000120874
121 *544:46 *568:58 0.00123858
122 *556:26 *568:10 0.000296214
123 *556:26 *568:42 0.00102589
124 *556:46 *568:42 0.000840312
125 *557:8 *568:163 7.95785e-05
126 *557:8 *568:188 1.91597e-05
127 *557:46 *568:58 0.00301998
128 *557:104 *568:114 1.74532e-05
129 *557:104 *568:122 0.000265426
*RES
1 *2195:X *568:10 10.92 
2 *568:10 *568:42 48.27 
3 *568:42 *568:58 49.725 
4 *568:58 *568:112 48.9511 
5 *568:112 *568:114 4.44 
6 *568:114 *568:122 28.4075 
7 *568:122 *1917:D 4.95317 
8 *568:122 *2045:D 8.46423 
9 *568:114 *1981:D 4.05 
10 *568:10 *568:163 8.675 
11 *568:163 *2129:A 1.6 
12 *568:163 *568:188 19.0791 
13 *568:188 *2013:D 1.6 
14 *568:188 *1949:D 7.915 
*END

*D_NET *569 0.0280712
*CONN
*I *2333:A I *D sky130_fd_sc_hd__buf_2
*I *2119:X O *D sky130_fd_sc_hd__buf_1
*CAP
1 *2333:A 0.00164054
2 *2119:X 0.00436036
3 *569:58 0.00600089
4 *2333:A *1881:A0 1.93834e-05
5 *2333:A *1881:A2 5.74243e-05
6 *2333:A *1998:D 1.7635e-05
7 *2333:A *1999:D 0.000537083
8 *2333:A *2362:A 2.87079e-05
9 *2333:A *637:114 0.000440026
10 *2333:A *646:88 1.74678e-05
11 *2333:A *650:254 0.000297098
12 *2333:A *667:154 9.33861e-05
13 *2333:A *673:106 4.03257e-05
14 *569:58 *1950:D 4.99216e-05
15 *569:58 *2002:GATE 0.000123042
16 *569:58 *2035:D 3.59784e-05
17 *569:58 *2035:GATE 6.33103e-05
18 *569:58 *2036:D 2.76356e-05
19 *569:58 *2037:GATE 5.83121e-06
20 *569:58 *591:102 1.44071e-06
21 *569:58 *596:50 0.000882369
22 *569:58 *631:112 2.22315e-05
23 *569:58 *632:66 0.00154011
24 *569:58 *647:244 3.9232e-05
25 *569:58 *652:139 0.000809811
26 *569:58 *653:172 0.000370782
27 *569:58 *658:58 2.22315e-05
28 *569:58 *659:83 0.000876033
29 *569:58 *661:203 4.75291e-05
30 *569:58 *667:64 5.83121e-06
31 *569:58 *694:76 0.000259898
32 *569:58 *697:62 1.29049e-05
33 *569:58 *698:129 4.04847e-05
34 *569:58 *703:60 0.000686946
35 *569:58 *704:70 8.66972e-05
36 *569:58 *708:22 0.000875377
37 *569:58 *708:42 5.9216e-05
38 E2BEGb[1] *569:58 4.89295e-05
39 E2BEGb[2] *569:58 5.56205e-06
40 E2BEGb[3] *569:58 0.000141541
41 EE4BEG[11] *569:58 0.00017801
42 EE4BEG[12] *569:58 0.000145958
43 EE4BEG[13] *569:58 9.3751e-06
44 FrameData_O[5] *2333:A 7.00115e-05
45 *1875:S1 *569:58 0.000150287
46 *1887:S1 *569:58 2.49909e-05
47 *1899:A3 *2333:A 8.09126e-05
48 *1899:S0 *2333:A 0.000124591
49 *2291:A *569:58 0.00111314
50 *2296:A *569:58 0.000167099
51 *2306:A *2333:A 4.77757e-05
52 *2311:A *2333:A 0.000466837
53 *2317:A *2333:A 3.06212e-05
54 *2318:A *2333:A 4.24435e-05
55 *2321:A *2333:A 0.000290094
56 *2326:A *569:58 0.000150934
57 *2327:A *2333:A 5.83121e-06
58 *2328:A *569:58 0
59 *143:47 *569:58 3.18695e-05
60 *144:75 *569:58 0.000184235
61 *148:89 *569:58 2.22315e-05
62 *159:77 *569:58 0.000403532
63 *160:115 *2333:A 0.000294653
64 *181:56 *569:58 5.79855e-05
65 *233:62 *2333:A 3.64998e-06
66 *234:44 *2333:A 2.50376e-05
67 *234:58 *2333:A 7.17262e-05
68 *234:58 *569:58 7.05151e-05
69 *235:45 *2333:A 0.000818025
70 *240:10 *569:58 6.71864e-06
71 *409:32 *569:58 8.99412e-05
72 *479:30 *569:58 1.29049e-05
73 *479:130 *2333:A 0.000255513
74 *483:80 *569:58 0.000446705
75 *514:94 *569:58 1.29049e-05
76 *516:54 *2333:A 4.86654e-05
77 *516:54 *569:58 5.82744e-05
78 *519:46 *569:58 8.39109e-05
79 *531:62 *2333:A 9.35216e-05
80 *538:72 *569:58 0.000366356
81 *542:30 *2333:A 3.79595e-05
82 *545:72 *2333:A 0.000127445
83 *559:46 *2333:A 6.03272e-05
84 *567:90 *2333:A 0.000596498
*RES
1 *2119:X *569:58 49.6722 
2 *569:58 *2333:A 47.9386 
*END

*D_NET *570 0.0056467
*CONN
*I *2334:A I *D sky130_fd_sc_hd__buf_2
*I *2120:X O *D sky130_fd_sc_hd__clkbuf_1
*CAP
1 *2334:A 0.00118175
2 *2120:X 0.00118175
3 *2334:A *1814:A2 0.000195412
4 *2334:A *2335:A 6.6548e-05
5 *2334:A *2336:A 0.000591538
6 *2334:A *2341:A 0.000282807
7 *2334:A *2350:A 4.55338e-05
8 *2334:A *2354:A 0.000260827
9 *1882:S0 *2334:A 0.000166281
10 *1906:S0 *2334:A 0.000370661
11 *1914:S0 *2334:A 0.000306521
12 *2068:A *2334:A 0.000229396
13 *2084:A *2334:A 0.000144997
14 *2104:A *2334:A 2.75229e-05
15 *150:77 *2334:A 0.000595148
*RES
1 *2120:X *2334:A 37.405 
*END

*D_NET *571 0.00655161
*CONN
*I *2335:A I *D sky130_fd_sc_hd__buf_2
*I *2121:X O *D sky130_fd_sc_hd__clkbuf_1
*CAP
1 *2335:A 0.00114732
2 *2121:X 0.00114732
3 *2335:A *1814:A2 2.53305e-05
4 *2335:A *1882:A2 0.000355312
5 *2335:A *1893:A1 8.75811e-06
6 *2335:A *1894:A3 0.00022614
7 *2335:A *1914:A2 0.000228114
8 *2335:A *2121:A 8.08129e-05
9 *2335:A *2337:A 0.00052717
10 *2335:A *2341:A 2.54701e-05
11 *2335:A *2348:A 0.000122229
12 *2335:A *2350:A 4.2483e-05
13 *2335:A *2353:A 0.000119866
14 *2335:A *2362:A 0.000125684
15 *2335:A *576:42 0.000490279
16 *2335:A *632:152 5.93727e-05
17 *2335:A *632:161 0.000556504
18 *2335:A *632:174 0.000172691
19 FrameData_O[13] *2335:A 4.7003e-05
20 FrameData_O[23] *2335:A 3.01952e-05
21 FrameData_O[24] *2335:A 4.27883e-06
22 *1882:S1 *2335:A 6.14974e-05
23 *1886:S1 *2335:A 6.28687e-05
24 *1899:S0 *2335:A 0.000290254
25 *1906:S0 *2335:A 0.000477689
26 *2080:A *2335:A 0
27 *2334:A *2335:A 6.6548e-05
28 *233:80 *2335:A 5.04262e-05
29 *483:80 *2335:A 0
*RES
1 *2121:X *2335:A 39.0145 
*END

*D_NET *572 0.00653085
*CONN
*I *2336:A I *D sky130_fd_sc_hd__buf_2
*I *2122:X O *D sky130_fd_sc_hd__clkbuf_1
*CAP
1 *2336:A 0.00188068
2 *2122:X 0.00188068
3 *2336:A *1882:A2 0.000172996
4 *2336:A *1906:A0 4.49415e-06
5 *2336:A *1906:A2 1.10377e-05
6 *2336:A *1906:A3 0.000175452
7 *2336:A *1959:D 0.000229962
8 *2336:A *1959:GATE 4.80285e-05
9 *2336:A *2377:A 0.000365499
10 *2336:A *645:82 2.60986e-05
11 *2336:A *669:53 2.34475e-05
12 *2336:A *678:16 5.12399e-05
13 *2336:A *691:105 0.000297646
14 *2336:A *708:113 1.20813e-05
15 *1883:A2 *2336:A 2.59934e-06
16 *1906:S1 *2336:A 0.00018886
17 *2076:A *2336:A 6.3124e-06
18 *2318:A *2336:A 2.03952e-05
19 *2334:A *2336:A 0.000591538
20 *150:77 *2336:A 0.000541804
*RES
1 *2122:X *2336:A 38.955 
*END

*D_NET *573 0.0103286
*CONN
*I *2337:A I *D sky130_fd_sc_hd__buf_2
*I *2123:X O *D sky130_fd_sc_hd__buf_1
*CAP
1 *2337:A 0.0026808
2 *2123:X 0.0026808
3 *2337:A *738:DIODE 0.00018712
4 *2337:A *1914:A2 4.31236e-05
5 *2337:A *2340:A 0.000104059
6 *2337:A *2348:A 5.36054e-05
7 *2337:A *2362:A 8.35106e-05
8 *2337:A *2377:A 0.000123177
9 *2337:A *576:42 8.72665e-06
10 *2337:A *594:102 0.00035338
11 *2337:A *613:42 0.000364967
12 *2337:A *615:14 0.000148649
13 *2337:A *618:112 0.000143495
14 *2337:A *646:88 0.000151348
15 *2337:A *673:48 7.66738e-05
16 *2337:A *691:72 0
17 *2337:A *694:92 0.000144967
18 *2337:A *701:81 7.79279e-06
19 *2337:A *704:110 0
20 FrameData_O[11] *2337:A 5.5597e-05
21 *1894:S0 *2337:A 4.66108e-05
22 *1914:S1 *2337:A 6.48316e-05
23 *2317:A *2337:A 0
24 *2335:A *2337:A 0.00052717
25 *148:89 *2337:A 4.73022e-05
26 *160:133 *2337:A 0.000578756
27 *491:96 *2337:A 0.000565876
28 *491:102 *2337:A 1.56428e-05
29 *531:62 *2337:A 7.54561e-05
30 *535:16 *2337:A 3.9316e-05
31 *535:112 *2337:A 0.000955868
*RES
1 *2123:X *2337:A 26.8542 
*END

*D_NET *574 0.00491952
*CONN
*I *2338:A I *D sky130_fd_sc_hd__buf_2
*I *2124:X O *D sky130_fd_sc_hd__clkbuf_1
*CAP
1 *2338:A 0.00140236
2 *2124:X 0.00140236
3 *2338:A *1978:GATE 0.00010163
4 *2338:A *2141:A 4.66108e-05
5 *2338:A *2340:A 0.000119866
6 *2338:A *579:32 4.78703e-05
7 *2338:A *634:176 0.00018955
8 *2338:A *672:18 8.97667e-05
9 *2338:A *677:104 2.35435e-05
10 FrameData_O[18] *2338:A 8.46717e-05
11 *1906:S0 *2338:A 0.00054985
12 *2007:D *2338:A 0.000155601
13 *2125:A *2338:A 4.66108e-05
14 *479:161 *2338:A 2.35435e-05
15 *513:37 *2338:A 0.000381473
16 *524:49 *2338:A 0.000254217
*RES
1 *2124:X *2338:A 30.87 
*END

*D_NET *575 0.00617909
*CONN
*I *2339:A I *D sky130_fd_sc_hd__buf_2
*I *2125:X O *D sky130_fd_sc_hd__clkbuf_1
*CAP
1 *2339:A 0.00191978
2 *2125:X 0.00191978
3 *2339:A *1948:GATE 1.91597e-05
4 *2339:A *1965:GATE 7.11235e-06
5 *2339:A *2344:A 6.34782e-05
6 *2339:A *2346:A 0.000314756
7 *2339:A *2350:A 0
8 *2339:A *2353:A 0.000624502
9 *2339:A *576:42 1.05228e-05
10 *2339:A *635:112 0.000154977
11 *2339:A *673:185 6.11019e-05
12 FrameData_O[24] *2339:A 4.92971e-05
13 *1914:S0 *2339:A 8.35106e-05
14 *1948:D *2339:A 9.76407e-06
15 *1977:D *2339:A 0.000308647
16 *2330:A *2339:A 0.000179721
17 *148:111 *2339:A 5.77871e-05
18 *233:99 *2339:A 7.06865e-05
19 *557:147 *2339:A 1.94027e-05
20 *568:188 *2339:A 0.0003051
*RES
1 *2125:X *2339:A 43.7 
*END

*D_NET *576 0.00842017
*CONN
*I *2340:A I *D sky130_fd_sc_hd__buf_2
*I *2126:X O *D sky130_fd_sc_hd__clkbuf_1
*CAP
1 *2340:A 0.000154358
2 *2126:X 0.0022079
3 *576:42 0.00236226
4 *2340:A *691:72 0
5 *576:42 *1886:A2 0.000407892
6 *576:42 *1894:A3 6.95789e-05
7 *576:42 *1906:A3 0.000136623
8 *576:42 *1914:A2 3.90355e-05
9 *576:42 *2004:D 0.000177772
10 *576:42 *2012:GATE 0.000205135
11 *576:42 *2341:A 1.30513e-05
12 *576:42 *2377:A 7.33825e-05
13 *576:42 *653:275 5.15232e-05
14 *576:42 *691:72 0
15 *576:42 *704:110 0.000137936
16 *576:42 *708:113 1.38422e-05
17 FrameData_O[23] *576:42 3.34633e-05
18 FrameData_O[24] *576:42 5.1857e-05
19 FrameData_O[25] *576:42 0.000175178
20 FrameData_O[28] *576:42 0
21 FrameData_O[30] *576:42 0.000135667
22 *743:DIODE *576:42 0.0003472
23 *1883:A0 *576:42 0.000109123
24 *1886:A1 *576:42 6.88567e-05
25 *1914:S1 *576:42 0.000135201
26 *2060:A *576:42 0
27 *2065:A *576:42 0.00013777
28 *2335:A *576:42 0.000490279
29 *2337:A *2340:A 0.000104059
30 *2337:A *576:42 8.72665e-06
31 *2338:A *2340:A 0.000119866
32 *2339:A *576:42 1.05228e-05
33 *146:99 *576:42 4.55992e-05
34 *150:77 *576:42 0
35 *483:80 *576:42 0
36 *483:90 *576:42 0.000275486
37 *524:49 *2340:A 0.000121023
*RES
1 *2126:X *576:42 49.6825 
2 *576:42 *2340:A 7.0125 
*END

*D_NET *577 0.00589249
*CONN
*I *2341:A I *D sky130_fd_sc_hd__buf_2
*I *2127:X O *D sky130_fd_sc_hd__clkbuf_1
*CAP
1 *2341:A 0.00132048
2 *2127:X 0.00132048
3 *2341:A *1814:A2 0.000559785
4 *2341:A *1814:A3 2.3038e-05
5 *2341:A *1894:A3 0
6 *2341:A *2350:A 4.88568e-05
7 *2341:A *2351:A 0.000681321
8 *2341:A *2354:A 0.000125237
9 *2341:A *2369:A 2.65814e-06
10 *2341:A *594:102 5.8678e-05
11 *2341:A *632:174 0
12 *2341:A *698:175 1.34361e-05
13 FrameData_O[24] *2341:A 4.76263e-05
14 FrameData_O[26] *2341:A 0.000346929
15 FrameData_O[27] *2341:A 6.90044e-05
16 *710:DIODE *2341:A 0
17 *711:DIODE *2341:A 0.00054403
18 *1883:A3 *2341:A 5.11432e-05
19 *1883:S1 *2341:A 0.000135971
20 *1886:S0 *2341:A 0.0001578
21 *2126:A *2341:A 1.08758e-05
22 *2334:A *2341:A 0.000282807
23 *2335:A *2341:A 2.54701e-05
24 *151:85 *2341:A 7.21296e-06
25 *528:36 *2341:A 4.66108e-05
26 *576:42 *2341:A 1.30513e-05
*RES
1 *2127:X *2341:A 41.56 
*END

*D_NET *578 0.0080991
*CONN
*I *2342:A I *D sky130_fd_sc_hd__buf_2
*I *2109:X O *D sky130_fd_sc_hd__clkbuf_1
*CAP
1 *2342:A 0.00152094
2 *2109:X 0.00152094
3 *2342:A *741:DIODE 8.23457e-05
4 *2342:A *1999:D 1.56428e-05
5 *2342:A *1999:GATE 0.000278893
6 *2342:A *603:68 8.23457e-05
7 *2342:A *626:70 5.53549e-06
8 *2342:A *632:152 0.000141157
9 *2342:A *662:196 0.000819649
10 *2342:A *669:96 0.00018955
11 *2342:A *674:80 0.000830308
12 *2342:A *676:10 0.000638562
13 FrameData_O[3] *2342:A 8.23457e-05
14 FrameData_O[5] *2342:A 0.000201812
15 *2311:A *2342:A 0.000525484
16 *2330:A *2342:A 0.000122324
17 *520:56 *2342:A 0.000823679
18 *546:31 *2342:A 4.78726e-05
19 *546:42 *2342:A 0.000169718
*RES
1 *2109:X *2342:A 47.485 
*END

*D_NET *579 0.0460296
*CONN
*I *2014:D I *D sky130_fd_sc_hd__dlxtp_1
*I *1950:D I *D sky130_fd_sc_hd__dlxtp_1
*I *1982:D I *D sky130_fd_sc_hd__dlxtp_1
*I *2046:D I *D sky130_fd_sc_hd__dlxtp_1
*I *2130:A I *D sky130_fd_sc_hd__clkbuf_2
*I *1918:D I *D sky130_fd_sc_hd__dlxtp_1
*I *2196:X O *D sky130_fd_sc_hd__buf_2
*CAP
1 *2014:D 0
2 *1950:D 0.000183746
3 *1982:D 0.000920535
4 *2046:D 5.5685e-05
5 *2130:A 0
6 *1918:D 0.000234146
7 *2196:X 0.0031787
8 *579:86 0.000252938
9 *579:84 0.00159885
10 *579:54 0.00333091
11 *579:52 0.00363983
12 *579:32 0.00574878
13 *1918:D *1919:GATE 4.66108e-05
14 *1950:D *596:50 1.23417e-05
15 *1950:D *658:58 3.92756e-05
16 *1950:D *662:140 2.10433e-05
17 *1950:D *687:114 2.7894e-05
18 *1982:D *618:24 2.05571e-05
19 *1982:D *658:27 2.61192e-05
20 *2046:D *2046:GATE 8.49205e-05
21 *2046:D *682:29 0.000198945
22 *579:32 *1812:A0 1.33333e-05
23 *579:32 *1989:D 3.64998e-06
24 *579:32 *2015:D 0.000412777
25 *579:32 *2020:GATE 0.000104031
26 *579:32 *2347:A 0.000316753
27 *579:32 *2350:A 1.57842e-05
28 *579:32 *2362:A 1.52423e-05
29 *579:32 *585:66 0.000290392
30 *579:32 *586:92 0.00026085
31 *579:32 *590:130 0.00129389
32 *579:32 *591:48 0.00102663
33 *579:32 *591:102 3.61187e-05
34 *579:32 *597:60 4.27774e-05
35 *579:32 *613:42 0.000343977
36 *579:32 *629:69 0.000292952
37 *579:32 *672:18 0.000402865
38 *579:32 *698:175 0.000260943
39 *579:52 *586:92 0.00027335
40 *579:52 *593:94 0.000107996
41 *579:52 *631:65 0.000291043
42 *579:52 *632:107 5.18735e-06
43 *579:52 *634:78 0.00163485
44 *579:52 *634:154 0.000921877
45 *579:52 *635:102 0.000314291
46 *579:52 *636:50 0.00182566
47 *579:52 *661:203 4.47861e-05
48 *579:52 *677:42 0.0001925
49 *579:52 *689:114 1.4641e-05
50 *579:52 *693:38 0.000145068
51 *579:52 *701:52 0.00181437
52 *579:52 *703:60 0.00041862
53 *579:54 *658:31 0.000681818
54 *579:54 *658:58 0.00162301
55 *579:84 *1820:A 0.000229536
56 *579:84 *1834:A 2.92496e-05
57 *579:84 *1847:A3 0.000108647
58 *579:84 *1848:A2 6.10352e-05
59 *579:84 *2183:A 9.94578e-05
60 *579:84 *582:20 0.000311522
61 *579:84 *583:28 0.000595473
62 *579:84 *596:50 0.000190394
63 *579:84 *648:28 8.57054e-05
64 *579:84 *650:76 4.21973e-05
65 *579:84 *655:16 0.000278995
66 *579:84 *658:27 0
67 *579:84 *658:31 0.000154745
68 *579:84 *682:10 0.000100375
69 *579:84 *682:12 0.00019279
70 *579:84 *682:14 3.09233e-05
71 *1821:A4 *579:84 0.000126584
72 *1829:S *579:84 0.000155497
73 *1830:A_N *579:84 4.66108e-05
74 *1830:B *579:84 5.02905e-05
75 *1843:S1 *579:84 0.00013354
76 *1847:S0 *579:84 5.79711e-05
77 *1849:A0 *579:84 0.000413458
78 *1849:S *579:84 1.9668e-05
79 *1898:S0 *1982:D 0.000126891
80 *2272:A *579:84 0.00119486
81 *2307:A *579:32 0.0001657
82 *2338:A *579:32 4.78703e-05
83 *2384:A *1918:D 0.000241883
84 *2384:A *2046:D 1.91597e-05
85 *2384:A *579:86 2.75145e-05
86 *2389:A *579:84 4.81428e-05
87 *142:31 *579:54 0.000115279
88 *142:31 *579:84 0.000437077
89 *146:67 *1982:D 0.00012314
90 *149:23 *579:54 2.62941e-05
91 *149:45 *1950:D 1.92979e-05
92 *150:35 *579:52 1.40573e-05
93 *150:35 *579:84 0.000164761
94 *157:31 *579:84 0
95 *159:39 *579:84 1.24035e-05
96 *235:113 *579:52 0.000192456
97 *236:22 *579:32 9.83692e-05
98 *239:24 *579:84 9.20976e-05
99 *409:32 *579:52 1.46319e-05
100 *480:153 *579:32 0.000153615
101 *483:80 *579:52 0.00035715
102 *483:80 *579:54 2.482e-05
103 *487:32 *2046:D 4.7101e-05
104 *491:57 *579:32 5.32158e-05
105 *493:16 *579:84 0.000108614
106 *512:18 *579:32 0.000117474
107 *519:46 *579:52 3.59979e-05
108 *520:56 *579:52 0.000103315
109 *524:14 *579:32 1.92979e-05
110 *524:142 *579:52 0.00102359
111 *524:142 *579:54 0.00213232
112 *557:44 *579:32 2.88307e-05
113 *557:143 *579:32 0
114 *558:50 *579:32 1.3926e-05
115 *569:58 *1950:D 4.99216e-05
*RES
1 *2196:X *579:32 31.3402 
2 *579:32 *579:52 18.6606 
3 *579:52 *579:54 4.4308 
4 *579:54 *579:84 43.877 
5 *579:84 *579:86 0.45 
6 *579:86 *1918:D 6.19 
7 *579:86 *2130:A 1.6 
8 *579:84 *2046:D 3.775 
9 *579:54 *1982:D 6.29803 
10 *579:52 *1950:D 5.19097 
11 *579:32 *2014:D 1.6 
*END

*D_NET *580 0.00529817
*CONN
*I *2343:A I *D sky130_fd_sc_hd__buf_2
*I *2128:X O *D sky130_fd_sc_hd__clkbuf_1
*CAP
1 *2343:A 0.00128438
2 *2128:X 0.00128438
3 *2343:A *1933:D 0.000332794
4 *2343:A *1989:GATE 5.30361e-05
5 *2343:A *1997:GATE 4.77757e-05
6 *2343:A *2012:GATE 2.68464e-05
7 *2343:A *2347:A 0.000143519
8 *2343:A *2352:A 9.30787e-05
9 *2343:A *2355:A 8.23457e-05
10 *2343:A *595:28 0.000665507
11 *2343:A *635:112 4.66108e-05
12 *2343:A *669:45 0.00033764
13 *2343:A *670:65 0.000266612
14 *2343:A *673:185 1.52418e-05
15 *2343:A *673:189 0.000116853
16 FrameData_O[24] *2343:A 4.77757e-05
17 FrameData_O[31] *2343:A 5.88283e-05
18 *1882:S1 *2343:A 0.000262805
19 *1894:S1 *2343:A 8.18705e-05
20 *2012:D *2343:A 4.66108e-05
21 *2128:A *2343:A 3.64998e-06
*RES
1 *2128:X *2343:A 33.015 
*END

*D_NET *581 0.00560421
*CONN
*I *2344:A I *D sky130_fd_sc_hd__buf_2
*I *2129:X O *D sky130_fd_sc_hd__clkbuf_1
*CAP
1 *2344:A 0.00175389
2 *2129:X 0.00175389
3 *2344:A *2346:A 5.48747e-05
4 *2344:A *670:65 0.000100528
5 *1948:D *2344:A 4.66108e-05
6 *2128:A *2344:A 2.97802e-05
7 *2339:A *2344:A 6.34782e-05
8 *557:143 *2344:A 0.000156468
9 *557:147 *2344:A 0.00164469
*RES
1 *2129:X *2344:A 30.42 
*END

*D_NET *582 0.052584
*CONN
*I *2345:A I *D sky130_fd_sc_hd__buf_2
*I *2130:X O *D sky130_fd_sc_hd__clkbuf_2
*CAP
1 *2345:A 0.00445514
2 *2130:X 0.00147032
3 *582:94 0.00819936
4 *582:40 0.00691365
5 *582:20 0.00463975
6 *2345:A *1878:A3 2.85764e-05
7 *2345:A *2020:D 1.39062e-05
8 *2345:A *2347:A 0.000679497
9 *2345:A *2350:A 0.000241443
10 *2345:A *590:130 0.000107996
11 *2345:A *590:145 7.15288e-05
12 *2345:A *591:48 7.33639e-05
13 *2345:A *594:102 0
14 *2345:A *667:174 0.000258522
15 *2345:A *670:65 6.51658e-05
16 *2345:A *672:18 4.14218e-05
17 *2345:A *675:64 7.33639e-05
18 *2345:A *687:24 4.03905e-05
19 *2345:A *698:175 0
20 *582:20 *1819:A2 5.89912e-05
21 *582:20 *1843:A0 8.35068e-05
22 *582:20 *2048:D 0.000147085
23 *582:20 *2183:A 4.05524e-05
24 *582:20 *587:16 5.21459e-06
25 *582:20 *602:166 0.00105532
26 *582:20 *640:24 0.000405121
27 *582:20 *652:36 0.000182183
28 *582:20 *652:44 0.000175301
29 *582:20 *666:32 0.000194891
30 *582:40 *590:112 0.000175249
31 *582:40 *593:46 0.000396649
32 *582:40 *601:10 0.00313077
33 *582:40 *602:131 0.000250181
34 *582:40 *627:106 0.000920839
35 *582:40 *631:112 6.18267e-05
36 *582:40 *637:46 2.482e-05
37 *582:40 *687:114 0.000282096
38 *582:94 *1827:A 0.000233325
39 *582:94 *1884:A1 0.000546855
40 *582:94 *1884:A3 3.69766e-05
41 *582:94 *1945:GATE 2.97522e-05
42 *582:94 *1972:D 1.96913e-05
43 *582:94 *587:118 0.000261395
44 *582:94 *591:102 7.26098e-05
45 *582:94 *600:122 0.000700422
46 *582:94 *602:70 0.000190205
47 *582:94 *613:42 7.93481e-05
48 *582:94 *616:44 3.40796e-05
49 *582:94 *618:112 0
50 *582:94 *624:58 2.22315e-05
51 *582:94 *625:8 2.6294e-05
52 *582:94 *628:68 0.000463043
53 *582:94 *629:58 0.000361086
54 *582:94 *636:50 1.8454e-05
55 *582:94 *637:46 0.000295667
56 *582:94 *658:133 4.2209e-05
57 *582:94 *674:40 5.2442e-05
58 *582:94 *674:80 3.2253e-05
59 *582:94 *675:56 0.000166085
60 *582:94 *687:6 1.94027e-05
61 B_config_C_bit3 *582:40 1.913e-05
62 C_config_C_bit0 *582:40 3.3846e-05
63 *710:DIODE *2345:A 0
64 *742:DIODE *2345:A 7.33639e-05
65 *1821:A1 *582:20 0.000381022
66 *1821:A2 *582:20 9.82856e-06
67 *1821:A4 *582:20 5.54826e-05
68 *1821:B1 *582:20 4.17687e-05
69 *1822:S *582:94 9.53923e-06
70 *1828:A4 *582:94 8.2513e-05
71 *1828:B1 *582:94 0.000131168
72 *1875:S1 *582:40 5.5795e-06
73 *1878:A0 *2345:A 0.000185377
74 *1878:S0 *2345:A 1.56428e-05
75 *1884:A0 *582:94 4.00503e-05
76 *1945:D *582:94 4.97522e-05
77 *2040:D *582:94 0
78 *2066:A *2345:A 0.000245161
79 *2193:A *582:40 0.000167662
80 *2212:A *582:94 5.63323e-05
81 *2215:A *582:94 3.41077e-05
82 *2230:A *582:40 1.23417e-05
83 *2241:A *582:94 0.000160588
84 *2252:A *582:94 0.000560056
85 *2271:A *582:94 4.78678e-05
86 *2272:A *582:20 0.000435977
87 *2279:A *582:40 0.000110762
88 *2279:A *582:94 0.000912099
89 *2304:A *582:94 6.02792e-05
90 *2326:A *582:40 0.00163192
91 *2331:A *2345:A 0
92 *2384:A *582:20 4.82863e-05
93 *142:89 *582:94 8.73389e-06
94 *153:105 *582:94 0.000107794
95 *153:129 *2345:A 0.000301319
96 *154:85 *582:40 0.00167406
97 *157:31 *582:20 0.000166132
98 *157:91 *582:94 0.000539488
99 *157:111 *582:94 0.000200045
100 *158:71 *582:94 0.000250271
101 *159:101 *2345:A 0.00120481
102 *160:25 *582:20 7.34442e-05
103 *160:85 *582:40 0.00131486
104 *480:70 *582:94 0.00039278
105 *480:108 *2345:A 0
106 *480:153 *2345:A 0.000437832
107 *483:80 *2345:A 9.5799e-06
108 *502:65 *2345:A 0
109 *502:79 *582:94 0.000203389
110 *544:46 *582:94 0.000228892
111 *556:46 *582:94 0.000326442
112 *557:44 *2345:A 0.000389284
113 *557:44 *582:94 0.000157966
114 *579:84 *582:20 0.000311522
*RES
1 *2130:X *582:20 42.25 
2 *582:20 *582:40 44.2507 
3 *582:40 *582:94 48.9676 
4 *582:94 *2345:A 35.3771 
*END

*D_NET *583 0.0434492
*CONN
*I *2346:A I *D sky130_fd_sc_hd__buf_2
*I *2131:X O *D sky130_fd_sc_hd__clkbuf_2
*CAP
1 *2346:A 0.00140657
2 *2131:X 0.00225188
3 *583:82 0.00645387
4 *583:28 0.00729918
5 *2346:A *2361:A 0.000706115
6 *2346:A *594:74 8.06037e-05
7 *2346:A *653:237 6.59367e-05
8 *2346:A *653:275 0.000591346
9 *2346:A *691:44 0.00021799
10 *2346:A *695:90 0.00067503
11 *583:28 *2112:A 0.000157551
12 *583:28 *2116:A 0.00029792
13 *583:28 *596:50 3.79555e-05
14 *583:28 *600:74 3.10816e-05
15 *583:28 *640:24 0
16 *583:28 *653:54 7.06865e-05
17 *583:28 *681:23 0.000371226
18 *583:82 *1843:A0 0.00015193
19 *583:82 *2029:GATE 5.05521e-05
20 *583:82 *2361:A 0.000223688
21 *583:82 *600:122 9.12359e-05
22 *583:82 *635:42 4.34601e-05
23 *583:82 *637:46 0.00016086
24 *583:82 *642:106 0.000112826
25 *583:82 *645:64 1.0558e-05
26 *583:82 *650:236 1.96298e-05
27 *583:82 *653:237 0.000115783
28 *583:82 *661:81 0.000473012
29 *583:82 *661:112 0.00214574
30 *583:82 *665:38 0.00181762
31 *583:82 *665:83 0.00133272
32 *583:82 *701:52 0.00175233
33 *583:82 *704:70 0.0015372
34 A_T_top *583:28 6.16226e-06
35 E6BEG[10] *2346:A 0.000607993
36 E6BEG[2] *2346:A 0.000356149
37 FrameData_O[13] *2346:A 4.24562e-05
38 FrameData_O[17] *2346:A 8.05167e-05
39 FrameData_O[19] *2346:A 0.000331374
40 FrameData_O[21] *2346:A 0.000374727
41 FrameData_O[4] *2346:A 0.000214592
42 FrameData_O[6] *2346:A 1.79483e-05
43 *1843:S1 *583:28 1.78126e-05
44 *1849:S *583:28 5.92191e-05
45 *1868:A *583:82 1.76403e-05
46 *1868:B *583:82 0.000192125
47 *1870:B1 *583:82 3.21081e-06
48 *2284:A *583:82 0.00223103
49 *2299:A *583:82 0.00017772
50 *2321:A *583:82 0.000166796
51 *2327:A *583:82 0.000198767
52 *2330:A *583:82 8.59723e-05
53 *2339:A *2346:A 0.000314756
54 *2344:A *2346:A 5.48747e-05
55 *2384:A *583:28 5.75467e-05
56 *145:35 *583:82 0.00236983
57 *148:89 *583:82 6.00423e-05
58 *151:33 *2346:A 5.38986e-06
59 *154:41 *583:28 0.000270154
60 *160:85 *583:82 1.46319e-05
61 *247:34 *583:82 2.11651e-05
62 *248:37 *583:82 4.27774e-05
63 *257:29 *583:28 5.40057e-05
64 *264:6 *583:82 3.91427e-06
65 *482:30 *583:82 1.4641e-05
66 *490:16 *583:28 0.000703743
67 *493:16 *583:28 0.000183972
68 *496:20 *583:28 0.000416975
69 *514:22 *2346:A 5.89842e-05
70 *531:62 *583:82 0.000118081
71 *536:26 *2346:A 0.00159249
72 *545:72 *583:82 3.27348e-05
73 *557:104 *583:28 7.53115e-05
74 *564:52 *583:82 6.19925e-05
75 *567:32 *583:82 0.000150712
76 *567:96 *2346:A 0.000238735
77 *579:84 *583:28 0.000595473
*RES
1 *2131:X *583:28 48.61 
2 *583:28 *583:82 45.618 
3 *583:82 *2346:A 48.78 
*END

*D_NET *584 0.0216271
*CONN
*I *2347:A I *D sky130_fd_sc_hd__buf_2
*I *2132:X O *D sky130_fd_sc_hd__buf_1
*CAP
1 *2347:A 0.00575397
2 *2132:X 0.00575397
3 *2347:A *1878:A1 2.56752e-06
4 *2347:A *1928:GATE 8.35106e-05
5 *2347:A *2020:GATE 0.000159387
6 *2347:A *2132:A 2.9296e-05
7 *2347:A *2350:A 6.17446e-06
8 *2347:A *2354:A 2.04591e-05
9 *2347:A *2355:A 8.23457e-05
10 *2347:A *2362:A 0.00109544
11 *2347:A *587:118 0
12 *2347:A *590:112 0.000431237
13 *2347:A *594:102 0.000143925
14 *2347:A *602:70 0
15 *2347:A *603:74 0.000122088
16 *2347:A *624:58 0.0014152
17 *2347:A *626:70 0.000398966
18 *2347:A *628:68 0.000410845
19 *2347:A *631:65 5.28666e-05
20 *2347:A *632:152 0.000115022
21 *2347:A *636:50 6.07575e-06
22 *2347:A *636:159 8.23457e-05
23 *2347:A *639:30 0.000112467
24 *2347:A *644:115 0.000296294
25 *2347:A *654:96 0.000141888
26 *2347:A *667:174 6.66469e-05
27 *2347:A *670:65 3.6355e-05
28 *2347:A *675:64 6.52988e-05
29 *2347:A *694:76 7.57568e-05
30 *2347:A *698:175 0.000357087
31 *2347:A *704:110 4.04046e-05
32 FrameData_O[31] *2347:A 8.35106e-05
33 *1883:A3 *2347:A 4.13879e-05
34 *2039:D *2347:A 3.68634e-05
35 *2187:A *2347:A 4.73375e-06
36 *2263:A *2347:A 2.51095e-05
37 *2271:A *2347:A 0.000407515
38 *2279:A *2347:A 2.22315e-05
39 *2282:A *2347:A 8.97006e-07
40 *2343:A *2347:A 0.000143519
41 *2345:A *2347:A 0.000679497
42 *153:105 *2347:A 0.000105897
43 *154:99 *2347:A 0.000151411
44 *480:70 *2347:A 0.000481039
45 *480:153 *2347:A 0.000799261
46 *482:76 *2347:A 2.90597e-05
47 *491:14 *2347:A 5.30924e-05
48 *491:57 *2347:A 0.000314689
49 *502:8 *2347:A 0.000121023
50 *512:18 *2347:A 0.000153776
51 *546:31 *2347:A 0.000161171
52 *556:46 *2347:A 0.000136784
53 *557:44 *2347:A 0
54 *579:32 *2347:A 0.000316753
*RES
1 *2132:X *2347:A 45.9064 
*END

*D_NET *585 0.0195336
*CONN
*I *2348:A I *D sky130_fd_sc_hd__buf_2
*I *2133:X O *D sky130_fd_sc_hd__buf_1
*CAP
1 *2348:A 0.000906208
2 *2133:X 0.00323054
3 *585:66 0.00413675
4 *2348:A *1814:A2 1.19928e-05
5 *2348:A *1893:A1 7.28469e-05
6 *2348:A *2350:A 0.000210938
7 *2348:A *2357:A 0.000138273
8 *2348:A *2362:A 0.000203405
9 *2348:A *646:88 0
10 *2348:A *691:72 0
11 *585:66 *740:DIODE 0.000259384
12 *585:66 *1893:A1 3.59531e-06
13 *585:66 *2059:D 9.77836e-05
14 *585:66 *2133:A 9.0009e-05
15 *585:66 *2350:A 0.000111351
16 *585:66 *587:118 4.17092e-05
17 *585:66 *590:130 0.000178013
18 *585:66 *594:102 0.000175629
19 *585:66 *600:122 0
20 *585:66 *613:42 0.000876849
21 *585:66 *613:48 0.000130039
22 *585:66 *635:10 0.000194267
23 *585:66 *636:50 1.19928e-05
24 *585:66 *637:46 6.38351e-06
25 *585:66 *645:64 3.92756e-05
26 *585:66 *652:181 0.00033206
27 *585:66 *654:88 2.29603e-05
28 *585:66 *659:227 2.22847e-05
29 *585:66 *671:30 0.000162853
30 *585:66 *672:124 1.88656e-05
31 *585:66 *687:92 0.000159722
32 *585:66 *695:103 3.1529e-05
33 FrameData_O[11] *2348:A 0
34 FrameData_O[26] *2348:A 0.000118081
35 FrameData_O[27] *2348:A 4.41506e-05
36 FrameData_O[9] *2348:A 5.55173e-05
37 *1889:S0 *585:66 0.000153816
38 *2059:CLK *585:66 4.55681e-05
39 *2284:A *585:66 9.4675e-06
40 *2304:A *585:66 0.00120014
41 *2307:A *585:66 0.000296755
42 *2308:A *2348:A 0.000881817
43 *2308:A *585:66 0.000697085
44 *2318:A *2348:A 7.18419e-06
45 *2331:A *585:66 0.000154977
46 *2335:A *2348:A 0.000122229
47 *2337:A *2348:A 5.36054e-05
48 *144:111 *585:66 0.000453174
49 *146:89 *2348:A 0.000210995
50 *157:111 *585:66 0.00018955
51 *159:101 *2348:A 0.000885903
52 *159:101 *585:66 0.000169261
53 *234:26 *585:66 0.000116627
54 *234:44 *585:66 0.000131641
55 *479:130 *585:66 0.000106494
56 *514:94 *585:66 0.000280436
57 *536:26 *585:66 0.000691381
58 *544:46 *585:66 1.7635e-05
59 *559:46 *585:66 0.000164715
60 *567:90 *585:66 0.000107452
61 *579:32 *585:66 0.000290392
*RES
1 *2133:X *585:66 49.6409 
2 *585:66 *2348:A 15.5999 
*END

*D_NET *586 0.035885
*CONN
*I *2349:A I *D sky130_fd_sc_hd__buf_2
*I *738:DIODE I *D sky130_fd_sc_hd__diode_2
*I *2134:X O *D sky130_fd_sc_hd__clkbuf_2
*CAP
1 *2349:A 2.15187e-05
2 *738:DIODE 0.00174718
3 *2134:X 0.00319448
4 *586:92 0.00434579
5 *586:44 0.00581462
6 *738:DIODE *1893:A1 7.37528e-05
7 *738:DIODE *2350:A 3.7653e-05
8 *738:DIODE *593:118 0.000114662
9 *738:DIODE *594:102 0.00037829
10 *738:DIODE *689:114 0.00220021
11 *738:DIODE *701:52 0.00179207
12 *738:DIODE *701:58 8.19348e-05
13 *738:DIODE *701:81 5.01843e-05
14 *2349:A *2354:A 4.77719e-05
15 *586:44 *601:10 1.99559e-05
16 *586:44 *602:117 0.00015639
17 *586:44 *616:44 2.29603e-05
18 *586:44 *624:58 7.61239e-05
19 *586:44 *626:96 4.3491e-05
20 *586:44 *628:68 0.00105393
21 *586:44 *631:112 0.000197063
22 *586:44 *639:58 1.22824e-05
23 *586:92 *1812:A0 0.000253228
24 *586:92 *1962:GATE 3.26889e-05
25 *586:92 *2015:D 0
26 *586:92 *2022:D 1.08758e-05
27 *586:92 *2022:GATE 0.000144763
28 *586:92 *2132:A 4.66108e-05
29 *586:92 *2180:A 3.30577e-05
30 *586:92 *597:60 0.000171119
31 *586:92 *602:80 0.000229856
32 *586:92 *602:117 0.00114779
33 *586:92 *613:48 8.73147e-06
34 *586:92 *618:112 2.15699e-05
35 *586:92 *629:52 1.08879e-05
36 *586:92 *631:65 0.00033837
37 *586:92 *633:30 0.000229422
38 *586:92 *634:154 0.000102671
39 *586:92 *635:102 0.00014431
40 *586:92 *636:50 6.87204e-05
41 *586:92 *675:130 0.000226446
42 *586:92 *693:82 0.00019478
43 C_config_C_bit3 *586:44 0.000117678
44 D_T_top *586:44 7.82121e-05
45 D_config_C_bit0 *586:44 8.74147e-05
46 *718:DIODE *586:44 0.00057434
47 *1881:S1 *586:92 2.76039e-06
48 *1882:S0 *738:DIODE 1.88656e-05
49 *1883:A3 *738:DIODE 1.88656e-05
50 *1896:S0 *586:92 0.000132709
51 *1896:S1 *586:92 6.31732e-05
52 *2211:A *586:92 1.26029e-05
53 *2304:A *586:92 8.54618e-06
54 *2337:A *738:DIODE 0.00018712
55 *2391:A *586:44 0.00114637
56 *2395:A *586:44 0.00140759
57 *142:57 *586:44 0
58 *150:77 *738:DIODE 0.000118811
59 *151:85 *738:DIODE 6.98555e-05
60 *153:59 *586:44 0.000357034
61 *154:41 *586:44 8.5776e-05
62 *156:39 *586:44 2.03615e-05
63 *156:51 *586:44 0.00144294
64 *157:91 *586:44 0.000194213
65 *158:23 *586:44 0.000235137
66 *159:101 *738:DIODE 0.000376944
67 *160:133 *738:DIODE 0.000492527
68 *480:70 *586:44 4.11678e-06
69 *491:96 *738:DIODE 0.000159714
70 *520:56 *586:92 3.64327e-05
71 *535:26 *738:DIODE 0.000611559
72 *535:112 *738:DIODE 0.000169288
73 *544:46 *586:92 0.00025631
74 *553:28 *586:92 0.000391113
75 *557:46 *586:44 0.00144368
76 *557:58 *586:44 0.000108771
77 *557:104 *586:44 2.1724e-05
78 *579:32 *586:92 0.00026085
79 *579:52 *586:92 0.00027335
*RES
1 *2134:X *586:44 45.1672 
2 *586:44 *586:92 49.7161 
3 *586:92 *738:DIODE 12.6332 
4 *738:DIODE *2349:A 3.65 
*END

*D_NET *587 0.0432071
*CONN
*I *2350:A I *D sky130_fd_sc_hd__buf_2
*I *2135:X O *D sky130_fd_sc_hd__clkbuf_2
*CAP
1 *2350:A 0.00414976
2 *2135:X 0.00112768
3 *587:118 0.00758712
4 *587:44 0.00551264
5 *587:16 0.00320296
6 *2350:A *1813:A0 4.68788e-05
7 *2350:A *1878:A1 5.96078e-05
8 *2350:A *1893:A1 2.64672e-05
9 *2350:A *1893:A3 0.00120611
10 *2350:A *1914:A2 5.04703e-05
11 *2350:A *2021:D 9.24895e-05
12 *2350:A *2108:A 1.76833e-05
13 *2350:A *2353:A 0.000263158
14 *2350:A *2362:A 5.03129e-05
15 *2350:A *590:130 0.000291705
16 *2350:A *591:48 0.00010941
17 *2350:A *615:14 2.28347e-05
18 *2350:A *626:70 0.000786381
19 *2350:A *628:68 2.26203e-05
20 *2350:A *630:66 6.51972e-05
21 *2350:A *632:152 0
22 *2350:A *673:185 0
23 *2350:A *687:92 7.8632e-06
24 *2350:A *693:117 1.2225e-05
25 *2350:A *693:163 0.000126385
26 *2350:A *701:58 6.73258e-05
27 *2350:A *701:81 9.4675e-06
28 *587:16 *638:24 0.00151397
29 *587:16 *666:32 2.29671e-05
30 *587:44 *1884:A1 0.000165745
31 *587:44 *1912:A0 0.00075861
32 *587:44 *1925:D 4.82021e-05
33 *587:44 *1927:GATE 0.000162318
34 *587:44 *2016:GATE 1.33644e-05
35 *587:44 *2184:A 9.85216e-05
36 *587:44 *594:48 0.000265182
37 *587:44 *602:131 4.66108e-05
38 *587:44 *602:166 5.93408e-05
39 *587:44 *613:138 0.000267605
40 *587:44 *616:44 7.64562e-05
41 *587:44 *618:24 1.05744e-05
42 *587:44 *626:100 0
43 *587:44 *628:112 0.000118081
44 *587:44 *635:42 1.02564e-05
45 *587:44 *643:50 5.53549e-06
46 *587:44 *666:76 5.16418e-05
47 *587:44 *666:85 0.000187064
48 *587:44 *668:95 0.000261666
49 *587:44 *668:107 4.9367e-05
50 *587:44 *668:140 1.19928e-05
51 *587:44 *684:130 0.000256736
52 *587:44 *689:92 1.17309e-05
53 *587:118 *1827:A 7.10991e-06
54 *587:118 *1884:A1 7.10263e-06
55 *587:118 *2018:GATE 8.31206e-05
56 *587:118 *2019:GATE 8.38498e-06
57 *587:118 *591:102 7.2192e-05
58 *587:118 *593:94 1.42087e-05
59 *587:118 *600:122 0.000122362
60 *587:118 *602:70 6.17689e-05
61 *587:118 *603:68 6.572e-05
62 *587:118 *613:42 3.66618e-05
63 *587:118 *613:95 0.00036413
64 *587:118 *618:112 0.000476568
65 *587:118 *624:82 0.000441167
66 *587:118 *626:70 4.86654e-05
67 *587:118 *636:50 0.00010054
68 *587:118 *639:30 2.58553e-05
69 *587:118 *643:79 0
70 *587:118 *643:116 0.000616972
71 *587:118 *654:88 0.000211609
72 *587:118 *658:109 1.31664e-05
73 *587:118 *658:133 1.2961e-05
74 *587:118 *671:53 0.000152831
75 *587:118 *672:124 0.000426498
76 *587:118 *674:80 5.43236e-05
77 *587:118 *675:192 0.000144398
78 *587:118 *679:59 0.000367343
79 *587:118 *698:68 6.17446e-06
80 A_config_C_bit1 *587:16 0.000486111
81 C_config_C_bit0 *587:44 1.88656e-05
82 D_config_C_bit0 *587:44 3.59531e-06
83 *718:DIODE *587:16 3.83323e-05
84 *738:DIODE *2350:A 3.7653e-05
85 *1822:S *587:118 0.000137049
86 *1875:S1 *587:118 7.55797e-05
87 *1876:S1 *587:118 0
88 *1878:S0 *2350:A 0.000132732
89 *1878:S1 *2350:A 2.76356e-05
90 *1880:A2 *587:44 0.000162242
91 *1884:A0 *587:118 8.71841e-05
92 *1900:S1 *2350:A 0.000103085
93 *1907:S0 *587:118 2.19562e-06
94 *1977:D *2350:A 0
95 *2039:D *587:118 4.10355e-05
96 *2040:D *587:118 0.000239966
97 *2274:A *587:44 0.00017409
98 *2276:A *587:44 0.00109625
99 *2304:A *587:118 0.00079565
100 *2331:A *2350:A 0.000139949
101 *2334:A *2350:A 4.55338e-05
102 *2335:A *2350:A 4.2483e-05
103 *2339:A *2350:A 0
104 *2341:A *2350:A 4.88568e-05
105 *2345:A *2350:A 0.000241443
106 *2347:A *2350:A 6.17446e-06
107 *2347:A *587:118 0
108 *2348:A *2350:A 0.000210938
109 *2389:A *587:44 0.000487211
110 *2395:A *587:44 8.41703e-06
111 *150:77 *2350:A 8.22569e-05
112 *152:15 *587:16 0.00145145
113 *153:129 *2350:A 0.000151171
114 *157:91 *587:118 0.00061207
115 *160:25 *587:16 0.000229025
116 *480:70 *2350:A 2.22315e-05
117 *480:70 *587:118 0
118 *480:153 *2350:A 0
119 *482:76 *2350:A 0.000253407
120 *491:96 *2350:A 1.23417e-05
121 *513:10 *2350:A 0
122 *544:46 *587:44 0.00016112
123 *544:46 *587:118 1.77331e-05
124 *557:58 *587:16 3.49355e-05
125 *568:112 *587:44 0.00152355
126 *579:32 *2350:A 1.57842e-05
127 *582:20 *587:16 5.21459e-06
128 *582:94 *587:118 0.000261395
129 *585:66 *2350:A 0.000111351
130 *585:66 *587:118 4.17092e-05
*RES
1 *2135:X *587:16 35.005 
2 *587:16 *587:44 47.7747 
3 *587:44 *587:118 49.9317 
4 *587:118 *2350:A 44.5208 
*END

*D_NET *588 0.00635013
*CONN
*I *2351:A I *D sky130_fd_sc_hd__buf_2
*I *2136:X O *D sky130_fd_sc_hd__clkbuf_1
*CAP
1 *2351:A 0.00128134
2 *2136:X 0.00128134
3 *2351:A *1894:A3 0.000489288
4 *2351:A *1942:GATE 9.28568e-05
5 *2351:A *1958:D 0.000333062
6 *2351:A *1958:GATE 6.91646e-05
7 *2351:A *2354:A 8.7152e-06
8 *2351:A *613:42 8.30853e-06
9 *2351:A *627:22 1.91597e-05
10 *2351:A *630:26 0.000118234
11 *2351:A *669:23 0.000600135
12 *2351:A *670:6 0.00038585
13 *1809:S0 *2351:A 0.000305628
14 *1883:A3 *2351:A 0.000394059
15 *1891:S0 *2351:A 4.17841e-05
16 *1909:S1 *2351:A 0.000121817
17 *1974:D *2351:A 0.000118081
18 *2341:A *2351:A 0.000681321
*RES
1 *2136:X *2351:A 41.5 
*END

*D_NET *589 0.00517543
*CONN
*I *2352:A I *D sky130_fd_sc_hd__buf_2
*I *2137:X O *D sky130_fd_sc_hd__clkbuf_1
*CAP
1 *2352:A 0.00161832
2 *2137:X 0.00161832
3 *2352:A *1932:D 4.77757e-05
4 *2352:A *1989:D 0.000114852
5 *2352:A *1989:GATE 0.00011099
6 *2352:A *1995:D 3.11927e-05
7 *2352:A *1996:D 0.000412565
8 *2352:A *2354:A 0.000120655
9 *2352:A *633:53 0.000183792
10 *2352:A *670:59 0.000105284
11 *2352:A *670:65 0.000112971
12 *2352:A *679:91 6.33103e-05
13 *2060:A *2352:A 0.000121517
14 *2343:A *2352:A 9.30787e-05
15 *514:22 *2352:A 0.000420797
*RES
1 *2137:X *2352:A 34.5 
*END

*D_NET *590 0.0502019
*CONN
*I *1812:A2 I *D sky130_fd_sc_hd__mux4_1
*I *1891:A3 I *D sky130_fd_sc_hd__mux4_1
*I *1901:A3 I *D sky130_fd_sc_hd__mux4_1
*I *1878:A2 I *D sky130_fd_sc_hd__mux4_1
*I *2057:D I *D sky130_fd_sc_hd__dfxtp_1
*I *1876:A1 I *D sky130_fd_sc_hd__mux4_1
*I *1880:A1 I *D sky130_fd_sc_hd__mux4_1
*I *2197:X O *D sky130_fd_sc_hd__buf_2
*CAP
1 *1812:A2 0.000175955
2 *1891:A3 0.000254707
3 *1901:A3 0.000339466
4 *1878:A2 1.66349e-05
5 *2057:D 0.000190111
6 *1876:A1 7.98798e-05
7 *1880:A1 0
8 *2197:X 0.000602601
9 *590:170 0.00213129
10 *590:145 0.00165766
11 *590:130 0.0015337
12 *590:112 0.00432269
13 *590:49 0.0035311
14 *590:18 0.000790374
15 *590:14 0.00152593
16 *590:12 0.00188232
17 *1812:A2 *643:116 3.98967e-06
18 *1812:A2 *643:129 8.99099e-05
19 *1812:A2 *665:18 8.3701e-06
20 *1812:A2 *676:10 0.000119727
21 *1876:A1 *654:20 4.66108e-05
22 *1891:A3 *1891:A1 4.9253e-06
23 *1891:A3 *1891:A2 3.08098e-05
24 *1901:A3 *1901:A2 7.24866e-05
25 *1901:A3 *2379:A 9.31211e-05
26 *1901:A3 *615:14 0.000405542
27 *590:12 *1920:D 0.000233557
28 *590:12 *601:8 0
29 *590:14 *631:112 2.07927e-05
30 *590:14 *640:28 0.00398194
31 *590:14 *658:109 0.000100442
32 *590:14 *672:148 0.000328797
33 *590:18 *689:92 3.64998e-06
34 *590:49 *1880:A0 6.89097e-05
35 *590:49 *613:95 7.66539e-06
36 *590:49 *618:40 0.000388826
37 *590:49 *624:108 0.000291005
38 *590:49 *627:106 0.000129685
39 *590:49 *654:20 1.23268e-05
40 *590:49 *689:92 0.000136615
41 *590:112 *1876:A0 0.000101781
42 *590:112 *1937:D 0.000130589
43 *590:112 *2000:D 3.68448e-05
44 *590:112 *2000:GATE 6.5132e-06
45 *590:112 *2001:D 0.000108356
46 *590:112 *591:102 1.46319e-05
47 *590:112 *593:46 5.18735e-06
48 *590:112 *602:70 7.8034e-05
49 *590:112 *603:68 0.000381186
50 *590:112 *613:95 6.33103e-05
51 *590:112 *618:40 3.42674e-05
52 *590:112 *624:58 0.000198552
53 *590:112 *626:70 1.7662e-05
54 *590:112 *627:106 2.92737e-05
55 *590:112 *629:52 1.00859e-05
56 *590:112 *637:46 0.00149958
57 *590:112 *639:30 0.00015889
58 *590:112 *644:115 0.00213003
59 *590:112 *652:181 0.000258023
60 *590:112 *654:20 4.37124e-05
61 *590:112 *654:41 1.7635e-05
62 *590:112 *654:88 0.000164549
63 *590:112 *658:109 0.000113201
64 *590:112 *676:10 0.000228307
65 *590:112 *680:46 0.000224781
66 *590:112 *684:6 3.83194e-05
67 *590:112 *684:8 2.49909e-05
68 *590:112 *684:124 0.000173226
69 *590:112 *693:82 0.000122857
70 *590:130 *2362:A 0.000250885
71 *590:130 *591:48 0.00106744
72 *590:130 *643:129 1.30972e-05
73 *590:130 *671:30 3.19974e-05
74 *590:130 *672:124 2.89667e-05
75 *590:145 *1878:A3 9.09788e-06
76 *590:145 *643:164 5.69248e-06
77 *590:170 *1878:A3 1.10474e-05
78 *590:170 *2362:A 3.28956e-05
79 *590:170 *631:65 0.0015272
80 *590:170 *643:164 5.05716e-06
81 *590:170 *672:52 0.000341425
82 C_T_top *590:14 0.000106344
83 *718:DIODE *590:14 0.00227798
84 *742:DIODE *590:170 0.00242311
85 *743:DIODE *1891:A3 5.83121e-06
86 *1812:S0 *590:112 0.000123838
87 *1812:S1 *1812:A2 1.42711e-05
88 *1812:S1 *590:112 2.64891e-05
89 *1878:S1 *2057:D 2.3091e-05
90 *1878:S1 *590:145 5.53549e-06
91 *1880:S0 *590:18 0.000155601
92 *1880:S0 *590:49 0.000111925
93 *1901:S0 *1901:A3 9.71067e-05
94 *1974:D *1901:A3 0.000521497
95 *2057:CLK *2057:D 0.00010604
96 *2181:A *590:18 0.000147697
97 *2193:A *590:112 0.000386186
98 *2213:A *590:112 0.00034998
99 *2304:A *590:112 9.24781e-05
100 *2331:A *2057:D 0.000120704
101 *2345:A *590:130 0.000107996
102 *2345:A *590:145 7.15288e-05
103 *2347:A *590:112 0.000431237
104 *2350:A *590:130 0.000291705
105 *152:15 *590:14 0.00138588
106 *153:59 *590:18 0.000118081
107 *157:53 *590:14 0
108 *157:91 *1812:A2 0.000130386
109 *158:23 *590:14 0.00028185
110 *159:101 *1891:A3 4.60061e-05
111 *160:133 *590:170 0.000789985
112 *243:42 *590:49 0.000470635
113 *243:42 *590:112 0.000141694
114 *479:30 *590:14 0.000705347
115 *480:70 *590:112 2.22315e-05
116 *480:108 *590:145 0.0001276
117 *480:153 *590:145 3.20245e-05
118 *480:153 *590:170 5.63198e-05
119 *491:57 *590:170 5.53841e-05
120 *496:20 *590:12 0.000119756
121 *544:46 *590:130 0.000308252
122 *557:46 *590:14 0.000115746
123 *568:58 *590:14 0.000296145
124 *579:32 *590:130 0.00129389
125 *582:40 *590:112 0.000175249
126 *585:66 *590:130 0.000178013
*RES
1 *2197:X *590:12 11.76 
2 *590:12 *590:14 64.875 
3 *590:14 *590:18 6.59 
4 *590:18 *1880:A1 1.6 
5 *590:18 *590:49 22.795 
6 *590:49 *1876:A1 4.74 
7 *590:49 *590:112 35.3915 
8 *590:112 *590:130 9.8107 
9 *590:130 *2057:D 6.69375 
10 *590:130 *590:145 2.655 
11 *590:145 *1878:A2 3.79875 
12 *590:145 *590:170 8.1225 
13 *590:170 *1901:A3 13.3425 
14 *590:170 *1891:A3 7.5 
15 *590:112 *1812:A2 9.03125 
*END

*D_NET *591 0.0547481
*CONN
*I *2015:D I *D sky130_fd_sc_hd__dlxtp_1
*I *1951:D I *D sky130_fd_sc_hd__dlxtp_1
*I *1983:D I *D sky130_fd_sc_hd__dlxtp_1
*I *2131:A I *D sky130_fd_sc_hd__clkbuf_2
*I *2047:D I *D sky130_fd_sc_hd__dlxtp_1
*I *1919:D I *D sky130_fd_sc_hd__dlxtp_1
*I *2198:X O *D sky130_fd_sc_hd__buf_2
*CAP
1 *2015:D 0.000777636
2 *1951:D 0.0002368
3 *1983:D 0.000324658
4 *2131:A 0
5 *2047:D 0.000279336
6 *1919:D 0
7 *2198:X 0.00282921
8 *591:142 0.000489146
9 *591:136 0.00366933
10 *591:126 0.00585279
11 *591:102 0.00697052
12 *591:48 0.00827195
13 *1951:D *1951:GATE 2.20014e-05
14 *1951:D *662:140 0.000153816
15 *1951:D *705:10 2.72318e-05
16 *1983:D *639:58 4.4123e-05
17 *1983:D *666:76 7.39682e-05
18 *2015:D *636:159 5.68985e-05
19 *2047:D *1919:GATE 8.35106e-05
20 *591:48 *1813:A0 0.00026439
21 *591:48 *2059:D 4.77757e-05
22 *591:48 *628:26 0.000109009
23 *591:48 *628:38 4.18203e-05
24 *591:48 *629:69 1.197e-05
25 *591:48 *633:38 4.66108e-05
26 *591:48 *643:129 0.000178476
27 *591:48 *643:164 0.000252465
28 *591:48 *668:14 0.000114662
29 *591:48 *672:52 1.30932e-06
30 *591:48 *674:40 5.71301e-05
31 *591:48 *674:80 0.000104132
32 *591:48 *679:59 2.53191e-06
33 *591:48 *693:117 0.000112483
34 *591:48 *698:68 4.41506e-05
35 *591:48 *698:175 0.000189028
36 *591:102 *594:48 9.02755e-05
37 *591:102 *596:50 1.96622e-05
38 *591:102 *600:74 0
39 *591:102 *603:68 2.38557e-05
40 *591:102 *616:44 0.000146541
41 *591:102 *624:58 0.00139305
42 *591:102 *626:70 0.000170358
43 *591:102 *627:106 0.000268346
44 *591:102 *628:68 0.00063574
45 *591:102 *630:84 0.000942395
46 *591:102 *635:42 0.000420198
47 *591:102 *637:46 0.00117627
48 *591:102 *643:79 3.40096e-05
49 *591:102 *644:46 2.65848e-05
50 *591:102 *667:23 0.000139136
51 *591:102 *667:64 1.05827e-05
52 *591:102 *672:124 0.000491772
53 *591:102 *674:80 3.68738e-05
54 *591:102 *687:114 5.28608e-05
55 *591:126 *594:48 2.22315e-05
56 *591:126 *613:146 0.000939784
57 *591:126 *618:24 0.000102443
58 *591:126 *630:84 3.99234e-05
59 *591:126 *662:140 0.000693102
60 *591:126 *667:23 2.05583e-05
61 *591:126 *668:109 0.000125027
62 *591:126 *668:115 0.000180234
63 *591:136 *613:146 0.000904424
64 *591:136 *666:76 0.000264627
65 *591:136 *666:151 1.00941e-05
66 D_config_C_bit1 *591:102 0.000372993
67 *718:DIODE *591:102 1.05166e-05
68 *742:DIODE *591:48 0.000122786
69 *1838:B1 *591:126 0.000134836
70 *1839:A *591:126 9.80032e-06
71 *1842:A2 *591:126 4.66108e-05
72 *1842:A4 *591:126 8.33476e-05
73 *2205:A *591:102 0.000412271
74 *2241:A *591:102 7.88455e-05
75 *2278:A *591:126 8.38897e-06
76 *2279:A *591:102 2.23648e-05
77 *2281:A *591:102 0.000175629
78 *2304:A *2015:D 0.000338297
79 *2304:A *591:102 0.000362533
80 *2307:A *2015:D 1.88602e-05
81 *2326:A *591:102 0.000766809
82 *2345:A *591:48 7.33639e-05
83 *2350:A *591:48 0.00010941
84 *2391:A *591:102 0.000145532
85 *153:39 *591:136 2.11026e-05
86 *153:39 *591:142 1.69521e-05
87 *156:39 *591:136 0
88 *157:111 *591:48 1.91597e-05
89 *158:23 *591:102 0.00122967
90 *158:71 *591:102 0.000114899
91 *159:39 *591:126 1.91843e-05
92 *159:39 *591:136 0.000400835
93 *159:77 *591:102 2.39315e-06
94 *236:22 *2015:D 1.88602e-05
95 *243:42 *591:102 1.54272e-05
96 *259:12 *591:126 0.000219613
97 *261:12 *591:126 3.25529e-05
98 *409:32 *591:102 7.83962e-05
99 *409:32 *591:126 8.53113e-06
100 *479:30 *591:102 2.22315e-05
101 *480:70 *591:102 0.000777258
102 *480:153 *591:48 0.000463049
103 *482:76 *591:48 4.17092e-05
104 *493:16 *2047:D 0.00069142
105 *493:16 *591:142 0.000132261
106 *505:22 *591:126 0.000445722
107 *512:18 *591:48 0.00111619
108 *513:86 *591:48 2.33514e-05
109 *519:40 *2015:D 4.95724e-05
110 *520:56 *2015:D 2.22315e-05
111 *524:14 *591:48 0.000321524
112 *544:46 *591:48 1.66065e-05
113 *544:46 *591:102 3.12948e-05
114 *568:58 *591:102 0.00124337
115 *568:112 *591:126 3.3846e-05
116 *568:114 *1983:D 0
117 *569:58 *591:102 1.44071e-06
118 *579:32 *2015:D 0.000412777
119 *579:32 *591:48 0.00102663
120 *579:32 *591:102 3.61187e-05
121 *582:94 *591:102 7.26098e-05
122 *586:92 *2015:D 0
123 *587:118 *591:102 7.2192e-05
124 *590:112 *591:102 1.46319e-05
125 *590:130 *591:48 0.00106744
*RES
1 *2198:X *591:48 34.359 
2 *591:48 *591:102 31.6859 
3 *591:102 *591:126 26.8914 
4 *591:126 *591:136 7.79337 
5 *591:136 *591:142 5.81 
6 *591:142 *1919:D 1.6 
7 *591:142 *2047:D 8.635 
8 *591:136 *2131:A 3.6 
9 *591:126 *1983:D 5.50423 
10 *591:102 *1951:D 7.185 
11 *591:48 *2015:D 5.81197 
*END

*D_NET *592 0.00806674
*CONN
*I *2353:A I *D sky130_fd_sc_hd__buf_2
*I *2110:X O *D sky130_fd_sc_hd__buf_1
*CAP
1 *2353:A 0.00210994
2 *2110:X 0.00210994
3 *2353:A *1814:A2 5.41918e-05
4 *2353:A *1906:A0 0.000340992
5 *2353:A *1906:A2 6.2695e-05
6 *2353:A *1948:GATE 0.00026102
7 *2353:A *2377:A 1.88904e-05
8 *2353:A *629:69 1.77665e-05
9 *2353:A *650:254 0.000427101
10 *2353:A *667:154 0.000120407
11 *2353:A *701:81 7.60121e-05
12 FrameData_O[13] *2353:A 7.1815e-05
13 FrameData_O[4] *2353:A 8.52845e-05
14 *1882:S0 *2353:A 0.000307216
15 *1883:A3 *2353:A 0.000283746
16 *1899:S1 *2353:A 8.73389e-06
17 *2335:A *2353:A 0.000119866
18 *2339:A *2353:A 0.000624502
19 *2350:A *2353:A 0.000263158
20 *235:45 *2353:A 9.50317e-05
21 *479:161 *2353:A 1.7635e-05
22 *524:180 *2353:A 0.000107844
23 *542:30 *2353:A 8.23457e-05
24 *557:147 *2353:A 0.000400594
*RES
1 *2110:X *2353:A 43.18 
*END

*D_NET *593 0.0339543
*CONN
*I *2354:A I *D sky130_fd_sc_hd__buf_2
*I *2138:X O *D sky130_fd_sc_hd__clkbuf_2
*CAP
1 *2354:A 0.00068712
2 *2138:X 0.00356893
3 *593:118 0.00193772
4 *593:94 0.00364446
5 *593:46 0.00596279
6 *2354:A *1893:A1 0.000478896
7 *2354:A *594:102 6.03517e-05
8 *2354:A *691:105 1.91597e-05
9 *593:46 *1912:A0 0.000320596
10 *593:46 *1952:GATE 3.75937e-05
11 *593:46 *2054:GATE 2.39856e-05
12 *593:46 *2138:A 2.49909e-05
13 *593:46 *594:48 3.99991e-05
14 *593:46 *602:166 3.63701e-06
15 *593:46 *613:138 0.00038312
16 *593:46 *618:40 0.00031059
17 *593:46 *627:106 0.000210284
18 *593:46 *628:90 0.000832034
19 *593:46 *628:112 0.000155942
20 *593:46 *631:112 0.000260115
21 *593:46 *638:24 0.000257105
22 *593:46 *658:109 5.37407e-05
23 *593:46 *668:140 0.000102232
24 *593:46 *687:114 0.000106079
25 *593:46 *694:76 0.000243197
26 *593:46 *706:46 6.99522e-05
27 *593:94 *1827:A 0.000311982
28 *593:94 *1896:A2 6.90889e-06
29 *593:94 *2027:D 5.84716e-05
30 *593:94 *597:44 0.00019631
31 *593:94 *618:112 4.37173e-06
32 *593:94 *636:159 0.000171862
33 *593:94 *642:106 0
34 *593:94 *643:116 0.000145681
35 *593:94 *660:115 4.98998e-06
36 *593:94 *661:203 0.000407018
37 *593:94 *662:177 0.000638252
38 *593:94 *662:188 0.000180317
39 *593:94 *662:196 0.000117466
40 *593:94 *673:106 9.96596e-05
41 *593:94 *673:124 0.000102906
42 *593:94 *675:174 0
43 *593:94 *677:32 0.000174619
44 *593:94 *698:68 1.12856e-05
45 *593:94 *708:42 0.00051733
46 *593:118 *2360:A 8.53113e-06
47 *593:118 *634:176 0.0012926
48 *593:118 *636:159 2.16731e-05
49 *593:118 *645:82 0
50 *593:118 *662:196 0.000514709
51 *593:118 *667:174 8.01251e-05
52 *593:118 *669:45 0.000147111
53 *593:118 *669:53 0.000195115
54 *593:118 *673:50 1.4054e-05
55 *593:118 *673:106 2.03321e-05
56 *738:DIODE *593:118 0.000114662
57 *1822:S *593:94 4.84739e-05
58 *1824:A2 *593:94 3.29266e-07
59 *1875:S1 *593:46 0.000114342
60 *1875:S1 *593:94 6.73335e-06
61 *1882:S0 *2354:A 0.000175306
62 *1883:A3 *2354:A 0.000104011
63 *1892:S1 *593:94 0.000262082
64 *1896:A3 *593:94 6.69608e-06
65 *1899:S1 *593:118 9.57611e-05
66 *1900:S1 *593:118 0.000122041
67 *1904:S0 *593:46 9.35189e-05
68 *2056:D *593:118 6.36139e-05
69 *2060:A *2354:A 0.000120655
70 *2076:A *593:118 6.20406e-05
71 *2081:A *593:118 0.000463765
72 *2084:A *2354:A 2.0458e-05
73 *2102:A *593:94 0.00038493
74 *2304:A *593:46 8.92791e-06
75 *2307:A *593:94 0.000220087
76 *2322:A *593:94 6.33103e-05
77 *2326:A *593:46 0.000652492
78 *2334:A *2354:A 0.000260827
79 *2341:A *2354:A 0.000125237
80 *2347:A *2354:A 2.04591e-05
81 *2349:A *2354:A 4.77719e-05
82 *2351:A *2354:A 8.7152e-06
83 *2352:A *2354:A 0.000120655
84 *143:109 *593:94 0.000310237
85 *145:71 *593:94 0.000511601
86 *145:83 *593:118 0.00116353
87 *150:57 *593:94 0.000113305
88 *150:77 *593:118 0.000628977
89 *153:39 *593:46 0
90 *159:77 *593:94 0.000160499
91 *181:56 *593:46 1.01182e-05
92 *181:56 *593:94 0.000165069
93 *234:14 *593:118 0.000155497
94 *235:113 *593:94 0.00013094
95 *243:42 *593:46 0.000256293
96 *479:46 *593:94 2.72194e-05
97 *479:60 *593:94 0.000244479
98 *480:70 *593:94 3.58193e-05
99 *517:50 *593:94 0
100 *519:40 *593:118 0.000462393
101 *553:28 *593:94 2.80998e-05
102 *579:52 *593:94 0.000107996
103 *582:40 *593:46 0.000396649
104 *587:118 *593:94 1.42087e-05
105 *590:112 *593:46 5.18735e-06
*RES
1 *2138:X *593:46 49.3251 
2 *593:46 *593:94 44.7084 
3 *593:94 *593:118 47.845 
4 *593:118 *2354:A 19.79 
*END

*D_NET *594 0.0367784
*CONN
*I *2355:A I *D sky130_fd_sc_hd__buf_2
*I *739:DIODE I *D sky130_fd_sc_hd__diode_2
*I *2139:X O *D sky130_fd_sc_hd__clkbuf_2
*CAP
1 *2355:A 2.4121e-05
2 *739:DIODE 0
3 *2139:X 0.00445355
4 *594:102 0.00253853
5 *594:74 0.0046779
6 *594:48 0.00661704
7 *594:48 *1926:D 6.16226e-06
8 *594:48 *596:50 4.26103e-05
9 *594:48 *600:74 0.000451066
10 *594:48 *613:138 0.000231699
11 *594:48 *613:146 0.000390444
12 *594:48 *627:106 0.000773245
13 *594:48 *630:84 1.32808e-05
14 *594:48 *635:42 2.99153e-05
15 *594:48 *639:58 4.05129e-06
16 *594:48 *647:244 0.000398271
17 *594:48 *660:87 7.31228e-05
18 *594:48 *685:30 0.000511058
19 *594:48 *698:129 0.000137213
20 *594:74 *647:244 0.000434325
21 *594:74 *653:237 8.08514e-05
22 *594:74 *659:175 0.000271444
23 *594:74 *660:87 0.000259452
24 *594:74 *697:62 0.00101684
25 *594:74 *704:90 0.000300411
26 *594:102 *618:112 1.86715e-05
27 *594:102 *704:110 2.48256e-05
28 E1BEG[1] *594:48 0.000170947
29 E1BEG[2] *594:48 9.23627e-05
30 E1BEG[3] *594:48 0.000134118
31 E6BEG[7] *594:74 0.000113819
32 E6BEG[8] *594:74 0.000107851
33 FrameData_O[23] *594:102 2.29759e-05
34 FrameData_O[5] *594:102 7.84316e-05
35 FrameData_O[7] *594:102 0.000569953
36 *710:DIODE *594:102 0.00132098
37 *738:DIODE *594:102 0.00037829
38 *2079:A *594:48 1.1254e-05
39 *2243:A *594:48 8.23457e-05
40 *2276:A *594:48 3.63701e-06
41 *2285:A *594:48 0.00033544
42 *2304:A *594:102 3.47471e-05
43 *2308:A *594:102 0.000224528
44 *2317:A *594:74 0.00104361
45 *2324:A *594:74 0.000930724
46 *2328:A *594:48 2.17484e-05
47 *2337:A *594:102 0.00035338
48 *2341:A *594:102 5.8678e-05
49 *2343:A *2355:A 8.23457e-05
50 *2345:A *594:102 0
51 *2346:A *594:74 8.06037e-05
52 *2347:A *2355:A 8.23457e-05
53 *2347:A *594:102 0.000143925
54 *2354:A *594:102 6.03517e-05
55 *146:89 *594:102 0.000157653
56 *147:99 *594:74 3.19251e-05
57 *148:51 *594:48 0.000140581
58 *148:89 *594:102 3.14528e-05
59 *149:93 *594:74 0.000495659
60 *159:77 *594:48 0.000144856
61 *159:101 *594:102 0.000219073
62 *233:80 *594:102 1.82582e-05
63 *236:93 *594:74 0.000909967
64 *481:30 *594:48 7.55606e-05
65 *482:30 *594:48 0.00125087
66 *514:94 *594:48 4.11615e-05
67 *524:49 *594:74 0.000339085
68 *524:142 *594:48 7.84604e-05
69 *524:180 *594:102 0.000562522
70 *531:62 *594:102 2.22315e-05
71 *536:26 *594:102 0.000108195
72 *544:46 *594:48 0
73 *559:46 *594:74 0.000509312
74 *564:52 *594:74 0.000286491
75 *568:112 *594:48 0.000442283
76 *585:66 *594:102 0.000175629
77 *587:44 *594:48 0.000265182
78 *591:102 *594:48 9.02755e-05
79 *591:126 *594:48 2.22315e-05
80 *593:46 *594:48 3.99991e-05
*RES
1 *2139:X *594:48 30.0163 
2 *594:48 *594:74 49.8416 
3 *594:74 *594:102 11.8558 
4 *594:102 *739:DIODE 1.6 
5 *594:102 *2355:A 2.395 
*END

*D_NET *595 0.0102933
*CONN
*I *2356:A I *D sky130_fd_sc_hd__buf_2
*I *2111:X O *D sky130_fd_sc_hd__buf_1
*CAP
1 *2356:A 0.000921488
2 *2111:X 0.00149086
3 *595:28 0.00241235
4 *2356:A *740:DIODE 0.000224895
5 *2356:A *1998:D 1.56428e-05
6 *2356:A *1998:GATE 0.000586205
7 *2356:A *667:154 0.000222527
8 *595:28 *1989:GATE 2.49909e-05
9 *595:28 *2013:GATE 0.000240888
10 *595:28 *635:112 0.000332876
11 *595:28 *669:45 8.53113e-06
12 *595:28 *677:26 0.000115571
13 *595:28 *677:98 0.00013325
14 *595:28 *679:72 0.00082271
15 *1900:S0 *595:28 9.07407e-05
16 *2006:D *595:28 0.000111083
17 *2007:D *595:28 0.000106344
18 *2057:CLK *595:28 6.3124e-06
19 *2330:A *595:28 0.000173858
20 *2331:A *2356:A 0.000176767
21 *2331:A *595:28 0.000119242
22 *2343:A *595:28 0.000665507
23 *233:80 *595:28 0.000207871
24 *233:99 *595:28 2.52626e-05
25 *519:40 *595:28 8.23457e-05
26 *553:28 *595:28 0.000238478
27 *558:50 *595:28 0.000674025
28 *568:188 *595:28 6.26955e-05
*RES
1 *2111:X *595:28 43.47 
2 *595:28 *2356:A 18.365 
*END

*D_NET *596 0.044247
*CONN
*I *2357:A I *D sky130_fd_sc_hd__buf_2
*I *740:DIODE I *D sky130_fd_sc_hd__diode_2
*I *2112:X O *D sky130_fd_sc_hd__clkbuf_2
*CAP
1 *2357:A 7.31823e-05
2 *740:DIODE 0.000651371
3 *2112:X 0.00525929
4 *596:140 0.00384348
5 *596:50 0.00852459
6 *740:DIODE *1889:A2 1.79483e-05
7 *740:DIODE *1899:A0 3.64998e-06
8 *740:DIODE *2359:A 0.000174865
9 *740:DIODE *667:154 0.00068764
10 *740:DIODE *695:103 6.95753e-05
11 *2357:A *646:88 0
12 *596:50 *1904:A0 0
13 *596:50 *2028:GATE 2.75229e-05
14 *596:50 *600:74 3.44394e-05
15 *596:50 *630:84 0.000951207
16 *596:50 *632:66 0.000946551
17 *596:50 *635:42 3.98679e-05
18 *596:50 *642:38 1.09082e-05
19 *596:50 *645:14 0.000415914
20 *596:50 *645:20 0.000127416
21 *596:50 *650:164 0.00107714
22 *596:50 *652:139 0.000141541
23 *596:50 *658:27 0.000101138
24 *596:50 *658:58 4.73375e-06
25 *596:50 *681:36 4.66108e-05
26 *596:50 *693:38 0.000220044
27 *596:50 *699:40 0.0014151
28 *596:140 *1811:A0 0.000230076
29 *596:140 *1812:A0 0.000253103
30 *596:140 *1822:A1 0.000119655
31 *596:140 *1885:A2 0.000910639
32 *596:140 *1892:A0 1.91597e-05
33 *596:140 *1892:A2 8.23457e-05
34 *596:140 *1902:A0 1.79098e-05
35 *596:140 *1902:A1 0.00016163
36 *596:140 *2027:D 0.00035373
37 *596:140 *597:60 0.000102021
38 *596:140 *634:78 6.62806e-06
39 *596:140 *642:106 0.00016263
40 *596:140 *652:139 0.00055893
41 *596:140 *660:115 0.000289983
42 *596:140 *665:38 0.000152374
43 *596:140 *667:64 0.0002961
44 *596:140 *671:111 1.08758e-05
45 *596:140 *673:106 0
46 *596:140 *675:174 2.47627e-05
47 *596:140 *676:48 8.53113e-06
48 *596:140 *685:49 5.23362e-05
49 *596:140 *692:22 2.92496e-05
50 *596:140 *692:37 0.000271341
51 *596:140 *692:64 0.000102257
52 *596:140 *693:38 3.64998e-06
53 *596:140 *701:52 6.73297e-05
54 *596:140 *703:60 0.000201804
55 *596:140 *708:42 9.96023e-06
56 *596:140 *708:84 1.65321e-05
57 FrameData_O[11] *2357:A 0
58 *1813:A2 *740:DIODE 6.2695e-05
59 *1875:S1 *596:140 0.000193766
60 *1884:A0 *596:140 0.000112892
61 *1896:S1 *596:140 5.83121e-06
62 *1902:A3 *596:140 8.97006e-07
63 *1950:D *596:50 1.23417e-05
64 *2098:A *596:140 1.31297e-05
65 *2102:A *596:140 6.90795e-05
66 *2238:A *596:50 0.000514033
67 *2239:A *596:50 0.000904885
68 *2240:A *596:50 5.10029e-05
69 *2244:A *596:50 0.000228716
70 *2245:A *596:50 0.00114731
71 *2260:A *596:50 3.32602e-05
72 *2284:A *596:140 2.29603e-05
73 *2308:A *596:140 0.000330895
74 *2312:A *740:DIODE 8.09189e-05
75 *2318:A *596:140 1.00725e-05
76 *2327:A *596:140 1.47549e-06
77 *2330:A *596:140 0.000274533
78 *2348:A *2357:A 0.000138273
79 *2356:A *740:DIODE 0.000224895
80 *142:31 *596:50 0.00158858
81 *143:109 *596:140 8.35068e-05
82 *144:111 *596:140 0.00035461
83 *145:83 *596:140 9.85301e-05
84 *149:23 *596:50 0.000123462
85 *150:35 *596:50 0.000890458
86 *151:15 *596:50 0.00105493
87 *151:85 *596:140 1.91843e-05
88 *153:39 *596:50 2.58096e-05
89 *160:85 *596:50 2.08619e-05
90 *160:115 *596:140 6.32418e-06
91 *181:56 *596:140 4.55803e-06
92 *234:44 *740:DIODE 0.000532788
93 *235:93 *596:140 4.03791e-05
94 *243:42 *596:50 0.000494793
95 *247:32 *596:50 6.40998e-05
96 *409:32 *596:140 7.8632e-05
97 *479:30 *596:50 0.000235578
98 *479:130 *596:140 4.02697e-05
99 *482:30 *596:50 0.000143849
100 *483:80 *596:50 0.000490178
101 *494:16 *596:50 0.000809699
102 *516:54 *596:140 1.1561e-05
103 *517:50 *596:140 8.73165e-05
104 *533:44 *596:140 4.45057e-05
105 *535:76 *596:140 9.98822e-05
106 *536:26 *596:140 0.000512617
107 *539:26 *740:DIODE 8.45413e-05
108 *558:50 *596:140 3.76587e-05
109 *567:90 *740:DIODE 1.45232e-05
110 *567:90 *596:140 0.000905758
111 *569:58 *596:50 0.000882369
112 *579:84 *596:50 0.000190394
113 *583:28 *596:50 3.79555e-05
114 *585:66 *740:DIODE 0.000259384
115 *591:102 *596:50 1.96622e-05
116 *594:48 *596:50 4.26103e-05
*RES
1 *2112:X *596:50 49.9065 
2 *596:50 *596:140 49.3705 
3 *596:140 *740:DIODE 19.2525 
4 *740:DIODE *2357:A 8.835 
*END

*D_NET *597 0.0262988
*CONN
*I *2358:A I *D sky130_fd_sc_hd__buf_2
*I *741:DIODE I *D sky130_fd_sc_hd__diode_2
*I *2113:X O *D sky130_fd_sc_hd__buf_1
*CAP
1 *2358:A 0.000135776
2 *741:DIODE 6.52939e-05
3 *2113:X 0.000229893
4 *597:60 0.00169839
5 *597:44 0.0024543
6 *597:20 0.00237733
7 *597:12 0.00165024
8 *2358:A *2360:A 1.98737e-05
9 *2358:A *645:82 9.387e-06
10 *2358:A *677:26 0.000101217
11 *597:12 *2113:A 2.75145e-05
12 *597:12 *644:24 2.40314e-05
13 *597:12 *681:44 1.95531e-05
14 *597:12 *681:59 8.05768e-05
15 *597:20 *1910:A0 0.00142582
16 *597:20 *644:24 0.00158713
17 *597:20 *644:46 2.86817e-05
18 *597:20 *658:109 4.77719e-05
19 *597:20 *663:14 0.000804581
20 *597:20 *692:22 0.000164679
21 *597:20 *699:40 6.03272e-05
22 *597:20 *707:14 0.00158971
23 *597:20 *708:22 3.83194e-05
24 *597:44 *1822:A1 0.000105738
25 *597:44 *659:83 1.07797e-05
26 *597:44 *661:203 0.000243826
27 *597:44 *664:166 0.000691709
28 *597:44 *675:192 0.000118081
29 *597:44 *693:38 0.000497653
30 *597:44 *708:42 0.000488181
31 *597:60 *1812:A0 0.00018219
32 *597:60 *618:112 0.00021391
33 *597:60 *636:159 0.000198663
34 *597:60 *645:82 3.13459e-05
35 *597:60 *671:70 2.25106e-05
36 *597:60 *676:48 7.16491e-05
37 *597:60 *677:26 0.000956003
38 *597:60 *693:82 1.08994e-05
39 *597:60 *698:68 0.000130314
40 *597:60 *708:42 0.000735714
41 *597:60 *708:84 1.2678e-05
42 FrameData_O[7] *2358:A 6.11965e-05
43 *733:DIODE *597:20 5.73577e-05
44 *1822:S *597:44 4.66108e-05
45 *1844:B *597:12 4.05358e-05
46 *1849:A1 *597:12 6.95753e-05
47 *1877:S0 *597:60 4.56768e-05
48 *1877:S1 *597:60 8.09021e-06
49 *1879:A1 *597:44 1.56428e-05
50 *1881:A1 *597:60 0
51 *1881:S1 *597:60 5.50767e-05
52 *1892:S1 *597:44 3.97892e-05
53 *1895:A3 *597:44 0.000525456
54 *1896:S1 *597:60 0.000302205
55 *1911:S0 *597:20 4.82919e-05
56 *1911:S0 *597:44 0.000432765
57 *2089:A *597:60 0.00017908
58 *2161:A *597:60 4.57758e-05
59 *2163:A *2358:A 0.000191305
60 *2163:A *597:60 7.06865e-05
61 *2307:A *597:60 0.000995433
62 *2311:A *597:60 0.000156628
63 *2331:A *2358:A 8.41307e-05
64 *2342:A *741:DIODE 8.23457e-05
65 *143:9 *597:12 0.000452589
66 *143:9 *597:20 0.000429072
67 *143:109 *597:60 5.53549e-06
68 *144:31 *597:20 3.47757e-05
69 *145:71 *597:44 0.000729168
70 *145:83 *597:60 5.6147e-05
71 *149:45 *597:44 0.00010283
72 *181:56 *597:60 0
73 *479:60 *597:44 9.49323e-05
74 *479:62 *597:60 0.000398893
75 *479:130 *597:60 0.000154568
76 *533:44 *597:20 0.000278418
77 *558:50 *597:60 0.000133785
78 *579:32 *597:60 4.27774e-05
79 *586:92 *597:60 0.000171119
80 *593:94 *597:44 0.00019631
81 *596:140 *597:60 0.000102021
*RES
1 *2113:X *597:12 9.8325 
2 *597:12 *597:20 48.7525 
3 *597:20 *597:44 35.4368 
4 *597:44 *597:60 35.4502 
5 *597:60 *741:DIODE 4.395 
6 *597:60 *2358:A 7.05 
*END

*D_NET *598 0.00314634
*CONN
*I *2359:A I *D sky130_fd_sc_hd__buf_2
*I *2114:X O *D sky130_fd_sc_hd__clkbuf_1
*CAP
1 *2359:A 0.000913909
2 *2114:X 0.000913909
3 *2359:A *1934:D 3.59784e-05
4 *2359:A *1934:GATE 2.49909e-05
5 *2359:A *691:44 8.6777e-06
6 *2359:A *695:90 4.55864e-06
7 FrameData_O[5] *2359:A 0.00022645
8 FrameData_O[6] *2359:A 0.000227208
9 *740:DIODE *2359:A 0.000174865
10 *2311:A *2359:A 3.59721e-05
11 *2331:A *2359:A 0.000131166
12 *234:44 *2359:A 0.000171872
13 *514:22 *2359:A 1.41165e-05
14 *514:94 *2359:A 0.000105903
15 *535:76 *2359:A 0.000156765
*RES
1 *2114:X *2359:A 25.18 
*END

*D_NET *599 0.00418309
*CONN
*I *2360:A I *D sky130_fd_sc_hd__buf_2
*I *2115:X O *D sky130_fd_sc_hd__clkbuf_1
*CAP
1 *2360:A 0.000960947
2 *2115:X 0.000960947
3 *2360:A *1935:GATE 8.73389e-06
4 *2360:A *2115:A 4.91081e-05
5 *2360:A *645:82 1.44259e-05
6 *2360:A *677:26 0.000522073
7 FrameData_O[7] *2360:A 0.000353062
8 *1813:S1 *2360:A 4.66108e-05
9 *1899:S1 *2360:A 4.77757e-05
10 *2056:D *2360:A 9.48664e-05
11 *2162:A *2360:A 0.000815699
12 *2313:A *2360:A 0.000150802
13 *2358:A *2360:A 1.98737e-05
14 *145:83 *2360:A 7.33536e-05
15 *160:115 *2360:A 8.50801e-06
16 *234:14 *2360:A 4.77757e-05
17 *593:118 *2360:A 8.53113e-06
*RES
1 *2115:X *2360:A 26.7 
*END

*D_NET *600 0.0480961
*CONN
*I *2361:A I *D sky130_fd_sc_hd__buf_2
*I *2116:X O *D sky130_fd_sc_hd__clkbuf_2
*CAP
1 *2361:A 0.00143657
2 *2116:X 0.0058462
3 *600:122 0.00543537
4 *600:74 0.009845
5 *2361:A *1899:A1 0.000119242
6 *2361:A *653:237 0.00030821
7 *2361:A *659:213 7.31284e-05
8 *2361:A *691:44 8.51875e-05
9 *2361:A *695:90 0.000265696
10 *2361:A *697:62 1.2774e-05
11 *600:74 *1848:A1 0
12 *600:74 *1848:A2 0.000100616
13 *600:74 *1885:A2 0.000346642
14 *600:74 *618:24 0.000183248
15 *600:74 *627:118 0.000387489
16 *600:74 *632:16 0.000173482
17 *600:74 *634:78 0.000570438
18 *600:74 *635:42 1.05166e-05
19 *600:74 *637:46 4.85635e-05
20 *600:74 *640:34 0.000513763
21 *600:74 *641:8 4.1977e-05
22 *600:74 *644:46 0.000141991
23 *600:74 *645:14 0
24 *600:74 *661:132 0.000235749
25 *600:74 *673:124 0.000516125
26 *600:74 *681:23 0.00022645
27 *600:74 *690:65 1.44947e-05
28 *600:74 *699:66 6.08945e-05
29 *600:122 *1876:A2 8.39495e-05
30 *600:122 *602:117 0.000262805
31 *600:122 *618:112 0.000500286
32 *600:122 *624:58 0
33 *600:122 *626:96 0.000215393
34 *600:122 *629:18 0.000182453
35 *600:122 *633:30 4.41506e-05
36 *600:122 *634:154 5.5204e-05
37 *600:122 *638:16 0.000434212
38 *600:122 *642:106 0.000469112
39 *600:122 *643:116 0.000105955
40 *600:122 *650:236 7.33639e-05
41 *600:122 *661:203 1.24491e-05
42 *600:122 *665:38 0.000145637
43 *600:122 *689:92 0.000382905
44 *600:122 *689:114 0.00016752
45 *600:122 *694:76 7.24353e-05
46 *600:122 *698:68 0.000312983
47 *600:122 *703:60 0.00022907
48 E6BEG[10] *2361:A 0.000607994
49 E6BEG[1] *2361:A 2.95942e-05
50 E6BEG[2] *2361:A 2.3025e-05
51 E6BEG[3] *600:122 9.87913e-06
52 E6BEG[5] *2361:A 3.45444e-05
53 E6BEG[6] *2361:A 0.000440772
54 E6BEG[7] *2361:A 0.00012684
55 EE4BEG[15] *600:122 3.27392e-05
56 EE4BEG[9] *2361:A 0.000154977
57 *1884:A0 *600:74 0.000202761
58 *2193:A *600:122 0.000142524
59 *2205:A *600:122 0.000233954
60 *2212:A *600:122 2.22315e-05
61 *2230:A *600:122 0.000232804
62 *2279:A *600:122 0.000222092
63 *2281:A *600:122 0.000894026
64 *2304:A *600:122 4.77757e-05
65 *2314:A *600:122 2.53191e-06
66 *2328:A *600:74 0.000124496
67 *2330:A *600:122 8.52883e-05
68 *2346:A *2361:A 0.000706115
69 *2388:A *600:74 0
70 *143:109 *600:122 0.000249498
71 *144:31 *600:74 0.000727789
72 *145:35 *600:74 1.00725e-05
73 *145:71 *600:74 0.0013672
74 *146:67 *600:74 0.00107374
75 *148:89 *600:122 7.18851e-06
76 *149:23 *600:74 0.000312812
77 *149:93 *2361:A 3.24882e-05
78 *151:85 *2361:A 2.39315e-06
79 *153:39 *600:74 0.000182149
80 *153:105 *600:122 0.000627872
81 *154:41 *600:74 0.000644778
82 *159:77 *600:74 7.33639e-05
83 *181:21 *600:74 0.00200974
84 *479:30 *600:74 0.000700175
85 *485:20 *600:74 0.000183381
86 *516:54 *600:122 0.000596338
87 *520:56 *600:122 7.88279e-05
88 *524:142 *600:74 4.9736e-05
89 *528:36 *600:122 2.22315e-05
90 *538:72 *2361:A 0
91 *539:26 *2361:A 0.000156505
92 *545:72 *600:122 2.20049e-05
93 *546:31 *600:122 0.000408106
94 *559:46 *2361:A 0.000307417
95 *564:52 *2361:A 0.000134634
96 *567:32 *600:74 0.000616672
97 *567:96 *2361:A 0.000718008
98 *582:94 *600:122 0.000700422
99 *583:28 *600:74 3.10816e-05
100 *583:82 *2361:A 0.000223688
101 *583:82 *600:122 9.12359e-05
102 *585:66 *600:122 0
103 *587:118 *600:122 0.000122362
104 *591:102 *600:74 0
105 *594:48 *600:74 0.000451066
106 *596:50 *600:74 3.44394e-05
*RES
1 *2116:X *600:74 46.0979 
2 *600:74 *600:122 48.9659 
3 *600:122 *2361:A 47.3678 
*END

*D_NET *601 0.0358206
*CONN
*I *2362:A I *D sky130_fd_sc_hd__buf_2
*I *2117:X O *D sky130_fd_sc_hd__clkbuf_2
*CAP
1 *2362:A 0.00444593
2 *2117:X 0.000548637
3 *601:10 0.00624594
4 *601:8 0.00234865
5 *2362:A *1889:A2 3.97095e-06
6 *2362:A *1893:A1 0.000150489
7 *2362:A *2021:D 0.000110136
8 *2362:A *618:112 0.000141541
9 *2362:A *624:58 4.18412e-05
10 *2362:A *627:106 0.00012523
11 *2362:A *628:68 0.000297376
12 *2362:A *635:102 6.82735e-05
13 *2362:A *643:164 0.000109407
14 *2362:A *644:115 2.22315e-05
15 *2362:A *659:227 0.00033525
16 *2362:A *669:75 2.03757e-05
17 *2362:A *688:30 5.95642e-06
18 *2362:A *694:76 0.00186134
19 *601:8 *2032:D 0
20 *601:10 *602:131 0.000101956
21 *601:10 *624:118 0.00053724
22 *601:10 *628:68 0.00191972
23 *601:10 *640:28 0
24 FrameData_O[11] *2362:A 4.60123e-05
25 *1899:S0 *2362:A 1.46216e-05
26 *2039:D *2362:A 0.00194839
27 *2189:A *2362:A 6.80485e-05
28 *2190:A *2362:A 8.82424e-05
29 *2214:A *2362:A 9.2563e-06
30 *2215:A *2362:A 3.9484e-05
31 *2330:A *2362:A 0.000109407
32 *2333:A *2362:A 2.87079e-05
33 *2335:A *2362:A 0.000125684
34 *2337:A *2362:A 8.35106e-05
35 *2347:A *2362:A 0.00109544
36 *2348:A *2362:A 0.000203405
37 *2350:A *2362:A 5.03129e-05
38 *2390:A *601:8 4.44849e-05
39 *2392:A *601:10 0.00132519
40 *142:57 *601:10 0.000282067
41 *153:59 *601:10 0.00154745
42 *156:51 *2362:A 6.70324e-06
43 *156:51 *601:10 0.00280897
44 *156:59 *2362:A 0.00184027
45 *156:59 *601:10 2.13396e-05
46 *479:30 *601:10 0.000565003
47 *480:153 *2362:A 7.59037e-05
48 *482:66 *2362:A 0.000332029
49 *491:57 *2362:A 0
50 *535:26 *2362:A 5.27052e-05
51 *557:44 *2362:A 0.000116746
52 *579:32 *2362:A 1.52423e-05
53 *582:40 *601:10 0.00313077
54 *586:44 *601:10 1.99559e-05
55 *590:12 *601:8 0
56 *590:130 *2362:A 0.000250885
57 *590:170 *2362:A 3.28956e-05
*RES
1 *2117:X *601:8 10.26 
2 *601:8 *601:10 80.8125 
3 *601:10 *2362:A 37.9532 
*END

*D_NET *602 0.0464268
*CONN
*I *1984:D I *D sky130_fd_sc_hd__dlxtp_1
*I *2016:D I *D sky130_fd_sc_hd__dlxtp_1
*I *2048:D I *D sky130_fd_sc_hd__dlxtp_1
*I *1920:D I *D sky130_fd_sc_hd__dlxtp_1
*I *1952:D I *D sky130_fd_sc_hd__dlxtp_1
*I *2132:A I *D sky130_fd_sc_hd__buf_1
*I *2199:X O *D sky130_fd_sc_hd__buf_2
*CAP
1 *1984:D 2.11528e-05
2 *2016:D 0.000323695
3 *2048:D 0.000152488
4 *1920:D 0.000459979
5 *1952:D 0
6 *2132:A 8.07814e-05
7 *2199:X 0.000752388
8 *602:166 0.00300002
9 *602:131 0.00335913
10 *602:123 0.00197354
11 *602:117 0.00237668
12 *602:80 0.00197711
13 *602:70 0.00185291
14 *602:20 0.00238621
15 *1920:D *1920:GATE 6.51658e-05
16 *1920:D *641:8 0
17 *1984:D *668:81 1.56428e-05
18 *1984:D *675:130 2.49909e-05
19 *2016:D *628:90 0.000589775
20 *2016:D *640:34 0
21 *2016:D *658:109 0
22 *2016:D *684:124 4.28819e-05
23 *2048:D *1819:A2 6.24871e-05
24 *2048:D *2048:GATE 4.82919e-05
25 *2132:A *1985:GATE 1.44009e-05
26 *2132:A *636:50 8.23457e-05
27 *602:20 *629:58 0.000795664
28 *602:20 *674:40 3.64998e-06
29 *602:70 *1937:D 6.93877e-05
30 *602:70 *2000:D 9.66935e-05
31 *602:70 *2001:D 0.000100874
32 *602:70 *603:68 1.66882e-05
33 *602:70 *603:74 0.00167382
34 *602:70 *624:58 0.000106321
35 *602:70 *626:70 8.61731e-05
36 *602:70 *627:106 0.000147019
37 *602:70 *637:114 0.000118081
38 *602:70 *644:115 0.000155601
39 *602:70 *652:181 3.82741e-05
40 *602:70 *654:88 0.000104176
41 *602:70 *668:34 0.00018955
42 *602:70 *668:49 2.66832e-05
43 *602:70 *674:80 1.77679e-05
44 *602:70 *675:56 5.36363e-05
45 *602:70 *677:61 0.000111547
46 *602:70 *687:92 0.000127318
47 *602:80 *1985:D 4.66108e-05
48 *602:80 *1985:GATE 1.84596e-05
49 *602:80 *654:88 0.000168042
50 *602:80 *672:124 1.49294e-05
51 *602:80 *677:61 0.000200987
52 *602:117 *2024:GATE 4.59563e-05
53 *602:117 *2025:GATE 0
54 *602:117 *2180:A 2.49909e-05
55 *602:117 *613:48 0.000172053
56 *602:117 *613:95 0.000213261
57 *602:117 *624:58 0.00021573
58 *602:117 *626:96 0.000706665
59 *602:117 *636:50 3.286e-05
60 *602:117 *654:20 0.000264914
61 *602:117 *684:12 7.48621e-05
62 *602:117 *689:92 5.68523e-06
63 *602:131 *1952:GATE 0.000193394
64 *602:166 *1904:A0 0.000205066
65 *602:166 *1956:D 0.000182508
66 *602:166 *2183:A 2.15594e-05
67 *602:166 *627:118 0.000411291
68 *602:166 *630:84 0.000574113
69 *602:166 *632:66 0.00126335
70 *602:166 *643:10 0.000900194
71 *602:166 *643:50 0.000682965
72 *602:166 *650:49 0.000199853
73 *602:166 *650:59 0.000139906
74 *602:166 *652:34 0.000356781
75 *602:166 *652:36 0.0012046
76 *602:166 *668:140 2.91921e-05
77 *602:166 *672:190 1.52776e-05
78 D_config_C_bit1 *602:123 8.67922e-05
79 *719:DIODE *602:20 0.000550808
80 *730:DIODE *602:20 0.00108855
81 *1816:C *602:166 0.00021237
82 *1821:A1 *2048:D 0.000137571
83 *1845:S0 *602:166 0.00027003
84 *2199:A *602:20 8.84259e-05
85 *2281:A *602:123 0.000192321
86 *2282:A *602:70 3.96263e-05
87 *2326:A *602:123 0.00022345
88 *2326:A *602:131 0.000519467
89 *2326:A *602:166 1.09082e-05
90 *2347:A *2132:A 2.9296e-05
91 *2347:A *602:70 0
92 *2388:A *1920:D 9.08126e-05
93 *2390:A *1920:D 0.000118081
94 *2390:A *602:166 0.000118081
95 *142:57 *602:117 0
96 *142:89 *602:70 0.000217341
97 *146:67 *602:166 0.000116216
98 *153:39 *602:166 6.92972e-05
99 *153:59 *602:131 9.64116e-05
100 *153:59 *602:166 2.76356e-05
101 *153:105 *602:70 3.66273e-05
102 *156:51 *602:123 0.000721648
103 *156:51 *602:131 0.000919486
104 *157:31 *2048:D 0.000469826
105 *157:53 *602:117 0.000192652
106 *157:111 *602:20 4.14953e-05
107 *157:111 *602:70 0.00168688
108 *158:71 *602:70 4.12825e-05
109 *159:39 *602:166 1.68261e-05
110 *181:21 *602:166 1.61835e-05
111 *480:70 *602:70 7.4533e-05
112 *482:30 *602:123 0.000310224
113 *505:22 *602:166 3.96088e-05
114 *511:8 *602:20 0
115 *544:46 *602:70 0.000392201
116 *556:46 *602:70 6.14496e-05
117 *557:44 *602:70 0.000181553
118 *568:58 *602:117 0.000504454
119 *568:112 *602:166 5.82179e-05
120 *582:20 *2048:D 0.000147085
121 *582:20 *602:166 0.00105532
122 *582:40 *602:131 0.000250181
123 *582:94 *602:70 0.000190205
124 *586:44 *602:117 0.00015639
125 *586:92 *2132:A 4.66108e-05
126 *586:92 *602:80 0.000229856
127 *586:92 *602:117 0.00114779
128 *587:44 *602:131 4.66108e-05
129 *587:44 *602:166 5.93408e-05
130 *587:118 *602:70 6.17689e-05
131 *590:12 *1920:D 0.000233557
132 *590:112 *602:70 7.8034e-05
133 *593:46 *602:166 3.63701e-06
134 *600:122 *602:117 0.000262805
135 *601:10 *602:131 0.000101956
*RES
1 *2199:X *602:20 32.32 
2 *602:20 *602:70 49.4245 
3 *602:70 *602:80 7.385 
4 *602:80 *2132:A 3.55 
5 *602:80 *602:117 47.63 
6 *602:117 *602:123 17.36 
7 *602:123 *602:131 23.915 
8 *602:131 *1952:D 1.6 
9 *602:131 *602:166 45.0932 
10 *602:166 *1920:D 13.16 
11 *602:166 *2048:D 11.51 
12 *602:123 *2016:D 9.915 
13 *602:70 *1984:D 4.05 
*END

*D_NET *603 0.0252084
*CONN
*I *2363:A I *D sky130_fd_sc_hd__buf_2
*I *2140:X O *D sky130_fd_sc_hd__buf_1
*CAP
1 *2363:A 0.000473643
2 *2140:X 0.00255428
3 *603:74 0.00172145
4 *603:72 0.00143682
5 *603:68 0.00274329
6 *2363:A *630:26 2.75145e-05
7 *603:68 *1812:A1 0.000160157
8 *603:68 *1992:D 0.000153816
9 *603:68 *613:95 0.000415027
10 *603:68 *616:44 0.000150934
11 *603:68 *618:40 0
12 *603:68 *618:112 0.000215655
13 *603:68 *624:58 1.07684e-05
14 *603:68 *639:30 0.00142145
15 *603:68 *644:115 1.08758e-05
16 *603:68 *652:181 0.000210358
17 *603:68 *654:88 1.18236e-05
18 *603:68 *665:18 3.75889e-06
19 *603:68 *668:34 8.90632e-05
20 *603:68 *672:124 0.00024111
21 *603:68 *674:80 8.3213e-05
22 *603:68 *676:10 0.000289364
23 *603:68 *680:46 3.69766e-05
24 *603:68 *687:92 5.8678e-05
25 *603:72 *627:106 3.14528e-05
26 *603:74 *2374:A 0
27 *603:74 *624:58 0.000116216
28 *603:74 *625:10 0
29 FrameStrobe_O[0] *2363:A 1.9872e-05
30 *730:DIODE *603:74 0.00274886
31 *1876:S1 *603:68 7.00115e-05
32 *1892:S0 *603:68 0.000119866
33 *2189:A *603:74 0.000266156
34 *2199:A *603:74 0.000268098
35 *2263:A *603:72 0.000330981
36 *2279:A *603:68 0.00189439
37 *2342:A *603:68 8.23457e-05
38 *2347:A *603:74 0.000122088
39 *2391:A *603:68 0.000134793
40 *142:89 *603:68 8.0105e-05
41 *154:99 *603:68 1.7902e-05
42 *157:111 *603:74 1.39329e-05
43 *480:70 *603:68 0.00024185
44 *510:28 *603:68 7.12477e-05
45 *512:18 *603:68 0.000242399
46 *544:46 *603:72 0.000263158
47 *556:22 *2363:A 0
48 *556:26 *603:74 0.00114376
49 *556:46 *603:74 0.00108496
50 *568:10 *603:74 0.00030239
51 *568:42 *603:74 0.000860264
52 *587:118 *603:68 6.572e-05
53 *590:112 *603:68 0.000381186
54 *591:102 *603:68 2.38557e-05
55 *602:70 *603:68 1.66882e-05
56 *602:70 *603:74 0.00167382
*RES
1 *2140:X *603:68 49.7069 
2 *603:68 *603:72 1.0624 
3 *603:72 *603:74 56.3325 
4 *603:74 *2363:A 10.62 
*END

*D_NET *604 0.00201694
*CONN
*I *2364:A I *D sky130_fd_sc_hd__buf_2
*I *2150:X O *D sky130_fd_sc_hd__clkbuf_1
*CAP
1 *2364:A 0.000405596
2 *2150:X 0.000405596
3 *2364:A *2366:A 0.000278111
4 *2364:A *2367:A 0.000329911
5 *2364:A *2368:A 1.33285e-05
6 *2364:A *2372:A 1.65831e-05
7 *2364:A *2373:A 7.23533e-05
8 FrameStrobe_O[11] *2364:A 5.30673e-05
9 FrameStrobe_O[12] *2364:A 5.30673e-05
10 FrameStrobe_O[13] *2364:A 0.000115146
11 FrameStrobe_O[14] *2364:A 0.000124895
12 FrameStrobe_O[15] *2364:A 3.31204e-05
13 *714:DIODE *2364:A 0.000116165
*RES
1 *2150:X *2364:A 17.895 
*END

*D_NET *605 0.000723656
*CONN
*I *2365:A I *D sky130_fd_sc_hd__buf_2
*I *2151:X O *D sky130_fd_sc_hd__clkbuf_1
*CAP
1 *2365:A 0.000241087
2 *2151:X 0.000241087
3 *2365:A *2368:A 0
4 FrameStrobe_O[15] *2365:A 0.000241483
*RES
1 *2151:X *2365:A 10.755 
*END

*D_NET *606 0.0022372
*CONN
*I *2366:A I *D sky130_fd_sc_hd__buf_2
*I *2152:X O *D sky130_fd_sc_hd__clkbuf_1
*CAP
1 *2366:A 0.000413564
2 *2152:X 0.000413564
3 *2366:A *2367:A 0.000280932
4 *2366:A *2368:A 0.000161529
5 *2366:A *2369:A 9.3445e-05
6 *2366:A *2370:A 0
7 *2366:A *2373:A 2.03321e-05
8 *715:DIODE *2366:A 0.000114492
9 *1883:S1 *2366:A 0.00024373
10 *2152:A *2366:A 2.75145e-05
11 *2153:A *2366:A 0.000150266
12 *2158:A *2366:A 0
13 *2364:A *2366:A 0.000278111
14 *149:111 *2366:A 3.97211e-05
*RES
1 *2152:X *2366:A 18.03 
*END

*D_NET *607 0.00110604
*CONN
*I *2367:A I *D sky130_fd_sc_hd__buf_2
*I *2153:X O *D sky130_fd_sc_hd__clkbuf_1
*CAP
1 *2367:A 0.000136617
2 *2153:X 0.000136617
3 *2367:A *2368:A 0.000158072
4 FrameStrobe_O[14] *2367:A 6.3889e-05
5 *2364:A *2367:A 0.000329911
6 *2366:A *2367:A 0.000280932
*RES
1 *2153:X *2367:A 12.105 
*END

*D_NET *608 0.00167432
*CONN
*I *2368:A I *D sky130_fd_sc_hd__buf_2
*I *2154:X O *D sky130_fd_sc_hd__clkbuf_1
*CAP
1 *2368:A 0.000389328
2 *2154:X 0.000389328
3 *2368:A *2369:A 0.000122325
4 FrameStrobe_O[14] *2368:A 6.22185e-05
5 *715:DIODE *2368:A 4.66108e-05
6 *717:DIODE *2368:A 0.000107634
7 *2151:A *2368:A 4.9968e-05
8 *2364:A *2368:A 1.33285e-05
9 *2365:A *2368:A 0
10 *2366:A *2368:A 0.000161529
11 *2367:A *2368:A 0.000158072
12 *148:111 *2368:A 0.000124007
13 *151:85 *2368:A 4.9968e-05
*RES
1 *2154:X *2368:A 15.435 
*END

*D_NET *609 0.002253
*CONN
*I *2369:A I *D sky130_fd_sc_hd__buf_2
*I *2155:X O *D sky130_fd_sc_hd__clkbuf_1
*CAP
1 *2369:A 0.000529408
2 *2155:X 0.000529408
3 FrameStrobe_O[15] *2369:A 0.000194317
4 *711:DIODE *2369:A 3.1562e-06
5 *1883:S1 *2369:A 0.00015829
6 *2151:A *2369:A 4.66108e-05
7 *2152:A *2369:A 6.76956e-05
8 *2153:A *2369:A 4.66108e-05
9 *2341:A *2369:A 2.65814e-06
10 *2366:A *2369:A 9.3445e-05
11 *2368:A *2369:A 0.000122325
12 *148:111 *2369:A 0.000155995
13 *149:111 *2369:A 1.88904e-05
14 *151:85 *2369:A 0.000284189
*RES
1 *2155:X *2369:A 18.09 
*END

*D_NET *610 0.00131382
*CONN
*I *2370:A I *D sky130_fd_sc_hd__buf_2
*I *2156:X O *D sky130_fd_sc_hd__clkbuf_1
*CAP
1 *2370:A 0.000399106
2 *2156:X 0.000399106
3 *2370:A *2371:A 2.49909e-05
4 *2370:A *2372:A 7.23533e-05
5 *2370:A *2373:A 1.82563e-05
6 FrameStrobe_O[16] *2370:A 0
7 *716:DIODE *2370:A 4.89295e-05
8 *2155:A *2370:A 0
9 *2158:A *2370:A 0.000351078
10 *2366:A *2370:A 0
*RES
1 *2156:X *2370:A 14.85 
*END

*D_NET *611 0.000628951
*CONN
*I *2371:A I *D sky130_fd_sc_hd__buf_2
*I *2157:X O *D sky130_fd_sc_hd__clkbuf_1
*CAP
1 *2371:A 0.000171226
2 *2157:X 0.000171226
3 *2371:A *2372:A 4.77757e-05
4 *2371:A *2373:A 2.49909e-05
5 FrameStrobe_O[15] *2371:A 2.30292e-05
6 FrameStrobe_O[18] *2371:A 8.64421e-05
7 *2370:A *2371:A 2.49909e-05
8 *148:111 *2371:A 7.92693e-05
*RES
1 *2157:X *2371:A 6.785 
*END

*D_NET *612 0.000377324
*CONN
*I *2372:A I *D sky130_fd_sc_hd__buf_2
*I *2158:X O *D sky130_fd_sc_hd__clkbuf_1
*CAP
1 *2372:A 9.876e-05
2 *2158:X 9.876e-05
3 *2372:A *2373:A 3.86529e-05
4 FrameStrobe_O[16] *2372:A 0
5 *714:DIODE *2372:A 4.43871e-06
6 *2364:A *2372:A 1.65831e-05
7 *2370:A *2372:A 7.23533e-05
8 *2371:A *2372:A 4.77757e-05
*RES
1 *2158:X *2372:A 9.285 
*END

*D_NET *613 0.0421707
*CONN
*I *1985:D I *D sky130_fd_sc_hd__dlxtp_1
*I *1953:D I *D sky130_fd_sc_hd__dlxtp_1
*I *2049:D I *D sky130_fd_sc_hd__dlxtp_1
*I *1921:D I *D sky130_fd_sc_hd__dlxtp_1
*I *2017:D I *D sky130_fd_sc_hd__dlxtp_1
*I *2133:A I *D sky130_fd_sc_hd__buf_1
*I *2200:X O *D sky130_fd_sc_hd__clkbuf_2
*CAP
1 *1985:D 2.97265e-05
2 *1953:D 0.000446804
3 *2049:D 3.37393e-05
4 *1921:D 0.000168782
5 *2017:D 0
6 *2133:A 6.43032e-05
7 *2200:X 0.00448728
8 *613:146 0.00139891
9 *613:138 0.00282465
10 *613:107 0.00136344
11 *613:95 0.00164662
12 *613:48 0.001719
13 *613:42 0.00470707
14 *1921:D *639:60 6.71967e-05
15 *1921:D *666:56 0.000117634
16 *1953:D *630:84 2.56225e-05
17 *1953:D *684:130 0.00017317
18 *1985:D *1985:GATE 1.56428e-05
19 *1985:D *687:92 1.7635e-05
20 *2049:D *639:60 9.58678e-06
21 *2049:D *643:10 4.86493e-05
22 *2049:D *683:18 1.71773e-05
23 *2133:A *635:10 2.83649e-05
24 *2133:A *636:50 8.23457e-05
25 *613:42 *1812:A0 0.000518821
26 *613:42 *2377:A 1.81196e-05
27 *613:42 *630:26 9.15237e-06
28 *613:42 *630:66 0.00294673
29 *613:42 *632:152 0.00188166
30 *613:42 *636:159 0.000339894
31 *613:42 *654:88 0.000102229
32 *613:42 *670:45 0
33 *613:42 *679:59 1.42012e-05
34 *613:42 *698:175 0.00016083
35 *613:48 *2180:A 4.09927e-05
36 *613:48 *652:181 1.81077e-05
37 *613:48 *687:92 0.00011899
38 *613:95 *1880:A0 7.95071e-05
39 *613:95 *2180:A 0.000372489
40 *613:95 *2185:A 0.000121027
41 *613:95 *618:40 3.86529e-05
42 *613:95 *618:112 0.000182583
43 *613:95 *633:78 0.000118081
44 *613:95 *643:116 0.000120742
45 *613:95 *652:181 0.000387856
46 *613:95 *654:20 0.000151868
47 *613:95 *654:41 0.000146907
48 *613:95 *654:88 0.000234705
49 *613:95 *672:124 0.000192734
50 *613:95 *680:8 2.39856e-05
51 *613:95 *684:6 2.82119e-05
52 *613:95 *684:8 3.10952e-05
53 *613:95 *684:46 1.71207e-05
54 *613:95 *689:92 0
55 *613:107 *2016:GATE 1.89685e-05
56 *613:107 *680:10 4.38607e-05
57 *613:107 *689:92 9.57742e-06
58 *613:138 *1912:A0 3.48307e-05
59 *613:138 *1912:A3 8.9746e-05
60 *613:138 *2016:GATE 0
61 *613:138 *616:44 1.47061e-05
62 *613:138 *626:126 0.000523672
63 *613:138 *628:90 0.000380506
64 *613:138 *689:92 0.00031178
65 B_config_C_bit1 *1953:D 2.25371e-05
66 D_config_C_bit0 *613:107 2.68464e-05
67 D_config_C_bit0 *613:138 2.16916e-05
68 D_config_C_bit1 *613:107 9.825e-05
69 *718:DIODE *613:107 1.88656e-05
70 *1876:S0 *613:95 4.66108e-05
71 *1876:S1 *613:95 4.09699e-05
72 *1880:S0 *613:107 0.000105612
73 *1880:S0 *613:138 1.77595e-05
74 *1891:S0 *613:42 0.000123629
75 *1912:S0 *613:138 4.79946e-05
76 *2181:A *613:95 5.83121e-06
77 *2276:A *1953:D 0.000171341
78 *2279:A *613:95 0.000216766
79 *2279:A *613:107 0.000194658
80 *2280:A *613:95 0.000451817
81 *2291:A *613:42 0.000721683
82 *2304:A *613:42 1.46319e-05
83 *2304:A *613:95 0.000122325
84 *2322:A *2133:A 3.53405e-05
85 *2337:A *613:42 0.000364967
86 *2351:A *613:42 8.30853e-06
87 *153:39 *1953:D 4.71707e-05
88 *153:39 *613:138 7.8632e-06
89 *154:41 *1921:D 1.56581e-05
90 *154:41 *613:146 2.82422e-05
91 *154:99 *2133:A 8.41307e-05
92 *159:39 *613:138 2.22315e-05
93 *159:39 *613:146 0.0019248
94 *160:133 *613:42 0.000797885
95 *181:21 *613:138 0.000131774
96 *181:56 *613:138 0.000230968
97 *479:30 *1921:D 0.000144096
98 *479:30 *2049:D 1.70441e-05
99 *479:30 *613:146 4.24179e-05
100 *491:96 *613:42 2.3093e-05
101 *519:40 *613:42 0.000199807
102 *553:28 *613:42 0.000153582
103 *557:104 *1921:D 1.25877e-05
104 *568:112 *613:138 8.82017e-05
105 *568:122 *2049:D 1.7635e-05
106 *579:32 *613:42 0.000343977
107 *582:94 *613:42 7.93481e-05
108 *585:66 *2133:A 9.0009e-05
109 *585:66 *613:42 0.000876849
110 *585:66 *613:48 0.000130039
111 *586:92 *613:48 8.73147e-06
112 *587:44 *613:138 0.000267605
113 *587:118 *613:42 3.66618e-05
114 *587:118 *613:95 0.00036413
115 *590:49 *613:95 7.66539e-06
116 *590:112 *613:95 6.33103e-05
117 *591:126 *613:146 0.000939784
118 *591:136 *613:146 0.000904424
119 *593:46 *613:138 0.00038312
120 *594:48 *613:138 0.000231699
121 *594:48 *613:146 0.000390444
122 *602:80 *1985:D 4.66108e-05
123 *602:117 *613:48 0.000172053
124 *602:117 *613:95 0.000213261
125 *603:68 *613:95 0.000415027
*RES
1 *2200:X *613:42 21.2276 
2 *613:42 *613:48 4.6125 
3 *613:48 *2133:A 5.775 
4 *613:48 *613:95 48.185 
5 *613:95 *613:107 8.68 
6 *613:107 *2017:D 1.6 
7 *613:107 *613:138 23.7807 
8 *613:138 *613:146 4.95107 
9 *613:146 *1921:D 6.10443 
10 *613:146 *2049:D 4.84963 
11 *613:138 *1953:D 7.2673 
12 *613:42 *1985:D 4.2825 
*END

*D_NET *614 0.00105875
*CONN
*I *2373:A I *D sky130_fd_sc_hd__buf_2
*I *2159:X O *D sky130_fd_sc_hd__clkbuf_1
*CAP
1 *2373:A 0.000311375
2 *2159:X 0.000311375
3 *2150:A *2373:A 3.00381e-05
4 *2158:A *2373:A 8.35106e-05
5 *2364:A *2373:A 7.23533e-05
6 *2366:A *2373:A 2.03321e-05
7 *2370:A *2373:A 1.82563e-05
8 *2371:A *2373:A 2.49909e-05
9 *2372:A *2373:A 3.86529e-05
10 *148:111 *2373:A 9.23641e-05
11 *564:8 *2373:A 5.5506e-05
*RES
1 *2159:X *2373:A 12.945 
*END

*D_NET *615 0.00989579
*CONN
*I *2374:A I *D sky130_fd_sc_hd__buf_2
*I *2141:X O *D sky130_fd_sc_hd__buf_1
*CAP
1 *2374:A 0.000281032
2 *2141:X 0.0013958
3 *615:14 0.00167683
4 *2374:A *2375:A 0
5 *2374:A *2383:A 0.000163204
6 *2374:A *625:10 0.000469352
7 *615:14 *1890:A0 0.000709987
8 *615:14 *1893:A3 0.00061949
9 *615:14 *1901:A1 0.000195946
10 *615:14 *1991:D 2.05571e-05
11 *615:14 *2379:A 2.64484e-05
12 *615:14 *2381:A 0.00013732
13 *615:14 *631:22 0.000812737
14 *615:14 *674:129 0.000129325
15 *615:14 *689:114 0.000271943
16 *615:14 *694:92 0.00113791
17 FrameStrobe_O[0] *2374:A 0.000201508
18 *723:DIODE *615:14 5.12718e-05
19 *724:DIODE *615:14 0.00011686
20 *1901:A3 *615:14 0.000405542
21 *1901:S1 *615:14 0.000156762
22 *1974:D *615:14 1.46216e-05
23 *2146:A *615:14 0.000136495
24 *2337:A *615:14 0.000148649
25 *2350:A *615:14 2.28347e-05
26 *143:117 *615:14 0.000373957
27 *480:153 *615:14 0
28 *480:159 *615:14 0.000201114
29 *519:40 *615:14 1.8279e-05
30 *603:74 *2374:A 0
*RES
1 *2141:X *615:14 49.165 
2 *615:14 *2374:A 11.145 
*END

*D_NET *616 0.0274482
*CONN
*I *2375:A I *D sky130_fd_sc_hd__buf_2
*I *726:DIODE I *D sky130_fd_sc_hd__diode_2
*I *2142:X O *D sky130_fd_sc_hd__buf_1
*CAP
1 *2375:A 0.000377599
2 *726:DIODE 0.000446458
3 *2142:X 0.00399419
4 *616:44 0.00406305
5 *2375:A *2383:A 8.52883e-05
6 *2375:A *625:10 0
7 *2375:A *630:26 0.000210379
8 *616:44 *624:58 0.00430784
9 *616:44 *624:108 0.000119242
10 *616:44 *626:70 0.00260183
11 *616:44 *627:40 5.2762e-05
12 *616:44 *627:106 0.00176121
13 *616:44 *628:26 0.00011924
14 *616:44 *628:68 3.7734e-05
15 *616:44 *628:90 2.72392e-05
16 *616:44 *629:58 0.000893637
17 *616:44 *631:112 0.00124111
18 *616:44 *638:16 0.00132659
19 *616:44 *639:30 0.000271543
20 *616:44 *644:52 0.00066068
21 *616:44 *644:115 0.000498616
22 *616:44 *674:129 0.000148488
23 *616:44 *684:124 8.82804e-05
24 *616:44 *689:92 2.1724e-05
25 C_config_C_bit3 *616:44 1.13802e-05
26 D_config_C_bit0 *616:44 3.65956e-05
27 FrameStrobe_O[0] *2375:A 0.000123242
28 *718:DIODE *616:44 0.000293358
29 *721:DIODE *2375:A 0.000141921
30 *724:DIODE *726:DIODE 4.66108e-05
31 *730:DIODE *726:DIODE 1.19928e-05
32 *2202:A *616:44 0.000105416
33 *2203:A *616:44 0.000129131
34 *2206:A *2375:A 0
35 *2209:A *616:44 0.000107452
36 *2214:A *616:44 0.000212299
37 *2215:A *616:44 5.75434e-05
38 *2241:A *616:44 1.9868e-05
39 *2279:A *616:44 0.000533303
40 *2374:A *2375:A 0
41 *2391:A *616:44 0.000198493
42 *142:89 *616:44 3.69766e-05
43 *154:99 *616:44 6.97315e-05
44 *156:69 *2375:A 1.92979e-05
45 *156:69 *616:44 7.36498e-05
46 *158:71 *616:44 0.00027627
47 *158:97 *2375:A 6.06382e-05
48 *510:28 *616:44 0.000715172
49 *544:46 *616:44 1.11763e-05
50 *556:46 *616:44 0.000356295
51 *582:94 *616:44 3.40796e-05
52 *586:44 *616:44 2.29603e-05
53 *587:44 *616:44 7.64562e-05
54 *591:102 *616:44 0.000146541
55 *603:68 *616:44 0.000150934
56 *613:138 *616:44 1.47061e-05
*RES
1 *2142:X *616:44 49.6042 
2 *616:44 *726:DIODE 4.395 
3 *726:DIODE *2375:A 15.495 
*END

*D_NET *617 0.00276895
*CONN
*I *2376:A I *D sky130_fd_sc_hd__buf_2
*I *2143:X O *D sky130_fd_sc_hd__clkbuf_1
*CAP
1 *2376:A 0.000542919
2 *2143:X 0.000542919
3 *2376:A *1891:A0 0.000239353
4 *2376:A *1901:A0 0
5 *2376:A *1901:A1 1.82476e-05
6 *2376:A *1974:GATE 8.99e-05
7 *2376:A *1988:D 4.30926e-05
8 *2376:A *1988:GATE 2.86975e-05
9 *2376:A *2380:A 0.000259779
10 *2376:A *2383:A 8.52845e-05
11 *2376:A *631:18 0.000153449
12 FrameStrobe_O[0] *2376:A 1.49348e-05
13 UserCLKo *2376:A 3.29947e-05
14 *1891:S0 *2376:A 7.01359e-05
15 *1975:D *2376:A 0.000487297
16 *2207:A *2376:A 0.00015995
*RES
1 *2143:X *2376:A 21.06 
*END

*D_NET *618 0.0426653
*CONN
*I *2377:A I *D sky130_fd_sc_hd__buf_2
*I *2144:X O *D sky130_fd_sc_hd__clkbuf_2
*CAP
1 *2377:A 0.00204921
2 *2144:X 0.00165058
3 *618:112 0.00614588
4 *618:40 0.00566556
5 *618:24 0.00321947
6 *2377:A *1943:GATE 0.000109786
7 *2377:A *2012:GATE 0.000666137
8 *2377:A *2379:A 4.77719e-05
9 *2377:A *2380:A 1.61831e-05
10 *2377:A *2381:A 0.000599903
11 *2377:A *2382:A 0
12 *2377:A *2383:A 0.000245
13 *2377:A *669:45 0.000128608
14 *2377:A *698:175 0
15 *2377:A *708:99 1.92979e-05
16 *618:24 *1924:D 0.000302873
17 *618:24 *2184:A 0.000381135
18 *618:24 *626:148 1.93834e-05
19 *618:24 *627:118 4.18147e-05
20 *618:24 *628:112 2.99555e-05
21 *618:24 *672:190 0.000240688
22 *618:24 *683:106 0.000315139
23 *618:40 *1876:A2 1.45388e-05
24 *618:40 *624:58 0.000279477
25 *618:40 *643:50 0.000240773
26 *618:40 *643:116 2.28445e-05
27 *618:40 *654:41 6.72196e-05
28 *618:40 *658:109 0.00037535
29 *618:40 *684:124 0.000267867
30 *618:112 *1885:A2 0.000331648
31 *618:112 *630:66 0.000178944
32 *618:112 *631:112 1.57264e-05
33 *618:112 *635:42 9.08185e-05
34 *618:112 *635:102 0.000601515
35 *618:112 *636:159 5.53549e-06
36 *618:112 *642:106 0.000178067
37 *618:112 *645:82 0.000556945
38 *618:112 *658:133 2.96556e-06
39 *618:112 *669:114 0.000249819
40 *618:112 *671:30 0.000372655
41 *618:112 *672:124 0.000233645
42 *618:112 *673:106 0.000590563
43 *618:112 *687:92 4.47861e-05
44 *618:112 *688:30 4.02448e-06
45 *618:112 *694:76 5.91417e-05
46 *618:112 *698:68 0.000180861
47 *618:112 *701:52 2.92637e-05
48 *618:112 *708:84 2.22315e-05
49 FrameStrobe_O[5] *2377:A 4.89295e-05
50 FrameStrobe_O[7] *2377:A 7.35729e-05
51 UserCLKo *2377:A 0.000202439
52 *1828:A4 *618:112 0
53 *1837:A_N *618:24 0
54 *1876:S0 *618:40 0.000140247
55 *1880:A2 *618:40 0.000304801
56 *1881:S1 *618:112 0.000159085
57 *1892:S1 *618:40 3.07883e-05
58 *1909:S0 *2377:A 0.000132748
59 *1912:S1 *618:40 0.000273019
60 *1982:D *618:24 2.05571e-05
61 *2039:D *618:112 0.000112925
62 *2040:D *618:112 0.000181633
63 *2041:D *618:112 2.76356e-05
64 *2070:A *618:40 5.53549e-06
65 *2093:A *2377:A 0
66 *2103:A *2377:A 0.000453741
67 *2278:A *618:24 0.00011432
68 *2284:A *618:112 1.40573e-05
69 *2291:A *618:112 3.91209e-05
70 *2311:A *618:112 0.000123515
71 *2317:A *2377:A 0
72 *2318:A *2377:A 0.000647987
73 *2336:A *2377:A 0.000365499
74 *2337:A *2377:A 0.000123177
75 *2337:A *618:112 0.000143495
76 *2353:A *2377:A 1.88904e-05
77 *2362:A *618:112 0.000141541
78 *2387:A *618:24 0.00019027
79 *2388:A *618:24 0
80 *2389:A *618:24 3.76596e-05
81 *146:89 *618:112 0.000368698
82 *150:77 *2377:A 3.02871e-05
83 *151:85 *618:112 0.000154623
84 *156:39 *618:24 0.000730153
85 *159:39 *618:24 0
86 *159:39 *618:40 0
87 *159:77 *618:40 0.00124784
88 *159:101 *2377:A 0.000119668
89 *159:101 *618:112 8.46028e-06
90 *160:133 *2377:A 9.76979e-05
91 *181:21 *618:40 0
92 *181:56 *618:40 0.00108454
93 *233:25 *618:112 0.000246279
94 *233:62 *618:112 0.000413524
95 *243:42 *618:40 0.000248486
96 *261:12 *618:24 0.000131265
97 *409:32 *618:112 7.56727e-05
98 *479:130 *618:112 0.000170068
99 *479:161 *2377:A 0.000209
100 *479:174 *2377:A 9.79743e-05
101 *480:70 *618:112 0.000237451
102 *486:35 *618:40 0.00015951
103 *491:96 *2377:A 0.000228174
104 *519:40 *618:112 2.16634e-05
105 *524:180 *2377:A 0.000221914
106 *531:62 *618:112 0.00101599
107 *535:76 *618:112 0.00030183
108 *535:112 *2377:A 0.000117181
109 *558:50 *618:112 0.000586928
110 *567:90 *618:112 0.000459539
111 *568:112 *618:24 4.8373e-05
112 *576:42 *2377:A 7.33825e-05
113 *582:94 *618:112 0
114 *586:92 *618:112 2.15699e-05
115 *587:44 *618:24 1.05744e-05
116 *587:118 *618:112 0.000476568
117 *590:49 *618:40 0.000388826
118 *590:112 *618:40 3.42674e-05
119 *591:126 *618:24 0.000102443
120 *593:46 *618:40 0.00031059
121 *593:94 *618:112 4.37173e-06
122 *594:102 *618:112 1.86715e-05
123 *597:60 *618:112 0.00021391
124 *600:74 *618:24 0.000183248
125 *600:122 *618:112 0.000500286
126 *603:68 *618:40 0
127 *603:68 *618:112 0.000215655
128 *613:42 *2377:A 1.81196e-05
129 *613:95 *618:40 3.86529e-05
130 *613:95 *618:112 0.000182583
*RES
1 *2144:X *618:24 44.4625 
2 *618:24 *618:40 48.5675 
3 *618:40 *618:112 46.6921 
4 *618:112 *2377:A 47.5576 
*END

*D_NET *619 0.00135247
*CONN
*I *2378:A I *D sky130_fd_sc_hd__buf_2
*I *2145:X O *D sky130_fd_sc_hd__clkbuf_1
*CAP
1 *2378:A 0.000542292
2 *2145:X 0.000542292
3 *2378:A *1901:A0 0.000137571
4 *2378:A *1974:GATE 2.78574e-05
5 *2378:A *2379:A 0
6 *2378:A *2380:A 4.77719e-05
7 *722:DIODE *2378:A 2.04328e-05
8 *1974:D *2378:A 1.83847e-05
9 *2207:A *2378:A 0
10 *556:22 *2378:A 1.58715e-05
*RES
1 *2145:X *2378:A 14.625 
*END

*D_NET *620 0.00123329
*CONN
*I *2379:A I *D sky130_fd_sc_hd__buf_2
*I *2146:X O *D sky130_fd_sc_hd__clkbuf_1
*CAP
1 *2379:A 0.000367898
2 *2146:X 0.000367898
3 *2379:A *1901:A0 0
4 *2379:A *1901:A1 8.92083e-05
5 *2379:A *2381:A 4.77757e-05
6 *2379:A *2383:A 4.77719e-05
7 *1901:A3 *2379:A 9.31211e-05
8 *1901:S0 *2379:A 9.35189e-05
9 *2146:A *2379:A 5.1875e-05
10 *2377:A *2379:A 4.77719e-05
11 *2378:A *2379:A 0
12 *615:14 *2379:A 2.64484e-05
*RES
1 *2146:X *2379:A 14.58 
*END

*D_NET *621 0.00243319
*CONN
*I *2380:A I *D sky130_fd_sc_hd__buf_2
*I *2147:X O *D sky130_fd_sc_hd__clkbuf_1
*CAP
1 *2380:A 0.000664751
2 *2147:X 0.000664751
3 *2380:A *1974:GATE 2.68526e-05
4 *2380:A *2383:A 0.000716874
5 FrameStrobe_O[0] *2380:A 3.6227e-05
6 *2376:A *2380:A 0.000259779
7 *2377:A *2380:A 1.61831e-05
8 *2378:A *2380:A 4.77719e-05
*RES
1 *2147:X *2380:A 18.09 
*END

*D_NET *622 0.00362773
*CONN
*I *2381:A I *D sky130_fd_sc_hd__buf_2
*I *2148:X O *D sky130_fd_sc_hd__clkbuf_1
*CAP
1 *2381:A 0.000972952
2 *2148:X 0.000972952
3 *2381:A *674:129 0.000196048
4 FrameStrobe_O[8] *2381:A 2.11084e-05
5 *723:DIODE *2381:A 0.000120576
6 *725:DIODE *2381:A 4.82863e-05
7 *1894:S0 *2381:A 0.000122331
8 *1901:S1 *2381:A 0.000318878
9 *2100:A *2381:A 2.8185e-05
10 *2149:A *2381:A 2.90919e-05
11 *2377:A *2381:A 0.000599903
12 *2379:A *2381:A 4.77757e-05
13 *160:133 *2381:A 1.23268e-05
14 *615:14 *2381:A 0.00013732
*RES
1 *2148:X *2381:A 25.17 
*END

*D_NET *623 0.00125648
*CONN
*I *2382:A I *D sky130_fd_sc_hd__buf_2
*I *2149:X O *D sky130_fd_sc_hd__clkbuf_1
*CAP
1 *2382:A 0.000508661
2 *2149:X 0.000508661
3 *2093:A *2382:A 7.06865e-05
4 *2149:A *2382:A 3.64998e-06
5 *2377:A *2382:A 0
6 *148:111 *2382:A 3.4222e-05
7 *556:22 *2382:A 0.000130598
*RES
1 *2149:X *2382:A 14.52 
*END

*D_NET *624 0.0443925
*CONN
*I *2018:D I *D sky130_fd_sc_hd__dlxtp_1
*I *1954:D I *D sky130_fd_sc_hd__dlxtp_1
*I *1986:D I *D sky130_fd_sc_hd__dlxtp_1
*I *2134:A I *D sky130_fd_sc_hd__clkbuf_2
*I *2050:D I *D sky130_fd_sc_hd__dlxtp_1
*I *1922:D I *D sky130_fd_sc_hd__dlxtp_1
*I *2201:X O *D sky130_fd_sc_hd__buf_2
*CAP
1 *2018:D 0.000181163
2 *1954:D 0.000114078
3 *1986:D 0.000144577
4 *2134:A 0.000201559
5 *2050:D 0.000171381
6 *1922:D 0
7 *2201:X 0.00489409
8 *624:151 0.000441378
9 *624:130 0.000382031
10 *624:122 0.000686864
11 *624:118 0.00152322
12 *624:108 0.00223264
13 *624:82 0.00177414
14 *624:58 0.00568572
15 *1954:D *1954:GATE 8.41307e-05
16 *1954:D *640:34 5.83121e-06
17 *1954:D *658:109 1.70767e-05
18 *1986:D *1986:GATE 0.000113531
19 *1986:D *643:50 1.77595e-05
20 *1986:D *705:49 2.62017e-05
21 *2018:D *2018:GATE 0.000118081
22 *2018:D *668:95 0.000120789
23 *2050:D *639:58 4.77719e-05
24 *2050:D *666:56 3.91192e-05
25 *624:58 *1993:GATE 6.60915e-05
26 *624:58 *626:70 0
27 *624:58 *627:40 0.000677882
28 *624:58 *628:26 0.00028155
29 *624:58 *628:68 1.11489e-05
30 *624:58 *637:46 0.00011659
31 *624:58 *643:116 7.23602e-05
32 *624:58 *644:115 1.63588e-05
33 *624:58 *654:20 2.75128e-05
34 *624:58 *654:41 2.51225e-05
35 *624:58 *674:114 0.000279196
36 *624:58 *684:35 0.000265405
37 *624:58 *687:24 0
38 *624:58 *694:76 0.00251864
39 *624:58 *698:175 9.23379e-06
40 *624:82 *1876:A2 6.90889e-06
41 *624:82 *632:66 1.02434e-05
42 *624:82 *642:38 4.55462e-06
43 *624:82 *643:79 9.33083e-05
44 *624:82 *684:124 4.87234e-06
45 *624:108 *2142:A 0.000121031
46 *624:108 *626:126 0.000178321
47 *624:108 *628:90 4.41506e-05
48 *624:108 *684:124 0.000330003
49 *624:108 *689:92 0.000109723
50 *624:118 *640:28 0.000451576
51 *624:118 *640:34 0.000634439
52 *624:118 *672:148 0.000191335
53 *624:130 *639:58 0.000159697
54 *624:130 *666:56 8.41867e-05
55 *624:151 *640:34 0.000170497
56 *1876:S1 *624:58 0.000104986
57 *1876:S1 *624:82 2.50166e-05
58 *1880:A2 *624:108 4.41506e-05
59 *1880:S1 *624:108 3.23284e-05
60 *1993:D *624:58 2.04193e-05
61 *2090:A *624:82 0.000130386
62 *2200:A *624:58 4.8638e-05
63 *2201:A *624:58 0.000169485
64 *2209:A *624:58 0.000107452
65 *2212:A *624:58 0.000294938
66 *2213:A *624:58 4.17092e-05
67 *2273:A *624:130 0.000138968
68 *2276:A *624:118 4.66108e-05
69 *2278:A *2134:A 0.000156758
70 *2279:A *624:58 0.000939728
71 *2281:A *624:58 6.1934e-05
72 *2304:A *624:58 0.000106338
73 *2347:A *624:58 0.0014152
74 *2362:A *624:58 4.18412e-05
75 *2391:A *624:58 2.22315e-05
76 *2392:A *624:118 0.00132186
77 *2394:A *624:130 4.92062e-05
78 *142:57 *624:82 9.23681e-05
79 *153:59 *624:118 0.00102732
80 *154:85 *624:58 3.84025e-05
81 *158:71 *624:58 5.96859e-05
82 *159:77 *1986:D 0.000114813
83 *160:85 *624:82 4.72012e-05
84 *243:42 *624:58 8.23457e-05
85 *243:42 *624:108 0.000349101
86 *480:70 *624:58 0.000377539
87 *496:20 *624:122 0
88 *496:20 *624:130 0.000141599
89 *505:22 *1986:D 8.23457e-05
90 *544:46 *624:58 6.20621e-05
91 *557:46 *624:118 0.00249749
92 *582:94 *624:58 2.22315e-05
93 *586:44 *624:58 7.61239e-05
94 *587:118 *624:82 0.000441167
95 *590:49 *624:108 0.000291005
96 *590:112 *624:58 0.000198552
97 *591:102 *624:58 0.00139305
98 *600:122 *624:58 0
99 *601:10 *624:118 0.00053724
100 *602:70 *624:58 0.000106321
101 *602:117 *624:58 0.00021573
102 *603:68 *624:58 1.07684e-05
103 *603:74 *624:58 0.000116216
104 *616:44 *624:58 0.00430784
105 *616:44 *624:108 0.000119242
106 *618:40 *624:58 0.000279477
*RES
1 *2201:X *624:58 48.6739 
2 *624:58 *624:82 15.4505 
3 *624:82 *624:108 24.605 
4 *624:108 *624:118 49.31 
5 *624:118 *624:122 5.555 
6 *624:122 *624:130 9.19 
7 *624:130 *1922:D 1.6 
8 *624:130 *2050:D 4.12 
9 *624:122 *2134:A 4.465 
10 *624:108 *624:151 2.865 
11 *624:151 *1986:D 8.825 
12 *624:151 *1954:D 3.445 
13 *624:82 *2018:D 4.81 
*END

*D_NET *625 0.0146578
*CONN
*I *2383:A I *D sky130_fd_sc_hd__buf_1
*I *2160:X O *D sky130_fd_sc_hd__buf_2
*CAP
1 *2383:A 0.000360097
2 *2160:X 0.000973699
3 *625:10 0.00184167
4 *625:8 0.00245527
5 *625:8 *1945:GATE 4.41506e-05
6 *625:8 *687:6 0.000118081
7 *625:8 *687:24 4.66108e-05
8 *625:8 *698:8 8.23457e-05
9 *625:10 *1928:GATE 8.4738e-05
10 *625:10 *627:40 4.01535e-05
11 *625:10 *628:26 0.000981661
12 *625:10 *630:26 0
13 *625:10 *674:40 0.000462698
14 *625:10 *674:114 0.000322977
15 *625:10 *675:56 9.18608e-05
16 *625:10 *675:102 0.000579847
17 *625:10 *687:24 0.00267944
18 FrameStrobe_O[0] *2383:A 5.7854e-05
19 FrameStrobe_O[4] *2383:A 2.11084e-05
20 UserCLKo *2383:A 4.45338e-05
21 *719:DIODE *625:10 0.000269543
22 *730:DIODE *625:10 0
23 *1945:D *625:8 9.35851e-05
24 *2190:A *625:10 0.000148805
25 *2194:A *625:10 6.44676e-05
26 *2195:A *625:10 0.00014971
27 *2196:A *625:10 8.75474e-05
28 *2198:A *625:10 4.18147e-05
29 *2200:A *625:10 0.000117326
30 *2201:A *625:10 0.000236409
31 *2202:A *625:10 0.00017176
32 *2204:A *625:10 1.17666e-05
33 *2206:A *625:10 8.5193e-05
34 *2374:A *2383:A 0.000163204
35 *2374:A *625:10 0.000469352
36 *2375:A *2383:A 8.52883e-05
37 *2375:A *625:10 0
38 *2376:A *2383:A 8.52845e-05
39 *2377:A *2383:A 0.000245
40 *2379:A *2383:A 4.77719e-05
41 *2380:A *2383:A 0.000716874
42 *512:18 *625:10 1.92642e-05
43 *513:86 *625:8 3.27231e-05
44 *582:94 *625:8 2.6294e-05
45 *603:74 *625:10 0
*RES
1 *2160:X *625:8 14.4 
2 *625:8 *625:10 52.125 
3 *625:10 *2383:A 14.07 
*END

*D_NET *626 0.0455831
*CONN
*I *2019:D I *D sky130_fd_sc_hd__dlxtp_1
*I *1955:D I *D sky130_fd_sc_hd__dlxtp_1
*I *1987:D I *D sky130_fd_sc_hd__dlxtp_1
*I *2051:D I *D sky130_fd_sc_hd__dlxtp_1
*I *1923:D I *D sky130_fd_sc_hd__dlxtp_1
*I *2135:A I *D sky130_fd_sc_hd__clkbuf_2
*I *2202:X O *D sky130_fd_sc_hd__buf_2
*CAP
1 *2019:D 0.000158765
2 *1955:D 0.000370385
3 *1987:D 0.000111194
4 *2051:D 0
5 *1923:D 0.000151061
6 *2135:A 7.62972e-05
7 *2202:X 0.00374615
8 *626:150 0.000242983
9 *626:148 0.00116514
10 *626:126 0.00268961
11 *626:102 0.00175163
12 *626:100 0.0006639
13 *626:96 0.00160238
14 *626:70 0.00499659
15 *1923:D *639:60 0.000340607
16 *1923:D *683:30 6.3062e-05
17 *1923:D *683:34 0.000285875
18 *1955:D *1955:GATE 0.0004674
19 *1955:D *643:50 8.53224e-05
20 *1955:D *652:139 8.23457e-05
21 *1955:D *664:166 0.000120789
22 *1955:D *668:107 8.59145e-05
23 *1955:D *699:66 3.59784e-05
24 *1987:D *673:143 4.89295e-05
25 *2135:A *2051:GATE 3.88392e-05
26 *2135:A *666:32 5.83121e-06
27 *626:70 *1937:D 0.00019973
28 *626:70 *2000:D 4.88064e-05
29 *626:70 *627:40 2.93375e-05
30 *626:70 *627:106 1.67432e-05
31 *626:70 *628:26 0.000152503
32 *626:70 *628:38 0.000487806
33 *626:70 *628:68 2.69622e-05
34 *626:70 *629:58 0.000336037
35 *626:70 *633:30 9.66769e-05
36 *626:70 *644:115 0.000118081
37 *626:70 *654:88 9.56048e-05
38 *626:70 *668:49 5.94968e-05
39 *626:70 *674:80 0.000351025
40 *626:70 *674:114 4.18203e-05
41 *626:70 *674:129 0.000110683
42 *626:70 *698:175 1.92756e-05
43 *626:96 *1876:A2 0.000375358
44 *626:96 *628:68 0.000586113
45 *626:96 *689:92 0.000130587
46 *626:100 *643:50 0.000139262
47 *626:100 *643:79 0.000315786
48 *626:100 *668:95 0
49 *626:100 *684:124 0.000219839
50 *626:102 *643:50 0
51 *626:126 *1904:A3 6.70326e-06
52 *626:126 *1911:A0 0.0011405
53 *626:126 *1912:A3 0.000115398
54 *626:126 *643:50 0
55 *626:126 *652:34 6.03338e-05
56 *626:126 *652:139 0.000106321
57 *626:126 *656:52 0.000417099
58 *626:126 *662:140 0.000133927
59 *626:126 *664:14 1.73877e-05
60 *626:126 *667:8 1.47347e-05
61 *626:126 *667:224 1.34503e-05
62 *626:126 *689:24 8.91174e-06
63 *626:126 *689:92 0.00013043
64 *626:126 *706:38 0.000426678
65 *626:148 *1843:A0 2.05641e-05
66 *626:148 *1843:A1 0.00011648
67 *626:148 *1845:A0 2.38557e-05
68 *626:148 *1848:A1 6.15773e-05
69 *626:148 *627:118 0.000139783
70 *626:148 *651:137 2.14495e-05
71 *626:148 *652:34 0.000409817
72 *626:148 *652:36 0.000703098
73 *626:148 *672:190 0.000269686
74 *626:150 *2051:GATE 1.19928e-05
75 *1801:A *626:148 0.00024846
76 *1838:A1 *626:126 2.73118e-05
77 *1838:A2 *626:126 0.000268285
78 *1846:B1 *626:148 0.000103983
79 *1880:A2 *1987:D 1.9872e-05
80 *1880:A2 *626:126 0.000367716
81 *1880:S1 *626:100 0.000181311
82 *1880:S1 *626:102 0.000137078
83 *1898:S0 *626:148 1.79483e-05
84 *1904:A2 *626:126 8.39427e-05
85 *1904:S1 *626:126 7.00115e-05
86 *2078:A *626:126 0.000262805
87 *2086:A *1955:D 8.41307e-05
88 *2201:A *626:70 8.57657e-06
89 *2202:A *626:70 0.000190608
90 *2278:A *626:148 0.000464566
91 *2279:A *626:70 0.000865099
92 *2281:A *626:96 0.000447601
93 *2342:A *626:70 5.53549e-06
94 *2347:A *626:70 0.000398966
95 *2350:A *626:70 0.000786381
96 *2388:A *626:148 0.000249219
97 *142:57 *626:96 0.000757105
98 *142:89 *626:70 0
99 *142:89 *626:96 0.00110159
100 *154:41 *626:126 0.000406529
101 *156:69 *626:70 0.00142356
102 *157:31 *626:148 0.000122345
103 *158:71 *626:70 0.000167461
104 *160:25 *2135:A 0.000194891
105 *160:25 *626:148 0.000188266
106 *160:25 *626:150 4.66108e-05
107 *181:21 *626:126 1.03572e-05
108 *181:56 *626:100 3.44843e-05
109 *181:56 *626:102 5.16209e-05
110 *181:56 *626:126 0.000222221
111 *480:70 *626:70 0.000727545
112 *482:30 *2019:D 0.000337616
113 *482:30 *626:96 0.00026102
114 *491:57 *626:70 0.000807489
115 *505:22 *626:126 3.82323e-06
116 *505:22 *626:148 8.73389e-06
117 *510:28 *626:70 9.43218e-05
118 *544:46 *1955:D 1.91597e-05
119 *544:46 *626:70 0.00017881
120 *546:31 *626:70 6.55244e-06
121 *556:46 *626:70 0.000175995
122 *557:46 *626:96 0.000410842
123 *568:58 *626:70 0.000208426
124 *586:44 *626:96 4.3491e-05
125 *587:44 *626:100 0
126 *587:118 *626:70 4.86654e-05
127 *590:112 *626:70 1.7662e-05
128 *591:102 *626:70 0.000170358
129 *600:122 *626:96 0.000215393
130 *602:70 *626:70 8.61731e-05
131 *602:117 *626:96 0.000706665
132 *613:138 *626:126 0.000523672
133 *616:44 *626:70 0.00260183
134 *618:24 *626:148 1.93834e-05
135 *624:58 *626:70 0
136 *624:108 *626:126 0.000178321
*RES
1 *2202:X *626:70 48.8693 
2 *626:70 *626:96 45.215 
3 *626:96 *626:100 8.225 
4 *626:100 *626:102 2.145 
5 *626:102 *626:126 47.995 
6 *626:126 *626:148 30.5409 
7 *626:148 *626:150 0.45 
8 *626:150 *2135:A 3.43 
9 *626:150 *1923:D 10.235 
10 *626:148 *2051:D 1.6 
11 *626:102 *1987:D 5.19 
12 *626:100 *1955:D 12.105 
13 *626:96 *2019:D 4.81 
*END

*D_NET *627 0.0478525
*CONN
*I *1988:D I *D sky130_fd_sc_hd__dlxtp_1
*I *2136:A I *D sky130_fd_sc_hd__clkbuf_1
*I *2020:D I *D sky130_fd_sc_hd__dlxtp_1
*I *1956:D I *D sky130_fd_sc_hd__dlxtp_1
*I *2052:D I *D sky130_fd_sc_hd__dlxtp_1
*I *1924:D I *D sky130_fd_sc_hd__dlxtp_1
*I *2203:X O *D sky130_fd_sc_hd__buf_2
*CAP
1 *1988:D 4.3233e-05
2 *2136:A 0
3 *2020:D 0.000284047
4 *1956:D 0.000184648
5 *2052:D 0
6 *1924:D 0.000350055
7 *2203:X 0.000262755
8 *627:118 0.00313457
9 *627:108 0.00362259
10 *627:106 0.00583742
11 *627:40 0.00775738
12 *627:22 0.00250427
13 *627:12 0.00052092
14 *1924:D *632:16 4.35705e-05
15 *1924:D *639:60 2.22382e-05
16 *1956:D *1957:D 8.35106e-05
17 *1956:D *628:112 4.66108e-05
18 *1956:D *668:130 3.96284e-05
19 *1988:D *1988:GATE 8.52883e-05
20 *1988:D *2143:A 0.000196572
21 *2020:D *698:175 6.26936e-05
22 *627:12 *1891:A0 0
23 *627:12 *630:26 0.000314457
24 *627:22 *630:26 5.49307e-05
25 *627:22 *670:6 4.82919e-05
26 *627:22 *674:114 7.86351e-05
27 *627:40 *694:76 0.0011542
28 *627:106 *1880:A0 0.000130849
29 *627:106 *628:68 0.00133407
30 *627:106 *637:46 4.76951e-05
31 *627:106 *644:46 3.40883e-05
32 *627:106 *644:52 0.000182418
33 *627:106 *644:115 0.000871806
34 *627:106 *672:148 0.000401495
35 *627:106 *687:114 0.000808269
36 *627:106 *694:76 0.000545451
37 *627:108 *630:84 0.000753985
38 *627:118 *630:84 0.000520159
39 *627:118 *632:66 0.000111405
40 D_config_C_bit2 *627:106 0.000156876
41 *723:DIODE *627:40 0.000285701
42 *724:DIODE *627:12 0.000121023
43 *1912:S1 *1956:D 4.61701e-06
44 *2039:D *627:106 7.33639e-05
45 *2172:A *627:22 8.53113e-06
46 *2190:A *2020:D 2.77411e-05
47 *2190:A *627:40 5.80795e-05
48 *2191:A *2020:D 0.000118959
49 *2191:A *627:40 0.000136068
50 *2200:A *627:22 0.000153816
51 *2200:A *627:40 0.000124166
52 *2201:A *627:40 0.000413127
53 *2202:A *627:40 5.4479e-05
54 *2203:A *627:12 1.7635e-05
55 *2210:A *627:106 0.000150091
56 *2211:A *627:106 0.000169068
57 *2278:A *627:118 0.000220327
58 *2326:A *627:106 0.000763023
59 *2345:A *2020:D 1.39062e-05
60 *2351:A *627:22 1.91597e-05
61 *2362:A *627:106 0.00012523
62 *2376:A *1988:D 4.30926e-05
63 *142:89 *627:106 0.000570897
64 *146:67 *627:118 0.000636538
65 *153:105 *627:106 0
66 *156:39 *1924:D 0.000315823
67 *156:39 *627:118 3.46196e-05
68 *156:59 *627:106 0.000109083
69 *157:31 *1924:D 7.84612e-05
70 *157:31 *627:118 6.04275e-07
71 *157:91 *627:106 2.38557e-05
72 *158:71 *627:106 0.000411441
73 *159:39 *1924:D 6.07809e-06
74 *159:39 *1956:D 3.74658e-05
75 *243:42 *627:106 4.60288e-05
76 *480:70 *627:106 3.172e-05
77 *482:30 *627:106 0.000298526
78 *482:66 *627:106 0.00134407
79 *486:18 *1956:D 1.83975e-05
80 *491:57 *2020:D 0.000284625
81 *491:57 *627:106 0.000221846
82 *510:28 *627:106 0.000268139
83 *524:14 *2020:D 2.39254e-06
84 *544:46 *627:106 7.33639e-05
85 *556:46 *627:106 0.000149333
86 *557:104 *1924:D 1.67154e-05
87 *568:42 *627:106 4.66108e-05
88 *568:58 *627:106 0.000445913
89 *568:112 *627:106 9.37179e-05
90 *582:40 *627:106 0.000920839
91 *590:49 *627:106 0.000129685
92 *590:112 *627:106 2.92737e-05
93 *591:102 *627:106 0.000268346
94 *593:46 *627:106 0.000210284
95 *594:48 *627:106 0.000773245
96 *600:74 *627:118 0.000387489
97 *602:70 *627:106 0.000147019
98 *602:166 *1956:D 0.000182508
99 *602:166 *627:118 0.000411291
100 *603:72 *627:106 3.14528e-05
101 *616:44 *627:40 5.2762e-05
102 *616:44 *627:106 0.00176121
103 *618:24 *1924:D 0.000302873
104 *618:24 *627:118 4.18147e-05
105 *624:58 *627:40 0.000677882
106 *625:10 *627:40 4.01535e-05
107 *626:70 *627:40 2.93375e-05
108 *626:70 *627:106 1.67432e-05
109 *626:148 *627:118 0.000139783
*RES
1 *2203:X *627:12 8.865 
2 *627:12 *627:22 6.275 
3 *627:22 *627:40 10.3672 
4 *627:40 *627:106 49.6269 
5 *627:106 *627:108 1.41613 
6 *627:108 *627:118 7.48517 
7 *627:118 *1924:D 9.33587 
8 *627:118 *2052:D 3.6 
9 *627:108 *1956:D 6.2727 
10 *627:40 *2020:D 5.29557 
11 *627:22 *2136:A 1.6 
12 *627:12 *1988:D 5.43 
*END

*D_NET *628 0.0389842
*CONN
*I *1989:D I *D sky130_fd_sc_hd__dlxtp_1
*I *2137:A I *D sky130_fd_sc_hd__clkbuf_1
*I *2021:D I *D sky130_fd_sc_hd__dlxtp_1
*I *1957:D I *D sky130_fd_sc_hd__dlxtp_1
*I *2053:D I *D sky130_fd_sc_hd__dlxtp_1
*I *1925:D I *D sky130_fd_sc_hd__dlxtp_1
*I *2204:X O *D sky130_fd_sc_hd__clkbuf_2
*CAP
1 *1989:D 0.000265701
2 *2137:A 0
3 *2021:D 5.81784e-05
4 *1957:D 0.000156746
5 *2053:D 0
6 *1925:D 0.000529749
7 *2204:X 0.000841331
8 *628:164 0.000265701
9 *628:112 0.0012495
10 *628:90 0.00192872
11 *628:68 0.00386756
12 *628:38 0.00417762
13 *628:26 0.00214544
14 *1925:D *1926:D 9.08126e-05
15 *1925:D *1927:GATE 0.000148789
16 *1925:D *666:76 1.1047e-05
17 *1925:D *666:85 0.000170883
18 *1925:D *684:144 0.000152764
19 *1957:D *668:115 8.35106e-05
20 *1957:D *668:130 8.94502e-05
21 *1989:D *1991:GATE 4.66108e-05
22 *1989:D *630:50 0.000159964
23 *1989:D *670:65 0.000159964
24 *2021:D *698:175 1.88656e-05
25 *628:26 *629:69 0.000229904
26 *628:26 *633:38 4.41275e-05
27 *628:26 *674:114 0.000339826
28 *628:26 *674:129 5.56013e-05
29 *628:38 *629:69 4.01535e-05
30 *628:38 *694:92 1.09082e-05
31 *628:38 *698:175 0.00115068
32 *628:68 *694:76 0.000599628
33 *628:90 *1912:A3 2.76356e-05
34 *628:90 *673:143 0
35 *628:90 *684:124 3.49757e-05
36 *628:90 *706:38 2.60185e-06
37 *628:112 *1912:A0 0.000254781
38 *628:112 *2138:A 5.83121e-06
39 *628:112 *639:58 0
40 *628:112 *668:130 2.8107e-05
41 *628:112 *668:140 0.00020013
42 A_config_C_bit1 *1925:D 4.89295e-05
43 *1880:S1 *628:90 1.14169e-05
44 *1904:S0 *628:90 9.5433e-05
45 *1910:S1 *1957:D 1.16854e-05
46 *1912:S0 *628:90 2.47313e-05
47 *1956:D *1957:D 8.35106e-05
48 *1956:D *628:112 4.66108e-05
49 *2016:D *628:90 0.000589775
50 *2039:D *628:68 0.000228038
51 *2148:A *628:26 7.65181e-05
52 *2201:A *628:26 0.000236409
53 *2202:A *628:26 0.00017176
54 *2204:A *628:26 0.000102789
55 *2213:A *628:68 9.2563e-06
56 *2214:A *628:68 0.000304219
57 *2279:A *628:68 0.000973945
58 *2281:A *628:68 0.00135521
59 *2347:A *628:68 0.000410845
60 *2350:A *2021:D 9.24895e-05
61 *2350:A *628:68 2.26203e-05
62 *2352:A *1989:D 0.000114852
63 *2362:A *2021:D 0.000110136
64 *2362:A *628:68 0.000297376
65 *142:89 *628:68 0.000517018
66 *153:39 *628:112 1.93318e-05
67 *153:59 *628:68 5.83121e-06
68 *158:71 *628:68 0.00018796
69 *159:39 *628:112 0.000172396
70 *181:21 *628:90 0.000261808
71 *243:42 *628:90 0.000489359
72 *261:12 *628:112 0
73 *480:70 *628:68 7.50992e-05
74 *482:66 *628:68 0.000332029
75 *486:18 *1957:D 0.000409785
76 *486:18 *628:90 0.000192242
77 *486:35 *628:90 0
78 *491:57 *628:68 0.000440999
79 *512:18 *628:26 6.18754e-05
80 *556:22 *628:26 4.66826e-05
81 *557:46 *628:68 3.21799e-05
82 *568:112 *1925:D 0.000134386
83 *568:112 *628:90 0.000410476
84 *568:112 *628:112 0.000250548
85 *579:32 *1989:D 3.64998e-06
86 *582:94 *628:68 0.000463043
87 *586:44 *628:68 0.00105393
88 *587:44 *1925:D 4.82021e-05
89 *587:44 *628:112 0.000118081
90 *591:48 *628:26 0.000109009
91 *591:48 *628:38 4.18203e-05
92 *591:102 *628:68 0.00063574
93 *593:46 *628:90 0.000832034
94 *593:46 *628:112 0.000155942
95 *601:10 *628:68 0.00191972
96 *613:138 *628:90 0.000380506
97 *616:44 *628:26 0.00011924
98 *616:44 *628:68 3.7734e-05
99 *616:44 *628:90 2.72392e-05
100 *618:24 *628:112 2.99555e-05
101 *624:58 *628:26 0.00028155
102 *624:58 *628:68 1.11489e-05
103 *624:108 *628:90 4.41506e-05
104 *625:10 *628:26 0.000981661
105 *626:70 *628:26 0.000152503
106 *626:70 *628:38 0.000487806
107 *626:70 *628:68 2.69622e-05
108 *626:96 *628:68 0.000586113
109 *627:106 *628:68 0.00133407
*RES
1 *2204:X *628:26 32.875 
2 *628:26 *628:38 5.19343 
3 *628:38 *628:68 46.3524 
4 *628:68 *628:90 34.13 
5 *628:90 *628:112 22.16 
6 *628:112 *1925:D 16.22 
7 *628:112 *2053:D 1.6 
8 *628:90 *1957:D 6.205 
9 *628:38 *2021:D 4.51617 
10 *628:26 *628:164 2 
11 *628:164 *2137:A 1.6 
12 *628:164 *1989:D 11.045 
*END

*D_NET *629 0.0169108
*CONN
*I *1994:D I *D sky130_fd_sc_hd__dlxtp_1
*I *1930:D I *D sky130_fd_sc_hd__dlxtp_1
*I *2110:A I *D sky130_fd_sc_hd__buf_1
*I *1962:D I *D sky130_fd_sc_hd__dlxtp_1
*I *2026:D I *D sky130_fd_sc_hd__dlxtp_1
*I *2205:X O *D sky130_fd_sc_hd__dlymetal6s2s_1
*CAP
1 *1994:D 0.000190986
2 *1930:D 8.02557e-05
3 *2110:A 0
4 *1962:D 0
5 *2026:D 0
6 *2205:X 0.000282435
7 *629:69 0.000799153
8 *629:58 0.001859
9 *629:52 0.00185843
10 *629:35 0.00082954
11 *629:18 0.000584637
12 *1994:D *1995:D 0
13 *1994:D *1995:GATE 2.99445e-05
14 *1994:D *670:45 0.000141961
15 *1994:D *674:114 0.000192924
16 *1994:D *679:97 4.58616e-05
17 *629:18 *2026:GATE 2.62017e-05
18 *629:35 *2026:GATE 4.1168e-05
19 *629:35 *2040:GATE 5.31686e-05
20 *629:35 *2180:A 0
21 *629:52 *2180:A 0.000164753
22 *629:52 *637:46 0.000158299
23 *629:52 *639:30 3.08543e-06
24 *629:52 *679:8 0.00010136
25 *629:58 *674:40 0.0013767
26 *629:58 *675:56 0.000415897
27 *629:69 *670:59 0
28 *629:69 *673:189 0
29 *629:69 *674:114 0.000197623
30 *719:DIODE *629:58 0.00196402
31 *2209:A *629:35 0.000134131
32 *2213:A *629:52 0.000113567
33 *2282:A *629:35 3.47757e-05
34 *2282:A *629:52 0.000477343
35 *2353:A *629:69 1.77665e-05
36 *142:89 *629:58 5.32133e-05
37 *153:105 *629:18 0.000178742
38 *154:85 *629:35 0.000184959
39 *154:85 *629:52 6.66857e-05
40 *154:99 *629:58 7.91584e-06
41 *157:111 *629:58 5.15605e-05
42 *480:70 *629:18 6.51658e-05
43 *480:70 *629:58 1.92979e-05
44 *482:76 *629:58 0.000620669
45 *510:28 *629:58 0.000273605
46 *512:18 *629:69 2.37321e-05
47 *544:46 *629:58 2.34091e-05
48 *568:10 *629:58 2.05839e-06
49 *579:32 *629:69 0.000292952
50 *582:94 *629:58 0.000361086
51 *586:92 *629:52 1.08879e-05
52 *590:112 *629:52 1.00859e-05
53 *591:48 *629:69 1.197e-05
54 *600:122 *629:18 0.000182453
55 *602:20 *629:58 0.000795664
56 *616:44 *629:58 0.000893637
57 *626:70 *629:58 0.000336037
58 *628:26 *629:69 0.000229904
59 *628:38 *629:69 4.01535e-05
*RES
1 *2205:X *629:18 10.745 
2 *629:18 *2026:D 1.6 
3 *629:18 *629:35 8.33 
4 *629:35 *1962:D 3.6 
5 *629:35 *629:52 7.47077 
6 *629:52 *629:58 46.9925 
7 *629:58 *2110:A 1.6 
8 *629:58 *629:69 13.19 
9 *629:69 *1930:D 4.74 
10 *629:69 *1994:D 8.04 
*END

*D_NET *630 0.0423367
*CONN
*I *1958:D I *D sky130_fd_sc_hd__dlxtp_1
*I *1990:D I *D sky130_fd_sc_hd__dlxtp_1
*I *2022:D I *D sky130_fd_sc_hd__dlxtp_1
*I *2054:D I *D sky130_fd_sc_hd__dlxtp_1
*I *2138:A I *D sky130_fd_sc_hd__clkbuf_2
*I *1926:D I *D sky130_fd_sc_hd__dlxtp_1
*I *2206:X O *D sky130_fd_sc_hd__buf_2
*CAP
1 *1958:D 0.000527539
2 *1990:D 0
3 *2022:D 0.000171409
4 *2054:D 0
5 *2138:A 0.000126062
6 *1926:D 0.000916986
7 *2206:X 0.000846779
8 *630:105 0.000126062
9 *630:84 0.00393303
10 *630:66 0.0056457
11 *630:50 0.00299838
12 *630:26 0.00191445
13 *1926:D *1912:A0 0.000303389
14 *1926:D *2055:D 0.000411262
15 *1926:D *631:112 1.44299e-05
16 *1926:D *638:24 0.000410138
17 *1926:D *684:144 2.24558e-05
18 *1958:D *1942:GATE 8.70256e-05
19 *1958:D *1958:GATE 4.89765e-05
20 *1958:D *670:6 2.49909e-05
21 *2022:D *2022:GATE 2.39856e-05
22 *2022:D *2023:D 3.32684e-05
23 *2022:D *693:82 3.86814e-05
24 *2138:A *2054:GATE 0.000121023
25 *630:26 *1891:A0 0
26 *630:26 *1988:GATE 1.31297e-05
27 *630:26 *2143:A 0.000121027
28 *630:26 *670:6 0.00012363
29 *630:26 *674:114 7.70758e-05
30 *630:26 *674:129 0.00051069
31 *630:50 *1995:D 9.12663e-06
32 *630:50 *631:18 0.000117643
33 *630:50 *670:45 8.12462e-06
34 *630:50 *670:59 3.68772e-05
35 *630:50 *670:65 0.000280583
36 *630:50 *687:24 0.00023613
37 *630:50 *694:92 0
38 *630:66 *631:112 0.000168446
39 *630:66 *632:152 1.57436e-05
40 *630:66 *634:154 1.29049e-05
41 *630:66 *670:65 2.05641e-05
42 *630:66 *689:114 0.000658505
43 *630:66 *693:163 0.000262127
44 *630:66 *694:92 0.000350208
45 *630:84 *1827:A 0.000212026
46 *630:84 *1861:A0 8.68272e-06
47 *630:84 *1912:A0 1.79536e-05
48 *630:84 *2023:D 5.84826e-05
49 *630:84 *632:66 0.0005544
50 *630:84 *634:154 2.79078e-05
51 *630:84 *635:42 3.15755e-05
52 *630:84 *643:50 5.18735e-06
53 *630:84 *661:203 0.000116687
54 *630:84 *662:177 6.17086e-06
55 *630:84 *668:81 1.79098e-05
56 *630:84 *687:92 0.000247415
57 *630:84 *687:114 0.000664705
58 *630:84 *689:114 0.00111357
59 *630:84 *693:82 0.000473963
60 A_config_C_bit2 *1926:D 9.38327e-05
61 *718:DIODE *1926:D 0.000237935
62 *721:DIODE *630:26 0.000131001
63 *1891:S0 *630:26 4.28674e-05
64 *1891:S0 *630:50 6.55328e-05
65 *1891:S1 *630:50 9.40874e-05
66 *1896:S1 *2022:D 2.62017e-05
67 *1925:D *1926:D 9.08126e-05
68 *1953:D *630:84 2.56225e-05
69 *1974:D *1958:D 4.49945e-05
70 *1989:D *630:50 0.000159964
71 *2041:D *630:84 0.00061919
72 *2148:A *630:26 1.34361e-05
73 *2172:A *630:26 2.47705e-05
74 *2203:A *630:26 2.28537e-05
75 *2204:A *630:26 6.45899e-05
76 *2206:A *630:26 6.16226e-06
77 *2276:A *1926:D 0
78 *2291:A *630:66 1.4641e-05
79 *2330:A *630:66 0.00207995
80 *2350:A *630:66 6.51972e-05
81 *2351:A *1958:D 0.000333062
82 *2351:A *630:26 0.000118234
83 *2363:A *630:26 2.75145e-05
84 *2375:A *630:26 0.000210379
85 *153:39 *630:84 0
86 *156:69 *630:26 1.79483e-05
87 *159:39 *630:84 1.45731e-05
88 *159:77 *630:84 0.000635638
89 *245:59 *630:84 8.31225e-05
90 *479:46 *630:84 0.000920881
91 *480:153 *630:50 0.000789562
92 *480:153 *630:66 9.58678e-06
93 *491:96 *630:66 0.0011432
94 *505:22 *1926:D 0.000170532
95 *519:40 *630:66 0.00115786
96 *519:46 *630:66 0.000108612
97 *557:58 *1926:D 0
98 *586:92 *2022:D 1.08758e-05
99 *591:102 *630:84 0.000942395
100 *591:126 *630:84 3.99234e-05
101 *593:46 *2138:A 2.49909e-05
102 *594:48 *1926:D 6.16226e-06
103 *594:48 *630:84 1.32808e-05
104 *596:50 *630:84 0.000951207
105 *602:166 *630:84 0.000574113
106 *613:42 *630:26 9.15237e-06
107 *613:42 *630:66 0.00294673
108 *618:112 *630:66 0.000178944
109 *625:10 *630:26 0
110 *627:12 *630:26 0.000314457
111 *627:22 *630:26 5.49307e-05
112 *627:108 *630:84 0.000753985
113 *627:118 *630:84 0.000520159
114 *628:112 *2138:A 5.83121e-06
*RES
1 *2206:X *630:26 27.06 
2 *630:26 *630:50 22.44 
3 *630:50 *630:66 11.5273 
4 *630:66 *630:84 20.011 
5 *630:84 *1926:D 25.84 
6 *630:84 *630:105 2 
7 *630:105 *2138:A 3.775 
8 *630:105 *2054:D 1.6 
9 *630:66 *2022:D 6.2775 
10 *630:50 *1990:D 3.6 
11 *630:26 *1958:D 9.58 
*END

*D_NET *631 0.0415328
*CONN
*I *1959:D I *D sky130_fd_sc_hd__dlxtp_1
*I *2139:A I *D sky130_fd_sc_hd__clkbuf_2
*I *2055:D I *D sky130_fd_sc_hd__dlxtp_1
*I *1927:D I *D sky130_fd_sc_hd__dlxtp_1
*I *2023:D I *D sky130_fd_sc_hd__dlxtp_1
*I *1991:D I *D sky130_fd_sc_hd__dlxtp_1
*I *2207:X O *D sky130_fd_sc_hd__buf_2
*CAP
1 *1959:D 0.000310638
2 *2139:A 0.000150138
3 *2055:D 0.000202515
4 *1927:D 0.000297074
5 *2023:D 0.000236326
6 *1991:D 0.000321032
7 *2207:X 0.000693497
8 *631:116 0.000541491
9 *631:112 0.00324151
10 *631:65 0.00537372
11 *631:22 0.00266194
12 *631:18 0.00125712
13 *1927:D *1927:GATE 0
14 *1991:D *1890:A0 1.08758e-05
15 *2023:D *668:81 0.00010816
16 *2023:D *675:140 0.000151755
17 *2023:D *675:174 4.54268e-05
18 *2023:D *693:82 5.02126e-06
19 *2055:D *1912:A0 0.000122008
20 *2055:D *2184:A 8.73389e-06
21 *2139:A *684:136 6.58339e-05
22 *631:18 *1891:A1 0.00023318
23 *631:18 *1891:A2 1.94636e-05
24 *631:18 *1901:A0 6.36156e-05
25 *631:18 *1901:A1 0.000253384
26 *631:18 *2143:A 9.54399e-05
27 *631:22 *2179:A 6.48461e-05
28 *631:22 *679:91 0.000315811
29 *631:65 *1808:A0 5.9926e-05
30 *631:65 *1888:A0 0.000133193
31 *631:65 *632:107 1.55583e-05
32 *631:65 *632:152 1.57812e-05
33 *631:65 *634:176 0.000491048
34 *631:65 *637:114 0.000117278
35 *631:65 *643:164 0.000804326
36 *631:65 *658:133 0.000173193
37 *631:65 *665:18 7.06934e-05
38 *631:65 *668:81 0.000131934
39 *631:65 *669:155 1.88023e-05
40 *631:65 *672:52 0.000214448
41 *631:65 *693:82 1.41626e-05
42 *631:112 *1876:A0 0.000210106
43 *631:112 *632:66 0.000322529
44 *631:112 *632:107 1.29049e-05
45 *631:112 *637:46 1.85908e-05
46 *631:112 *638:16 2.12292e-05
47 *631:112 *638:18 0.000414503
48 *631:112 *638:24 0.000927231
49 *631:112 *672:148 0.00032547
50 *631:112 *680:46 5.4308e-05
51 *631:112 *687:114 0.000139064
52 *631:112 *689:114 5.50424e-05
53 *631:112 *694:76 0.000495459
54 *631:112 *698:68 0.000782787
55 C_config_C_bit2 *631:112 1.75082e-05
56 C_config_C_bit3 *631:112 0.000143849
57 *718:DIODE *631:112 0.0014799
58 *1883:A2 *1959:D 2.97593e-05
59 *1888:S0 *631:65 0.000115187
60 *1891:S0 *631:18 0.000169225
61 *1891:S1 *631:18 0.000126854
62 *1893:S0 *1991:D 1.74678e-05
63 *1896:S0 *631:65 0.000132115
64 *1909:S0 *1959:D 2.49909e-05
65 *1926:D *2055:D 0.000411262
66 *1926:D *631:112 1.44299e-05
67 *1975:D *631:18 0.000489651
68 *2022:D *2023:D 3.32684e-05
69 *2056:CLK *631:65 2.28376e-05
70 *2122:A *1959:D 3.68999e-05
71 *2122:A *631:18 8.23457e-05
72 *2164:A *631:65 0.00063417
73 *2230:A *631:112 0.000108559
74 *2273:A *1927:D 0.000205903
75 *2273:A *631:116 0.000103313
76 *2274:A *1927:D 4.77719e-05
77 *2276:A *1927:D 6.58339e-05
78 *2291:A *631:65 0.00176249
79 *2291:A *631:112 0.000242335
80 *2326:A *631:112 0.00134191
81 *2336:A *1959:D 0.000229962
82 *2347:A *631:65 5.28666e-05
83 *2376:A *631:18 0.000153449
84 *2389:A *2055:D 0.000373573
85 *2391:A *631:112 0.00147809
86 *2392:A *2139:A 4.66108e-05
87 *2392:A *631:112 0.000191335
88 *143:109 *631:65 4.6941e-05
89 *143:117 *1991:D 9.5799e-06
90 *143:117 *631:22 0.000235546
91 *154:85 *631:112 0.000118522
92 *157:31 *1927:D 0.000202892
93 *157:31 *631:116 0.000111149
94 *157:53 *631:112 2.00134e-05
95 *159:77 *631:112 0.000384774
96 *160:133 *631:65 0.000754633
97 *409:32 *631:112 6.52988e-05
98 *479:46 *631:112 0.000210441
99 *479:130 *631:112 0.00020681
100 *480:153 *631:18 0.000269916
101 *482:105 *631:65 4.95724e-05
102 *513:86 *631:65 0
103 *519:40 *631:112 2.22315e-05
104 *519:46 *631:112 8.17521e-05
105 *553:28 *631:65 1.80801e-05
106 *558:50 *631:65 0.000262472
107 *568:112 *1927:D 3.30017e-05
108 *569:58 *631:112 2.22315e-05
109 *579:52 *631:65 0.000291043
110 *582:40 *631:112 6.18267e-05
111 *586:44 *631:112 0.000197063
112 *586:92 *631:65 0.00033837
113 *590:14 *631:112 2.07927e-05
114 *590:170 *631:65 0.0015272
115 *593:46 *631:112 0.000260115
116 *615:14 *1991:D 2.05571e-05
117 *615:14 *631:22 0.000812737
118 *616:44 *631:112 0.00124111
119 *618:112 *631:112 1.57264e-05
120 *630:50 *631:18 0.000117643
121 *630:66 *631:112 0.000168446
122 *630:84 *2023:D 5.84826e-05
*RES
1 *2207:X *631:18 24.125 
2 *631:18 *631:22 11.6675 
3 *631:22 *1991:D 8.1075 
4 *631:22 *631:65 29.2642 
5 *631:65 *2023:D 7.7475 
6 *631:65 *631:112 36.4356 
7 *631:112 *631:116 3.38 
8 *631:116 *1927:D 10.02 
9 *631:116 *2055:D 9.24 
10 *631:112 *2139:A 3.775 
11 *631:18 *1959:D 7.345 
*END

*D_NET *632 0.053186
*CONN
*I *1894:A3 I *D sky130_fd_sc_hd__mux4_1
*I *1886:A3 I *D sky130_fd_sc_hd__mux4_1
*I *1814:A3 I *D sky130_fd_sc_hd__mux4_1
*I *1882:A3 I *D sky130_fd_sc_hd__mux4_1
*I *2058:D I *D sky130_fd_sc_hd__dfxtp_1
*I *1884:A3 I *D sky130_fd_sc_hd__mux4_1
*I *1898:A3 I *D sky130_fd_sc_hd__mux4_1
*I *727:DIODE I *D sky130_fd_sc_hd__diode_2
*I *2208:X O *D sky130_fd_sc_hd__buf_2
*CAP
1 *1894:A3 0.00105277
2 *1886:A3 0
3 *1814:A3 7.69859e-05
4 *1882:A3 0
5 *2058:D 0.000114124
6 *1884:A3 0.000438075
7 *1898:A3 5.03933e-06
8 *727:DIODE 0.000369176
9 *2208:X 0.00166277
10 *632:174 0.00113318
11 *632:161 0.000324876
12 *632:152 0.0028642
13 *632:107 0.00481124
14 *632:66 0.00533426
15 *632:22 0.00057424
16 *632:16 0.0047586
17 *727:DIODE *1898:A0 0.000119242
18 *727:DIODE *648:16 4.01548e-05
19 *727:DIODE *653:38 1.60144e-05
20 *727:DIODE *656:52 5.48062e-05
21 *1814:A3 *1814:A2 9.50342e-06
22 *1884:A3 *1884:A1 8.35106e-05
23 *1884:A3 *635:42 0.000108556
24 *1894:A3 *1894:A0 8.49205e-05
25 *1894:A3 *1894:A1 3.97211e-05
26 *1894:A3 *653:275 0.000273179
27 *1894:A3 *696:26 0.000176031
28 *1894:A3 *698:175 7.4865e-05
29 *1894:A3 *704:110 2.05641e-05
30 *1898:A3 *648:16 1.92979e-05
31 *1898:A3 *653:32 8.7152e-06
32 *1898:A3 *653:38 7.70424e-07
33 *2058:D *1813:A0 4.82249e-05
34 *2058:D *662:196 1.88602e-05
35 *632:16 *640:24 0.000106292
36 *632:66 *642:38 9.39045e-07
37 *632:66 *652:139 0.00153205
38 *632:66 *662:177 0.00020173
39 *632:66 *689:114 0.00109593
40 *632:66 *698:68 0.000453052
41 *632:107 *636:159 2.78999e-05
42 *632:107 *637:114 0.000140004
43 *632:107 *643:164 2.26338e-05
44 *632:107 *661:203 0.000272933
45 *632:107 *669:155 0
46 *632:107 *672:52 8.56377e-05
47 *632:107 *672:124 0
48 *632:107 *673:106 0
49 *632:107 *689:114 0.000688616
50 *632:107 *698:68 0.000430711
51 *632:107 *703:60 0.000797509
52 *632:152 *1814:A2 5.93727e-05
53 *632:152 *1893:A1 0.000100544
54 *632:152 *1998:GATE 5.16418e-05
55 *632:152 *634:176 0.000142276
56 *632:152 *636:159 2.47686e-06
57 *632:152 *662:196 0.000368558
58 *632:152 *672:52 1.228e-05
59 *632:152 *675:64 0
60 *632:152 *704:110 0.000567722
61 *632:161 *1814:A2 0.000509727
62 *743:DIODE *1894:A3 9.27099e-05
63 *1808:A1 *2058:D 0
64 *1884:A0 *1884:A3 0.000450007
65 *1884:S1 *1884:A3 8.32973e-05
66 *1886:S0 *1894:A3 6.41825e-07
67 *1886:S0 *632:174 1.23107e-05
68 *1894:S0 *1894:A3 7.84476e-05
69 *1898:S0 *632:22 0.000254221
70 *1907:S0 *1884:A3 0.000517319
71 *1924:D *632:16 4.35705e-05
72 *2058:CLK *632:152 0.000159801
73 *2080:A *1894:A3 0
74 *2096:A *727:DIODE 8.53113e-06
75 *2127:A *1894:A3 3.83383e-05
76 *2291:A *632:107 0.000652871
77 *2291:A *632:152 0.00125315
78 *2297:A *1884:A3 9.43585e-05
79 *2297:A *632:107 0.000883303
80 *2304:A *632:107 5.95642e-06
81 *2330:A *632:152 0.000432524
82 *2335:A *1894:A3 0.00022614
83 *2335:A *632:152 5.93727e-05
84 *2335:A *632:161 0.000556504
85 *2335:A *632:174 0.000172691
86 *2341:A *1814:A3 2.3038e-05
87 *2341:A *1894:A3 0
88 *2341:A *632:174 0
89 *2342:A *632:152 0.000141157
90 *2347:A *632:152 0.000115022
91 *2350:A *632:152 0
92 *2351:A *1894:A3 0.000489288
93 *2391:A *632:16 0.000164892
94 *142:57 *632:66 9.92738e-06
95 *143:109 *632:107 0.000214523
96 *146:67 *632:16 0.00169374
97 *146:67 *632:66 0.000365429
98 *150:35 *632:16 0.000118399
99 *150:77 *1894:A3 0.000237944
100 *153:39 *632:16 0.000106515
101 *153:39 *632:66 6.6424e-05
102 *154:41 *632:16 0.000582331
103 *154:41 *632:66 0.000700068
104 *157:31 *632:16 0
105 *159:39 *632:16 0
106 *159:77 *632:66 0.00127297
107 *160:85 *632:66 9.04081e-05
108 *160:133 *632:152 0.000608014
109 *479:30 *632:16 7.31209e-05
110 *491:96 *632:152 9.27036e-05
111 *519:40 *2058:D 1.92979e-05
112 *519:40 *632:152 0.000149899
113 *520:56 *632:152 0.000228089
114 *535:76 *632:152 7.3727e-06
115 *553:28 *632:152 0.000126234
116 *558:50 *632:107 4.59783e-05
117 *558:50 *632:152 4.73375e-06
118 *569:58 *632:66 0.00154011
119 *576:42 *1894:A3 6.95789e-05
120 *579:52 *632:107 5.18735e-06
121 *582:94 *1884:A3 3.69766e-05
122 *596:50 *632:66 0.000946551
123 *600:74 *632:16 0.000173482
124 *602:166 *632:66 0.00126335
125 *613:42 *632:152 0.00188166
126 *624:82 *632:66 1.02434e-05
127 *627:118 *632:66 0.000111405
128 *630:66 *632:152 1.57436e-05
129 *630:84 *632:66 0.0005544
130 *631:65 *632:107 1.55583e-05
131 *631:65 *632:152 1.57812e-05
132 *631:112 *632:66 0.000322529
133 *631:112 *632:107 1.29049e-05
*RES
1 *2208:X *632:16 10.6316 
2 *632:16 *632:22 1.41673 
3 *632:22 *727:DIODE 7.9875 
4 *632:22 *1898:A3 3.8325 
5 *632:16 *632:66 12.4405 
6 *632:66 *1884:A3 11.3658 
7 *632:66 *632:107 6.88967 
8 *632:107 *2058:D 6.2225 
9 *632:107 *632:152 13.0542 
10 *632:152 *1882:A3 3.6 
11 *632:152 *632:161 6.6075 
12 *632:161 *1814:A3 4.8825 
13 *632:161 *632:174 2.0175 
14 *632:174 *1886:A3 3.6 
15 *632:174 *1894:A3 30.22 
*END

*D_NET *633 0.0214904
*CONN
*I *1963:D I *D sky130_fd_sc_hd__dlxtp_1
*I *2027:D I *D sky130_fd_sc_hd__dlxtp_1
*I *1995:D I *D sky130_fd_sc_hd__dlxtp_1
*I *1931:D I *D sky130_fd_sc_hd__dlxtp_1
*I *2111:A I *D sky130_fd_sc_hd__buf_1
*I *2209:X O *D sky130_fd_sc_hd__clkbuf_2
*CAP
1 *1963:D 0.000164789
2 *2027:D 0.00053418
3 *1995:D 0.000276559
4 *1931:D 0
5 *2111:A 0
6 *2209:X 0.00133503
7 *633:78 0.00120494
8 *633:53 0.000437673
9 *633:38 0.000663648
10 *633:34 0.00126518
11 *633:30 0.00159171
12 *1963:D *671:53 8.73389e-06
13 *1963:D *671:70 2.1859e-05
14 *1995:D *1995:GATE 0
15 *1995:D *670:45 0.000200011
16 *1995:D *670:59 0.000118106
17 *1995:D *687:24 1.88619e-05
18 *2027:D *652:139 5.38986e-06
19 *2027:D *661:203 0.0004221
20 *2027:D *662:142 5.12017e-06
21 *2027:D *662:177 6.36438e-07
22 *2027:D *667:64 0.000321856
23 *2027:D *668:81 0.000470547
24 *2027:D *675:192 0.000153816
25 *2027:D *701:52 0.000208473
26 *633:30 *634:10 0.000119866
27 *633:30 *638:16 0.000139238
28 *633:53 *1989:GATE 8.30853e-06
29 *633:78 *2040:GATE 4.66108e-05
30 *633:78 *634:10 7.30235e-05
31 *633:78 *668:81 0.000153816
32 *633:78 *671:53 0.000219252
33 *1825:A *2027:D 0.000170038
34 *1891:S0 *1995:D 0.000115614
35 *1994:D *1995:D 0
36 *2040:D *633:78 0.000121031
37 *2102:A *2027:D 3.69766e-05
38 *2352:A *1995:D 3.11927e-05
39 *2352:A *633:53 0.000183792
40 *142:89 *633:30 7.56247e-05
41 *145:71 *2027:D 2.81711e-05
42 *153:105 *633:30 0.000289585
43 *158:71 *633:30 0.000686085
44 *245:10 *633:78 0.000156717
45 *510:28 *633:30 1.45232e-05
46 *511:12 *633:34 0.00370941
47 *544:46 *633:30 0.000718469
48 *556:26 *633:34 0.00189294
49 *556:46 *633:34 5.94035e-05
50 *557:46 *633:34 0.000881555
51 *568:42 *633:34 0.000978108
52 *568:58 *633:30 0.000151448
53 *586:92 *633:30 0.000229422
54 *591:48 *633:38 4.66108e-05
55 *593:94 *2027:D 5.84716e-05
56 *596:140 *2027:D 0.00035373
57 *600:122 *633:30 4.41506e-05
58 *613:95 *633:78 0.000118081
59 *626:70 *633:30 9.66769e-05
60 *628:26 *633:38 4.41275e-05
61 *630:50 *1995:D 9.12663e-06
*RES
1 *2209:X *633:30 32.33 
2 *633:30 *633:34 44.18 
3 *633:34 *633:38 7.02 
4 *633:38 *2111:A 1.6 
5 *633:38 *633:53 5.405 
6 *633:53 *1931:D 3.6 
7 *633:53 *1995:D 9.57 
8 *2209:X *633:78 11.38 
9 *633:78 *2027:D 20.705 
10 *633:78 *1963:D 3.805 
*END

*D_NET *634 0.0520822
*CONN
*I *1964:D I *D sky130_fd_sc_hd__dlxtp_1
*I *1932:D I *D sky130_fd_sc_hd__dlxtp_1
*I *1996:D I *D sky130_fd_sc_hd__dlxtp_1
*I *2028:D I *D sky130_fd_sc_hd__dlxtp_1
*I *2112:A I *D sky130_fd_sc_hd__clkbuf_2
*I *2210:X O *D sky130_fd_sc_hd__clkbuf_2
*CAP
1 *1964:D 0
2 *1932:D 1.72209e-05
3 *1996:D 0.000171062
4 *2028:D 0
5 *2112:A 0.000106472
6 *2210:X 0.000605508
7 *634:186 0.000835132
8 *634:176 0.00189069
9 *634:154 0.00322807
10 *634:84 0.00137903
11 *634:78 0.00605671
12 *634:10 0.00737389
13 *2112:A *2028:GATE 8.40269e-05
14 *2112:A *681:23 2.10152e-05
15 *2112:A *681:36 2.8107e-05
16 *634:10 *2040:GATE 2.49909e-05
17 *634:10 *671:53 0.000264583
18 *634:78 *1827:A 0.000812257
19 *634:78 *1884:A1 8.02904e-05
20 *634:78 *1885:A2 0.00056883
21 *634:78 *2030:D 0
22 *634:78 *635:42 0.000365423
23 *634:78 *636:50 0.000678683
24 *634:78 *642:106 6.50545e-05
25 *634:78 *643:116 7.91885e-05
26 *634:78 *644:46 3.3846e-05
27 *634:78 *647:123 0.000135832
28 *634:78 *652:16 5.4497e-05
29 *634:78 *665:83 0.000405959
30 *634:78 *667:64 0.000485293
31 *634:78 *675:174 7.42406e-05
32 *634:78 *687:114 0
33 *634:78 *701:52 2.2955e-05
34 *634:84 *2034:GATE 0.000201702
35 *634:84 *681:36 3.03775e-05
36 *634:154 *1888:A1 0.000124978
37 *634:154 *1896:A0 2.49909e-05
38 *634:154 *635:102 0.000152631
39 *634:154 *636:159 0.000317895
40 *634:154 *637:114 4.90253e-05
41 *634:154 *643:116 0.00016046
42 *634:154 *660:115 1.21515e-05
43 *634:154 *661:203 0.000181918
44 *634:154 *665:18 2.11328e-05
45 *634:154 *671:53 0.000288822
46 *634:154 *677:42 0.000153816
47 *634:154 *679:59 3.72899e-05
48 *634:154 *689:114 0.000244682
49 *634:154 *693:82 0.000226761
50 *634:176 *1998:GATE 4.9968e-05
51 *634:176 *635:102 0.000392694
52 *634:176 *662:196 4.15779e-05
53 *634:176 *667:174 0.000308487
54 *634:176 *669:108 0.00023573
55 *634:176 *689:114 0.000222737
56 *634:186 *1933:D 0.000203348
57 *634:186 *635:102 7.38734e-05
58 *634:186 *669:45 4.79668e-05
59 *634:186 *673:48 0.000305562
60 *711:DIODE *634:186 0.000182477
61 *733:DIODE *634:78 0.0026695
62 *1812:S1 *634:154 2.49909e-05
63 *1884:A0 *634:78 0.000828995
64 *1884:A0 *634:154 0.000247121
65 *1890:S0 *1996:D 5.79443e-05
66 *1890:S1 *634:186 6.74079e-05
67 *1893:S0 *634:186 0
68 *1896:S0 *634:154 8.23457e-05
69 *1899:S1 *634:176 9.60582e-07
70 *2040:D *634:10 4.28819e-05
71 *2056:CLK *634:176 8.5242e-05
72 *2102:A *634:78 0.000212334
73 *2105:A *634:176 6.61627e-05
74 *2226:A *634:78 3.86439e-05
75 *2227:A *634:78 0.000176363
76 *2228:A *634:78 1.88904e-05
77 *2231:A *634:78 3.85204e-05
78 *2297:A *634:78 6.17086e-06
79 *2297:A *634:154 7.8632e-06
80 *2338:A *634:176 0.00018955
81 *2352:A *1932:D 4.77757e-05
82 *2352:A *1996:D 0.000412565
83 *143:109 *634:154 4.38485e-05
84 *144:31 *634:78 0.00011281
85 *145:83 *634:176 1.19691e-05
86 *145:83 *634:186 0.000396321
87 *146:67 *634:78 0.000127687
88 *148:21 *634:84 0.000688883
89 *148:111 *634:186 0
90 *149:23 *634:78 1.86715e-05
91 *149:23 *634:84 0.000348818
92 *150:35 *634:78 0.000415889
93 *150:77 *634:176 0.000130589
94 *150:77 *634:186 0.000601299
95 *153:39 *634:78 2.29603e-05
96 *157:91 *634:154 0.000380252
97 *159:77 *634:78 2.90597e-05
98 *181:21 *634:78 0.00101557
99 *263:10 *634:84 5.49035e-05
100 *265:14 *634:78 0.000181126
101 *266:10 *634:78 3.86814e-05
102 *266:10 *634:84 6.15141e-06
103 *409:32 *634:78 0.000284039
104 *477:10 *634:176 0.000158495
105 *478:6 *634:176 3.1562e-06
106 *483:80 *634:78 0.000869312
107 *485:20 *634:78 4.12303e-05
108 *502:65 *634:154 0.000143174
109 *502:79 *634:154 0.000148849
110 *513:86 *634:154 0.000160294
111 *519:46 *634:154 0.000644405
112 *520:56 *634:154 2.22315e-05
113 *520:56 *634:176 0.000692284
114 *524:142 *634:78 3.70141e-05
115 *533:44 *634:78 0.000102476
116 *553:28 *634:154 5.38986e-06
117 *553:28 *634:176 0.000230655
118 *558:50 *634:176 7.87812e-05
119 *567:32 *634:78 0.00112919
120 *567:32 *634:84 0.00153276
121 *579:52 *634:78 0.00163485
122 *579:52 *634:154 0.000921877
123 *583:28 *2112:A 0.000157551
124 *586:92 *634:154 0.000102671
125 *593:118 *634:176 0.0012926
126 *596:140 *634:78 6.62806e-06
127 *600:74 *634:78 0.000570438
128 *600:122 *634:154 5.5204e-05
129 *630:66 *634:154 1.29049e-05
130 *630:84 *634:154 2.79078e-05
131 *631:65 *634:176 0.000491048
132 *632:152 *634:176 0.000142276
133 *633:30 *634:10 0.000119866
134 *633:78 *634:10 7.30235e-05
*RES
1 *2210:X *634:10 9.76 
2 *634:10 *634:78 43.0503 
3 *634:78 *634:84 33.3875 
4 *634:84 *2112:A 4.135 
5 *634:84 *2028:D 1.6 
6 *634:10 *634:154 44.5074 
7 *634:154 *634:176 42.175 
8 *634:176 *634:186 20.98 
9 *634:186 *1996:D 5.5 
10 *634:186 *1932:D 2.05 
11 *634:176 *1964:D 1.6 
*END

*D_NET *635 0.0482418
*CONN
*I *1965:D I *D sky130_fd_sc_hd__dlxtp_1
*I *1933:D I *D sky130_fd_sc_hd__dlxtp_1
*I *1997:D I *D sky130_fd_sc_hd__dlxtp_1
*I *2029:D I *D sky130_fd_sc_hd__dlxtp_1
*I *2113:A I *D sky130_fd_sc_hd__buf_1
*I *2211:X O *D sky130_fd_sc_hd__clkbuf_2
*CAP
1 *1965:D 7.58905e-05
2 *1933:D 0.000381977
3 *1997:D 0
4 *2029:D 0
5 *2113:A 0.000137662
6 *2211:X 0.000412831
7 *635:112 0.000835132
8 *635:102 0.00336519
9 *635:42 0.00886531
10 *635:10 0.0119766
11 *1933:D *667:176 0.000154145
12 *2113:A *655:24 7.15651e-05
13 *635:10 *636:50 4.10113e-05
14 *635:42 *1843:A0 0.000114588
15 *635:42 *1848:A1 3.08974e-05
16 *635:42 *1848:A2 0
17 *635:42 *2030:D 0.000356188
18 *635:42 *636:50 5.41327e-05
19 *635:42 *637:46 3.55555e-05
20 *635:42 *646:32 0.000799843
21 *635:42 *651:45 0
22 *635:42 *652:139 0.000143495
23 *635:42 *653:172 0.0021114
24 *635:42 *671:30 4.14843e-05
25 *635:42 *687:92 0.000598678
26 *635:42 *687:114 0.000816995
27 *635:42 *694:76 6.89298e-05
28 *635:42 *698:129 0.000126363
29 *635:102 *1885:A2 1.46319e-05
30 *635:102 *1964:GATE 1.92979e-05
31 *635:102 *636:50 7.9035e-05
32 *635:102 *661:203 0.000102182
33 *635:102 *662:196 0.000310633
34 *635:102 *668:81 8.82591e-05
35 *635:102 *669:75 0.000239258
36 *635:102 *671:30 9.67081e-06
37 *635:102 *672:124 0.0001684
38 *635:102 *673:48 0.000426032
39 *635:102 *673:106 2.60794e-05
40 *635:102 *675:130 0.000138133
41 *635:102 *677:61 0.000217869
42 *635:102 *693:82 0.000345178
43 *635:102 *703:60 0.000259447
44 *635:102 *708:84 0.00138731
45 *635:112 *1809:A0 9.49485e-05
46 *635:112 *1965:GATE 9.29768e-05
47 *635:112 *669:45 4.88568e-05
48 *711:DIODE *1933:D 4.83385e-05
49 *1855:S1 *635:42 0.000340528
50 *1868:B *2113:A 0
51 *1874:A1 *635:42 1.20855e-05
52 *1884:A0 *635:42 1.90963e-05
53 *1884:A3 *635:42 0.000108556
54 *1885:S0 *635:102 9.58678e-06
55 *1894:S1 *1933:D 3.03775e-05
56 *1894:S1 *635:112 1.56428e-05
57 *2101:A *635:112 0.000108669
58 *2105:A *635:102 0
59 *2133:A *635:10 2.83649e-05
60 *2220:A *635:42 0.000533574
61 *2221:A *635:42 0.000452048
62 *2222:A *635:42 8.69678e-05
63 *2242:A *635:42 0.000448335
64 *2243:A *635:42 0.000487259
65 *2284:A *635:102 0.00109634
66 *2297:A *635:42 2.22315e-05
67 *2339:A *635:112 0.000154977
68 *2343:A *1933:D 0.000332794
69 *2343:A *635:112 4.66108e-05
70 *2362:A *635:102 6.82735e-05
71 *143:9 *2113:A 0.000156698
72 *143:9 *635:42 0.000165471
73 *147:27 *635:42 0
74 *148:111 *1933:D 6.38083e-05
75 *148:111 *635:102 1.64078e-05
76 *150:77 *635:102 7.1245e-05
77 *151:85 *635:102 0.000868892
78 *154:99 *635:10 1.1907e-05
79 *157:91 *635:42 2.23219e-05
80 *157:91 *635:102 0.000119866
81 *233:99 *635:112 9.78082e-05
82 *248:35 *635:42 1.3849e-05
83 *479:46 *635:42 0.00115142
84 *482:30 *635:42 0.000102702
85 *485:20 *635:42 2.35896e-05
86 *491:96 *635:112 0.000318046
87 *502:79 *635:10 3.64998e-06
88 *502:79 *635:102 2.10959e-05
89 *514:94 *635:42 0.000442605
90 *516:54 *635:102 4.06024e-05
91 *520:56 *635:102 0.000234788
92 *553:28 *635:102 0.00020446
93 *567:90 *635:42 0.000164277
94 *567:90 *635:102 2.29603e-05
95 *568:188 *635:102 0.000258335
96 *568:188 *635:112 3.09164e-05
97 *579:52 *635:102 0.000314291
98 *583:82 *635:42 4.34601e-05
99 *585:66 *635:10 0.000194267
100 *586:92 *635:102 0.00014431
101 *587:44 *635:42 1.02564e-05
102 *591:102 *635:42 0.000420198
103 *594:48 *635:42 2.99153e-05
104 *595:28 *635:112 0.000332876
105 *596:50 *635:42 3.98679e-05
106 *597:12 *2113:A 2.75145e-05
107 *600:74 *635:42 1.05166e-05
108 *618:112 *635:42 9.08185e-05
109 *618:112 *635:102 0.000601515
110 *630:84 *635:42 3.15755e-05
111 *634:78 *635:42 0.000365423
112 *634:154 *635:102 0.000152631
113 *634:176 *635:102 0.000392694
114 *634:186 *1933:D 0.000203348
115 *634:186 *635:102 7.38734e-05
*RES
1 *2211:X *635:10 8.55 
2 *635:10 *635:42 25.4018 
3 *635:42 *2113:A 6.63 
4 *635:42 *2029:D 3.6 
5 *635:10 *635:102 46.3388 
6 *635:102 *635:112 15.835 
7 *635:112 *1997:D 1.6 
8 *635:112 *1933:D 14.45 
9 *635:102 *1965:D 2.755 
*END

*D_NET *636 0.0410168
*CONN
*I *1934:D I *D sky130_fd_sc_hd__dlxtp_1
*I *1998:D I *D sky130_fd_sc_hd__dlxtp_1
*I *2114:A I *D sky130_fd_sc_hd__clkbuf_1
*I *2030:D I *D sky130_fd_sc_hd__dlxtp_1
*I *1966:D I *D sky130_fd_sc_hd__dlxtp_1
*I *2212:X O *D sky130_fd_sc_hd__clkbuf_2
*CAP
1 *1934:D 9.6754e-05
2 *1998:D 0.000652053
3 *2114:A 0
4 *2030:D 0.00323485
5 *1966:D 0
6 *2212:X 0.00579401
7 *636:166 0.000768184
8 *636:159 0.00274759
9 *636:54 0.00326562
10 *636:50 0.00309657
11 *1934:D *1934:GATE 8.23457e-05
12 *1998:D *1889:A2 2.58293e-06
13 *1998:D *673:106 8.10852e-05
14 *2030:D *650:139 3.20743e-05
15 *2030:D *653:12 5.79895e-05
16 *2030:D *665:83 0.00281576
17 *2030:D *681:67 7.9642e-06
18 *2030:D *698:129 0.000305932
19 *2030:D *702:30 1.93834e-05
20 *636:50 *1827:A 2.18869e-05
21 *636:50 *1962:GATE 0.000263959
22 *636:50 *1971:D 0.000108674
23 *636:50 *2180:A 6.39651e-05
24 *636:50 *661:132 0.000262357
25 *636:50 *671:30 1.46216e-05
26 *636:50 *671:53 0.000269624
27 *636:50 *671:113 2.72199e-05
28 *636:50 *676:99 5.30242e-05
29 *636:50 *677:61 6.86767e-05
30 *636:50 *679:8 9.06223e-05
31 *636:50 *687:92 0.000447434
32 *636:50 *701:52 0.000331407
33 *636:159 *1888:A1 0.000160683
34 *636:159 *1934:GATE 0.000118081
35 *636:159 *637:6 2.49909e-05
36 *636:159 *637:114 0.000462636
37 *636:159 *643:116 2.01453e-05
38 *636:159 *645:82 0.000186413
39 *636:159 *661:203 0.000191335
40 *636:159 *668:81 0.000238957
41 *636:159 *672:124 4.96021e-05
42 *636:159 *673:106 0.000322371
43 *636:159 *674:80 3.59784e-05
44 *636:159 *677:42 7.05181e-05
45 *636:159 *679:8 6.89508e-05
46 *636:159 *679:59 0.00064249
47 *636:159 *693:82 2.49102e-05
48 *636:166 *1934:GATE 4.66108e-05
49 FrameData_O[7] *1998:D 0.000589876
50 *1884:A0 *636:50 0.000818771
51 *1905:S0 *2030:D 0.000119246
52 *1907:S0 *636:50 8.73389e-06
53 *2015:D *636:159 5.68985e-05
54 *2040:D *636:50 2.92496e-05
55 *2132:A *636:50 8.23457e-05
56 *2133:A *636:50 8.23457e-05
57 *2213:A *636:159 0.000477746
58 *2227:A *2030:D 0
59 *2228:A *2030:D 6.87295e-05
60 *2284:A *2030:D 1.79536e-05
61 *2291:A *636:159 0.000349072
62 *2304:A *636:159 0.000141025
63 *2322:A *636:50 0.00033543
64 *2331:A *1998:D 4.77719e-05
65 *2333:A *1998:D 1.7635e-05
66 *2347:A *636:50 6.07575e-06
67 *2347:A *636:159 8.23457e-05
68 *2356:A *1998:D 1.56428e-05
69 *2359:A *1934:D 3.59784e-05
70 *144:75 *2030:D 4.43212e-05
71 *144:75 *636:54 1.56428e-05
72 *145:71 *636:50 0.000574571
73 *146:67 *2030:D 0.000327041
74 *147:47 *2030:D 0
75 *147:75 *636:50 0.000470376
76 *154:85 *636:50 5.79557e-05
77 *157:91 *636:50 0.000165464
78 *157:91 *636:159 1.53917e-05
79 *160:133 *1998:D 0.000251476
80 *233:62 *1998:D 0.000251476
81 *235:45 *1998:D 2.38374e-05
82 *479:161 *1934:D 3.83194e-05
83 *479:161 *636:166 5.83121e-06
84 *483:80 *636:50 7.88934e-05
85 *502:79 *636:50 4.66108e-05
86 *502:79 *636:159 1.08129e-05
87 *519:40 *636:159 8.26578e-05
88 *519:46 *636:50 0.00171708
89 *524:142 *636:50 8.33793e-05
90 *535:76 *1998:D 0.0006739
91 *546:31 *636:159 3.1562e-06
92 *553:28 *636:159 0.000262737
93 *558:50 *636:159 0.000330981
94 *579:52 *636:50 0.00182566
95 *582:94 *636:50 1.8454e-05
96 *585:66 *636:50 1.19928e-05
97 *586:92 *636:50 6.87204e-05
98 *587:118 *636:50 0.00010054
99 *593:94 *636:159 0.000171862
100 *593:118 *636:159 2.16731e-05
101 *597:60 *636:159 0.000198663
102 *602:117 *636:50 3.286e-05
103 *613:42 *636:159 0.000339894
104 *618:112 *636:159 5.53549e-06
105 *632:107 *636:159 2.78999e-05
106 *632:152 *636:159 2.47686e-06
107 *634:78 *2030:D 0
108 *634:78 *636:50 0.000678683
109 *634:154 *636:159 0.000317895
110 *635:10 *636:50 4.10113e-05
111 *635:42 *2030:D 0.000356188
112 *635:42 *636:50 5.41327e-05
113 *635:102 *636:50 7.9035e-05
*RES
1 *2212:X *636:50 49.4529 
2 *636:50 *636:54 2.45 
3 *636:54 *1966:D 1.6 
4 *636:54 *2030:D 19.714 
5 *2212:X *636:159 49.4144 
6 *636:159 *2114:A 1.6 
7 *636:159 *636:166 0.45 
8 *636:166 *1998:D 11.7716 
9 *636:166 *1934:D 3.43 
*END

*D_NET *637 0.0397037
*CONN
*I *1999:D I *D sky130_fd_sc_hd__dlxtp_1
*I *2115:A I *D sky130_fd_sc_hd__clkbuf_1
*I *1935:D I *D sky130_fd_sc_hd__dlxtp_1
*I *2031:D I *D sky130_fd_sc_hd__dlxtp_1
*I *1967:D I *D sky130_fd_sc_hd__dlxtp_1
*I *2213:X O *D sky130_fd_sc_hd__clkbuf_2
*CAP
1 *1999:D 0.000222906
2 *2115:A 0.000147781
3 *1935:D 0
4 *2031:D 0.000345332
5 *1967:D 0
6 *2213:X 2.11528e-05
7 *637:116 0.000147781
8 *637:114 0.00231595
9 *637:67 0.00175707
10 *637:46 0.00564807
11 *637:6 0.00635053
12 *1999:D *645:64 0.000164043
13 *1999:D *673:106 0.000338505
14 *637:46 *2003:GATE 4.99289e-05
15 *637:46 *639:30 1.82421e-05
16 *637:46 *645:64 2.22315e-05
17 *637:46 *679:8 0.000143166
18 *637:46 *680:46 0.000221019
19 *637:46 *688:30 0.000449534
20 *637:46 *690:65 6.00867e-05
21 *637:46 *694:76 0.000448671
22 *637:46 *698:129 2.39315e-06
23 *637:46 *701:52 0.000595311
24 *637:67 *647:123 0.000723363
25 *637:67 *647:189 2.59816e-05
26 *637:67 *691:16 1.73074e-05
27 *637:67 *697:62 4.60123e-05
28 *637:67 *707:28 7.76294e-05
29 *637:114 *1808:A0 0.000117278
30 *637:114 *1812:A0 0.00026085
31 *637:114 *1881:A0 4.41506e-05
32 *637:114 *1888:A1 0.000135667
33 *637:114 *2177:A 4.66108e-05
34 *637:114 *645:64 5.93727e-05
35 *637:114 *661:203 0.000141541
36 *637:114 *667:154 0.000344543
37 *637:114 *668:81 8.38495e-05
38 *637:114 *672:124 0
39 *637:114 *673:106 0
40 *637:114 *674:80 8.23457e-05
41 *637:114 *675:56 9.03138e-05
42 *637:114 *675:130 1.77595e-05
43 *637:114 *677:26 0.000458041
44 *637:114 *679:59 0
45 *637:114 *687:92 0.000152681
46 *637:114 *693:82 0.000237091
47 *637:114 *698:68 2.97573e-06
48 D_config_C_bit3 *637:46 0.000385428
49 E2BEG[0] *637:67 8.35106e-05
50 FrameData_O[5] *1999:D 1.08758e-05
51 *1862:A1 *637:67 5.86847e-05
52 *1881:S0 *637:114 0.000252192
53 *2062:A *637:114 4.77719e-05
54 *2213:A *637:46 3.83486e-05
55 *2230:A *637:46 3.63428e-05
56 *2244:A *637:67 0.000100786
57 *2253:A *637:67 0.000377696
58 *2261:A *637:67 0.000804823
59 *2265:A *637:67 1.01911e-05
60 *2282:A *637:46 0.000143107
61 *2284:A *1999:D 1.38481e-05
62 *2287:A *637:67 0.000151761
63 *2292:A *637:46 0.00019312
64 *2292:A *637:67 7.14699e-05
65 *2295:A *637:67 1.44779e-05
66 *2313:A *2115:A 0.000263816
67 *2326:A *637:46 0.000790032
68 *2328:A *637:46 1.95067e-05
69 *2333:A *1999:D 0.000537083
70 *2333:A *637:114 0.000440026
71 *2342:A *1999:D 1.56428e-05
72 *2360:A *2115:A 4.91081e-05
73 *2391:A *637:46 1.63588e-05
74 *144:75 *637:67 5.21459e-06
75 *145:71 *637:46 0.000677066
76 *148:21 *637:67 0.000290384
77 *151:33 *637:67 0.000359175
78 *154:85 *637:46 0.00040267
79 *159:101 *637:114 2.05293e-05
80 *160:85 *637:46 0.000306219
81 *160:115 *2115:A 6.33103e-05
82 *181:56 *637:46 0.00105777
83 *266:10 *2031:D 6.97034e-05
84 *481:30 *637:67 0.000474501
85 *485:20 *637:46 8.84507e-05
86 *516:54 *637:114 4.63462e-05
87 *542:30 *2115:A 0.000225285
88 *544:46 *637:46 0.000846211
89 *545:72 *637:46 0.00028298
90 *546:31 *637:6 1.56428e-05
91 *546:31 *637:114 3.64998e-06
92 *560:44 *637:67 0.00157712
93 *567:32 *637:46 0.000159308
94 *567:32 *637:67 0.000670208
95 *582:40 *637:46 2.482e-05
96 *582:94 *637:46 0.000295667
97 *583:82 *637:46 0.00016086
98 *585:66 *637:46 6.38351e-06
99 *590:112 *637:46 0.00149958
100 *591:102 *637:46 0.00117627
101 *600:74 *637:46 4.85635e-05
102 *602:70 *637:114 0.000118081
103 *624:58 *637:46 0.00011659
104 *627:106 *637:46 4.76951e-05
105 *629:52 *637:46 0.000158299
106 *631:65 *637:114 0.000117278
107 *631:112 *637:46 1.85908e-05
108 *632:107 *637:114 0.000140004
109 *634:154 *637:114 4.90253e-05
110 *635:42 *637:46 3.55555e-05
111 *636:159 *637:6 2.49909e-05
112 *636:159 *637:114 0.000462636
*RES
1 *2213:X *637:6 2.05 
2 *637:6 *637:46 23.8062 
3 *637:46 *1967:D 1.6 
4 *637:46 *637:67 48.7 
5 *637:67 *2031:D 6.535 
6 *637:6 *637:114 39.2271 
7 *637:114 *637:116 2 
8 *637:116 *1935:D 1.6 
9 *637:116 *2115:A 5.5 
10 *637:114 *1999:D 10.53 
*END

*D_NET *638 0.025613
*CONN
*I *1936:D I *D sky130_fd_sc_hd__dlxtp_1
*I *2000:D I *D sky130_fd_sc_hd__dlxtp_1
*I *1968:D I *D sky130_fd_sc_hd__dlxtp_1
*I *2116:A I *D sky130_fd_sc_hd__clkbuf_2
*I *2032:D I *D sky130_fd_sc_hd__dlxtp_1
*I *2214:X O *D sky130_fd_sc_hd__clkbuf_2
*CAP
1 *1936:D 0
2 *2000:D 0.000508629
3 *1968:D 0.000233655
4 *2116:A 0.000173262
5 *2032:D 0.000545976
6 *2214:X 0.0015571
7 *638:74 0.000681013
8 *638:24 0.00170832
9 *638:18 0.00131617
10 *638:16 0.00147815
11 *1968:D *1968:GATE 0.000191232
12 *1968:D *672:148 0
13 *2000:D *1937:D 2.35254e-05
14 *2000:D *2000:GATE 8.33308e-05
15 *2000:D *643:116 2.34331e-05
16 *2000:D *668:49 0.000107595
17 *2000:D *672:124 2.5946e-05
18 *2000:D *677:42 0.00023151
19 *2000:D *693:82 9.12146e-06
20 *2032:D *2182:A 2.97143e-05
21 *2032:D *2183:A 2.01259e-05
22 *2032:D *681:6 4.66108e-05
23 *638:16 *1876:A2 7.55233e-05
24 *638:16 *672:148 0.000864255
25 *638:16 *674:80 1.41165e-05
26 *638:18 *1876:A2 4.15613e-05
27 *638:18 *672:152 4.36573e-06
28 *638:24 *1952:GATE 0.000145627
29 *638:24 *672:152 1.01152e-05
30 *638:24 *672:190 0.000231298
31 *638:74 *1936:GATE 3.63869e-05
32 *638:74 *2001:D 3.64998e-06
33 *638:74 *639:30 9.72361e-05
34 *638:74 *639:98 0.000155601
35 *638:74 *674:80 4.77719e-05
36 *638:74 *675:56 4.66108e-05
37 C_config_C_bit1 *638:18 0.000308345
38 *718:DIODE *638:24 0.000129623
39 *1812:S1 *2000:D 4.03783e-05
40 *1926:D *638:24 0.000410138
41 *2211:A *638:16 5.89912e-05
42 *2214:A *638:16 6.33103e-05
43 *2273:A *638:24 2.4997e-05
44 *2274:A *638:24 0.00108958
45 *2281:A *638:16 0.00106696
46 *2282:A *638:74 0.000132262
47 *2395:A *638:24 0.00230385
48 *152:15 *638:24 0.00019328
49 *153:59 *638:16 3.09415e-05
50 *153:105 *638:16 6.86962e-05
51 *154:41 *2032:D 0.000123556
52 *154:41 *638:24 0.000282365
53 *154:99 *638:16 0.000611915
54 *157:53 *638:16 0.00132635
55 *158:71 *638:74 2.8781e-05
56 *496:20 *2032:D 0.000120608
57 *496:20 *638:24 0.000109898
58 *510:28 *638:16 0.000701694
59 *510:28 *638:74 2.11536e-05
60 *557:104 *2116:A 8.247e-05
61 *583:28 *2116:A 0.00029792
62 *587:16 *638:24 0.00151397
63 *590:112 *2000:D 3.68448e-05
64 *593:46 *638:24 0.000257105
65 *600:122 *638:16 0.000434212
66 *601:8 *2032:D 0
67 *602:70 *2000:D 9.66935e-05
68 *616:44 *638:16 0.00132659
69 *626:70 *2000:D 4.88064e-05
70 *631:112 *638:16 2.12292e-05
71 *631:112 *638:18 0.000414503
72 *631:112 *638:24 0.000927231
73 *633:30 *638:16 0.000139238
*RES
1 *2214:X *638:16 47.9775 
2 *638:16 *638:18 4.8225 
3 *638:18 *638:24 48.09 
4 *638:24 *2032:D 11.655 
5 *638:24 *2116:A 7.155 
6 *638:18 *1968:D 7.155 
7 *2214:X *638:74 9.98 
8 *638:74 *2000:D 17.085 
9 *638:74 *1936:D 1.6 
*END

*D_NET *639 0.0261849
*CONN
*I *1937:D I *D sky130_fd_sc_hd__dlxtp_1
*I *2001:D I *D sky130_fd_sc_hd__dlxtp_1
*I *1969:D I *D sky130_fd_sc_hd__dlxtp_1
*I *2033:D I *D sky130_fd_sc_hd__dlxtp_1
*I *2117:A I *D sky130_fd_sc_hd__clkbuf_2
*I *2215:X O *D sky130_fd_sc_hd__clkbuf_2
*CAP
1 *1937:D 0.000136303
2 *2001:D 0.000547797
3 *1969:D 0
4 *2033:D 7.18578e-05
5 *2117:A 0.0002062
6 *2215:X 0.00372694
7 *639:98 0.000757321
8 *639:60 0.00126606
9 *639:58 0.0025687
10 *639:30 0.00523441
11 *1937:D *668:49 3.16174e-05
12 *2001:D *1888:A1 3.64998e-06
13 *2001:D *654:88 3.36735e-05
14 *2001:D *668:49 4.15898e-05
15 *2001:D *687:92 1.67601e-05
16 *639:30 *644:52 0.000642802
17 *639:30 *644:115 0.000370782
18 *639:30 *689:92 4.11223e-05
19 *639:58 *1904:A0 0.000191363
20 *639:58 *1981:GATE 0
21 *639:58 *666:76 0
22 *639:58 *672:198 0
23 *639:58 *684:144 6.45617e-05
24 *639:58 *689:92 0.000156642
25 *639:58 *706:46 1.04035e-05
26 *639:60 *2033:GATE 0.000176983
27 *639:60 *666:32 0.000239601
28 *639:60 *666:56 1.80525e-05
29 *639:60 *681:23 0.000166558
30 *639:60 *683:28 4.82262e-05
31 *639:60 *683:30 4.88177e-05
32 *639:60 *683:34 8.42171e-05
33 *639:98 *687:92 0.00018955
34 B_config_C_bit1 *639:58 0.000174531
35 *718:DIODE *639:30 0.000850465
36 *1812:S0 *2001:D 8.29272e-06
37 *1921:D *639:60 6.71967e-05
38 *1923:D *639:60 0.000340607
39 *1924:D *639:60 2.22382e-05
40 *1983:D *639:58 4.4123e-05
41 *2000:D *1937:D 2.35254e-05
42 *2049:D *639:60 9.58678e-06
43 *2050:D *639:58 4.77719e-05
44 *2276:A *639:30 3.23112e-05
45 *2276:A *639:58 0.00154682
46 *2282:A *639:30 7.07253e-05
47 *2347:A *639:30 0.000112467
48 *2386:A *639:58 0.000333313
49 *2386:A *639:60 0
50 *2390:A *2033:D 0.000157378
51 *2390:A *2117:A 0.000133933
52 *2394:A *639:58 0.000881511
53 *153:39 *639:58 0.000251812
54 *153:39 *639:60 0
55 *154:99 *639:30 1.01182e-05
56 *156:51 *639:58 0.000110482
57 *157:91 *2001:D 0
58 *158:71 *639:30 1.19928e-05
59 *510:28 *639:30 0.000113797
60 *557:104 *639:58 4.0368e-05
61 *557:104 *639:60 0
62 *568:112 *639:30 3.899e-05
63 *568:112 *639:58 0.000497224
64 *568:114 *639:58 0
65 *568:122 *2117:A 1.50383e-05
66 *568:122 *639:60 0.000205211
67 *586:44 *639:58 1.22824e-05
68 *587:118 *639:30 2.58553e-05
69 *590:112 *1937:D 0.000130589
70 *590:112 *2001:D 0.000108356
71 *590:112 *639:30 0.00015889
72 *594:48 *639:58 4.05129e-06
73 *602:70 *1937:D 6.93877e-05
74 *602:70 *2001:D 0.000100874
75 *603:68 *639:30 0.00142145
76 *616:44 *639:30 0.000271543
77 *624:130 *639:58 0.000159697
78 *626:70 *1937:D 0.00019973
79 *628:112 *639:58 0
80 *629:52 *639:30 3.08543e-06
81 *637:46 *639:30 1.82421e-05
82 *638:74 *2001:D 3.64998e-06
83 *638:74 *639:30 9.72361e-05
84 *638:74 *639:98 0.000155601
*RES
1 *2215:X *639:30 17.2392 
2 *639:30 *639:58 41.3372 
3 *639:58 *639:60 18.975 
4 *639:60 *2117:A 6.405 
5 *639:60 *2033:D 5.085 
6 *639:30 *1969:D 3.6 
7 *2215:X *639:98 5.775 
8 *639:98 *2001:D 11.2045 
9 *639:98 *1937:D 7.065 
*END

*D_NET *640 0.0221064
*CONN
*I *2038:GATE I *D sky130_fd_sc_hd__dlxtp_1
*I *2140:A I *D sky130_fd_sc_hd__buf_1
*I *2185:A I *D sky130_fd_sc_hd__clkbuf_2
*I *2027:GATE I *D sky130_fd_sc_hd__dlxtp_1
*I *2216:X O *D sky130_fd_sc_hd__clkbuf_2
*CAP
1 *2038:GATE 0.000109642
2 *2140:A 0
3 *2185:A 7.08863e-05
4 *2027:GATE 4.89428e-05
5 *2216:X 0.00117208
6 *640:49 0.000194918
7 *640:45 0.000301411
8 *640:34 0.000903494
9 *640:28 0.00164898
10 *640:24 0.00203424
11 *2027:GATE *675:192 4.41506e-05
12 *2038:GATE *1884:A1 0.000166942
13 *2038:GATE *643:116 0.000176567
14 *2038:GATE *652:139 6.33103e-05
15 *2185:A *643:116 2.14005e-05
16 *640:34 *1884:A1 0.000706746
17 *640:34 *1986:GATE 8.11126e-05
18 *640:34 *658:109 0.000849209
19 *640:34 *673:124 4.64666e-05
20 *640:34 *689:92 0.000106377
21 *640:34 *705:49 0.000369523
22 *640:45 *1884:A1 0.000166885
23 *640:45 *643:116 5.13684e-05
24 *640:45 *673:124 1.98677e-05
25 *640:45 *689:92 8.13972e-05
26 *640:49 *643:116 0.000117982
27 A_I_top *640:24 0.000106344
28 A_T_top *640:24 1.88656e-05
29 B_I_top *640:24 1.88656e-05
30 B_T_top *640:24 3.99395e-05
31 C_I_top *640:24 0.000104463
32 C_T_top *640:24 0.000296755
33 *1880:A2 *640:34 1.252e-05
34 *1917:D *640:24 2.10433e-05
35 *1954:D *640:34 5.83121e-06
36 *2016:D *640:34 0
37 *2090:A *2027:GATE 5.83121e-06
38 *2208:A *640:24 0.0001099
39 *2273:A *640:24 4.03499e-05
40 *2276:A *640:34 4.66108e-05
41 *2386:A *640:24 0.000532233
42 *2391:A *640:24 0.000230176
43 *153:39 *640:24 0.000356575
44 *154:41 *640:24 0
45 *159:77 *640:34 0.00044619
46 *160:85 *640:24 0.00015829
47 *243:42 *2038:GATE 6.33103e-05
48 *479:30 *640:24 1.54061e-06
49 *479:30 *640:28 0.000291869
50 *490:16 *640:24 0.000129223
51 *500:28 *640:24 0.000137563
52 *557:46 *640:28 0.00251687
53 *557:104 *640:24 0.000476705
54 *582:20 *640:24 0.000405121
55 *583:28 *640:24 0
56 *590:14 *640:28 0.00398194
57 *600:74 *640:34 0.000513763
58 *601:10 *640:28 0
59 *613:95 *2185:A 0.000121027
60 *624:118 *640:28 0.000451576
61 *624:118 *640:34 0.000634439
62 *624:151 *640:34 0.000170497
63 *632:16 *640:24 0.000106292
*RES
1 *2216:X *640:24 38.17 
2 *640:24 *640:28 46.985 
3 *640:28 *640:34 27.965 
4 *640:34 *2027:GATE 4.395 
5 *640:34 *640:45 2.145 
6 *640:45 *640:49 4.175 
7 *640:49 *2185:A 3.085 
8 *640:49 *2140:A 1.6 
9 *640:45 *2038:GATE 6.885 
*END

*D_NET *641 0.00395431
*CONN
*I *2144:A I *D sky130_fd_sc_hd__clkbuf_2
*I *2168:A I *D sky130_fd_sc_hd__clkbuf_2
*I *1924:GATE I *D sky130_fd_sc_hd__dlxtp_1
*I *1923:GATE I *D sky130_fd_sc_hd__dlxtp_1
*I *2217:X O *D sky130_fd_sc_hd__buf_1
*CAP
1 *2144:A 3.87418e-05
2 *2168:A 0
3 *1924:GATE 5.58682e-05
4 *1923:GATE 9.54152e-05
5 *2217:X 0.00081919
6 *641:23 0.000105732
7 *641:21 0.00017787
8 *641:8 0.00100387
9 *1924:GATE *666:32 4.66108e-05
10 *1924:GATE *666:126 2.49909e-05
11 *641:8 *1919:GATE 0.00013521
12 *1920:D *641:8 0
13 *2385:A *641:8 0
14 *2388:A *641:8 0
15 *2388:A *641:21 0
16 *156:39 *641:8 0.00113637
17 *156:39 *641:21 0.000172198
18 *157:31 *641:8 0
19 *500:28 *1924:GATE 3.96284e-05
20 *500:28 *2144:A 3.30017e-05
21 *500:28 *641:23 2.76356e-05
22 *600:74 *641:8 4.1977e-05
*RES
1 *2217:X *641:8 21.3 
2 *641:8 *1923:GATE 4.74 
3 *641:8 *641:21 4.145 
4 *641:21 *641:23 0.795 
5 *641:23 *1924:GATE 2.74 
6 *641:23 *2168:A 1.6 
7 *641:21 *2144:A 2.395 
*END

*D_NET *642 0.0433891
*CONN
*I *1812:A0 I *D sky130_fd_sc_hd__mux4_1
*I *1811:A0 I *D sky130_fd_sc_hd__mux4_1
*I *1875:A0 I *D sky130_fd_sc_hd__mux4_1
*I *1879:A0 I *D sky130_fd_sc_hd__mux4_1
*I *2218:X O *D sky130_fd_sc_hd__clkbuf_2
*CAP
1 *1812:A0 0.00142135
2 *1811:A0 0.000354921
3 *1875:A0 0
4 *1879:A0 0.000123577
5 *2218:X 0.00580035
6 *642:106 0.00467345
7 *642:55 0.00323498
8 *642:38 0.00626173
9 *1811:A0 *686:46 4.49305e-05
10 *1812:A0 *661:203 6.56553e-05
11 *1812:A0 *665:18 5.48747e-05
12 *1812:A0 *672:124 9.67062e-05
13 *1812:A0 *673:106 0.000262426
14 *1812:A0 *676:48 4.14078e-05
15 *1812:A0 *679:59 0.000199906
16 *1812:A0 *693:82 0.000101784
17 *1879:A0 *1875:A2 4.41506e-05
18 *642:38 *646:32 0.00224859
19 *642:38 *647:16 0.00113739
20 *642:38 *647:28 0.000410859
21 *642:38 *659:116 0.000297247
22 *642:38 *661:81 5.0376e-05
23 *642:38 *661:112 0.000260921
24 *642:38 *662:142 0.000105473
25 *642:38 *665:83 0.000477772
26 *642:38 *671:111 2.20678e-05
27 *642:38 *694:76 8.9464e-06
28 *642:38 *701:52 2.76638e-05
29 *642:38 *703:60 0.00180799
30 *642:55 *662:142 0.000342042
31 *642:106 *1825:C_N 9.05308e-05
32 *642:106 *1885:A2 0.000713094
33 *642:106 *664:166 8.53113e-06
34 *642:106 *665:38 0.000127379
35 *642:106 *675:174 0.0001793
36 *642:106 *686:46 0.000251466
37 *642:106 *688:30 0.000123462
38 *642:106 *692:64 6.03272e-05
39 *642:106 *701:52 0.000516657
40 E2BEG[2] *642:38 0.0003166
41 E2BEG[3] *642:38 0.000277894
42 *1811:A3 *1811:A0 7.9642e-06
43 *1811:S0 *1811:A0 2.65814e-06
44 *1812:S0 *1812:A0 8.23457e-05
45 *1862:B1 *642:38 2.90597e-06
46 *1870:A1 *642:38 1.92979e-05
47 *1875:A1 *642:55 2.76356e-05
48 *1875:A1 *642:106 2.19562e-06
49 *1875:S0 *642:106 5.83121e-06
50 *1879:A1 *1879:A0 2.39856e-05
51 *1881:S1 *1812:A0 6.17086e-06
52 *1895:A3 *1879:A0 5.83121e-06
53 *2255:A *642:38 0.000185271
54 *2256:A *642:38 2.03404e-05
55 *2269:A *642:38 4.34181e-05
56 *2270:A *642:38 0.000256119
57 *2284:A *642:38 0.000202845
58 *2284:A *642:106 0.00022114
59 *2291:A *642:106 0.000215532
60 *2297:A *642:106 0.000382467
61 *2299:A *642:106 1.66317e-05
62 *2306:A *1811:A0 3.77609e-05
63 *2314:A *1811:A0 2.2142e-05
64 *2318:A *1811:A0 0.000142264
65 *2318:A *1812:A0 0.000103315
66 *2318:A *642:106 6.37412e-05
67 *2320:A *1811:A0 7.37187e-05
68 *2326:A *642:106 3.92756e-05
69 *2330:A *1812:A0 2.36687e-05
70 *142:57 *642:38 0.00133618
71 *145:35 *642:38 1.74835e-05
72 *145:71 *642:106 0.00010139
73 *146:67 *642:38 0.000379512
74 *148:89 *1812:A0 8.4644e-05
75 *148:89 *642:106 0.000598898
76 *150:35 *642:38 1.42012e-05
77 *159:77 *642:106 8.2048e-05
78 *160:85 *642:38 1.66607e-05
79 *160:115 *1811:A0 7.60389e-05
80 *236:40 *1811:A0 1.7635e-05
81 *409:32 *642:38 0.000106911
82 *409:32 *642:55 0.000336204
83 *409:32 *642:106 0.000598116
84 *482:30 *642:38 0.000115256
85 *483:80 *642:38 6.17086e-05
86 *483:80 *642:106 9.9511e-05
87 *517:50 *642:106 0.000120863
88 *520:56 *642:106 0.000175818
89 *531:62 *1811:A0 2.91921e-05
90 *533:44 *642:106 4.66417e-05
91 *535:76 *1811:A0 6.75171e-06
92 *535:76 *1812:A0 0.000294742
93 *536:26 *1811:A0 4.3483e-05
94 *538:72 *642:106 0.000109287
95 *545:72 *642:38 4.2145e-05
96 *558:50 *642:106 0.000152683
97 *567:90 *642:106 0.000728148
98 *579:32 *1812:A0 1.33333e-05
99 *583:82 *642:106 0.000112826
100 *586:92 *1812:A0 0.000253228
101 *593:94 *642:106 0
102 *596:50 *642:38 1.09082e-05
103 *596:140 *1811:A0 0.000230076
104 *596:140 *1812:A0 0.000253103
105 *596:140 *642:106 0.00016263
106 *597:60 *1812:A0 0.00018219
107 *600:122 *642:106 0.000469112
108 *613:42 *1812:A0 0.000518821
109 *618:112 *642:106 0.000178067
110 *624:82 *642:38 4.55462e-06
111 *632:66 *642:38 9.39045e-07
112 *634:78 *642:106 6.50545e-05
113 *637:114 *1812:A0 0.00026085
*RES
1 *2218:X *642:38 22.8341 
2 *642:38 *1879:A0 5.43 
3 *642:38 *642:55 9.065 
4 *642:55 *1875:A0 1.6 
5 *642:55 *642:106 17.6584 
6 *642:106 *1811:A0 11.3758 
7 *642:106 *1812:A0 10.665 
*END

*D_NET *643 0.0342644
*CONN
*I *1897:A3 I *D sky130_fd_sc_hd__mux4_1
*I *1893:A3 I *D sky130_fd_sc_hd__mux4_1
*I *1878:A3 I *D sky130_fd_sc_hd__mux4_1
*I *2059:D I *D sky130_fd_sc_hd__dfxtp_1
*I *1812:A3 I *D sky130_fd_sc_hd__mux4_1
*I *1876:A3 I *D sky130_fd_sc_hd__mux4_1
*I *1880:A3 I *D sky130_fd_sc_hd__mux4_1
*I *2219:X O *D sky130_fd_sc_hd__clkbuf_2
*CAP
1 *1897:A3 0.000149629
2 *1893:A3 0.000828961
3 *1878:A3 0.000138937
4 *2059:D 0.000121695
5 *1812:A3 0
6 *1876:A3 0
7 *1880:A3 0
8 *2219:X 0.000761298
9 *643:164 0.00181249
10 *643:129 0.00116581
11 *643:116 0.00182101
12 *643:79 0.00212105
13 *643:50 0.00261334
14 *643:10 0.0030247
15 *1893:A3 *1809:A0 6.11277e-05
16 *1893:A3 *1890:A2 7.9642e-06
17 *1893:A3 *679:59 9.57555e-05
18 *1893:A3 *693:163 5.98468e-05
19 *1897:A3 *1897:A0 3.1876e-05
20 *2059:D *698:68 2.51154e-05
21 *643:10 *1848:A1 8.23457e-05
22 *643:10 *664:14 0.000460253
23 *643:10 *683:18 3.70632e-05
24 *643:10 *683:28 0.000239731
25 *643:50 *1837:C 0.000127011
26 *643:50 *1861:A0 0
27 *643:50 *1910:A1 0.000241849
28 *643:50 *664:14 0.000218619
29 *643:50 *668:95 2.01543e-05
30 *643:50 *668:107 5.06608e-05
31 *643:50 *672:190 1.82476e-05
32 *643:50 *705:49 0.000404979
33 *643:79 *1876:A2 0.000173986
34 *643:79 *644:46 9.23681e-05
35 *643:79 *684:124 0.000110829
36 *643:116 *1884:A1 0.000139915
37 *643:116 *652:139 0.000261515
38 *643:116 *658:133 0.000577442
39 *643:116 *672:124 1.625e-05
40 *643:116 *673:124 0.000441071
41 *643:116 *679:59 4.04634e-05
42 *643:116 *693:82 5.02217e-05
43 *643:116 *698:68 0.000137194
44 *643:129 *672:124 1.29665e-05
45 *643:129 *674:80 1.01155e-05
46 *643:164 *1808:A3 5.69898e-06
47 *643:164 *672:52 0.000846246
48 *643:164 *674:80 1.01155e-05
49 *643:164 *679:59 0.000276317
50 *643:164 *693:84 0
51 *643:164 *703:60 0.000102224
52 *1799:A *643:50 1.94684e-05
53 *1812:A2 *643:116 3.98967e-06
54 *1812:A2 *643:129 8.99099e-05
55 *1812:S1 *643:116 5.43696e-05
56 *1823:C *643:116 3.32661e-05
57 *1824:A2 *643:116 0
58 *1824:C1 *643:116 0.000191548
59 *1838:B1 *643:50 0.000146255
60 *1838:C1 *643:50 0.000104619
61 *1845:S0 *643:10 2.31296e-05
62 *1876:S1 *643:79 4.22042e-05
63 *1876:S1 *643:116 8.11602e-05
64 *1878:S1 *643:164 0.000112409
65 *1880:A2 *643:50 0.000177144
66 *1880:S1 *643:50 1.09662e-05
67 *1897:S0 *1897:A3 0.000158443
68 *1897:S1 *1897:A3 6.06867e-05
69 *1900:S1 *1893:A3 0.00010197
70 *1955:D *643:50 8.53224e-05
71 *1986:D *643:50 1.77595e-05
72 *2000:D *643:116 2.34331e-05
73 *2038:GATE *643:116 0.000176567
74 *2049:D *643:10 4.86493e-05
75 *2059:CLK *2059:D 0.000104065
76 *2070:A *643:50 0.000282388
77 *2086:A *643:50 6.95331e-05
78 *2090:A *643:79 6.55079e-05
79 *2185:A *643:116 2.14005e-05
80 *2291:A *643:164 8.33423e-05
81 *2297:A *643:164 0.000131278
82 *2326:A *643:50 0.000147357
83 *2345:A *1878:A3 2.85764e-05
84 *2350:A *1893:A3 0.00120611
85 *2362:A *643:164 0.000109407
86 *146:67 *643:10 0.000116216
87 *153:39 *643:50 1.21359e-05
88 *157:91 *643:116 0.000312843
89 *157:91 *643:129 1.49469e-05
90 *157:111 *2059:D 4.66108e-05
91 *157:111 *643:129 0.000146854
92 *159:77 *643:50 8.14856e-05
93 *181:56 *643:50 0.000140487
94 *181:56 *643:79 9.58008e-05
95 *233:99 *1893:A3 0.000186894
96 *245:10 *643:116 0.00014334
97 *245:16 *643:116 0.000314712
98 *255:12 *643:10 9.58047e-05
99 *262:28 *643:50 1.86911e-05
100 *480:108 *643:164 6.34895e-05
101 *502:65 *643:116 0
102 *502:65 *643:164 1.83975e-05
103 *502:79 *643:116 0.000100749
104 *505:22 *643:50 0.00176228
105 *513:37 *1893:A3 0.000117918
106 *513:86 *643:116 0.000276754
107 *513:86 *643:164 9.40935e-05
108 *519:40 *1893:A3 9.55821e-06
109 *544:46 *643:50 1.03352e-05
110 *544:46 *643:164 3.63701e-06
111 *568:188 *1893:A3 2.39956e-05
112 *585:66 *2059:D 9.77836e-05
113 *587:44 *643:50 5.53549e-06
114 *587:118 *643:79 0
115 *587:118 *643:116 0.000616972
116 *590:130 *643:129 1.30972e-05
117 *590:145 *1878:A3 9.09788e-06
118 *590:145 *643:164 5.69248e-06
119 *590:170 *1878:A3 1.10474e-05
120 *590:170 *643:164 5.05716e-06
121 *591:48 *2059:D 4.77757e-05
122 *591:48 *643:129 0.000178476
123 *591:48 *643:164 0.000252465
124 *591:102 *643:79 3.40096e-05
125 *593:94 *643:116 0.000145681
126 *600:122 *643:116 0.000105955
127 *602:166 *643:10 0.000900194
128 *602:166 *643:50 0.000682965
129 *613:95 *643:116 0.000120742
130 *615:14 *1893:A3 0.00061949
131 *618:40 *643:50 0.000240773
132 *618:40 *643:116 2.28445e-05
133 *624:58 *643:116 7.23602e-05
134 *624:82 *643:79 9.33083e-05
135 *626:100 *643:50 0.000139262
136 *626:100 *643:79 0.000315786
137 *626:102 *643:50 0
138 *626:126 *643:50 0
139 *630:84 *643:50 5.18735e-06
140 *631:65 *643:164 0.000804326
141 *632:107 *643:164 2.26338e-05
142 *634:78 *643:116 7.91885e-05
143 *634:154 *643:116 0.00016046
144 *636:159 *643:116 2.01453e-05
145 *640:45 *643:116 5.13684e-05
146 *640:49 *643:116 0.000117982
*RES
1 *2219:X *643:10 21.51 
2 *643:10 *643:50 49.7932 
3 *643:50 *1880:A3 3.6 
4 *643:50 *643:79 11.0812 
5 *643:79 *1876:A3 3.6 
6 *643:79 *643:116 43.315 
7 *643:116 *1812:A3 3.6 
8 *643:116 *643:129 4.485 
9 *643:129 *2059:D 6.51 
10 *643:129 *643:164 10.9303 
11 *643:164 *1878:A3 5.7 
12 *643:164 *1893:A3 19.1205 
13 *643:10 *1897:A3 6.57 
*END

*D_NET *644 0.0375864
*CONN
*I *1880:A0 I *D sky130_fd_sc_hd__mux4_1
*I *1812:A1 I *D sky130_fd_sc_hd__mux4_1
*I *1813:A0 I *D sky130_fd_sc_hd__mux4_1
*I *1876:A0 I *D sky130_fd_sc_hd__mux4_1
*I *2220:X O *D sky130_fd_sc_hd__clkbuf_2
*CAP
1 *1880:A0 9.66125e-05
2 *1812:A1 0.000109016
3 *1813:A0 0.00223685
4 *1876:A0 0.000156518
5 *2220:X 0.00142434
6 *644:115 0.00467639
7 *644:52 0.0029665
8 *644:46 0.00234882
9 *644:24 0.0031971
10 *1812:A1 *668:34 0.000134118
11 *1813:A0 *1808:A0 8.247e-05
12 *1813:A0 *645:82 2.10152e-05
13 *1813:A0 *654:88 2.05004e-05
14 *1813:A0 *671:164 0.000161103
15 *1813:A0 *674:40 4.06967e-05
16 *1813:A0 *687:92 0.000489769
17 *1813:A0 *698:68 2.22899e-05
18 *1813:A0 *703:60 5.20644e-06
19 *1813:A0 *703:72 0.000118435
20 *1876:A0 *654:20 0.000101781
21 *1876:A0 *680:46 0.000210441
22 *1880:A0 *689:92 7.81996e-05
23 *644:24 *1843:A1 4.65515e-05
24 *644:24 *1861:A1 0.000287734
25 *644:24 *1910:A0 0.00129233
26 *644:24 *1913:A2 1.7635e-05
27 *644:24 *2036:D 8.07851e-05
28 *644:24 *659:56 0.000168276
29 *644:24 *659:83 1.82476e-05
30 *644:24 *681:59 0.000661039
31 *644:24 *689:24 9.17274e-05
32 *644:46 *664:166 0.000244062
33 *644:46 *699:66 3.0298e-05
34 *644:46 *708:42 0.000249109
35 *644:115 *658:109 0.000277894
36 *644:115 *668:34 0.000176799
37 *644:115 *672:124 0.000102222
38 *644:115 *674:80 8.71749e-05
39 *644:115 *675:56 9.84937e-05
40 D_config_C_bit2 *644:52 2.90597e-06
41 *733:DIODE *644:24 0.000227669
42 *1805:A *644:24 5.94061e-05
43 *1808:A1 *1813:A0 2.39856e-05
44 *1849:A1 *644:24 0.000116637
45 *2039:D *644:115 0.00116623
46 *2058:D *1813:A0 4.82249e-05
47 *2069:A *644:24 0.000115184
48 *2109:A *1812:A1 4.66108e-05
49 *2193:A *644:115 4.08964e-05
50 *2214:A *644:115 5.32562e-05
51 *2215:A *644:115 5.55749e-05
52 *2279:A *1880:A0 2.32546e-05
53 *2326:A *644:46 0.000102222
54 *2347:A *644:115 0.000296294
55 *2350:A *1813:A0 4.68788e-05
56 *2362:A *644:115 2.22315e-05
57 *2389:A *644:24 8.83088e-05
58 *142:57 *644:46 0.000269151
59 *142:57 *644:52 4.0797e-05
60 *142:89 *644:115 4.00541e-06
61 *143:47 *644:24 0.00042965
62 *143:47 *644:46 0.000597879
63 *145:71 *644:46 3.7613e-05
64 *153:105 *644:115 2.50135e-05
65 *154:99 *644:115 0.00014924
66 *158:71 *644:115 1.73013e-05
67 *235:14 *1813:A0 0.000279501
68 *479:30 *644:46 0.000101164
69 *512:18 *1813:A0 0.000493323
70 *513:86 *1813:A0 5.10132e-05
71 *514:94 *644:46 5.83121e-06
72 *524:142 *644:46 0.000110491
73 *525:32 *644:24 0.000112154
74 *533:44 *644:46 0.000534057
75 *544:46 *1813:A0 5.59313e-05
76 *544:46 *644:115 4.45875e-05
77 *556:46 *644:115 2.10433e-05
78 *560:44 *644:24 0.000399893
79 *590:49 *1880:A0 6.89097e-05
80 *590:112 *1876:A0 0.000101781
81 *590:112 *644:115 0.00213003
82 *591:48 *1813:A0 0.00026439
83 *591:102 *644:46 2.65848e-05
84 *597:12 *644:24 2.40314e-05
85 *597:20 *644:24 0.00158713
86 *597:20 *644:46 2.86817e-05
87 *600:74 *644:46 0.000141991
88 *602:70 *644:115 0.000155601
89 *603:68 *1812:A1 0.000160157
90 *603:68 *644:115 1.08758e-05
91 *613:95 *1880:A0 7.95071e-05
92 *616:44 *644:52 0.00066068
93 *616:44 *644:115 0.000498616
94 *624:58 *644:115 1.63588e-05
95 *626:70 *644:115 0.000118081
96 *627:106 *1880:A0 0.000130849
97 *627:106 *644:46 3.40883e-05
98 *627:106 *644:52 0.000182418
99 *627:106 *644:115 0.000871806
100 *631:112 *1876:A0 0.000210106
101 *634:78 *644:46 3.3846e-05
102 *639:30 *644:52 0.000642802
103 *639:30 *644:115 0.000370782
104 *643:79 *644:46 9.23681e-05
*RES
1 *2220:X *644:24 46.32 
2 *644:24 *644:46 18.5864 
3 *644:46 *644:52 2.04407 
4 *644:52 *1876:A0 6.21097 
5 *644:52 *644:115 22.7926 
6 *644:115 *1813:A0 36.0693 
7 *644:115 *1812:A1 4.465 
8 *644:46 *1880:A0 6.8225 
*END

*D_NET *645 0.037134
*CONN
*I *1813:A1 I *D sky130_fd_sc_hd__mux4_1
*I *1886:A0 I *D sky130_fd_sc_hd__mux4_1
*I *1814:A0 I *D sky130_fd_sc_hd__mux4_1
*I *1882:A0 I *D sky130_fd_sc_hd__mux4_1
*I *2221:X O *D sky130_fd_sc_hd__clkbuf_2
*CAP
1 *1813:A1 0
2 *1886:A0 6.85701e-05
3 *1814:A0 4.02437e-05
4 *1882:A0 0
5 *2221:X 0.00100632
6 *645:91 0.000294384
7 *645:82 0.00156683
8 *645:64 0.00421939
9 *645:20 0.00389911
10 *645:14 0.00206731
11 *645:14 *656:10 0.000137571
12 *645:14 *656:30 0.000141869
13 *645:14 *657:24 0.000173378
14 *645:14 *662:22 7.88274e-05
15 *645:20 *650:164 0.00208636
16 *645:64 *647:244 6.77853e-05
17 *645:64 *665:83 9.84349e-05
18 *645:64 *688:30 0.00336334
19 *645:64 *690:65 2.46724e-05
20 *645:64 *698:129 0.000101242
21 *645:64 *702:30 9.52253e-06
22 *645:82 *1893:A1 0.000114839
23 *645:82 *1978:GATE 0.000113511
24 *645:82 *667:174 7.82324e-05
25 *645:82 *669:53 8.51487e-05
26 *645:82 *669:75 1.79483e-05
27 *645:82 *673:50 0.000243938
28 *645:82 *673:106 0.000445499
29 *645:82 *691:105 0.000467342
30 E2BEG[1] *645:64 0.000479978
31 FrameData_O[7] *645:82 8.72995e-05
32 *1813:A0 *645:82 2.10152e-05
33 *1814:S1 *1814:A0 8.49205e-05
34 *1871:S0 *645:14 7.17696e-05
35 *1883:A3 *1886:A0 0.000178321
36 *1883:A3 *645:82 0.000111906
37 *1883:A3 *645:91 0.000517125
38 *1899:S1 *645:82 8.13313e-06
39 *1999:D *645:64 0.000164043
40 *2061:A *645:82 6.33103e-05
41 *2095:A *645:82 0.000113221
42 *2107:A *645:64 0.000208441
43 *2163:A *645:82 0.000253461
44 *2236:A *645:14 0.000242747
45 *2237:A *645:14 0.000399028
46 *2238:A *645:14 0.000440463
47 *2284:A *645:64 0.000331147
48 *2291:A *645:64 3.69766e-05
49 *2294:A *645:64 3.49925e-05
50 *2295:A *645:20 0.00160503
51 *2318:A *645:82 0.00108436
52 *2336:A *645:82 2.60986e-05
53 *2358:A *645:82 9.387e-06
54 *2360:A *645:82 1.44259e-05
55 *143:9 *645:14 0.000161742
56 *146:89 *645:20 0.000268985
57 *147:75 *645:64 0.000169695
58 *148:21 *645:20 0.00208683
59 *148:89 *645:64 0.001355
60 *149:23 *645:14 0
61 *151:15 *645:20 0.00113959
62 *151:85 *1886:A0 8.89019e-05
63 *151:85 *645:82 1.90887e-05
64 *151:85 *645:91 0.000279783
65 *159:101 *645:64 8.97897e-05
66 *160:85 *645:64 0.000320009
67 *160:133 *645:64 1.94615e-05
68 *235:14 *645:82 0.00018955
69 *531:62 *645:82 1.88656e-05
70 *539:26 *645:82 0.000138642
71 *542:30 *645:82 6.83447e-05
72 *545:72 *645:64 0.00112833
73 *558:50 *645:64 0.000501357
74 *560:44 *645:20 3.02209e-05
75 *560:66 *645:20 1.11423e-05
76 *583:82 *645:64 1.0558e-05
77 *585:66 *645:64 3.92756e-05
78 *593:118 *645:82 0
79 *596:50 *645:14 0.000415914
80 *596:50 *645:20 0.000127416
81 *597:60 *645:82 3.13459e-05
82 *600:74 *645:14 0
83 *618:112 *645:82 0.000556945
84 *636:159 *645:82 0.000186413
85 *637:46 *645:64 2.22315e-05
86 *637:114 *645:64 5.93727e-05
*RES
1 *2221:X *645:14 12.2648 
2 *645:14 *645:20 46.7075 
3 *645:20 *645:64 25.3204 
4 *645:64 *645:82 40.71 
5 *645:82 *1882:A0 3.6 
6 *645:82 *645:91 6.225 
7 *645:91 *1814:A0 4.395 
8 *645:91 *1886:A0 5.745 
9 *645:64 *1813:A1 1.6 
*END

*D_NET *646 0.0428445
*CONN
*I *1814:A2 I *D sky130_fd_sc_hd__mux4_1
*I *1885:A0 I *D sky130_fd_sc_hd__mux4_1
*I *1881:A0 I *D sky130_fd_sc_hd__mux4_1
*I *1811:A1 I *D sky130_fd_sc_hd__mux4_1
*I *2222:X O *D sky130_fd_sc_hd__clkbuf_2
*CAP
1 *1814:A2 0.00147108
2 *1885:A0 4.41719e-05
3 *1881:A0 0.000612952
4 *1811:A1 0.000193913
5 *2222:X 0.00453674
6 *646:88 0.00407536
7 *646:53 0.00346715
8 *646:32 0.00502474
9 *1811:A1 *686:46 0.000103315
10 *1814:A2 *1949:GATE 0
11 *1814:A2 *650:254 0.000230004
12 *1814:A2 *691:72 8.23457e-05
13 *1814:A2 *704:110 3.93935e-05
14 *1881:A0 *665:38 4.12356e-05
15 *1881:A0 *667:154 1.93834e-05
16 *1885:A0 *650:254 5.16418e-05
17 *646:32 *653:172 0.00227922
18 *646:32 *659:12 2.53305e-05
19 *646:32 *695:90 0.000355031
20 *646:32 *696:26 0.00296409
21 *646:32 *697:62 0.00152068
22 *646:32 *703:60 0.00113259
23 *646:53 *686:46 0.000243211
24 *646:88 *1893:A1 7.33639e-05
25 *646:88 *686:46 0.00167314
26 *646:88 *691:72 5.69231e-05
27 E6BEG[0] *646:32 0.000147635
28 E6BEG[1] *646:32 0.000143611
29 E6BEG[3] *1811:A1 7.44705e-05
30 E6BEG[4] *1811:A1 7.53239e-05
31 E6BEG[4] *1881:A0 1.45731e-05
32 E6BEG[4] *646:32 0.000484732
33 E6BEG[5] *1881:A0 7.959e-05
34 E6BEG[5] *646:32 0.000372252
35 FrameData_O[10] *1814:A2 7.07047e-06
36 FrameData_O[11] *646:88 0.000152159
37 FrameData_O[12] *1814:A2 8.77422e-05
38 FrameData_O[1] *646:88 0.000246923
39 FrameData_O[26] *1814:A2 0.000114293
40 FrameData_O[27] *1814:A2 0.000520351
41 FrameData_O[28] *1814:A2 3.82728e-05
42 FrameData_O[9] *646:88 7.48537e-05
43 *1814:A3 *1814:A2 9.50342e-06
44 *1814:S1 *1814:A2 2.05864e-05
45 *1871:S0 *646:32 0.000124496
46 *1871:S1 *646:32 0.00010231
47 *1881:S0 *1881:A0 8.23457e-05
48 *1881:S1 *1881:A0 0.000569456
49 *1882:S0 *1814:A2 8.53113e-06
50 *1906:S0 *1814:A2 2.35379e-05
51 *2068:A *1814:A2 2.95848e-05
52 *2235:A *646:32 0.000500927
53 *2236:A *646:32 0.000645835
54 *2306:A *1811:A1 2.76356e-05
55 *2308:A *1881:A0 1.88261e-05
56 *2312:A *1811:A1 1.7635e-05
57 *2324:A *646:32 5.53549e-06
58 *2333:A *1881:A0 1.93834e-05
59 *2333:A *646:88 1.74678e-05
60 *2334:A *1814:A2 0.000195412
61 *2335:A *1814:A2 2.53305e-05
62 *2337:A *646:88 0.000151348
63 *2341:A *1814:A2 0.000559785
64 *2348:A *1814:A2 1.19928e-05
65 *2348:A *646:88 0
66 *2353:A *1814:A2 5.41918e-05
67 *2357:A *646:88 0
68 *146:67 *646:32 0.000546087
69 *147:47 *646:32 5.0384e-05
70 *147:101 *1814:A2 0.0005634
71 *149:23 *646:32 8.77388e-05
72 *149:111 *1814:A2 0.000448275
73 *151:85 *1881:A0 3.9316e-05
74 *233:62 *1885:A0 5.74866e-05
75 *233:62 *646:88 4.66108e-05
76 *233:80 *1814:A2 0.000225141
77 *233:80 *1885:A0 4.9968e-05
78 *479:130 *1881:A0 6.17446e-06
79 *514:94 *1881:A0 5.31006e-05
80 *524:142 *646:32 3.02789e-05
81 *531:62 *1811:A1 0.000101146
82 *535:76 *1881:A0 2.44594e-05
83 *559:46 *646:32 0.000344448
84 *560:44 *646:32 0.00016103
85 *564:52 *646:32 0.000175271
86 *632:152 *1814:A2 5.93727e-05
87 *632:161 *1814:A2 0.000509727
88 *635:42 *646:32 0.000799843
89 *637:114 *1881:A0 4.41506e-05
90 *642:38 *646:32 0.00224859
*RES
1 *2222:X *646:32 28.5506 
2 *646:32 *1811:A1 5.96317 
3 *646:32 *646:53 0.468667 
4 *646:53 *1881:A0 6.89543 
5 *646:53 *646:88 15.2878 
6 *646:88 *1885:A0 4.665 
7 *646:88 *1814:A2 43.7938 
*END

*D_NET *647 0.0384906
*CONN
*I *1822:A1 I *D sky130_fd_sc_hd__mux2_1
*I *1903:A0 I *D sky130_fd_sc_hd__mux4_1
*I *1836:A1 I *D sky130_fd_sc_hd__mux2_1
*I *1859:A0 I *D sky130_fd_sc_hd__mux4_1
*I *1843:A0 I *D sky130_fd_sc_hd__mux4_1
*I *1867:A0 I *D sky130_fd_sc_hd__mux4_1
*I *1851:A0 I *D sky130_fd_sc_hd__mux4_1
*I *1832:C_N I *D sky130_fd_sc_hd__or3b_1
*I *1818:C_N I *D sky130_fd_sc_hd__or3b_1
*I *2223:X O *D sky130_fd_sc_hd__buf_2
*CAP
1 *1822:A1 0.000721669
2 *1903:A0 0.000127694
3 *1836:A1 0.000477895
4 *1859:A0 6.80723e-05
5 *1843:A0 0.00134941
6 *1867:A0 2.41275e-05
7 *1851:A0 0
8 *1832:C_N 0.000252621
9 *1818:C_N 6.08206e-05
10 *2223:X 0
11 *647:244 0.00231569
12 *647:189 0.00297681
13 *647:133 0.000921134
14 *647:123 0.00235807
15 *647:63 0.000592423
16 *647:46 0.00119146
17 *647:28 0.00119005
18 *647:16 0.00247682
19 *647:4 0.00148014
20 *1818:C_N *648:49 8.23457e-05
21 *1822:A1 *671:111 0.000225285
22 *1822:A1 *693:38 5.75805e-06
23 *1832:C_N *1833:A1 3.12679e-05
24 *1832:C_N *682:29 0.000162688
25 *1836:A1 *1839:C_N 5.78621e-05
26 *1836:A1 *1859:A2 0.000163586
27 *1836:A1 *1911:A0 5.97022e-05
28 *1836:A1 *652:16 9.17399e-06
29 *1836:A1 *652:18 1.14027e-05
30 *1836:A1 *653:20 0.000407657
31 *1836:A1 *653:32 0.000219905
32 *1836:A1 *699:40 1.91396e-05
33 *1843:A0 *1843:A1 2.49909e-05
34 *1843:A0 *1845:A0 0.000273449
35 *1843:A0 *1848:A1 0
36 *1843:A0 *650:47 0.000132276
37 *1843:A0 *652:36 1.7635e-05
38 *1859:A0 *664:125 8.02242e-05
39 *1859:A0 *706:38 0
40 *1867:A0 *1867:A1 1.77665e-05
41 *1903:A0 *1903:A1 0.000154981
42 *1903:A0 *650:164 2.55201e-05
43 *647:16 *658:27 5.18735e-06
44 *647:16 *661:81 0
45 *647:16 *665:83 0.00110955
46 *647:28 *665:83 0.000380374
47 *647:46 *1867:A1 1.19668e-05
48 *647:46 *1867:A2 0.000658108
49 *647:46 *1867:A3 4.43871e-06
50 *647:46 *2118:A 2.23203e-05
51 *647:63 *1833:A1 7.68851e-05
52 *647:63 *2034:D 8.53113e-06
53 *647:63 *651:51 0.000244717
54 *647:123 *650:164 3.59784e-05
55 *647:133 *1861:A3 7.35685e-05
56 *647:133 *650:164 3.54109e-05
57 *647:133 *664:125 0.000266558
58 *647:133 *706:38 0
59 *647:133 *708:22 0.000130027
60 *647:189 *1903:A1 0.000107825
61 *647:189 *691:16 1.38403e-05
62 *647:189 *693:38 2.70428e-05
63 *647:189 *701:52 1.9873e-05
64 *647:189 *703:60 3.18097e-05
65 *647:189 *704:70 0
66 *647:244 *660:87 5.22167e-05
67 *647:244 *686:46 6.83488e-05
68 *647:244 *691:16 0.000211684
69 *647:244 *695:66 0.00022786
70 E1BEG[3] *647:189 8.37079e-06
71 E2BEGb[0] *647:244 3.96088e-05
72 E2BEGb[1] *647:244 5.30797e-05
73 *1818:B *1818:C_N 3.03775e-05
74 *1831:A2 *1832:C_N 0.000313678
75 *1831:B1 *1832:C_N 2.30292e-05
76 *1831:C1 *1832:C_N 8.65961e-05
77 *1835:B1 *1832:C_N 4.84717e-05
78 *1854:A2 *647:46 0.000331523
79 *1857:A1 *647:28 0.000170855
80 *1860:A *647:189 0
81 *1860:B *647:189 0.000201117
82 *1862:A1 *647:123 2.42901e-05
83 *1862:B1 *647:189 0
84 *1865:A0 *1859:A0 1.56428e-05
85 *1865:A1 *647:123 0.000288897
86 *1866:B2 *647:133 0.000161813
87 *1867:S0 *647:46 2.49909e-05
88 *1870:A1 *647:28 0
89 *1874:A1 *1843:A0 0.000108556
90 *2107:A *647:244 6.33103e-05
91 *2224:A *647:16 5.55842e-05
92 *2225:A *647:16 0.000126353
93 *2226:A *647:123 5.06382e-06
94 *2228:A *647:123 4.61701e-06
95 *2229:A *647:123 1.09363e-05
96 *2231:A *647:123 7.26457e-06
97 *2239:A *647:16 0.000140665
98 *2240:A *647:189 0.000208661
99 *2246:A *647:189 3.87352e-05
100 *2250:A *647:189 0.000296171
101 *2253:A *647:189 0.000233691
102 *2255:A *647:189 1.50624e-05
103 *2256:A *647:189 6.2001e-05
104 *2257:A *647:189 7.1932e-06
105 *2258:A *647:189 6.2001e-05
106 *2259:A *647:189 0.000143988
107 *2260:A *647:189 0
108 *2262:A *1836:A1 0.00026585
109 *2264:A *647:123 7.20899e-05
110 *2264:A *647:133 0.000378286
111 *2265:A *647:123 0.000345554
112 *2265:A *647:133 0.000451065
113 *2267:A *647:189 0.000111855
114 *2268:A *647:189 1.26626e-05
115 *2270:A *647:189 0.000126238
116 *2272:A *1843:A0 2.72392e-05
117 *2285:A *647:244 6.33103e-05
118 *2287:A *647:189 1.20052e-05
119 *2290:A *647:244 5.38986e-06
120 *2296:A *647:244 0.000405912
121 *2298:A *647:244 0.00010329
122 *2299:A *1822:A1 3.64998e-06
123 *2300:A *647:244 0.000213034
124 *2316:A *1822:A1 2.59934e-06
125 *2390:A *1818:C_N 4.47209e-05
126 *2390:A *647:63 0.000108761
127 *143:9 *1832:C_N 0
128 *143:9 *647:46 0.000158225
129 *143:9 *647:63 0
130 *144:75 *647:189 0.000385307
131 *145:35 *647:28 1.55603e-05
132 *147:27 *1843:A0 7.17371e-05
133 *147:47 *1859:A0 2.97004e-06
134 *147:99 *647:244 0.00033695
135 *149:75 *647:244 0.00023329
136 *150:35 *1836:A1 0.000299555
137 *150:35 *647:28 0
138 *151:33 *647:189 0.000450723
139 *234:94 *647:244 0.000146021
140 *236:93 *647:244 0.00066855
141 *241:23 *1859:A0 4.77757e-05
142 *265:14 *647:123 0.000151658
143 *481:30 *647:189 0
144 *481:88 *647:244 6.37377e-05
145 *500:28 *647:46 5.6605e-05
146 *525:32 *647:189 0.000406731
147 *533:44 *1822:A1 5.00949e-05
148 *560:44 *647:189 8.23457e-05
149 *567:32 *647:46 3.64998e-06
150 *567:32 *647:123 0.000132718
151 *569:58 *647:244 3.9232e-05
152 *582:20 *1843:A0 8.35068e-05
153 *583:82 *1843:A0 0.00015193
154 *594:48 *647:244 0.000398271
155 *594:74 *647:244 0.000434325
156 *596:140 *1822:A1 0.000119655
157 *597:44 *1822:A1 0.000105738
158 *626:148 *1843:A0 2.05641e-05
159 *634:78 *647:123 0.000135832
160 *635:42 *1843:A0 0.000114588
161 *637:67 *647:123 0.000723363
162 *637:67 *647:189 2.59816e-05
163 *642:38 *647:16 0.00113739
164 *642:38 *647:28 0.000410859
165 *645:64 *647:244 6.77853e-05
*RES
1 *2223:X *647:4 1.6 
2 *647:4 *647:16 7.17383 
3 *647:16 *647:28 5.9865 
4 *647:28 *647:46 22.58 
5 *647:46 *1818:C_N 3.085 
6 *647:46 *647:63 8.57 
7 *647:63 *1832:C_N 9.825 
8 *647:63 *1851:A0 3.6 
9 *647:28 *1867:A0 2.05 
10 *647:16 *1843:A0 8.48683 
11 *647:4 *647:123 21.67 
12 *647:123 *647:133 13.0175 
13 *647:133 *1859:A0 5.0475 
14 *647:133 *1836:A1 6.66237 
15 *647:123 *647:189 37.865 
16 *647:189 *1903:A0 3.775 
17 *647:189 *647:244 48.445 
18 *647:244 *1822:A1 9.985 
*END

*D_NET *648 0.0245285
*CONN
*I *1904:A0 I *D sky130_fd_sc_hd__mux4_1
*I *1859:A2 I *D sky130_fd_sc_hd__mux4_1
*I *1843:A2 I *D sky130_fd_sc_hd__mux4_1
*I *1867:A2 I *D sky130_fd_sc_hd__mux4_1
*I *1851:A2 I *D sky130_fd_sc_hd__mux4_1
*I *1829:A1 I *D sky130_fd_sc_hd__mux2_1
*I *1815:A1 I *D sky130_fd_sc_hd__mux2_1
*I *2224:X O *D sky130_fd_sc_hd__clkbuf_2
*CAP
1 *1904:A0 0.00203171
2 *1859:A2 0.000540348
3 *1843:A2 1.35917e-05
4 *1867:A2 0.000519873
5 *1851:A2 0.000386863
6 *1829:A1 0
7 *1815:A1 0.000138207
8 *2224:X 3.31357e-05
9 *648:109 0.00294708
10 *648:49 0.000554131
11 *648:28 0.000380174
12 *648:22 0.00111016
13 *648:16 0.00129303
14 *648:8 0.00117201
15 *1843:A2 *1845:A3 6.90889e-06
16 *1851:A2 *1819:A2 0.000358734
17 *1851:A2 *664:51 4.77234e-05
18 *1859:A2 *1861:A3 0.000117872
19 *1859:A2 *653:14 0.000244779
20 *1859:A2 *653:20 0.000234298
21 *1859:A2 *653:172 0.000177485
22 *1867:A2 *1867:A1 6.90889e-06
23 *1867:A2 *1867:A3 6.33739e-05
24 *1867:A2 *2118:A 4.13769e-05
25 *1904:A0 *1905:A0 0.000905144
26 *1904:A0 *664:125 0.000531012
27 *1904:A0 *706:46 0.000179665
28 *648:8 *2042:GATE 7.9642e-06
29 *648:8 *660:16 3.15713e-05
30 *648:16 *650:12 0.000481569
31 *648:16 *653:32 0.000159392
32 *648:16 *653:38 0.000841326
33 *648:16 *655:14 0.000128266
34 *648:16 *655:16 0.00120316
35 *648:22 *653:38 0.000199665
36 *648:22 *653:54 0.000111543
37 *648:22 *655:16 6.3062e-05
38 *648:22 *655:24 0.000137886
39 *648:49 *1829:A0 0.000140361
40 *648:109 *1905:A0 8.9654e-05
41 *648:109 *2042:GATE 0.000108201
42 *648:109 *649:134 0.000342143
43 *648:109 *651:28 7.9642e-06
44 *648:109 *655:8 6.33103e-05
45 *648:109 *660:16 0.000242412
46 *648:109 *660:51 8.00033e-05
47 *648:109 *681:80 3.00617e-05
48 *727:DIODE *648:16 4.01548e-05
49 *1804:A *1859:A2 1.38766e-05
50 *1818:A *1815:A1 0.000223329
51 *1818:B *1815:A1 3.64998e-06
52 *1818:B *648:49 7.10593e-06
53 *1818:C_N *648:49 8.23457e-05
54 *1836:A1 *1859:A2 0.000163586
55 *1851:S1 *1867:A2 0.00035627
56 *1854:B1 *1851:A2 1.79536e-05
57 *1858:A2 *1851:A2 1.92979e-05
58 *1862:B1 *1904:A0 0
59 *1865:A0 *1859:A2 9.54903e-05
60 *1898:A3 *648:16 1.92979e-05
61 *2044:D *1851:A2 1.68736e-05
62 *2045:D *1851:A2 0.000444224
63 *2096:A *648:16 6.10863e-05
64 *2262:A *1859:A2 9.41362e-05
65 *2272:A *648:22 0.000369622
66 *2390:A *1815:A1 5.78601e-05
67 *2390:A *648:49 0.000119242
68 *143:9 *648:8 7.00115e-05
69 *143:9 *648:49 6.30135e-05
70 *143:9 *648:109 0.000162295
71 *144:31 *1904:A0 9.53869e-05
72 *144:31 *648:109 4.88871e-05
73 *150:35 *648:22 0.000116216
74 *151:15 *1859:A2 0.00030829
75 *154:85 *1904:A0 0.000210505
76 *159:39 *648:22 0
77 *160:25 *648:22 0.000377233
78 *181:21 *1904:A0 0
79 *239:24 *1815:A1 0.000230438
80 *239:43 *1815:A1 6.57596e-06
81 *240:20 *1859:A2 3.45708e-05
82 *241:8 *1904:A0 7.23602e-05
83 *241:12 *1904:A0 0.000117574
84 *241:12 *648:109 0.000139944
85 *257:14 *648:22 1.53032e-05
86 *479:30 *648:16 0.000129951
87 *493:16 *648:28 0.000176967
88 *493:16 *648:49 2.3528e-05
89 *500:28 *1851:A2 1.54111e-05
90 *500:28 *648:49 0.000263286
91 *579:84 *648:28 8.57054e-05
92 *596:50 *1904:A0 0
93 *602:166 *1904:A0 0.000205066
94 *639:58 *1904:A0 0.000191363
95 *647:46 *1867:A2 0.000658108
*RES
1 *2224:X *648:8 4.47 
2 *648:8 *648:16 24.25 
3 *648:16 *648:22 14.735 
4 *648:22 *648:28 6.145 
5 *648:28 *1815:A1 5.425 
6 *648:28 *648:49 7.175 
7 *648:49 *1829:A1 3.6 
8 *648:49 *1851:A2 6.1968 
9 *648:22 *1867:A2 16.9888 
10 *648:16 *1843:A2 3.79875 
11 *648:8 *648:109 13.3825 
12 *648:109 *1859:A2 9.1968 
13 *648:109 *1904:A0 20.464 
*END

*D_NET *649 0.0219975
*CONN
*I *1905:A0 I *D sky130_fd_sc_hd__mux4_1
*I *1859:A1 I *D sky130_fd_sc_hd__mux4_1
*I *1843:A1 I *D sky130_fd_sc_hd__mux4_1
*I *1867:A1 I *D sky130_fd_sc_hd__mux4_1
*I *1851:A1 I *D sky130_fd_sc_hd__mux4_1
*I *1834:A I *D sky130_fd_sc_hd__nand2_1
*I *1820:A I *D sky130_fd_sc_hd__nand2_1
*I *1898:A0 I *D sky130_fd_sc_hd__mux4_1
*I *2225:X O *D sky130_fd_sc_hd__clkbuf_2
*CAP
1 *1905:A0 0.000633378
2 *1859:A1 0
3 *1843:A1 0.00074428
4 *1867:A1 0.000644099
5 *1851:A1 0
6 *1834:A 0.000197687
7 *1820:A 0.000218301
8 *1898:A0 0.000359271
9 *2225:X 0.000424593
10 *649:134 0.00111384
11 *649:53 0.000586679
12 *649:43 0.000556961
13 *649:33 0.00125669
14 *649:29 0.00132316
15 *649:12 0.000772053
16 *649:10 0.000965277
17 *1820:A *650:76 0.000145042
18 *1843:A1 *1855:A1 8.64421e-05
19 *1843:A1 *652:36 0.000114492
20 *1867:A1 *1867:A3 2.82118e-05
21 *1898:A0 *651:45 5.12248e-05
22 *1898:A0 *656:52 0.000275154
23 *1898:A0 *659:33 8.73389e-06
24 *1905:A0 *1810:A2 0.000116158
25 *1905:A0 *1810:A3 2.68721e-05
26 *1905:A0 *1905:A1 4.66108e-05
27 *1905:A0 *1905:A3 2.68464e-05
28 *1905:A0 *1910:A3 0.00018305
29 *1905:A0 *1941:GATE 0.000114492
30 *1905:A0 *2037:D 0.000178098
31 *1905:A0 *664:125 5.041e-05
32 *1905:A0 *676:99 7.04807e-05
33 *1905:A0 *681:80 0.000301186
34 *1905:A0 *681:103 0.000209178
35 *1905:A0 *690:8 0.000135487
36 *1905:A0 *690:17 0.000128337
37 *1905:A0 *690:65 4.21314e-05
38 *1905:A0 *698:129 0
39 *1905:A0 *707:28 8.35106e-05
40 *649:10 *1856:A2 7.61063e-05
41 *649:10 *659:33 1.56428e-05
42 *649:10 *706:38 3.98546e-05
43 *649:12 *659:33 2.75299e-05
44 *649:29 *1855:A0 0.000183036
45 *649:29 *651:45 0.000146149
46 *649:29 *660:150 0.000478417
47 *649:29 *664:45 0.000197722
48 *649:29 *664:51 2.85364e-05
49 *649:33 *1853:A3 0.000139231
50 *649:33 *651:45 0.000310825
51 *649:33 *651:47 3.97211e-05
52 *649:33 *651:49 0.000146596
53 *649:33 *651:51 0.000132096
54 *649:33 *664:51 0.000257721
55 *649:43 *1833:A1 5.63183e-05
56 *649:43 *1851:A3 0.000155597
57 *649:43 *2034:GATE 0.000374239
58 *649:43 *651:51 0.000863768
59 *649:43 *664:51 0.00022398
60 *649:53 *1851:A3 0.000206291
61 *649:134 *651:45 1.02032e-05
62 *649:134 *651:137 0.000118081
63 *649:134 *651:185 2.10214e-05
64 *649:134 *655:8 0.000156142
65 *649:134 *659:25 1.64078e-05
66 *649:134 *662:77 0.000156371
67 *649:134 *681:80 0.000340918
68 *649:134 *706:38 0.000241615
69 *727:DIODE *1898:A0 0.000119242
70 *1801:A *1843:A1 5.15407e-05
71 *1819:A1 *1820:A 2.1065e-05
72 *1819:B1 *1820:A 0
73 *1820:B *1820:A 1.56633e-05
74 *1821:A4 *1820:A 8.78775e-05
75 *1829:S *1820:A 2.05056e-05
76 *1829:S *649:53 4.11718e-05
77 *1830:B *1834:A 6.32598e-05
78 *1831:A2 *649:43 3.24984e-05
79 *1831:A2 *649:53 3.00381e-05
80 *1835:A2 *1834:A 8.53113e-06
81 *1843:A0 *1843:A1 2.49909e-05
82 *1849:A1 *1843:A1 3.65439e-05
83 *1850:B1 *1843:A1 1.19928e-05
84 *1850:B2 *1843:A1 0.000283513
85 *1851:S0 *649:43 4.44882e-05
86 *1857:A1 *649:10 4.66108e-05
87 *1867:A0 *1867:A1 1.77665e-05
88 *1867:A2 *1867:A1 6.90889e-06
89 *1867:S0 *1867:A1 1.56428e-05
90 *1871:S0 *649:29 2.10433e-05
91 *1904:A0 *1905:A0 0.000905144
92 *2220:A *1843:A1 3.89172e-05
93 *2245:A *1905:A0 1.22505e-05
94 *2247:A *1905:A0 2.01504e-05
95 *2261:A *649:10 2.86975e-05
96 *2272:A *1843:A1 0.000347371
97 *2277:A *1843:A1 9.52613e-06
98 *2292:A *1905:A0 0.000393019
99 *143:9 *649:53 4.78726e-05
100 *147:47 *649:134 2.31508e-05
101 *160:25 *1820:A 0.000141021
102 *247:10 *649:134 5.84444e-05
103 *247:32 *649:29 0.000169658
104 *247:32 *649:134 6.29963e-05
105 *248:16 *649:134 6.72196e-05
106 *248:35 *649:29 6.15941e-06
107 *254:10 *1834:A 2.29937e-05
108 *254:35 *1834:A 8.36279e-05
109 *264:12 *649:29 3.11771e-06
110 *485:20 *1905:A0 4.32962e-05
111 *493:16 *1834:A 7.40395e-05
112 *500:28 *649:53 0.000193801
113 *579:84 *1820:A 0.000229536
114 *579:84 *1834:A 2.92496e-05
115 *626:148 *1843:A1 0.00011648
116 *644:24 *1843:A1 4.65515e-05
117 *647:46 *1867:A1 1.19668e-05
118 *648:109 *1905:A0 8.9654e-05
119 *648:109 *649:134 0.000342143
*RES
1 *2225:X *649:10 7.345 
2 *649:10 *649:12 0.795 
3 *649:12 *1898:A0 7.015 
4 *649:12 *649:29 12.05 
5 *649:29 *649:33 7.695 
6 *649:33 *649:43 14.765 
7 *649:43 *649:53 8.275 
8 *649:53 *1820:A 10.5275 
9 *649:53 *1834:A 9.245 
10 *649:43 *1851:A1 1.6 
11 *649:33 *1867:A1 10.53 
12 *649:29 *1843:A1 20.935 
13 *649:10 *649:134 19.11 
14 *649:134 *1859:A1 3.6 
15 *649:134 *1905:A0 25.245 
*END

*D_NET *650 0.044346
*CONN
*I *1906:A0 I *D sky130_fd_sc_hd__mux4_1
*I *737:DIODE I *D sky130_fd_sc_hd__diode_2
*I *1859:A3 I *D sky130_fd_sc_hd__mux4_1
*I *1843:A3 I *D sky130_fd_sc_hd__mux4_1
*I *1867:A3 I *D sky130_fd_sc_hd__mux4_1
*I *1851:A3 I *D sky130_fd_sc_hd__mux4_1
*I *1830:C I *D sky130_fd_sc_hd__and3b_1
*I *1816:B I *D sky130_fd_sc_hd__and3b_1
*I *1897:A0 I *D sky130_fd_sc_hd__mux4_1
*I *2226:X O *D sky130_fd_sc_hd__buf_2
*CAP
1 *1906:A0 0.000480597
2 *737:DIODE 0.000205866
3 *1859:A3 2.68126e-05
4 *1843:A3 0.000118597
5 *1867:A3 0.00114086
6 *1851:A3 0.000378069
7 *1830:C 0
8 *1816:B 9.05801e-05
9 *1897:A0 0.000134564
10 *2226:X 0.000921444
11 *650:254 0.00178919
12 *650:236 0.00348044
13 *650:164 0.00382289
14 *650:139 0.0018395
15 *650:76 0.000823344
16 *650:59 0.000737955
17 *650:49 0.00156585
18 *650:47 0.00114512
19 *650:12 0.00149213
20 *1816:B *2183:A 4.66108e-05
21 *1843:A3 *1845:A3 6.78134e-05
22 *1859:A3 *660:51 8.38498e-06
23 *1906:A0 *1906:A2 6.90889e-06
24 *1906:A0 *1906:A3 0.0001521
25 *650:12 *2042:GATE 0.000126815
26 *650:12 *656:52 3.18137e-05
27 *650:12 *664:14 9.40887e-05
28 *650:12 *681:80 0.000130372
29 *650:12 *683:106 0.000309386
30 *650:47 *1848:A1 2.10762e-05
31 *650:47 *653:32 1.9686e-05
32 *650:47 *653:38 4.62449e-05
33 *650:47 *656:52 9.50238e-05
34 *650:47 *664:14 0.000418266
35 *650:49 *1845:A3 0.000120186
36 *650:59 *2183:A 1.08758e-05
37 *650:76 *1815:A0 0.000182997
38 *650:139 *1864:A2 5.05716e-06
39 *650:139 *653:12 0.000259466
40 *650:139 *660:51 5.09262e-05
41 *650:139 *681:80 6.80137e-05
42 *650:139 *706:38 2.96921e-05
43 *650:164 *1903:A1 7.66388e-05
44 *650:164 *653:12 0.000161393
45 *650:164 *660:51 0.000300828
46 *650:164 *695:66 0.00026102
47 *650:164 *699:40 0.000153607
48 *650:236 *1881:A2 5.97512e-05
49 *650:236 *1915:A2 0.000182992
50 *650:236 *665:38 0.000151261
51 *650:236 *676:48 3.2865e-05
52 *650:236 *696:26 3.38876e-05
53 *650:236 *698:129 0.000283763
54 *650:236 *702:30 0.000459503
55 *650:236 *702:41 0.00016505
56 *650:236 *707:83 0.000686401
57 *650:254 *1881:A2 2.53191e-06
58 E1BEG[1] *650:236 3.82741e-05
59 E1BEG[2] *650:236 5.76649e-05
60 E6BEG[3] *650:236 2.05571e-05
61 *1811:A2 *650:236 9.53312e-05
62 *1811:S1 *650:236 4.7676e-05
63 *1811:S1 *650:254 0.000228278
64 *1814:A2 *650:254 0.000230004
65 *1816:C *650:59 2.98807e-05
66 *1817:A1 *650:76 6.83488e-05
67 *1817:A2 *650:76 1.74629e-05
68 *1817:B1 *650:59 2.49909e-05
69 *1817:B1 *650:76 1.48096e-05
70 *1817:C1 *650:76 5.83121e-06
71 *1820:A *650:76 0.000145042
72 *1829:S *1851:A3 0.000158175
73 *1829:S *650:76 0.000107205
74 *1830:A_N *650:76 4.66108e-05
75 *1831:B1 *1851:A3 0.000119866
76 *1843:A0 *650:47 0.000132276
77 *1843:S0 *1843:A3 4.82919e-05
78 *1843:S0 *650:47 0
79 *1845:S0 *650:47 0.00012736
80 *1845:S0 *650:49 0.000206055
81 *1847:S1 *650:47 8.83315e-05
82 *1848:S0 *650:47 0
83 *1850:A1 *650:47 0.00012282
84 *1850:A2 *650:47 7.96104e-06
85 *1850:A2 *650:49 8.68401e-05
86 *1854:A2 *1867:A3 1.52862e-05
87 *1862:A2 *650:164 4.75576e-05
88 *1866:A1 *650:164 2.52941e-05
89 *1866:B2 *650:164 0.000414375
90 *1867:A1 *1867:A3 2.82118e-05
91 *1867:A2 *1867:A3 6.33739e-05
92 *1867:S0 *1867:A3 5.53249e-06
93 *1883:A3 *1906:A0 0.000340279
94 *1885:A0 *650:254 5.16418e-05
95 *1887:A3 *650:236 6.47994e-06
96 *1887:S1 *650:236 0.000122261
97 *1897:A3 *1897:A0 3.1876e-05
98 *1897:S0 *1897:A0 9.77048e-06
99 *1898:S1 *650:47 0.000112893
100 *1899:A3 *650:254 7.91885e-05
101 *1899:S0 *650:254 9.31831e-06
102 *1902:S1 *650:236 0.000109551
103 *1903:A0 *650:164 2.55201e-05
104 *1903:S0 *650:236 0.000103578
105 *1907:S1 *650:236 0.000111906
106 *1915:S1 *650:236 8.93004e-05
107 *2030:D *650:139 3.20743e-05
108 *2043:D *650:12 0.000153816
109 *2068:A *737:DIODE 0.00026102
110 *2068:A *650:254 8.23457e-05
111 *2107:A *650:236 4.17092e-05
112 *2226:A *650:12 4.87465e-06
113 *2228:A *650:139 3.54175e-05
114 *2248:A *650:164 0.000283869
115 *2264:A *650:164 0.000252809
116 *2272:A *1843:A3 4.79224e-05
117 *2284:A *650:236 3.68784e-05
118 *2286:A *650:236 0.000107028
119 *2294:A *650:236 0.000537578
120 *2299:A *650:236 0.000104444
121 *2300:A *650:236 9.32949e-06
122 *2302:A *650:236 7.07516e-05
123 *2305:A *650:254 0.000401696
124 *2308:A *650:236 7.57578e-05
125 *2308:A *650:254 2.99599e-05
126 *2311:A *650:254 0.000347856
127 *2313:A *650:254 0.000835165
128 *2315:A *650:236 0.000358223
129 *2321:A *650:236 0.000595301
130 *2327:A *650:236 0.000245638
131 *2333:A *650:254 0.000297098
132 *2336:A *1906:A0 4.49415e-06
133 *2353:A *1906:A0 0.000340992
134 *2353:A *650:254 0.000427101
135 *147:47 *650:139 6.85458e-05
136 *148:51 *650:164 8.4841e-05
137 *148:51 *650:236 7.63185e-05
138 *159:39 *650:49 0.000296949
139 *159:39 *650:59 0.000286637
140 *159:39 *650:76 6.14958e-05
141 *160:25 *1867:A3 9.23772e-05
142 *160:25 *650:76 7.78061e-05
143 *160:115 *650:236 6.80133e-05
144 *160:115 *650:254 0.000176641
145 *234:44 *650:254 0
146 *235:45 *650:254 0.000345683
147 *235:93 *650:254 2.53775e-05
148 *236:116 *650:236 5.7038e-05
149 *255:39 *650:47 9.044e-05
150 *256:10 *650:47 4.52884e-05
151 *256:21 *650:47 0.000230435
152 *268:27 *650:76 5.2476e-05
153 *268:31 *650:76 0.000130827
154 *479:130 *650:236 7.58555e-05
155 *481:30 *650:164 2.80576e-05
156 *500:28 *1851:A3 0.000386945
157 *514:94 *650:254 1.88656e-05
158 *516:54 *650:236 0.000408957
159 *542:30 *650:254 0.000400222
160 *559:46 *650:254 5.8678e-05
161 *560:66 *650:164 0.000501503
162 *567:90 *650:236 3.46421e-05
163 *579:84 *650:76 4.21973e-05
164 *583:82 *650:236 1.96298e-05
165 *596:50 *650:164 0.00107714
166 *600:122 *650:236 7.33639e-05
167 *602:166 *650:49 0.000199853
168 *602:166 *650:59 0.000139906
169 *645:20 *650:164 0.00208636
170 *647:46 *1867:A3 4.43871e-06
171 *647:123 *650:164 3.59784e-05
172 *647:133 *650:164 3.54109e-05
173 *648:16 *650:12 0.000481569
174 *649:43 *1851:A3 0.000155597
175 *649:53 *1851:A3 0.000206291
*RES
1 *2226:X *650:12 15.54 
2 *650:12 *1897:A0 5.355 
3 *650:12 *650:47 17.4832 
4 *650:47 *650:49 6.99 
5 *650:49 *650:59 7.19 
6 *650:59 *1816:B 2.74 
7 *650:59 *650:76 12.94 
8 *650:76 *1830:C 1.6 
9 *650:76 *1851:A3 10.945 
10 *650:49 *1867:A3 20.05 
11 *650:47 *1843:A3 5.775 
12 *2226:X *650:139 10.755 
13 *650:139 *1859:A3 4.05 
14 *650:139 *650:164 49.58 
15 *650:164 *650:236 48.202 
16 *650:236 *650:254 31.7225 
17 *650:254 *737:DIODE 4.12 
18 *650:254 *1906:A0 13.955 
*END

*D_NET *651 0.0451458
*CONN
*I *1907:A0 I *D sky130_fd_sc_hd__mux4_1
*I *1827:A I *D sky130_fd_sc_hd__nand2_1
*I *1861:A0 I *D sky130_fd_sc_hd__mux4_1
*I *1841:A I *D sky130_fd_sc_hd__nand2_1
*I *1869:A0 I *D sky130_fd_sc_hd__mux4_1
*I *1845:A0 I *D sky130_fd_sc_hd__mux4_1
*I *1853:A0 I *D sky130_fd_sc_hd__mux4_1
*I *1819:A2 I *D sky130_fd_sc_hd__o21ai_1
*I *1833:A1 I *D sky130_fd_sc_hd__o21ai_1
*I *1898:A1 I *D sky130_fd_sc_hd__mux4_1
*I *2227:X O *D sky130_fd_sc_hd__buf_2
*CAP
1 *1907:A0 0.000375937
2 *1827:A 0.00141656
3 *1861:A0 0.000889118
4 *1841:A 1.65033e-05
5 *1869:A0 2.89741e-05
6 *1845:A0 0.00100408
7 *1853:A0 6.28144e-05
8 *1819:A2 0.000667581
9 *1833:A1 0.000223538
10 *1898:A1 5.4562e-05
11 *2227:X 0.000452816
12 *651:209 0.00391881
13 *651:185 0.00389522
14 *651:137 0.00175975
15 *651:125 0.00262304
16 *651:51 0.00123757
17 *651:49 0.000456094
18 *651:47 0.00106357
19 *651:45 0.000591945
20 *651:28 0.00105768
21 *1819:A2 *1815:A0 0.000289914
22 *1819:A2 *664:51 0.00016804
23 *1827:A *1884:A1 0.000217149
24 *1827:A *1972:D 2.22315e-05
25 *1827:A *661:203 3.10027e-05
26 *1827:A *662:177 7.75093e-06
27 *1827:A *667:64 6.16289e-05
28 *1827:A *672:124 1.87922e-05
29 *1827:A *673:124 7.38921e-05
30 *1827:A *707:83 9.57985e-05
31 *1833:A1 *2045:GATE 4.82919e-05
32 *1845:A0 *1845:A1 4.82919e-05
33 *1861:A0 *653:20 0.00036788
34 *1861:A0 *653:32 0.000249913
35 *1861:A0 *706:38 0
36 *1869:A0 *655:24 2.49909e-05
37 *1898:A1 *656:52 0.000162983
38 *1898:A1 *659:33 0.000191335
39 *1907:A0 *1907:A3 2.98312e-05
40 *1907:A0 *702:30 0.000130314
41 *1907:A0 *702:41 6.6484e-05
42 *651:28 *2042:GATE 9.14314e-05
43 *651:28 *655:8 6.33103e-05
44 *651:28 *660:16 0.000167631
45 *651:28 *662:77 7.04858e-05
46 *651:28 *681:80 0.000112911
47 *651:45 *1855:A0 0.000183036
48 *651:45 *1855:A1 4.49027e-05
49 *651:45 *656:52 3.6355e-05
50 *651:45 *659:33 0.00019312
51 *651:45 *660:150 0.000469886
52 *651:45 *662:22 0.000269706
53 *651:45 *662:24 2.27079e-05
54 *651:45 *662:77 0.000421471
55 *651:51 *2034:D 0.000259993
56 *651:137 *652:34 9.36652e-05
57 *651:137 *655:8 0.000157127
58 *651:137 *655:14 0.000164814
59 *651:137 *672:190 0.000467457
60 *651:185 *1864:A2 1.17701e-05
61 *651:185 *1864:A3 2.76356e-05
62 *651:185 *652:16 6.83447e-05
63 *651:185 *660:51 0.00098089
64 *651:185 *662:77 6.83447e-05
65 *651:209 *660:51 7.52717e-05
66 *651:209 *660:87 0.000229659
67 *651:209 *695:66 8.77137e-05
68 *651:209 *696:26 0.0018163
69 *651:209 *702:30 5.14623e-05
70 E1BEG[3] *651:209 4.2145e-05
71 E2BEG[0] *651:209 3.92756e-05
72 EE4BEG[3] *651:209 0.0005506
73 EE4BEG[4] *651:209 0.000507439
74 *1819:B1 *1819:A2 3.95157e-05
75 *1821:A1 *1819:A2 5.83121e-06
76 *1821:A3 *1819:A2 1.6408e-05
77 *1821:B1 *1819:A2 0.000102144
78 *1831:A2 *1833:A1 9.37731e-05
79 *1832:C_N *1833:A1 3.12679e-05
80 *1836:S *1841:A 2.49909e-05
81 *1840:A2 *1841:A 4.66108e-05
82 *1843:A0 *1845:A0 0.000273449
83 *1846:B1 *1845:A0 1.88904e-05
84 *1851:A2 *1819:A2 0.000358734
85 *1861:S0 *1861:A0 1.68722e-05
86 *1864:S1 *651:185 5.37378e-05
87 *1865:A1 *651:185 0.000416946
88 *1866:A2 *651:185 0.000122184
89 *1868:B *651:45 0.000128763
90 *1868:B *651:47 3.16621e-05
91 *1868:B *651:49 0.000137746
92 *1868:B *651:51 0.000187759
93 *1884:A0 *1827:A 6.02792e-05
94 *1898:A0 *651:45 5.12248e-05
95 *1907:S0 *1907:A0 5.38372e-05
96 *1907:S1 *1827:A 0.000550225
97 *2045:D *1819:A2 0.000418886
98 *2045:D *1833:A1 6.94067e-05
99 *2048:D *1819:A2 6.24871e-05
100 *2227:A *651:137 4.87465e-06
101 *2254:A *651:185 3.43849e-05
102 *2299:A *1907:A0 0.000188834
103 *2299:A *651:209 5.84716e-05
104 *2326:A *1861:A0 0
105 *2326:A *651:137 0.000451537
106 *2328:A *651:209 2.22315e-05
107 *142:31 *651:185 0.000547904
108 *142:57 *651:209 0.000121957
109 *143:9 *1861:A0 1.92979e-05
110 *143:9 *651:28 8.53244e-05
111 *143:9 *651:45 0
112 *143:9 *651:51 0
113 *144:31 *1861:A0 1.79483e-05
114 *157:31 *1845:A0 2.38557e-05
115 *157:91 *1827:A 2.22315e-05
116 *159:39 *1845:A0 0.000117277
117 *160:25 *1845:A0 3.32778e-05
118 *160:85 *651:209 7.8632e-06
119 *181:21 *1819:A2 0
120 *245:22 *1827:A 4.66108e-05
121 *245:59 *1827:A 4.73375e-06
122 *247:32 *651:45 4.24562e-05
123 *254:35 *1833:A1 0
124 *481:30 *651:209 0.000325414
125 *483:80 *1861:A0 0
126 *483:80 *651:209 0.000107452
127 *494:16 *651:185 0.000478762
128 *505:22 *651:137 0.000326354
129 *524:142 *651:28 0.000186036
130 *524:142 *651:209 0.00182374
131 *538:72 *1827:A 0.00029854
132 *545:72 *651:209 4.40378e-05
133 *558:50 *651:209 0.000372154
134 *560:66 *651:209 0.000123182
135 *582:20 *1819:A2 5.89912e-05
136 *582:94 *1827:A 0.000233325
137 *587:118 *1827:A 7.10991e-06
138 *593:94 *1827:A 0.000311982
139 *626:148 *1845:A0 2.38557e-05
140 *626:148 *651:137 2.14495e-05
141 *630:84 *1827:A 0.000212026
142 *630:84 *1861:A0 8.68272e-06
143 *634:78 *1827:A 0.000812257
144 *635:42 *651:45 0
145 *636:50 *1827:A 2.18869e-05
146 *643:50 *1861:A0 0
147 *647:63 *1833:A1 7.68851e-05
148 *647:63 *651:51 0.000244717
149 *648:109 *651:28 7.9642e-06
150 *649:29 *651:45 0.000146149
151 *649:33 *651:45 0.000310825
152 *649:33 *651:47 3.97211e-05
153 *649:33 *651:49 0.000146596
154 *649:33 *651:51 0.000132096
155 *649:43 *1833:A1 5.63183e-05
156 *649:43 *651:51 0.000863768
157 *649:134 *651:45 1.02032e-05
158 *649:134 *651:137 0.000118081
159 *649:134 *651:185 2.10214e-05
*RES
1 *2227:X *651:28 18.555 
2 *651:28 *1898:A1 3.43 
3 *651:28 *651:45 18.77 
4 *651:45 *651:47 0.4875 
5 *651:47 *651:49 1.7625 
6 *651:49 *651:51 11.7075 
7 *651:51 *1833:A1 7.9725 
8 *651:51 *1819:A2 9.71023 
9 *651:49 *1853:A0 4.395 
10 *651:47 *1845:A0 7.12677 
11 *651:45 *1869:A0 4.05 
12 *2227:X *651:125 1.6 
13 *651:125 *651:137 19.43 
14 *651:137 *1841:A 4.05 
15 *651:137 *1861:A0 6.60467 
16 *651:125 *651:185 44.93 
17 *651:185 *651:209 20.7293 
18 *651:209 *1827:A 21.3743 
19 *651:209 *1907:A0 9.48 
*END

*D_NET *652 0.0367133
*CONN
*I *1861:A1 I *D sky130_fd_sc_hd__mux4_1
*I *1823:B I *D sky130_fd_sc_hd__and3b_1
*I *1908:A0 I *D sky130_fd_sc_hd__mux4_1
*I *1837:C I *D sky130_fd_sc_hd__and3b_1
*I *1897:A1 I *D sky130_fd_sc_hd__mux4_1
*I *1845:A1 I *D sky130_fd_sc_hd__mux4_1
*I *1853:A1 I *D sky130_fd_sc_hd__mux4_1
*I *1869:A1 I *D sky130_fd_sc_hd__mux4_1
*I *2228:X O *D sky130_fd_sc_hd__buf_2
*CAP
1 *1861:A1 0.000186009
2 *1823:B 8.65981e-05
3 *1908:A0 0.000258562
4 *1837:C 0.00020881
5 *1897:A1 0
6 *1845:A1 8.68699e-05
7 *1853:A1 0
8 *1869:A1 0.000134882
9 *2228:X 0.000599819
10 *652:181 0.0022763
11 *652:139 0.00417354
12 *652:44 0.000783779
13 *652:36 0.00120833
14 *652:34 0.000804446
15 *652:18 0.00303103
16 *652:16 0.00120696
17 *1837:C *1912:A0 4.41506e-05
18 *1861:A1 *659:56 8.43282e-05
19 *1861:A1 *659:83 0.00011068
20 *1861:A1 *707:14 1.53821e-05
21 *1869:A1 *655:24 0.000121643
22 *1908:A0 *668:14 0.000514734
23 *652:16 *660:51 0.000270696
24 *652:16 *664:125 5.05716e-06
25 *652:16 *681:80 0
26 *652:16 *699:40 6.29056e-05
27 *652:18 *1863:A2 1.91769e-05
28 *652:18 *653:32 2.03757e-05
29 *652:34 *664:14 0.00013521
30 *652:34 *672:190 2.68721e-05
31 *652:36 *1848:A1 5.8023e-05
32 *652:139 *1875:A2 0.00042073
33 *652:139 *1884:A1 0.000263174
34 *652:139 *1911:A1 3.64998e-06
35 *652:139 *662:142 0.00107262
36 *652:139 *667:64 1.46216e-05
37 *652:139 *668:107 5.83121e-06
38 *652:139 *673:124 0.000242067
39 *652:181 *1985:GATE 0.000131411
40 *652:181 *1992:D 2.71578e-05
41 *652:181 *1993:GATE 5.21764e-05
42 *652:181 *2008:GATE 0.000160719
43 *652:181 *2180:A 0.000113454
44 *652:181 *654:88 0.000518544
45 *652:181 *668:14 0.000192261
46 *652:181 *668:34 0.000102179
47 *652:181 *671:10 6.48391e-05
48 *652:181 *671:30 0.000221847
49 *652:181 *672:124 0.000909317
50 *652:181 *674:80 7.6628e-05
51 *652:181 *677:57 2.05661e-05
52 *652:181 *679:59 5.92147e-05
53 *652:181 *680:46 1.55049e-05
54 *652:181 *684:46 1.93765e-05
55 *652:181 *687:92 0.000156928
56 *652:181 *693:82 5.52444e-05
57 *733:DIODE *652:16 5.66528e-05
58 *1799:A *1837:C 5.89912e-05
59 *1799:A *652:34 4.01019e-05
60 *1800:A *652:44 2.45303e-05
61 *1812:S0 *652:181 8.26936e-05
62 *1836:A1 *652:16 9.17399e-06
63 *1836:A1 *652:18 1.14027e-05
64 *1843:A0 *652:36 1.7635e-05
65 *1843:A1 *652:36 0.000114492
66 *1845:A0 *1845:A1 4.82919e-05
67 *1846:A1 *652:44 6.64299e-05
68 *1846:B1 *652:44 0.000267056
69 *1861:S0 *1861:A1 8.247e-05
70 *1868:B *1869:A1 6.79601e-05
71 *1878:A0 *1908:A0 2.68526e-05
72 *1892:S0 *1823:B 0.000118081
73 *1892:S0 *652:181 0.000443258
74 *1908:S0 *1908:A0 0.000454099
75 *1955:D *652:139 8.23457e-05
76 *2027:D *652:139 5.38986e-06
77 *2038:D *652:139 4.66108e-05
78 *2038:GATE *652:139 6.33103e-05
79 *2039:D *652:181 1.38174e-05
80 *2227:A *652:16 8.35068e-05
81 *2262:A *1861:A1 0.000107982
82 *2326:A *1837:C 2.22315e-05
83 *2326:A *652:34 2.05661e-05
84 *2391:A *652:181 9.46182e-05
85 *143:9 *1869:A1 9.866e-05
86 *146:67 *652:16 6.34375e-05
87 *146:67 *652:18 0
88 *146:67 *652:36 0.000129951
89 *147:47 *652:16 0.000139888
90 *149:45 *652:16 1.01867e-05
91 *149:45 *652:18 5.34801e-05
92 *150:35 *652:16 1.43965e-05
93 *150:35 *652:18 6.4716e-05
94 *153:39 *652:16 8.31725e-06
95 *153:39 *652:18 1.61878e-05
96 *153:39 *652:139 0.000816014
97 *153:129 *1908:A0 2.93451e-05
98 *153:129 *652:181 5.53549e-06
99 *154:41 *652:18 4.73375e-06
100 *154:41 *652:34 0.000101039
101 *160:25 *1845:A1 2.97285e-05
102 *160:25 *652:36 8.37587e-05
103 *160:25 *652:44 0.000174196
104 *243:42 *652:139 2.35435e-05
105 *257:14 *1845:A1 0.000193286
106 *257:14 *652:44 6.39944e-05
107 *257:29 *652:44 8.13422e-05
108 *262:28 *1837:C 6.61973e-05
109 *409:32 *652:139 0.000296364
110 *479:30 *652:139 0.00144963
111 *480:70 *652:181 0.000145719
112 *500:28 *652:44 3.63733e-05
113 *505:22 *652:34 5.83121e-06
114 *569:58 *652:139 0.000809811
115 *582:20 *652:36 0.000182183
116 *582:20 *652:44 0.000175301
117 *585:66 *652:181 0.00033206
118 *590:112 *652:181 0.000258023
119 *596:50 *652:139 0.000141541
120 *596:140 *652:139 0.00055893
121 *602:70 *652:181 3.82741e-05
122 *602:166 *652:34 0.000356781
123 *602:166 *652:36 0.0012046
124 *603:68 *652:181 0.000210358
125 *613:48 *652:181 1.81077e-05
126 *613:95 *652:181 0.000387856
127 *626:126 *652:34 6.03338e-05
128 *626:126 *652:139 0.000106321
129 *626:148 *652:34 0.000409817
130 *626:148 *652:36 0.000703098
131 *632:66 *652:139 0.00153205
132 *634:78 *652:16 5.4497e-05
133 *635:42 *652:139 0.000143495
134 *643:50 *1837:C 0.000127011
135 *643:116 *652:139 0.000261515
136 *644:24 *1861:A1 0.000287734
137 *651:137 *652:34 9.36652e-05
138 *651:185 *652:16 6.83447e-05
*RES
1 *2228:X *652:16 7.69363 
2 *652:16 *652:18 0.766333 
3 *652:18 *652:34 13.2338 
4 *652:34 *652:36 16.68 
5 *652:36 *652:44 13.235 
6 *652:44 *1869:A1 8.885 
7 *652:44 *1853:A1 1.6 
8 *652:36 *1845:A1 5.79 
9 *652:34 *1897:A1 3.6 
10 *652:18 *1837:C 6.94617 
11 *652:18 *652:139 44.245 
12 *652:139 *652:181 43.835 
13 *652:181 *1908:A0 10.9575 
14 *652:139 *1823:B 2.74 
15 *652:16 *1861:A1 9.1325 
*END

*D_NET *653 0.0566275
*CONN
*I *734:DIODE I *D sky130_fd_sc_hd__diode_2
*I *1909:A0 I *D sky130_fd_sc_hd__mux4_1
*I *1826:A2 I *D sky130_fd_sc_hd__o21ai_1
*I *1861:A2 I *D sky130_fd_sc_hd__mux4_1
*I *1840:A1 I *D sky130_fd_sc_hd__o21ai_1
*I *1898:A2 I *D sky130_fd_sc_hd__mux4_1
*I *1845:A2 I *D sky130_fd_sc_hd__mux4_1
*I *1869:A2 I *D sky130_fd_sc_hd__mux4_1
*I *1853:A2 I *D sky130_fd_sc_hd__mux4_1
*I *2229:X O *D sky130_fd_sc_hd__buf_2
*CAP
1 *734:DIODE 0
2 *1909:A0 0.000639896
3 *1826:A2 0.000703837
4 *1861:A2 3.24937e-05
5 *1840:A1 0.000239743
6 *1898:A2 1.30442e-05
7 *1845:A2 5.08762e-05
8 *1869:A2 3.33699e-05
9 *1853:A2 0.000126465
10 *2229:X 0.000230607
11 *653:275 0.00312705
12 *653:237 0.00405818
13 *653:172 0.00516146
14 *653:54 0.00104482
15 *653:38 0.00140699
16 *653:32 0.00117983
17 *653:20 0.00144861
18 *653:14 0.000753886
19 *653:12 0.00332539
20 *1826:A2 *692:64 8.43317e-05
21 *1840:A1 *1836:A0 9.66648e-05
22 *1861:A2 *1861:A3 3.10161e-05
23 *1861:A2 *706:38 1.1055e-05
24 *1898:A2 *656:52 9.64638e-06
25 *1909:A0 *1909:A1 0.000182071
26 *1909:A0 *704:119 2.03356e-05
27 *653:12 *1861:A3 0
28 *653:32 *1839:C_N 0.000191301
29 *653:32 *1911:A0 1.92979e-05
30 *653:32 *655:14 8.1865e-05
31 *653:32 *656:52 0.000822502
32 *653:32 *657:44 0
33 *653:54 *1869:A3 0.000144397
34 *653:54 *655:24 0.000559961
35 *653:172 *665:83 0.000627503
36 *653:172 *697:62 0.000141993
37 *653:172 *703:60 0.00103978
38 *653:237 *659:213 0.00018878
39 *653:237 *660:99 0.000118747
40 *653:237 *691:44 0.000292699
41 *653:237 *695:90 5.53549e-06
42 *653:275 *659:213 1.7495e-05
43 *653:275 *695:90 0.000538433
44 *653:275 *696:26 0.00162218
45 *653:275 *697:62 0.000151121
46 E1BEG[0] *653:172 0.000298248
47 E1BEG[1] *653:172 0.000294938
48 E2BEGb[6] *653:172 0.000248222
49 E2BEGb[7] *653:172 0.000209717
50 E6BEG[10] *653:275 5.57864e-05
51 E6BEG[2] *653:237 0.000196615
52 EE4BEG[10] *653:237 1.39456e-05
53 EE4BEG[3] *653:237 1.83975e-05
54 EE4BEG[5] *653:237 1.65559e-05
55 EE4BEG[9] *653:237 3.32905e-05
56 FrameData_O[10] *653:275 9.47685e-05
57 FrameData_O[11] *653:275 4.2145e-05
58 FrameData_O[12] *653:275 3.92756e-05
59 FrameData_O[2] *653:275 0.000184029
60 FrameData_O[4] *653:275 5.08304e-06
61 FrameData_O[6] *653:275 0.000153816
62 FrameData_O[9] *653:275 0.000289939
63 *710:DIODE *653:275 0.000164713
64 *727:DIODE *653:38 1.60144e-05
65 *743:DIODE *653:275 0.000174738
66 *1797:A *1826:A2 0.000110044
67 *1836:A1 *653:20 0.000407657
68 *1836:A1 *653:32 0.000219905
69 *1836:S *1840:A1 0.000233358
70 *1840:A2 *1840:A1 3.21081e-06
71 *1840:B1 *1840:A1 4.66108e-05
72 *1845:S1 *653:38 0.000201606
73 *1846:A2 *1845:A2 2.49909e-05
74 *1846:A2 *653:54 7.23533e-05
75 *1847:S1 *653:38 0.000246793
76 *1850:A1 *1845:A2 5.07419e-05
77 *1850:A2 *653:38 0
78 *1850:A2 *653:54 0
79 *1851:S1 *1853:A2 3.42078e-05
80 *1859:A2 *653:14 0.000244779
81 *1859:A2 *653:20 0.000234298
82 *1859:A2 *653:172 0.000177485
83 *1859:S1 *653:12 6.44452e-05
84 *1861:A0 *653:20 0.00036788
85 *1861:A0 *653:32 0.000249913
86 *1861:S0 *1840:A1 1.56428e-05
87 *1861:S1 *1861:A2 6.88999e-06
88 *1864:S1 *653:12 0.00011215
89 *1866:A1 *653:12 6.25451e-05
90 *1866:A2 *653:12 7.26457e-06
91 *1867:S0 *1853:A2 0.000110579
92 *1867:S0 *1869:A2 3.97171e-05
93 *1894:A3 *653:275 0.000273179
94 *1898:A3 *653:32 8.7152e-06
95 *1898:A3 *653:38 7.70424e-07
96 *1898:S1 *653:38 0.000112893
97 *1902:A3 *1826:A2 0.00047543
98 *1909:A2 *1909:A0 1.10377e-05
99 *1909:S0 *1909:A0 1.56428e-05
100 *2030:D *653:12 5.79895e-05
101 *2092:A *653:172 1.16854e-05
102 *2096:A *1898:A2 1.54111e-05
103 *2096:A *653:38 0.000118513
104 *2097:A *653:32 0
105 *2227:A *653:12 4.89295e-05
106 *2262:A *1840:A1 5.98468e-05
107 *2264:A *653:172 0.000328128
108 *2265:A *653:172 0.000254478
109 *2266:A *653:172 3.787e-05
110 *2267:A *653:172 5.57525e-06
111 *2290:A *653:172 0.000131881
112 *2291:A *653:172 0.000561582
113 *2298:A *653:172 0.000131881
114 *2302:A *653:172 2.22315e-05
115 *2308:A *653:275 5.07294e-05
116 *2315:A *653:172 2.24708e-05
117 *2317:A *653:275 0.00325332
118 *2321:A *1826:A2 0.000118081
119 *2322:A *1826:A2 0.000218639
120 *2322:A *653:172 1.77665e-05
121 *2324:A *653:237 0.000631816
122 *2329:A *653:237 2.88598e-05
123 *2346:A *653:237 6.59367e-05
124 *2346:A *653:275 0.000591346
125 *2361:A *653:237 0.00030821
126 *144:75 *1826:A2 8.52883e-05
127 *144:75 *653:172 0.00102898
128 *144:111 *653:237 4.79251e-05
129 *146:67 *653:172 0.000103315
130 *146:89 *653:237 0.000121838
131 *147:99 *653:237 0.000397024
132 *147:101 *653:275 0.000258479
133 *149:45 *653:32 6.46089e-05
134 *149:93 *653:237 3.48614e-05
135 *150:87 *1909:A0 8.23457e-05
136 *150:87 *653:275 4.66108e-05
137 *151:15 *653:172 0.000122695
138 *151:33 *653:237 0.000277257
139 *154:85 *1840:A1 0.000118081
140 *160:85 *653:237 1.89469e-05
141 *234:94 *653:172 2.97593e-05
142 *234:94 *653:237 7.2745e-05
143 *236:40 *653:237 9.57742e-06
144 *240:14 *1840:A1 5.98468e-05
145 *247:34 *1853:A2 2.46089e-05
146 *247:34 *1869:A2 1.29572e-05
147 *256:10 *653:38 0.000112123
148 *256:21 *653:38 0.000326168
149 *257:14 *1845:A2 3.84487e-05
150 *257:29 *653:54 7.06865e-05
151 *263:36 *1869:A2 6.90889e-06
152 *263:36 *653:54 2.8585e-06
153 *264:40 *1869:A2 9.67081e-06
154 *481:88 *653:237 1.67131e-05
155 *483:80 *653:14 0
156 *483:80 *653:20 0
157 *483:80 *653:172 0
158 *500:28 *653:54 0.000229911
159 *514:94 *653:172 1.29049e-05
160 *516:54 *653:237 0.000372217
161 *520:56 *1826:A2 0.00022707
162 *524:49 *653:275 0
163 *524:180 *653:275 3.01396e-05
164 *545:72 *1826:A2 0.000120479
165 *545:72 *653:237 3.75754e-05
166 *558:50 *653:237 2.8531e-05
167 *559:46 *653:275 0.00031074
168 *560:66 *653:172 5.83121e-06
169 *564:52 *653:237 0.000100695
170 *564:52 *653:275 0.000189293
171 *569:58 *653:172 0.000370782
172 *576:42 *653:275 5.15232e-05
173 *583:28 *653:54 7.06865e-05
174 *583:82 *653:237 0.000115783
175 *594:74 *653:237 8.08514e-05
176 *635:42 *653:172 0.0021114
177 *646:32 *653:172 0.00227922
178 *648:16 *653:32 0.000159392
179 *648:16 *653:38 0.000841326
180 *648:22 *653:38 0.000199665
181 *648:22 *653:54 0.000111543
182 *650:47 *653:32 1.9686e-05
183 *650:47 *653:38 4.62449e-05
184 *650:139 *653:12 0.000259466
185 *650:164 *653:12 0.000161393
186 *652:18 *653:32 2.03757e-05
*RES
1 *2229:X *653:12 9.8825 
2 *653:12 *653:14 0.445867 
3 *653:14 *653:20 1.3072 
4 *653:20 *653:32 12.3899 
5 *653:32 *653:38 15.285 
6 *653:38 *653:54 20.465 
7 *653:54 *1853:A2 6.1575 
8 *653:54 *1869:A2 4.41375 
9 *653:38 *1845:A2 4.9125 
10 *653:32 *1898:A2 3.8775 
11 *653:20 *1840:A1 9.6725 
12 *653:14 *1861:A2 4.715 
13 *653:12 *653:172 25.5616 
14 *653:172 *1826:A2 15.625 
15 *653:172 *653:237 49.985 
16 *653:237 *653:275 37.1587 
17 *653:275 *1909:A0 9.22 
18 *653:275 *734:DIODE 1.6 
*END

*D_NET *654 0.0154263
*CONN
*I *1960:D I *D sky130_fd_sc_hd__dlxtp_1
*I *2108:A I *D sky130_fd_sc_hd__clkbuf_1
*I *1928:D I *D sky130_fd_sc_hd__dlxtp_1
*I *1992:D I *D sky130_fd_sc_hd__dlxtp_1
*I *2024:D I *D sky130_fd_sc_hd__dlxtp_1
*I *2230:X O *D sky130_fd_sc_hd__buf_1
*CAP
1 *1960:D 0
2 *2108:A 0.000292574
3 *1928:D 3.07736e-05
4 *1992:D 0.000104834
5 *2024:D 7.60588e-05
6 *2230:X 0.000727217
7 *654:96 0.000589102
8 *654:88 0.00189126
9 *654:41 0.00212718
10 *654:20 0.00120012
11 *1992:D *1992:GATE 1.08758e-05
12 *1992:D *680:50 0.000182245
13 *2024:D *684:35 2.01259e-05
14 *2108:A *1878:A1 3.21125e-05
15 *2108:A *675:102 6.5172e-05
16 *2108:A *698:175 6.60005e-05
17 *654:20 *684:35 1.38265e-05
18 *654:20 *684:124 1.48937e-05
19 *654:41 *680:46 5.88556e-05
20 *654:41 *684:35 0.000138238
21 *654:88 *668:14 0.000273917
22 *654:88 *668:34 0.000294407
23 *654:88 *672:124 0.000379845
24 *654:88 *674:40 6.9561e-05
25 *654:88 *674:80 3.11771e-06
26 *654:88 *677:57 3.09164e-05
27 *654:88 *677:61 0.000114789
28 *654:88 *679:59 5.92147e-05
29 *654:88 *684:35 0.000153794
30 *654:88 *684:46 8.36122e-05
31 *654:88 *694:76 0.000426019
32 *654:88 *698:68 0
33 *654:96 *674:40 1.56428e-05
34 *654:96 *698:68 0.000109417
35 *654:96 *698:175 0.000494517
36 D_config_C_bit3 *654:20 4.76093e-05
37 *1812:S0 *654:88 5.83121e-06
38 *1813:A0 *654:88 2.05004e-05
39 *1875:S1 *654:41 2.06843e-05
40 *1876:A0 *654:20 0.000101781
41 *1876:A1 *654:20 4.66108e-05
42 *2001:D *654:88 3.36735e-05
43 *2279:A *1928:D 1.56428e-05
44 *2279:A *2108:A 3.98648e-05
45 *2279:A *654:96 0.000491203
46 *2282:A *654:20 3.99932e-05
47 *2304:A *654:41 0.000119246
48 *2304:A *654:88 0.00107017
49 *2331:A *2108:A 0.00019312
50 *2347:A *654:96 0.000141888
51 *2350:A *2108:A 1.76833e-05
52 *154:85 *654:20 0.00014482
53 *157:53 *654:20 2.65814e-06
54 *480:70 *1992:D 5.74791e-05
55 *512:18 *654:96 9.31706e-05
56 *546:42 *654:88 0
57 *585:66 *654:88 2.29603e-05
58 *587:118 *654:88 0.000211609
59 *590:49 *654:20 1.23268e-05
60 *590:112 *654:20 4.37124e-05
61 *590:112 *654:41 1.7635e-05
62 *590:112 *654:88 0.000164549
63 *602:70 *654:88 0.000104176
64 *602:80 *654:88 0.000168042
65 *602:117 *654:20 0.000264914
66 *603:68 *1992:D 0.000153816
67 *603:68 *654:88 1.18236e-05
68 *613:42 *654:88 0.000102229
69 *613:95 *654:20 0.000151868
70 *613:95 *654:41 0.000146907
71 *613:95 *654:88 0.000234705
72 *618:40 *654:41 6.72196e-05
73 *624:58 *654:20 2.75128e-05
74 *624:58 *654:41 2.51225e-05
75 *626:70 *654:88 9.56048e-05
76 *652:181 *1992:D 2.71578e-05
77 *652:181 *654:88 0.000518544
*RES
1 *2230:X *654:20 17.96 
2 *654:20 *2024:D 2.755 
3 *654:20 *654:41 9.11 
4 *654:41 *1992:D 6.465 
5 *654:41 *654:88 35.1133 
6 *654:88 *654:96 12.715 
7 *654:96 *1928:D 2.05 
8 *654:96 *2108:A 11.255 
9 *654:88 *1960:D 1.6 
*END

*D_NET *655 0.0173687
*CONN
*I *1861:A3 I *D sky130_fd_sc_hd__mux4_1
*I *1910:A0 I *D sky130_fd_sc_hd__mux4_1
*I *1897:A2 I *D sky130_fd_sc_hd__mux4_1
*I *1845:A3 I *D sky130_fd_sc_hd__mux4_1
*I *1869:A3 I *D sky130_fd_sc_hd__mux4_1
*I *1853:A3 I *D sky130_fd_sc_hd__mux4_1
*I *2231:X O *D sky130_fd_sc_hd__dlymetal6s2s_1
*CAP
1 *1861:A3 0.000818517
2 *1910:A0 0.00104517
3 *1897:A2 1.72932e-05
4 *1845:A3 0.000261865
5 *1869:A3 0.0001342
6 *1853:A3 0.000162492
7 *2231:X 2.33742e-05
8 *655:24 0.000605431
9 *655:16 0.000958732
10 *655:14 0.000705154
11 *655:8 0.00173567
12 *655:6 0.00123266
13 *1853:A3 *664:51 0.000137571
14 *1861:A3 *706:38 1.71982e-05
15 *1910:A0 *1910:A1 1.85674e-05
16 *1910:A0 *1910:A3 3.14093e-05
17 *1910:A0 *706:38 2.01259e-05
18 *655:14 *657:44 2.26468e-05
19 *655:16 *1847:A2 0.000301866
20 *655:16 *1848:A2 6.43553e-05
21 *655:16 *657:44 3.54201e-05
22 *733:DIODE *1910:A0 0.000118788
23 *1843:A2 *1845:A3 6.90889e-06
24 *1843:A3 *1845:A3 6.78134e-05
25 *1844:A *655:24 2.49909e-05
26 *1846:A2 *655:24 0.000119242
27 *1850:A1 *655:24 4.1457e-05
28 *1850:A2 *1845:A3 0.000118513
29 *1853:S0 *1853:A3 6.71882e-05
30 *1859:A2 *1861:A3 0.000117872
31 *1861:A2 *1861:A3 3.10161e-05
32 *1861:S1 *1861:A3 6.91126e-05
33 *1862:A2 *1861:A3 5.35969e-06
34 *1865:A0 *1861:A3 2.53191e-06
35 *1866:A1 *1861:A3 9.68083e-06
36 *1866:A2 *1861:A3 0.00026258
37 *1869:A0 *655:24 2.49909e-05
38 *1869:A1 *655:24 0.000121643
39 *1897:S1 *1897:A2 1.54111e-05
40 *1898:S0 *655:16 1.92979e-05
41 *1910:A2 *1910:A0 8.16031e-05
42 *2097:A *655:14 0.000285654
43 *2113:A *655:24 7.15651e-05
44 *2227:A *655:8 4.78103e-05
45 *2228:A *655:6 6.42016e-05
46 *2228:A *655:8 0.000233734
47 *2229:A *655:6 0.000122801
48 *2229:A *655:8 0.000159947
49 *2272:A *655:16 0.000182269
50 *2272:A *655:24 0.000137886
51 *147:47 *655:8 8.35068e-05
52 *242:14 *1861:A3 3.64998e-06
53 *263:36 *1869:A3 4.65607e-05
54 *579:84 *655:16 0.000278995
55 *597:20 *1910:A0 0.00142582
56 *644:24 *1910:A0 0.00129233
57 *647:133 *1861:A3 7.35685e-05
58 *648:16 *655:14 0.000128266
59 *648:16 *655:16 0.00120316
60 *648:22 *655:16 6.3062e-05
61 *648:22 *655:24 0.000137886
62 *648:109 *655:8 6.33103e-05
63 *649:33 *1853:A3 0.000139231
64 *649:134 *655:8 0.000156142
65 *650:49 *1845:A3 0.000120186
66 *651:28 *655:8 6.33103e-05
67 *651:137 *655:8 0.000157127
68 *651:137 *655:14 0.000164814
69 *653:12 *1861:A3 0
70 *653:32 *655:14 8.1865e-05
71 *653:54 *1869:A3 0.000144397
72 *653:54 *655:24 0.000559961
*RES
1 *2231:X *655:6 2.74 
2 *655:6 *655:8 8.73 
3 *655:8 *655:14 9.05 
4 *655:14 *655:16 14.895 
5 *655:16 *655:24 10.655 
6 *655:24 *1853:A3 9.08 
7 *655:24 *1869:A3 4.48 
8 *655:16 *1845:A3 11.5 
9 *655:14 *1897:A2 3.8775 
10 *655:8 *1910:A0 29.03 
11 *655:6 *1861:A3 21.1575 
*END

*D_NET *656 0.0111139
*CONN
*I *1856:A0 I *D sky130_fd_sc_hd__mux4_1
*I *1911:A0 I *D sky130_fd_sc_hd__mux4_1
*I *1863:A0 I *D sky130_fd_sc_hd__mux4_1
*I *1871:A0 I *D sky130_fd_sc_hd__mux4_1
*I *1847:A0 I *D sky130_fd_sc_hd__mux4_1
*I *2232:X O *D sky130_fd_sc_hd__buf_1
*CAP
1 *1856:A0 0
2 *1911:A0 0.000839512
3 *1863:A0 0
4 *1871:A0 2.06731e-05
5 *1847:A0 0.000100702
6 *2232:X 0.000125944
7 *656:52 0.00160012
8 *656:30 0.000888588
9 *656:12 0.000121375
10 *656:10 0.000253924
11 *1847:A0 *657:18 4.66108e-05
12 *1847:A0 *657:20 4.66108e-05
13 *1871:A0 *657:18 3.74161e-05
14 *1911:A0 *1839:C_N 3.39916e-05
15 *1911:A0 *1875:A2 9.03508e-06
16 *1911:A0 *1911:A3 0
17 *1911:A0 *659:116 0.000228165
18 *1911:A0 *662:140 0.000656599
19 *1911:A0 *664:143 0.000355108
20 *1911:A0 *664:166 0.000132469
21 *1911:A0 *667:12 2.23485e-05
22 *1911:A0 *667:64 6.73404e-05
23 *1911:A0 *699:66 7.00225e-05
24 *656:10 *662:22 3.86607e-05
25 *656:10 *662:77 3.57768e-05
26 *656:30 *1856:A1 6.6925e-05
27 *656:30 *657:24 2.96134e-05
28 *656:30 *660:16 0.000198233
29 *656:30 *662:77 7.27486e-05
30 *656:52 *659:33 0.000133194
31 *656:52 *664:14 0
32 *727:DIODE *656:52 5.48062e-05
33 *1836:A1 *1911:A0 5.97022e-05
34 *1898:A0 *656:52 0.000275154
35 *1898:A1 *656:52 0.000162983
36 *1898:A2 *656:52 9.64638e-06
37 *1910:S0 *1911:A0 9.57555e-05
38 *2096:A *656:52 1.5781e-06
39 *2232:A *656:10 3.55642e-06
40 *149:45 *1911:A0 0.000116045
41 *154:85 *1911:A0 0.000850079
42 *533:44 *1911:A0 0.00041091
43 *626:126 *1911:A0 0.0011405
44 *626:126 *656:52 0.000417099
45 *645:14 *656:10 0.000137571
46 *645:14 *656:30 0.000141869
47 *650:12 *656:52 3.18137e-05
48 *650:47 *656:52 9.50238e-05
49 *651:45 *656:52 3.6355e-05
50 *653:32 *1911:A0 1.92979e-05
51 *653:32 *656:52 0.000822502
*RES
1 *2232:X *656:10 6.03 
2 *656:10 *656:12 2 
3 *656:12 *1847:A0 3.085 
4 *656:12 *1871:A0 2.05 
5 *656:10 *656:30 5.93 
6 *656:30 *656:52 20.225 
7 *656:52 *1863:A0 3.6 
8 *656:52 *1911:A0 32.115 
9 *656:30 *1856:A0 1.6 
*END

*D_NET *657 0.0132175
*CONN
*I *1871:A1 I *D sky130_fd_sc_hd__mux4_1
*I *1847:A1 I *D sky130_fd_sc_hd__mux4_1
*I *1856:A1 I *D sky130_fd_sc_hd__mux4_1
*I *1863:A1 I *D sky130_fd_sc_hd__mux4_1
*I *1912:A0 I *D sky130_fd_sc_hd__mux4_1
*I *2233:X O *D sky130_fd_sc_hd__buf_1
*CAP
1 *1871:A1 0
2 *1847:A1 0
3 *1856:A1 6.26355e-05
4 *1863:A1 0
5 *1912:A0 0.00104485
6 *2233:X 0.00130358
7 *657:44 0.00190127
8 *657:24 0.000979495
9 *657:20 8.48315e-05
10 *657:18 0.00132797
11 *1912:A0 *706:38 0.000114369
12 *657:18 *1871:A2 0.000118765
13 *657:18 *662:16 0.000102574
14 *657:44 *1847:A2 0.000210924
15 *657:44 *1847:A3 0.000180682
16 *657:44 *1863:A2 5.93675e-06
17 *657:44 *659:56 0.000691089
18 *657:44 *662:99 0.000143428
19 *657:44 *663:14 0.000151364
20 *657:44 *681:59 0.000103937
21 B_config_C_bit1 *1912:A0 0
22 *1837:A_N *1912:A0 2.49909e-05
23 *1837:C *1912:A0 4.41506e-05
24 *1847:A0 *657:18 4.66108e-05
25 *1847:A0 *657:20 4.66108e-05
26 *1871:A0 *657:18 3.74161e-05
27 *1912:S0 *1912:A0 9.21068e-05
28 *1926:D *1912:A0 0.000303389
29 *2055:D *1912:A0 0.000122008
30 *2097:A *657:44 0.000161777
31 *2220:A *657:18 1.1392e-05
32 *143:9 *1856:A1 0.000121575
33 *143:9 *657:24 0.00022921
34 *149:23 *657:18 0.000118081
35 *149:45 *657:44 0.00011574
36 *240:14 *657:44 8.53113e-06
37 *262:6 *1912:A0 5.33804e-05
38 *262:15 *1912:A0 6.33103e-05
39 *266:10 *657:18 0.000602382
40 *560:44 *657:44 0.000157276
41 *567:32 *657:18 0.000615087
42 *587:44 *1912:A0 0.00075861
43 *593:46 *1912:A0 0.000320596
44 *613:138 *1912:A0 3.48307e-05
45 *628:112 *1912:A0 0.000254781
46 *630:84 *1912:A0 1.79536e-05
47 *645:14 *657:24 0.000173378
48 *653:32 *657:44 0
49 *655:14 *657:44 2.26468e-05
50 *655:16 *657:44 3.54201e-05
51 *656:30 *1856:A1 6.6925e-05
52 *656:30 *657:24 2.96134e-05
*RES
1 *2233:X *657:18 26.45 
2 *657:18 *657:20 0.45 
3 *657:20 *657:24 4.655 
4 *657:24 *657:44 28.465 
5 *657:44 *1912:A0 26.405 
6 *657:44 *1863:A1 1.6 
7 *657:24 *1856:A1 5.235 
8 *657:20 *1847:A1 1.6 
9 *657:18 *1871:A1 1.6 
*END

*D_NET *658 0.0318615
*CONN
*I *1871:A2 I *D sky130_fd_sc_hd__mux4_1
*I *1847:A2 I *D sky130_fd_sc_hd__mux4_1
*I *1888:A0 I *D sky130_fd_sc_hd__mux4_1
*I *1896:A0 I *D sky130_fd_sc_hd__mux4_1
*I *1913:A0 I *D sky130_fd_sc_hd__mux4_1
*I *1863:A2 I *D sky130_fd_sc_hd__mux4_1
*I *1856:A2 I *D sky130_fd_sc_hd__mux4_1
*I *2234:X O *D sky130_fd_sc_hd__clkbuf_2
*CAP
1 *1871:A2 0.000117593
2 *1847:A2 0.00016869
3 *1888:A0 0.000152089
4 *1896:A0 1.93533e-05
5 *1913:A0 0.000832634
6 *1863:A2 9.3253e-05
7 *1856:A2 7.81317e-05
8 *2234:X 0.000122178
9 *658:133 0.00104671
10 *658:109 0.00356816
11 *658:58 0.00422659
12 *658:31 0.00109139
13 *658:27 0.00134362
14 *658:12 0.00111814
15 *658:10 0.00040192
16 *1847:A2 *1847:A3 0.000195745
17 *1856:A2 *706:38 0.000116904
18 *1863:A2 *662:99 2.15982e-05
19 *1871:A2 *662:16 7.17341e-05
20 *1888:A0 *1888:A1 2.65143e-05
21 *1896:A0 *660:115 2.49909e-05
22 *1913:A0 *1913:A2 0.000124582
23 *658:10 *661:81 8.53113e-06
24 *658:12 *661:81 2.5411e-05
25 *658:12 *681:67 0.000199747
26 *658:27 *661:81 1.69186e-05
27 *658:27 *681:67 5.25041e-05
28 *658:58 *659:83 3.86814e-05
29 *658:58 *708:22 4.22926e-05
30 *658:109 *1954:GATE 3.99753e-05
31 *658:109 *659:83 0.000395975
32 *658:109 *672:124 0.000367815
33 *658:109 *694:76 0.000385611
34 *658:109 *708:22 0.000414497
35 *658:133 *668:81 0.000325836
36 *658:133 *673:124 0.000326013
37 *658:133 *675:140 0.000160658
38 *1824:A1 *658:133 0
39 *1828:B1 *658:133 7.21623e-05
40 *1849:A0 *1847:A2 9.3229e-06
41 *1857:A1 *658:10 6.52756e-05
42 *1857:A1 *658:12 0.000146083
43 *1871:S0 *658:10 0.000132709
44 *1871:S0 *658:12 9.98943e-06
45 *1875:S1 *658:109 0.000182355
46 *1884:S1 *658:133 0.000239671
47 *1888:A3 *1888:A0 0
48 *1888:S0 *1888:A0 1.47406e-05
49 *1888:S1 *1888:A0 5.75805e-06
50 *1898:S0 *1847:A2 1.92979e-05
51 *1898:S0 *658:27 5.56633e-06
52 *1911:S0 *658:109 2.01565e-05
53 *1913:S0 *1913:A0 2.84944e-05
54 *1950:D *658:58 3.92756e-05
55 *1954:D *658:109 1.70767e-05
56 *1982:D *658:27 2.61192e-05
57 *2016:D *658:109 0
58 *2039:D *658:109 1.5479e-05
59 *2039:D *658:133 0.000208193
60 *2041:D *658:133 0.000220738
61 *2224:A *658:27 0.000304564
62 *2234:A *658:10 4.77757e-05
63 *2235:A *658:10 2.42043e-05
64 *2239:A *658:27 3.31362e-05
65 *2262:A *1863:A2 3.41481e-05
66 *2304:A *658:109 0.00010873
67 *146:67 *658:27 0
68 *149:45 *658:109 1.1561e-05
69 *150:35 *1863:A2 3.98096e-05
70 *150:35 *658:31 0.000847936
71 *150:35 *658:58 4.33901e-05
72 *151:23 *1913:A0 2.65814e-06
73 *153:59 *658:109 0.000877585
74 *157:53 *658:109 0.000239212
75 *157:91 *658:109 0.000318693
76 *158:23 *658:109 0.00149361
77 *240:14 *1863:A2 8.7152e-06
78 *240:20 *1863:A2 7.11507e-05
79 *247:32 *658:27 6.07298e-05
80 *248:35 *658:12 6.37491e-05
81 *479:30 *658:58 0.000251758
82 *483:80 *658:58 0.00112768
83 *510:28 *658:109 2.05583e-05
84 *513:86 *1888:A0 0.000125229
85 *513:86 *658:133 0.000309343
86 *560:44 *658:27 3.07267e-05
87 *569:58 *658:58 2.22315e-05
88 *579:54 *658:31 0.000681818
89 *579:54 *658:58 0.00162301
90 *579:84 *658:27 0
91 *579:84 *658:31 0.000154745
92 *582:94 *658:133 4.2209e-05
93 *587:118 *658:109 1.31664e-05
94 *587:118 *658:133 1.2961e-05
95 *590:14 *658:109 0.000100442
96 *590:112 *658:109 0.000113201
97 *593:46 *658:109 5.37407e-05
98 *596:50 *658:27 0.000101138
99 *596:50 *658:58 4.73375e-06
100 *597:20 *658:109 4.77719e-05
101 *618:40 *658:109 0.00037535
102 *618:112 *658:133 2.96556e-06
103 *631:65 *1888:A0 0.000133193
104 *631:65 *658:133 0.000173193
105 *634:154 *1896:A0 2.49909e-05
106 *640:34 *658:109 0.000849209
107 *643:116 *658:133 0.000577442
108 *644:115 *658:109 0.000277894
109 *647:16 *658:27 5.18735e-06
110 *649:10 *1856:A2 7.61063e-05
111 *652:18 *1863:A2 1.91769e-05
112 *655:16 *1847:A2 0.000301866
113 *657:18 *1871:A2 0.000118765
114 *657:44 *1847:A2 0.000210924
115 *657:44 *1863:A2 5.93675e-06
*RES
1 *2234:X *658:10 6.03 
2 *658:10 *658:12 4.185 
3 *658:12 *1856:A2 5.6025 
4 *658:12 *658:27 2.88283 
5 *658:27 *658:31 2.0884 
6 *658:31 *1863:A2 6.13338 
7 *658:31 *658:58 4.6073 
8 *658:58 *1913:A0 13.065 
9 *658:58 *658:109 49.8472 
10 *658:109 *658:133 25.8025 
11 *658:133 *1896:A0 4.05 
12 *658:133 *1888:A0 6.645 
13 *658:27 *1847:A2 9.67625 
14 *658:10 *1871:A2 6.0525 
*END

*D_NET *659 0.0370393
*CONN
*I *1856:A3 I *D sky130_fd_sc_hd__mux4_1
*I *1914:A0 I *D sky130_fd_sc_hd__mux4_1
*I *728:DIODE I *D sky130_fd_sc_hd__diode_2
*I *1887:A0 I *D sky130_fd_sc_hd__mux4_1
*I *1895:A0 I *D sky130_fd_sc_hd__mux4_1
*I *1863:A3 I *D sky130_fd_sc_hd__mux4_1
*I *1847:A3 I *D sky130_fd_sc_hd__mux4_1
*I *1871:A3 I *D sky130_fd_sc_hd__mux4_1
*I *2235:X O *D sky130_fd_sc_hd__clkbuf_2
*CAP
1 *1856:A3 0
2 *1914:A0 0
3 *728:DIODE 4.3458e-05
4 *1887:A0 0.000244389
5 *1895:A0 0.000172366
6 *1863:A3 4.39019e-06
7 *1847:A3 0.000147695
8 *1871:A3 0
9 *2235:X 0.000170035
10 *659:227 0.00110261
11 *659:213 0.00239395
12 *659:175 0.00291442
13 *659:116 0.00284472
14 *659:83 0.00217964
15 *659:56 0.001336
16 *659:33 0.000913348
17 *659:25 0.000594792
18 *659:12 0.000344214
19 *728:DIODE *1914:A1 4.66108e-05
20 *728:DIODE *691:88 4.50233e-05
21 *728:DIODE *708:113 0.000107419
22 *1887:A0 *665:50 0.000276217
23 *1887:A0 *676:85 1.18243e-05
24 *1887:A0 *690:65 0.000187687
25 *1895:A0 *1895:A1 2.76356e-05
26 *659:56 *662:99 8.69626e-05
27 *659:83 *2036:D 0.000365865
28 *659:83 *662:99 1.27799e-05
29 *659:83 *687:114 0.000414454
30 *659:83 *693:38 7.90639e-06
31 *659:83 *708:22 0.000323893
32 *659:116 *667:64 0.000113595
33 *659:116 *671:111 0.000107364
34 *659:116 *676:85 6.03517e-05
35 *659:116 *690:65 5.8678e-05
36 *659:116 *692:22 0.000215774
37 *659:116 *699:66 2.11536e-05
38 *659:175 *660:87 0.000231117
39 *659:175 *665:50 8.23457e-05
40 *659:175 *691:16 0.000136658
41 *659:175 *695:90 9.44589e-05
42 *659:213 *691:44 0.000407032
43 *659:213 *695:90 0.000124907
44 *659:227 *1889:A2 2.10674e-05
45 *659:227 *1893:A1 1.41765e-05
46 *659:227 *1899:A2 4.14843e-05
47 *659:227 *691:72 0
48 *659:227 *691:88 2.87433e-05
49 *659:227 *708:113 9.57985e-06
50 E2BEG[2] *659:175 2.39856e-05
51 E2BEG[4] *659:175 0.00038136
52 E2BEG[6] *659:175 1.85674e-05
53 E2BEGb[0] *659:175 0
54 E6BEG[0] *659:213 0.000122053
55 E6BEG[1] *659:213 6.5536e-05
56 E6BEG[2] *659:213 0.000174902
57 E6BEG[6] *659:213 0.000169074
58 E6BEG[8] *659:213 0.000371041
59 EE4BEG[7] *659:213 0.000127213
60 EE4BEG[9] *659:213 0.000164402
61 FrameData_O[0] *659:213 0.000169547
62 FrameData_O[2] *659:213 6.72027e-05
63 *710:DIODE *659:227 6.17086e-06
64 *1805:A *659:83 6.59161e-05
65 *1847:A2 *1847:A3 0.000195745
66 *1861:A1 *659:56 8.43282e-05
67 *1861:A1 *659:83 0.00011068
68 *1879:A2 *659:116 4.28819e-05
69 *1879:S1 *659:116 0.000204883
70 *1883:A3 *659:227 0.000455618
71 *1884:A0 *659:116 4.27883e-06
72 *1889:S0 *659:227 0
73 *1895:A3 *659:83 2.76356e-05
74 *1895:A3 *659:116 2.86853e-05
75 *1895:S0 *1895:A0 1.94027e-05
76 *1895:S0 *659:83 9.76407e-06
77 *1895:S1 *659:83 5.92191e-05
78 *1898:A0 *659:33 8.73389e-06
79 *1898:A1 *659:33 0.000191335
80 *1910:S1 *659:83 0.000156621
81 *1911:A0 *659:116 0.000228165
82 *1911:S0 *659:83 0.000178875
83 *1946:D *659:213 8.46764e-05
84 *2087:A *659:116 1.90818e-05
85 *2107:A *659:175 2.68526e-05
86 *2232:A *659:12 9.77048e-06
87 *2235:A *659:12 8.46717e-05
88 *2262:A *659:83 0.000106561
89 *2285:A *659:175 0.000136122
90 *2289:A *659:175 8.84213e-05
91 *2291:A *659:175 0.000119866
92 *2293:A *659:175 8.35106e-05
93 *2295:A *659:175 0.000122197
94 *2305:A *659:213 6.69608e-06
95 *2311:A *659:213 5.44672e-05
96 *2321:A *659:175 8.8917e-06
97 *2324:A *659:175 4.41506e-05
98 *2329:A *659:213 0.000104153
99 *2361:A *659:213 7.31284e-05
100 *2362:A *659:227 0.00033525
101 *2389:A *1847:A3 0.000245702
102 *2389:A *659:56 0.000364433
103 *143:47 *659:116 1.7635e-05
104 *146:89 *659:213 0.000305269
105 *147:47 *659:12 8.28732e-05
106 *147:47 *659:25 0.000348796
107 *147:75 *659:175 0.000253924
108 *147:99 *659:175 0.000433649
109 *147:99 *659:213 0.000146155
110 *147:101 *659:213 0.00013388
111 *148:89 *659:175 0.000221073
112 *149:45 *659:83 5.12017e-06
113 *149:45 *659:116 0.000341926
114 *149:75 *659:175 0.000280294
115 *149:93 *659:213 0.00011412
116 *149:111 *659:213 1.15529e-05
117 *150:35 *659:116 1.02564e-05
118 *151:33 *659:175 0.00022236
119 *151:33 *659:213 0.00030467
120 *160:85 *659:116 8.31725e-06
121 *234:26 *659:227 0.00042191
122 *234:44 *659:227 0.000453375
123 *234:94 *1887:A0 4.50095e-05
124 *235:45 *659:227 0.000400571
125 *236:40 *659:213 4.35426e-05
126 *236:93 *659:175 0.000398255
127 *240:10 *659:83 0.000245906
128 *240:14 *659:83 3.24891e-05
129 *243:42 *659:83 0.000272636
130 *247:32 *659:12 0.000149738
131 *247:32 *659:25 0.000304915
132 *479:161 *659:227 0.000426977
133 *514:94 *659:213 2.28645e-05
134 *514:94 *659:227 1.37292e-05
135 *517:50 *1887:A0 6.28477e-05
136 *524:18 *659:227 1.7635e-05
137 *524:180 *659:227 0.000303116
138 *533:44 *659:116 9.25119e-05
139 *535:76 *659:213 0.00075692
140 *538:72 *659:213 0.000270687
141 *542:30 *659:227 2.85764e-05
142 *559:46 *659:227 0.000195119
143 *569:58 *659:83 0.000876033
144 *579:84 *1847:A3 0.000108647
145 *585:66 *659:227 2.22847e-05
146 *594:74 *659:175 0.000271444
147 *597:44 *659:83 1.07797e-05
148 *642:38 *659:116 0.000297247
149 *644:24 *659:56 0.000168276
150 *644:24 *659:83 1.82476e-05
151 *646:32 *659:12 2.53305e-05
152 *649:10 *659:33 1.56428e-05
153 *649:12 *659:33 2.75299e-05
154 *649:134 *659:25 1.64078e-05
155 *651:45 *659:33 0.00019312
156 *653:237 *659:213 0.00018878
157 *653:275 *659:213 1.7495e-05
158 *656:52 *659:33 0.000133194
159 *657:44 *1847:A3 0.000180682
160 *657:44 *659:56 0.000691089
161 *658:58 *659:83 3.86814e-05
162 *658:109 *659:83 0.000395975
*RES
1 *2235:X *659:12 6.825 
2 *659:12 *1871:A3 3.6 
3 *659:12 *659:25 6.635 
4 *659:25 *659:33 8.78 
5 *659:33 *1847:A3 8.94 
6 *659:33 *659:56 10.815 
7 *659:56 *1863:A3 4.05 
8 *659:56 *659:83 30.59 
9 *659:83 *1895:A0 3.7 
10 *659:83 *659:116 23.7841 
11 *659:116 *1887:A0 10.955 
12 *659:116 *659:175 48.47 
13 *659:175 *659:213 47.31 
14 *659:213 *659:227 22.0747 
15 *659:227 *728:DIODE 2.9275 
16 *659:227 *1914:A0 1.6 
17 *659:25 *1856:A3 1.6 
*END

*D_NET *660 0.0316918
*CONN
*I *1872:A0 I *D sky130_fd_sc_hd__mux4_1
*I *1848:A0 I *D sky130_fd_sc_hd__mux4_1
*I *1855:A0 I *D sky130_fd_sc_hd__mux4_1
*I *1915:A0 I *D sky130_fd_sc_hd__mux4_1
*I *1896:A1 I *D sky130_fd_sc_hd__mux4_1
*I *1888:A1 I *D sky130_fd_sc_hd__mux4_1
*I *1864:A0 I *D sky130_fd_sc_hd__mux4_1
*I *2236:X O *D sky130_fd_sc_hd__clkbuf_2
*CAP
1 *1872:A0 0
2 *1848:A0 0.000725982
3 *1855:A0 4.94549e-05
4 *1915:A0 2.21004e-05
5 *1896:A1 0
6 *1888:A1 0.000494419
7 *1864:A0 0
8 *2236:X 0.000125241
9 *660:163 0.00075247
10 *660:150 0.000222647
11 *660:115 0.00163432
12 *660:99 0.00200991
13 *660:87 0.00260059
14 *660:51 0.00341971
15 *660:16 0.00214948
16 *660:6 0.000754397
17 *1848:A0 *1848:A2 1.23883e-05
18 *1848:A0 *1848:A3 2.76356e-05
19 *1848:A0 *664:14 5.48087e-05
20 *1848:A0 *664:41 0.000308616
21 *1888:A1 *693:82 8.87062e-05
22 *660:6 *681:59 0.000228848
23 *660:16 *2042:GATE 0.000120154
24 *660:16 *662:77 0.000198882
25 *660:16 *681:59 0.000118081
26 *660:51 *1864:A2 5.82798e-05
27 *660:51 *2037:D 0.000158495
28 *660:51 *699:40 0.000411318
29 *660:51 *706:38 4.19561e-05
30 *660:87 *691:44 0.000223798
31 *660:87 *695:66 1.20478e-05
32 *660:99 *1915:A2 1.54111e-05
33 *660:115 *1896:A2 1.26747e-05
34 *660:115 *667:74 0.000178812
35 *660:115 *708:84 0.000130115
36 *660:163 *664:41 8.35068e-05
37 E2BEGb[4] *660:87 2.68526e-05
38 EE4BEG[5] *660:99 0.000160683
39 *732:DIODE *660:115 1.07797e-05
40 *1848:S1 *1848:A0 2.76356e-05
41 *1859:A3 *660:51 8.38498e-06
42 *1862:A2 *660:51 4.43813e-05
43 *1862:B1 *660:51 0
44 *1866:A1 *660:51 0
45 *1888:A0 *1888:A1 2.65143e-05
46 *1888:S1 *1888:A1 1.56428e-05
47 *1896:A0 *660:115 2.49909e-05
48 *1896:A3 *660:115 2.76356e-05
49 *1896:S0 *660:115 5.16211e-05
50 *1896:S1 *660:115 2.76356e-05
51 *1915:A1 *660:115 4.66108e-05
52 *1915:S0 *660:99 4.66108e-05
53 *1915:S1 *660:99 0.00015893
54 *2001:D *1888:A1 3.64998e-06
55 *2067:A *660:99 6.51658e-05
56 *2221:A *1848:A0 0.000112027
57 *2221:A *660:163 2.51154e-05
58 *2224:A *660:16 2.10433e-05
59 *2255:A *660:51 0.000571414
60 *2265:A *660:51 6.83447e-05
61 *2290:A *660:99 0.000153816
62 *2324:A *660:87 0.000313625
63 *142:31 *660:51 0.00105145
64 *142:57 *660:87 0.000829446
65 *143:9 *660:16 1.70431e-05
66 *144:31 *660:16 0.000226438
67 *144:31 *660:51 7.2228e-05
68 *144:75 *660:87 0
69 *144:111 *660:115 0.00017046
70 *146:67 *660:51 3.74748e-05
71 *146:89 *660:87 0.000416505
72 *147:47 *660:51 5.75138e-05
73 *148:51 *660:51 0
74 *149:75 *660:87 0.00128129
75 *149:93 *660:87 0
76 *151:23 *660:51 0.000738135
77 *151:33 *660:87 0.000227317
78 *157:91 *1888:A1 8.83946e-05
79 *234:94 *660:87 5.33809e-05
80 *236:93 *660:87 0.000120701
81 *255:12 *1848:A0 6.55623e-06
82 *479:130 *660:99 1.26248e-05
83 *479:130 *660:115 0.000127976
84 *481:30 *660:87 0.000866682
85 *481:88 *660:87 3.09774e-05
86 *502:79 *1888:A1 6.23541e-06
87 *517:50 *660:115 0.000135667
88 *524:142 *660:16 0.000227372
89 *593:94 *660:115 4.98998e-06
90 *594:48 *660:87 7.31228e-05
91 *594:74 *660:87 0.000259452
92 *596:140 *660:115 0.000289983
93 *634:154 *1888:A1 0.000124978
94 *634:154 *660:115 1.21515e-05
95 *636:159 *1888:A1 0.000160683
96 *637:114 *1888:A1 0.000135667
97 *647:244 *660:87 5.22167e-05
98 *648:8 *660:16 3.15713e-05
99 *648:109 *660:16 0.000242412
100 *648:109 *660:51 8.00033e-05
101 *649:29 *1855:A0 0.000183036
102 *649:29 *660:150 0.000478417
103 *650:139 *660:51 5.09262e-05
104 *650:164 *660:51 0.000300828
105 *651:28 *660:16 0.000167631
106 *651:45 *1855:A0 0.000183036
107 *651:45 *660:150 0.000469886
108 *651:185 *660:51 0.00098089
109 *651:209 *660:51 7.52717e-05
110 *651:209 *660:87 0.000229659
111 *652:16 *660:51 0.000270696
112 *653:237 *660:99 0.000118747
113 *656:30 *660:16 0.000198233
114 *659:175 *660:87 0.000231117
*RES
1 *2236:X *660:6 3.775 
2 *660:6 *660:16 14.255 
3 *660:16 *1864:A0 3.6 
4 *660:16 *660:51 43.7889 
5 *660:51 *660:87 48.22 
6 *660:87 *660:99 13.97 
7 *660:99 *660:115 21.01 
8 *660:115 *1888:A1 14.03 
9 *660:115 *1896:A1 1.6 
10 *660:99 *1915:A0 1.96 
11 *660:6 *660:150 7.715 
12 *660:150 *1855:A0 5.745 
13 *660:150 *660:163 2.795 
14 *660:163 *1848:A0 11.92 
15 *660:163 *1872:A0 1.6 
*END

*D_NET *661 0.0346102
*CONN
*I *1895:A2 I *D sky130_fd_sc_hd__mux4_1
*I *1808:A0 I *D sky130_fd_sc_hd__mux4_1
*I *1887:A2 I *D sky130_fd_sc_hd__mux4_1
*I *1864:A2 I *D sky130_fd_sc_hd__mux4_1
*I *1872:A2 I *D sky130_fd_sc_hd__mux4_1
*I *1855:A2 I *D sky130_fd_sc_hd__mux4_1
*I *1848:A2 I *D sky130_fd_sc_hd__mux4_1
*I *2237:X O *D sky130_fd_sc_hd__clkbuf_2
*CAP
1 *1895:A2 0.000316843
2 *1808:A0 0.000377991
3 *1887:A2 0.000149829
4 *1864:A2 5.96154e-05
5 *1872:A2 4.4627e-05
6 *1855:A2 8.76729e-05
7 *1848:A2 0.000787562
8 *2237:X 0.000170743
9 *661:203 0.00284658
10 *661:132 0.00332342
11 *661:112 0.00235409
12 *661:81 0.00238839
13 *661:37 0.000309839
14 *661:16 0.000971017
15 *661:12 0.00117318
16 *1808:A0 *665:18 7.23602e-05
17 *1808:A0 *672:52 0.000101896
18 *1848:A2 *1848:A1 0.000157849
19 *1848:A2 *664:41 1.54111e-05
20 *1864:A2 *699:40 9.54817e-06
21 *1864:A2 *706:38 2.10433e-05
22 *1887:A2 *707:83 2.55801e-05
23 *661:81 *665:83 0.000333544
24 *661:81 *681:67 0
25 *661:112 *1967:GATE 0.000132623
26 *661:112 *676:85 1.1392e-05
27 *661:112 *676:99 0.000162115
28 *661:112 *690:65 1.86954e-05
29 *661:112 *698:129 3.30007e-05
30 *661:112 *704:70 2.22315e-05
31 *661:132 *1970:D 6.75818e-05
32 *661:132 *1971:GATE 2.76356e-05
33 *661:132 *665:50 0.000383365
34 *661:132 *671:111 0.000142011
35 *661:132 *671:113 0.000415827
36 *661:132 *686:46 2.78026e-05
37 *661:132 *690:65 0.00025701
38 *661:132 *699:66 1.74678e-05
39 *661:203 *2002:D 4.01535e-05
40 *661:203 *2002:GATE 0.000128686
41 *661:203 *662:177 0.000181184
42 *661:203 *665:50 0.000135461
43 *661:203 *667:64 0.000211051
44 *661:203 *668:81 0.000141891
45 *661:203 *673:106 0.000165417
46 *661:203 *677:42 0.000190712
47 *661:203 *686:46 3.47971e-05
48 *661:203 *690:65 1.47316e-05
49 *661:203 *693:82 9.74451e-06
50 *661:203 *698:68 2.22315e-05
51 *661:203 *701:52 4.77719e-05
52 *661:203 *703:60 0.000205584
53 *709:DIODE *661:132 5.89925e-05
54 *1808:A1 *1808:A0 5.8847e-05
55 *1808:S0 *1808:A0 9.50342e-06
56 *1812:A0 *661:203 6.56553e-05
57 *1813:A0 *1808:A0 8.247e-05
58 *1824:A2 *661:203 6.24871e-05
59 *1825:A *661:203 0.000138818
60 *1827:A *661:203 3.10027e-05
61 *1848:A0 *1848:A2 1.23883e-05
62 *1857:A1 *661:81 0.000572616
63 *1868:A *1855:A2 7.41391e-05
64 *1868:A *1872:A2 6.71803e-06
65 *1868:A *661:81 4.76263e-05
66 *1871:S0 *661:16 1.88602e-05
67 *1871:S0 *661:81 5.68601e-05
68 *1871:S1 *1872:A2 1.17701e-05
69 *1872:S1 *661:12 5.83121e-06
70 *1873:A0 *661:81 3.4222e-05
71 *1873:A1 *661:12 8.64421e-05
72 *1873:A1 *661:81 8.53113e-06
73 *1875:S1 *661:203 0.000215584
74 *1884:A0 *661:132 1.03572e-05
75 *1884:S0 *661:203 0.000219052
76 *1887:A3 *1887:A2 1.86209e-05
77 *2027:D *661:203 0.0004221
78 *2041:D *661:203 1.08856e-05
79 *2099:A *1895:A2 4.66108e-05
80 *2164:A *1808:A0 0.000521259
81 *2220:A *1855:A2 1.10377e-05
82 *2221:A *1872:A2 1.72728e-05
83 *2221:A *661:12 6.9843e-05
84 *2222:A *661:37 9.1686e-05
85 *2225:A *661:81 0
86 *2234:A *661:81 8.35106e-05
87 *2237:A *661:81 0
88 *2238:A *661:81 0
89 *2254:A *1864:A2 1.54111e-05
90 *2289:A *661:132 0.000347887
91 *2289:A *661:203 6.26955e-05
92 *2296:A *661:203 4.77719e-05
93 *2297:A *1808:A0 5.53549e-06
94 *2297:A *661:203 0.000263709
95 *2328:A *1895:A2 5.00879e-05
96 *142:31 *661:81 0.000256624
97 *143:109 *1808:A0 0.000671044
98 *143:109 *661:203 0.000729864
99 *143:117 *1808:A0 9.7828e-06
100 *144:75 *1895:A2 7.76356e-05
101 *144:75 *661:112 0.000119242
102 *145:71 *661:203 0.000660414
103 *146:67 *1864:A2 7.86633e-05
104 *147:75 *661:132 3.9064e-05
105 *149:23 *1848:A2 0.000350272
106 *234:94 *1887:A2 0.000170888
107 *248:35 *1848:A2 0.00022907
108 *248:35 *661:37 2.22315e-05
109 *263:36 *1855:A2 6.95704e-05
110 *263:36 *1872:A2 1.00941e-05
111 *265:14 *661:81 0
112 *482:30 *661:112 0.00149816
113 *538:72 *661:203 4.66108e-05
114 *545:72 *661:132 5.79895e-05
115 *553:28 *661:203 0.000137459
116 *560:44 *661:81 0.000261094
117 *567:32 *661:112 7.33639e-05
118 *569:58 *661:203 4.75291e-05
119 *579:52 *661:203 4.47861e-05
120 *579:84 *1848:A2 6.10352e-05
121 *583:82 *661:81 0.000473012
122 *583:82 *661:112 0.00214574
123 *593:94 *661:203 0.000407018
124 *597:44 *661:203 0.000243826
125 *600:74 *1848:A2 0.000100616
126 *600:74 *661:132 0.000235749
127 *600:122 *661:203 1.24491e-05
128 *630:84 *661:203 0.000116687
129 *631:65 *1808:A0 5.9926e-05
130 *632:107 *661:203 0.000272933
131 *634:154 *661:203 0.000181918
132 *635:42 *1848:A2 0
133 *635:102 *661:203 0.000102182
134 *636:50 *661:132 0.000262357
135 *636:159 *661:203 0.000191335
136 *637:114 *1808:A0 0.000117278
137 *637:114 *661:203 0.000141541
138 *642:38 *661:81 5.0376e-05
139 *642:38 *661:112 0.000260921
140 *647:16 *661:81 0
141 *650:139 *1864:A2 5.05716e-06
142 *651:185 *1864:A2 1.17701e-05
143 *655:16 *1848:A2 6.43553e-05
144 *658:10 *661:81 8.53113e-06
145 *658:12 *661:81 2.5411e-05
146 *658:27 *661:81 1.69186e-05
147 *660:51 *1864:A2 5.82798e-05
*RES
1 *2237:X *661:12 6.585 
2 *661:12 *661:16 0.7325 
3 *661:16 *1848:A2 6.78947 
4 *661:16 *661:37 0.8648 
5 *661:37 *1855:A2 5.56125 
6 *661:37 *1872:A2 4.56 
7 *661:12 *661:81 18.6086 
8 *661:81 *1864:A2 5.2354 
9 *661:81 *661:112 10.7188 
10 *661:112 *661:132 23.595 
11 *661:132 *1887:A2 6.55875 
12 *661:132 *661:203 48.8022 
13 *661:203 *1808:A0 17.135 
14 *661:112 *1895:A2 6.3775 
*END

*D_NET *662 0.0402798
*CONN
*I *1864:A1 I *D sky130_fd_sc_hd__mux4_1
*I *1888:A2 I *D sky130_fd_sc_hd__mux4_1
*I *1809:A0 I *D sky130_fd_sc_hd__mux4_1
*I *1896:A2 I *D sky130_fd_sc_hd__mux4_1
*I *1822:A0 I *D sky130_fd_sc_hd__mux2_1
*I *1836:A0 I *D sky130_fd_sc_hd__mux2_1
*I *1872:A1 I *D sky130_fd_sc_hd__mux4_1
*I *1848:A1 I *D sky130_fd_sc_hd__mux4_1
*I *1855:A1 I *D sky130_fd_sc_hd__mux4_1
*I *2238:X O *D sky130_fd_sc_hd__buf_2
*CAP
1 *1864:A1 1.63287e-05
2 *1888:A2 3.59538e-05
3 *1809:A0 0.000913634
4 *1896:A2 7.2034e-06
5 *1822:A0 0.000127794
6 *1836:A0 9.42375e-05
7 *1872:A1 0
8 *1848:A1 0.000877234
9 *1855:A1 9.43816e-05
10 *2238:X 0.000669012
11 *662:196 0.00188101
12 *662:188 0.00108257
13 *662:177 0.00138221
14 *662:142 0.00200049
15 *662:140 0.00161542
16 *662:99 0.00153427
17 *662:77 0.00123015
18 *662:24 0.000999206
19 *662:22 0.000234081
20 *662:16 0.00168778
21 *1809:A0 *1890:A2 0.000137665
22 *1809:A0 *693:163 6.11965e-05
23 *1822:A0 *668:81 4.77757e-05
24 *662:77 *1864:A3 1.19928e-05
25 *662:77 *2042:GATE 1.44775e-05
26 *662:77 *664:103 8.49549e-05
27 *662:77 *681:80 9.75559e-06
28 *662:99 *663:14 0.000165839
29 *662:99 *664:103 0.000377002
30 *662:140 *1951:GATE 0.000119246
31 *662:140 *2036:GATE 0
32 *662:140 *667:12 0.000153887
33 *662:140 *667:23 2.08556e-05
34 *662:140 *705:10 1.19928e-05
35 *662:140 *706:38 0.000428518
36 *662:140 *708:22 3.64998e-06
37 *662:142 *667:64 0.000420454
38 *662:142 *701:52 3.86529e-05
39 *662:142 *705:49 8.53113e-06
40 *662:177 *668:81 5.97512e-05
41 *662:177 *673:106 0.000179333
42 *662:177 *673:124 4.75465e-05
43 *662:177 *689:114 0.000201947
44 *662:177 *693:82 1.20478e-05
45 *662:177 *698:68 0.000209717
46 *662:177 *701:52 1.01851e-05
47 *662:177 *708:42 1.61489e-05
48 *662:188 *673:106 2.69847e-05
49 *662:196 *677:32 0.000175968
50 *1822:S *1822:A0 3.71082e-05
51 *1824:A2 *662:177 2.76099e-05
52 *1825:A *662:177 1.45569e-05
53 *1827:A *662:177 7.75093e-06
54 *1838:A1 *662:140 0.000116165
55 *1838:A2 *662:140 1.34361e-05
56 *1838:B1 *662:140 0.000157503
57 *1839:A *662:140 7.05813e-05
58 *1840:A1 *1836:A0 9.66648e-05
59 *1842:A2 *662:140 5.83121e-06
60 *1843:A0 *1848:A1 0
61 *1843:A1 *1855:A1 8.64421e-05
62 *1848:A2 *1848:A1 0.000157849
63 *1863:A2 *662:99 2.15982e-05
64 *1871:A2 *662:16 7.17341e-05
65 *1873:A0 *662:16 4.77719e-05
66 *1875:S1 *662:177 5.12569e-05
67 *1888:S1 *1888:A2 8.77681e-06
68 *1890:S0 *1809:A0 0.000187321
69 *1893:A3 *1809:A0 6.11277e-05
70 *1894:S1 *1809:A0 0.00115317
71 *1895:S0 *662:140 0.000153816
72 *1909:S0 *1809:A0 0.00047945
73 *1911:A0 *662:140 0.000656599
74 *1950:D *662:140 2.10433e-05
75 *1951:D *662:140 0.000153816
76 *2006:D *662:196 4.6368e-06
77 *2027:D *662:142 5.12017e-06
78 *2027:D *662:177 6.36438e-07
79 *2038:D *662:142 0.000116165
80 *2038:D *662:177 3.97827e-05
81 *2058:CLK *662:196 0.000976553
82 *2058:D *662:196 1.88602e-05
83 *2101:A *1809:A0 0.000108669
84 *2220:A *1855:A1 3.30017e-05
85 *2254:A *1864:A1 9.53428e-06
86 *2254:A *662:99 8.73389e-06
87 *2262:A *662:99 7.9642e-06
88 *2307:A *1888:A2 3.65365e-06
89 *2307:A *662:188 5.08231e-05
90 *2307:A *662:196 0.000446139
91 *2322:A *662:177 0.000391918
92 *2330:A *1809:A0 0.000729156
93 *2342:A *662:196 0.000819649
94 *143:9 *1855:A1 4.8498e-05
95 *143:9 *662:22 1.23244e-05
96 *143:9 *662:24 2.01826e-05
97 *145:71 *662:177 0.00106786
98 *146:67 *662:77 0.000257224
99 *147:47 *662:77 8.68964e-06
100 *149:45 *662:99 0.00012513
101 *149:45 *662:140 0.000547247
102 *154:85 *1836:A0 4.77757e-05
103 *159:77 *662:177 0.000103567
104 *233:80 *1809:A0 2.62565e-05
105 *233:99 *1809:A0 0.000221801
106 *240:10 *662:140 0.000109016
107 *240:14 *662:99 0.000138197
108 *240:14 *662:140 9.54566e-05
109 *240:20 *662:99 3.91176e-06
110 *245:59 *662:177 1.81196e-05
111 *247:10 *662:77 5.40136e-05
112 *248:16 *662:77 7.1242e-05
113 *255:12 *1848:A1 4.41506e-05
114 *409:32 *662:142 0.000209913
115 *479:30 *1848:A1 0.000401993
116 *479:46 *662:142 3.93921e-05
117 *479:46 *662:177 1.30972e-05
118 *479:60 *662:177 0
119 *482:30 *662:142 0.000530624
120 *491:96 *1809:A0 0.00102427
121 *519:40 *662:196 5.1524e-05
122 *520:56 *662:196 4.14424e-05
123 *553:28 *662:196 0.000276209
124 *558:50 *1809:A0 0.000400835
125 *591:126 *662:140 0.000693102
126 *593:94 *1896:A2 6.90889e-06
127 *593:94 *662:177 0.000638252
128 *593:94 *662:188 0.000180317
129 *593:94 *662:196 0.000117466
130 *593:118 *662:196 0.000514709
131 *600:74 *1848:A1 0
132 *626:126 *662:140 0.000133927
133 *626:148 *1848:A1 6.15773e-05
134 *630:84 *662:177 6.17086e-06
135 *632:66 *662:177 0.00020173
136 *632:152 *662:196 0.000368558
137 *634:176 *662:196 4.15779e-05
138 *635:42 *1848:A1 3.08974e-05
139 *635:102 *662:196 0.000310633
140 *635:112 *1809:A0 9.49485e-05
141 *642:38 *662:142 0.000105473
142 *642:55 *662:142 0.000342042
143 *643:10 *1848:A1 8.23457e-05
144 *645:14 *662:22 7.88274e-05
145 *649:134 *662:77 0.000156371
146 *650:47 *1848:A1 2.10762e-05
147 *651:28 *662:77 7.04858e-05
148 *651:45 *1855:A1 4.49027e-05
149 *651:45 *662:22 0.000269706
150 *651:45 *662:24 2.27079e-05
151 *651:45 *662:77 0.000421471
152 *651:185 *662:77 6.83447e-05
153 *652:36 *1848:A1 5.8023e-05
154 *652:139 *662:142 0.00107262
155 *656:10 *662:22 3.86607e-05
156 *656:10 *662:77 3.57768e-05
157 *656:30 *662:77 7.27486e-05
158 *657:18 *662:16 0.000102574
159 *657:44 *662:99 0.000143428
160 *659:56 *662:99 8.69626e-05
161 *659:83 *662:99 1.27799e-05
162 *660:16 *662:77 0.000198882
163 *660:115 *1896:A2 1.26747e-05
164 *661:203 *662:177 0.000181184
*RES
1 *2238:X *662:16 11.88 
2 *662:16 *662:22 4.575 
3 *662:22 *662:24 0.7425 
4 *662:24 *1855:A1 5.9025 
5 *662:24 *1848:A1 7.7487 
6 *662:22 *1872:A1 3.6 
7 *662:16 *662:77 18.785 
8 *662:77 *662:99 15.75 
9 *662:99 *1836:A0 5.085 
10 *662:99 *662:140 41.1 
11 *662:140 *662:142 18.465 
12 *662:142 *1822:A0 5.085 
13 *662:142 *662:177 20.8613 
14 *662:177 *1896:A2 3.79875 
15 *662:177 *662:188 2.145 
16 *662:188 *662:196 32.875 
17 *662:196 *1809:A0 33.54 
18 *662:188 *1888:A2 4.24875 
19 *662:77 *1864:A1 1.96 
*END

*D_NET *663 0.00569941
*CONN
*I *1839:C_N I *D sky130_fd_sc_hd__or3b_1
*I *2167:A I *D sky130_fd_sc_hd__buf_2
*I *2239:X O *D sky130_fd_sc_hd__clkbuf_1
*CAP
1 *1839:C_N 0.000190229
2 *2167:A 0.000179438
3 *2239:X 0.000847823
4 *663:14 0.00121749
5 *2167:A *664:6 1.19928e-05
6 *2167:A *664:103 5.88288e-05
7 *663:14 *664:103 5.30728e-05
8 *663:14 *681:59 0.000116555
9 *663:14 *699:40 2.49909e-05
10 *1799:A *2167:A 5.63214e-05
11 *1836:A1 *1839:C_N 5.78621e-05
12 *1838:A1 *2167:A 1.54111e-05
13 *1911:A0 *1839:C_N 3.39916e-05
14 *143:9 *663:14 0.000800576
15 *149:45 *1839:C_N 0.000520608
16 *154:85 *1839:C_N 0.000201134
17 *597:20 *663:14 0.000804581
18 *653:32 *1839:C_N 0.000191301
19 *657:44 *663:14 0.000151364
20 *662:99 *663:14 0.000165839
*RES
1 *2239:X *663:14 23.54 
2 *663:14 *2167:A 4.48 
3 *663:14 *1839:C_N 11.825 
*END

*D_NET *664 0.0304645
*CONN
*I *1864:A3 I *D sky130_fd_sc_hd__mux4_1
*I *1810:A0 I *D sky130_fd_sc_hd__mux4_1
*I *1825:C_N I *D sky130_fd_sc_hd__or3b_1
*I *1887:A1 I *D sky130_fd_sc_hd__mux4_1
*I *1895:A1 I *D sky130_fd_sc_hd__mux4_1
*I *1872:A3 I *D sky130_fd_sc_hd__mux4_1
*I *1855:A3 I *D sky130_fd_sc_hd__mux4_1
*I *1829:A0 I *D sky130_fd_sc_hd__mux2_1
*I *1815:A0 I *D sky130_fd_sc_hd__mux2_1
*I *1848:A3 I *D sky130_fd_sc_hd__mux4_1
*I *2167:X O *D sky130_fd_sc_hd__buf_2
*CAP
1 *1864:A3 6.19992e-05
2 *1810:A0 0
3 *1825:C_N 0.000365258
4 *1887:A1 0.000579364
5 *1895:A1 6.53176e-05
6 *1872:A3 7.06239e-05
7 *1855:A3 0.000115276
8 *1829:A0 8.32332e-05
9 *1815:A0 0.000355248
10 *1848:A3 5.2085e-05
11 *2167:X 0.000113392
12 *664:166 0.00168674
13 *664:143 0.00133847
14 *664:125 0.00120743
15 *664:103 0.00147829
16 *664:51 0.00116882
17 *664:45 0.000899282
18 *664:41 0.000808084
19 *664:14 0.00136438
20 *664:6 0.0014818
21 *1825:C_N *1972:D 2.21577e-05
22 *1825:C_N *693:38 0.000261287
23 *1825:C_N *693:82 7.01501e-05
24 *1825:C_N *698:68 4.59096e-05
25 *1887:A1 *1875:A2 7.13691e-05
26 *664:51 *2034:GATE 0.000374239
27 *664:125 *1941:GATE 0.000178463
28 *664:125 *2035:D 4.66108e-05
29 *664:125 *676:99 0.000107205
30 *664:125 *681:80 0.000463293
31 *664:125 *681:103 0.000176273
32 *664:125 *706:38 0
33 *664:143 *1941:GATE 0.000125497
34 *664:143 *2036:D 8.53113e-06
35 *664:143 *667:64 0.000356767
36 *664:143 *687:114 0.000532003
37 *664:143 *689:24 2.97593e-05
38 *664:143 *693:38 0.000278837
39 *664:166 *667:64 0.000125168
40 *664:166 *693:38 0.000291429
41 *664:166 *699:66 3.1562e-06
42 *664:166 *708:42 7.90639e-06
43 *1799:A *664:6 5.83121e-06
44 *1799:A *664:103 3.01974e-05
45 *1810:A1 *664:125 4.66108e-05
46 *1810:A1 *664:143 8.23457e-05
47 *1810:S0 *664:125 9.68391e-05
48 *1810:S0 *664:143 1.91597e-05
49 *1819:A2 *1815:A0 0.000289914
50 *1819:A2 *664:51 0.00016804
51 *1819:B1 *1815:A0 0.000131279
52 *1821:A2 *1815:A0 2.02787e-05
53 *1821:B1 *1815:A0 0.000175734
54 *1845:S0 *664:14 2.92496e-05
55 *1848:A0 *1848:A3 2.76356e-05
56 *1848:A0 *664:14 5.48087e-05
57 *1848:A0 *664:41 0.000308616
58 *1848:A2 *664:41 1.54111e-05
59 *1848:S1 *664:41 4.41506e-05
60 *1851:A2 *664:51 4.77234e-05
61 *1851:S0 *664:51 0.000880412
62 *1853:A3 *664:51 0.000137571
63 *1855:S0 *1855:A3 8.35106e-05
64 *1859:A0 *664:125 8.02242e-05
65 *1864:S0 *1864:A3 4.89295e-05
66 *1864:S0 *664:125 5.03312e-05
67 *1871:S1 *1872:A3 3.83194e-05
68 *1871:S1 *664:41 5.12969e-06
69 *1872:S0 *1872:A3 4.66108e-05
70 *1875:A1 *1887:A1 2.5627e-05
71 *1875:S0 *1887:A1 6.33103e-05
72 *1875:S0 *664:166 0.000132605
73 *1875:S1 *1825:C_N 5.97512e-05
74 *1879:A1 *664:166 6.72196e-05
75 *1879:S0 *664:166 0.000137887
76 *1892:S1 *1825:C_N 0.000149031
77 *1895:A0 *1895:A1 2.76356e-05
78 *1895:S0 *1895:A1 0.000155601
79 *1895:S1 *664:143 6.36139e-05
80 *1904:A0 *664:125 0.000531012
81 *1905:A0 *664:125 5.041e-05
82 *1911:A0 *664:143 0.000355108
83 *1911:A0 *664:166 0.000132469
84 *1911:S0 *664:166 0.000198145
85 *1955:D *664:166 0.000120789
86 *2167:A *664:6 1.19928e-05
87 *2167:A *664:103 5.88288e-05
88 *2220:A *1855:A3 8.09841e-05
89 *2221:A *1872:A3 5.16211e-05
90 *2221:A *664:41 1.48096e-05
91 *2254:A *1864:A3 5.94666e-05
92 *2254:A *664:103 0.000151767
93 *2326:A *664:14 7.06865e-05
94 *143:9 *1829:A0 8.02701e-05
95 *143:9 *664:103 9.45357e-05
96 *143:47 *664:143 0.000220583
97 *144:31 *664:103 9.2655e-05
98 *144:31 *664:125 0.000246056
99 *145:71 *1825:C_N 0.000433249
100 *145:71 *664:166 3.8476e-05
101 *146:67 *664:51 0
102 *149:45 *664:166 0.000295866
103 *154:41 *664:14 0.000118136
104 *159:39 *1815:A0 2.9011e-05
105 *181:21 *1815:A0 6.26805e-05
106 *181:21 *664:51 4.43813e-05
107 *234:94 *1887:A1 0.000100232
108 *248:35 *664:45 0.000203488
109 *248:35 *664:51 1.98158e-05
110 *248:37 *664:51 0.000507018
111 *255:12 *1848:A3 0
112 *255:12 *664:14 4.66108e-05
113 *255:12 *664:41 0
114 *255:39 *664:14 8.31963e-05
115 *484:18 *664:125 0.000154977
116 *485:20 *664:125 0.000479463
117 *493:16 *1829:A0 6.57949e-06
118 *533:44 *664:143 0.000181121
119 *597:44 *664:166 0.000691709
120 *626:126 *664:14 1.73877e-05
121 *642:106 *1825:C_N 9.05308e-05
122 *642:106 *664:166 8.53113e-06
123 *643:10 *664:14 0.000460253
124 *643:50 *664:14 0.000218619
125 *644:46 *664:166 0.000244062
126 *647:133 *664:125 0.000266558
127 *648:49 *1829:A0 0.000140361
128 *649:29 *664:45 0.000197722
129 *649:29 *664:51 2.85364e-05
130 *649:33 *664:51 0.000257721
131 *649:43 *664:51 0.00022398
132 *650:12 *664:14 9.40887e-05
133 *650:47 *664:14 0.000418266
134 *650:76 *1815:A0 0.000182997
135 *651:185 *1864:A3 2.76356e-05
136 *652:16 *664:125 5.05716e-06
137 *652:34 *664:14 0.00013521
138 *656:52 *664:14 0
139 *660:163 *664:41 8.35068e-05
140 *662:77 *1864:A3 1.19928e-05
141 *662:77 *664:103 8.49549e-05
142 *662:99 *664:103 0.000377002
143 *663:14 *664:103 5.30728e-05
*RES
1 *2167:X *664:6 2.74 
2 *664:6 *664:14 21.235 
3 *664:14 *1848:A3 2.755 
4 *664:14 *664:41 10.155 
5 *664:41 *664:45 4.4 
6 *664:45 *664:51 17.7314 
7 *664:51 *1815:A0 7.22623 
8 *664:51 *1829:A0 6.1175 
9 *664:45 *1855:A3 5.775 
10 *664:41 *1872:A3 3.085 
11 *664:6 *664:103 14.665 
12 *664:103 *664:125 28.415 
13 *664:125 *664:143 22.35 
14 *664:143 *1895:A1 5.085 
15 *664:143 *664:166 22.33 
16 *664:166 *1887:A1 10.755 
17 *664:166 *1825:C_N 12.66 
18 *664:125 *1810:A0 1.6 
19 *664:103 *1864:A3 3.085 
*END

*D_NET *665 0.0368411
*CONN
*I *1938:D I *D sky130_fd_sc_hd__dlxtp_1
*I *2002:D I *D sky130_fd_sc_hd__dlxtp_1
*I *2118:A I *D sky130_fd_sc_hd__clkbuf_2
*I *2034:D I *D sky130_fd_sc_hd__dlxtp_1
*I *1970:D I *D sky130_fd_sc_hd__dlxtp_1
*I *2241:X O *D sky130_fd_sc_hd__clkbuf_2
*CAP
1 *1938:D 0
2 *2002:D 1.30863e-05
3 *2118:A 1.33819e-05
4 *2034:D 0.000312331
5 *1970:D 6.57133e-05
6 *2241:X 0.00196892
7 *665:83 0.00390161
8 *665:50 0.00395512
9 *665:38 0.00189754
10 *665:18 0.00353987
11 *1970:D *686:46 0.000138
12 *2002:D *686:46 4.04634e-05
13 *665:18 *1938:GATE 8.295e-05
14 *665:18 *1939:D 3.83194e-05
15 *665:18 *668:34 0.00033249
16 *665:18 *676:10 0.000374641
17 *665:38 *686:46 0.00121346
18 *665:38 *704:70 4.0241e-05
19 *665:50 *671:111 1.92979e-05
20 *665:50 *690:65 0.000190787
21 *665:83 *694:76 0.000281726
22 *665:83 *703:60 3.94609e-05
23 E2BEG[3] *665:83 7.33639e-05
24 E6BEG[5] *665:38 0
25 *1808:A0 *665:18 7.23602e-05
26 *1812:A0 *665:18 5.48747e-05
27 *1812:A2 *665:18 8.3701e-06
28 *1812:S0 *665:18 8.73389e-06
29 *1812:S1 *665:18 6.75675e-05
30 *1867:A2 *2118:A 4.13769e-05
31 *1881:A0 *665:38 4.12356e-05
32 *1887:A0 *665:50 0.000276217
33 *2030:D *665:83 0.00281576
34 *2062:A *665:18 6.69608e-06
35 *2231:A *665:83 4.00045e-05
36 *2284:A *665:83 0.000210995
37 *2289:A *665:50 5.83121e-06
38 *2291:A *665:83 0.000182355
39 *2297:A *665:38 0.000558314
40 *2307:A *665:18 0.000296755
41 *2312:A *665:18 3.64998e-06
42 *2318:A *665:38 0.000235735
43 *2321:A *665:38 4.17092e-05
44 *2328:A *665:38 6.31467e-05
45 *2328:A *665:50 9.15146e-05
46 *143:9 *2034:D 0
47 *144:31 *665:83 0
48 *145:35 *665:83 0.000124737
49 *146:67 *2034:D 0.00015071
50 *146:67 *665:83 0.00176178
51 *150:35 *2034:D 0.000394332
52 *150:35 *665:83 7.78114e-05
53 *151:85 *665:38 0
54 *160:85 *665:38 0.00038642
55 *234:44 *665:38 9.85301e-05
56 *235:93 *665:38 9.85301e-05
57 *483:80 *665:38 0.000211844
58 *483:80 *665:50 3.20047e-05
59 *514:94 *665:38 8.08394e-05
60 *514:94 *665:83 0.000714108
61 *517:50 *665:50 1.10172e-05
62 *535:76 *665:38 5.40646e-05
63 *545:72 *1970:D 5.63183e-05
64 *545:72 *665:83 2.39315e-06
65 *560:44 *665:83 0.000639627
66 *567:32 *665:83 3.4589e-05
67 *583:82 *665:38 0.00181762
68 *583:82 *665:83 0.00133272
69 *596:140 *665:38 0.000152374
70 *600:122 *665:38 0.000145637
71 *603:68 *665:18 3.75889e-06
72 *631:65 *665:18 7.06934e-05
73 *634:78 *665:83 0.000405959
74 *634:154 *665:18 2.11328e-05
75 *642:38 *665:83 0.000477772
76 *642:106 *665:38 0.000127379
77 *645:64 *665:83 9.84349e-05
78 *647:16 *665:83 0.00110955
79 *647:28 *665:83 0.000380374
80 *647:46 *2118:A 2.23203e-05
81 *647:63 *2034:D 8.53113e-06
82 *650:236 *665:38 0.000151261
83 *651:51 *2034:D 0.000259993
84 *653:172 *665:83 0.000627503
85 *659:175 *665:50 8.23457e-05
86 *661:81 *665:83 0.000333544
87 *661:132 *1970:D 6.75818e-05
88 *661:132 *665:50 0.000383365
89 *661:203 *2002:D 4.01535e-05
90 *661:203 *665:50 0.000135461
*RES
1 *2241:X *665:18 29.48 
2 *665:18 *665:38 10.2878 
3 *665:38 *665:50 11.802 
4 *665:50 *1970:D 5.3625 
5 *665:50 *665:83 15.6936 
6 *665:83 *2034:D 7.75817 
7 *665:83 *2118:A 4.5875 
8 *665:38 *2002:D 4.5875 
9 *665:18 *1938:D 1.6 
*END

*D_NET *666 0.0158444
*CONN
*I *1920:GATE I *D sky130_fd_sc_hd__dlxtp_1
*I *1916:GATE I *D sky130_fd_sc_hd__dlxtp_1
*I *1918:GATE I *D sky130_fd_sc_hd__dlxtp_1
*I *1919:GATE I *D sky130_fd_sc_hd__dlxtp_1
*I *1917:GATE I *D sky130_fd_sc_hd__dlxtp_1
*I *1921:GATE I *D sky130_fd_sc_hd__dlxtp_1
*I *1922:GATE I *D sky130_fd_sc_hd__dlxtp_1
*I *1927:GATE I *D sky130_fd_sc_hd__dlxtp_1
*I *1926:GATE I *D sky130_fd_sc_hd__dlxtp_1
*I *1925:GATE I *D sky130_fd_sc_hd__dlxtp_1
*I *2168:X O *D sky130_fd_sc_hd__clkbuf_2
*CAP
1 *1920:GATE 6.92475e-05
2 *1916:GATE 0.000241478
3 *1918:GATE 0
4 *1919:GATE 0.000209096
5 *1917:GATE 0.00036536
6 *1921:GATE 0
7 *1922:GATE 0
8 *1927:GATE 0.000102336
9 *1926:GATE 0
10 *1925:GATE 0
11 *2168:X 0.00146645
12 *666:151 0.00032672
13 *666:145 0.000585241
14 *666:132 0.000764604
15 *666:126 0.000537975
16 *666:85 0.000147061
17 *666:76 0.000978928
18 *666:56 0.00156876
19 *666:32 0.00180539
20 *666:32 *683:28 0.000195925
21 *666:32 *683:30 4.9968e-05
22 *666:56 *683:28 2.49909e-05
23 *666:76 *2184:A 4.18909e-05
24 *666:76 *683:10 0.000471151
25 *666:76 *683:18 8.7152e-06
26 *1916:D *1916:GATE 1.34503e-05
27 *1918:D *1919:GATE 4.66108e-05
28 *1920:D *1920:GATE 6.51658e-05
29 *1921:D *666:56 0.000117634
30 *1924:GATE *666:32 4.66108e-05
31 *1924:GATE *666:126 2.49909e-05
32 *1925:D *1927:GATE 0.000148789
33 *1925:D *666:76 1.1047e-05
34 *1925:D *666:85 0.000170883
35 *1927:D *1927:GATE 0
36 *1983:D *666:76 7.39682e-05
37 *2044:D *666:145 1.41633e-05
38 *2047:D *1919:GATE 8.35106e-05
39 *2050:D *666:56 3.91192e-05
40 *2135:A *666:32 5.83121e-06
41 *2197:A *666:145 2.04976e-05
42 *2277:A *666:56 0.000139025
43 *2384:A *1919:GATE 3.43327e-05
44 *2384:A *666:151 2.68526e-05
45 *2385:A *1916:GATE 3.27419e-05
46 *2386:A *666:56 9.37731e-05
47 *2393:A *666:56 9.71067e-05
48 *153:39 *666:145 0
49 *156:39 *1919:GATE 0.00013521
50 *156:39 *666:76 2.03757e-05
51 *156:39 *666:126 0.000825041
52 *156:39 *666:132 0.000116853
53 *156:39 *666:145 0
54 *156:39 *666:151 0
55 *160:25 *666:32 6.26968e-05
56 *490:16 *1917:GATE 4.09723e-05
57 *490:16 *666:56 4.73517e-05
58 *490:16 *666:132 3.91427e-06
59 *500:28 *666:32 0.000118585
60 *557:104 *1916:GATE 5.79433e-05
61 *557:104 *666:32 0.000153045
62 *557:104 *666:56 0.00016798
63 *568:112 *1927:GATE 2.65814e-06
64 *568:114 *666:76 0.000124935
65 *568:122 *666:76 0.000380884
66 *568:122 *666:126 0.00081651
67 *568:122 *666:132 0.000116853
68 *568:122 *666:145 1.4548e-05
69 *582:20 *666:32 0.000194891
70 *587:16 *666:32 2.29671e-05
71 *587:44 *1927:GATE 0.000162318
72 *587:44 *666:76 5.16418e-05
73 *587:44 *666:85 0.000187064
74 *591:136 *666:76 0.000264627
75 *591:136 *666:151 1.00941e-05
76 *624:130 *666:56 8.41867e-05
77 *639:58 *666:76 0
78 *639:60 *666:32 0.000239601
79 *639:60 *666:56 1.80525e-05
80 *641:8 *1919:GATE 0.00013521
*RES
1 *2168:X *666:32 27.975 
2 *666:32 *666:56 18.53 
3 *666:56 *666:76 11.8271 
4 *666:76 *1925:GATE 3.6 
5 *666:76 *666:85 2.145 
6 *666:85 *1926:GATE 3.6 
7 *666:85 *1927:GATE 6.3 
8 *666:56 *1922:GATE 1.6 
9 *666:32 *1921:GATE 1.6 
10 *2168:X *666:126 13.845 
11 *666:126 *666:132 4.865 
12 *666:132 *1917:GATE 5.77 
13 *666:132 *666:145 5.42 
14 *666:145 *666:151 3.83 
15 *666:151 *1919:GATE 10.13 
16 *666:151 *1918:GATE 1.6 
17 *666:145 *1916:GATE 6.735 
18 *666:126 *1920:GATE 4.74 
*END

*D_NET *667 0.0315069
*CONN
*I *1940:GATE I *D sky130_fd_sc_hd__dlxtp_1
*I *1941:GATE I *D sky130_fd_sc_hd__dlxtp_1
*I *1932:GATE I *D sky130_fd_sc_hd__dlxtp_1
*I *1958:GATE I *D sky130_fd_sc_hd__dlxtp_1
*I *1959:GATE I *D sky130_fd_sc_hd__dlxtp_1
*I *1933:GATE I *D sky130_fd_sc_hd__dlxtp_1
*I *1946:GATE I *D sky130_fd_sc_hd__dlxtp_1
*I *1947:GATE I *D sky130_fd_sc_hd__dlxtp_1
*I *1950:GATE I *D sky130_fd_sc_hd__dlxtp_1
*I *1951:GATE I *D sky130_fd_sc_hd__dlxtp_1
*I *2169:X O *D sky130_fd_sc_hd__buf_2
*CAP
1 *1940:GATE 0
2 *1941:GATE 0.000666025
3 *1932:GATE 0
4 *1958:GATE 0.000368236
5 *1959:GATE 2.7668e-05
6 *1933:GATE 3.56364e-05
7 *1946:GATE 0.000140798
8 *1947:GATE 0
9 *1950:GATE 3.76639e-05
10 *1951:GATE 4.51031e-05
11 *2169:X 5.58349e-05
12 *667:224 0.00071105
13 *667:187 0.000575664
14 *667:176 0.000296156
15 *667:174 0.00138229
16 *667:154 0.00277304
17 *667:87 0.00196367
18 *667:74 0.000691893
19 *667:64 0.00177715
20 *667:23 0.00153373
21 *667:12 0.000166113
22 *667:8 0.000162408
23 *1941:GATE *1910:A3 1.56428e-05
24 *1941:GATE *1940:D 8.247e-05
25 *1941:GATE *689:24 1.15136e-05
26 *1951:GATE *705:10 8.71734e-05
27 *1958:GATE *678:10 3.05373e-05
28 *1958:GATE *678:49 4.04139e-05
29 *1959:GATE *678:16 5.83121e-06
30 *667:8 *689:24 0.000112895
31 *667:64 *1875:A2 0.000418362
32 *667:64 *1881:A2 8.04254e-06
33 *667:64 *671:111 9.17274e-05
34 *667:64 *699:66 0.000112792
35 *667:64 *701:52 0.000429483
36 *667:64 *705:49 0.000194331
37 *667:64 *708:42 7.20938e-05
38 *667:74 *1881:A2 0.000302496
39 *667:74 *675:174 0.000404873
40 *667:154 *1889:A2 1.92979e-05
41 *667:154 *1893:A1 5.79169e-06
42 *667:154 *695:103 0.000124644
43 *667:154 *708:84 0
44 *667:174 *1978:GATE 0.000106646
45 *667:174 *1979:GATE 7.94912e-05
46 *667:174 *669:75 6.09935e-05
47 *667:174 *673:50 0.000200133
48 *667:174 *701:58 0.000465792
49 *667:174 *704:110 0.000230172
50 *667:187 *678:10 6.10014e-05
51 *667:224 *689:24 0.000105152
52 *711:DIODE *667:176 0
53 *711:DIODE *667:187 0
54 *733:DIODE *667:64 0.000127881
55 *733:DIODE *667:74 6.04784e-05
56 *740:DIODE *667:154 0.00068764
57 *1827:A *667:64 6.16289e-05
58 *1875:S1 *667:64 0.00018955
59 *1881:A0 *667:154 1.93834e-05
60 *1883:A2 *1959:GATE 2.8185e-05
61 *1884:A0 *667:64 0.000151982
62 *1889:S1 *667:154 0.000284376
63 *1895:A3 *667:64 0.000408594
64 *1899:S0 *667:154 0.000135916
65 *1899:S1 *667:154 7.88603e-05
66 *1899:S1 *667:174 1.67381e-05
67 *1900:S1 *667:174 5.56205e-06
68 *1905:A0 *1941:GATE 0.000114492
69 *1911:A0 *667:12 2.23485e-05
70 *1911:A0 *667:64 6.73404e-05
71 *1933:D *667:176 0.000154145
72 *1946:D *1946:GATE 3.64998e-06
73 *1947:D *667:74 0.000169282
74 *1947:D *667:87 4.03618e-05
75 *1951:D *1951:GATE 2.20014e-05
76 *1958:D *1958:GATE 4.89765e-05
77 *1979:D *667:174 0.000155601
78 *2027:D *667:64 0.000321856
79 *2078:A *667:8 4.60061e-05
80 *2089:A *667:74 0.000114955
81 *2089:A *667:87 3.52425e-05
82 *2295:A *1941:GATE 4.66108e-05
83 *2296:A *667:87 6.59891e-05
84 *2296:A *667:154 7.9642e-06
85 *2297:A *667:64 3.43454e-05
86 *2305:A *667:154 0.000376058
87 *2307:A *667:154 2.26024e-05
88 *2311:A *667:154 6.33103e-05
89 *2314:A *667:154 0.000156142
90 *2316:A *667:87 4.74773e-05
91 *2319:A *1946:GATE 9.77815e-06
92 *2327:A *667:154 3.56979e-05
93 *2333:A *667:154 9.33861e-05
94 *2336:A *1959:GATE 4.80285e-05
95 *2345:A *667:174 0.000258522
96 *2347:A *667:174 6.66469e-05
97 *2351:A *1958:GATE 6.91646e-05
98 *2353:A *667:154 0.000120407
99 *2356:A *667:154 0.000222527
100 *144:111 *667:74 3.58575e-05
101 *146:89 *667:174 0.0002089
102 *148:89 *667:174 1.6271e-05
103 *148:111 *1958:GATE 6.65125e-05
104 *148:111 *667:176 0.000100567
105 *148:111 *667:187 0.000189808
106 *150:35 *667:64 0.000175668
107 *150:57 *667:64 0.00074036
108 *150:57 *667:74 8.97006e-07
109 *151:85 *667:174 0.000175389
110 *159:101 *667:87 6.59891e-05
111 *159:101 *667:154 0.000850217
112 *181:56 *667:64 6.97256e-05
113 *233:80 *667:174 4.26741e-05
114 *234:58 *667:154 4.76126e-05
115 *243:42 *667:64 8.247e-05
116 *409:32 *667:64 3.24984e-05
117 *479:130 *667:154 0.000536463
118 *520:56 *1946:GATE 1.56428e-05
119 *533:44 *667:12 0.000110399
120 *533:44 *667:23 0.000200153
121 *533:44 *667:64 0.000118527
122 *535:76 *667:154 0.000109417
123 *535:112 *667:174 0.000485859
124 *542:30 *667:154 0.000342059
125 *542:30 *667:174 8.35068e-05
126 *553:28 *1946:GATE 1.81824e-06
127 *567:90 *667:154 0.000178527
128 *569:58 *667:64 5.83121e-06
129 *591:102 *667:23 0.000139136
130 *591:102 *667:64 1.05827e-05
131 *591:126 *667:23 2.05583e-05
132 *593:118 *667:174 8.01251e-05
133 *596:140 *667:64 0.0002961
134 *626:126 *667:8 1.47347e-05
135 *626:126 *667:224 1.34503e-05
136 *634:78 *667:64 0.000485293
137 *634:176 *667:174 0.000308487
138 *637:114 *667:154 0.000344543
139 *645:82 *667:174 7.82324e-05
140 *652:139 *667:64 1.46216e-05
141 *659:116 *667:64 0.000113595
142 *660:115 *667:74 0.000178812
143 *661:203 *667:64 0.000211051
144 *662:140 *1951:GATE 0.000119246
145 *662:140 *667:12 0.000153887
146 *662:140 *667:23 2.08556e-05
147 *662:142 *667:64 0.000420454
148 *664:125 *1941:GATE 0.000178463
149 *664:143 *1941:GATE 0.000125497
150 *664:143 *667:64 0.000356767
151 *664:166 *667:64 0.000125168
*RES
1 *2169:X *667:8 3.1 
2 *667:8 *667:12 3.89 
3 *667:12 *1951:GATE 5.085 
4 *667:12 *667:23 2.4 
5 *667:23 *1950:GATE 4.05 
6 *667:23 *667:64 49.407 
7 *667:64 *667:74 11.5025 
8 *667:74 *1947:GATE 1.6 
9 *667:74 *667:87 6.695 
10 *667:87 *1946:GATE 5.565 
11 *667:87 *667:154 48.8725 
12 *667:154 *667:174 16.0761 
13 *667:174 *667:176 2.2725 
14 *667:176 *1933:GATE 4.05 
15 *667:176 *667:187 4.185 
16 *667:187 *1959:GATE 4.395 
17 *667:187 *1958:GATE 9.27 
18 *667:174 *1932:GATE 3.6 
19 *667:8 *667:224 1.14 
20 *667:224 *1941:GATE 14.615 
21 *667:224 *1940:GATE 1.6 
*END

*D_NET *668 0.0288455
*CONN
*I *1929:GATE I *D sky130_fd_sc_hd__dlxtp_1
*I *1936:GATE I *D sky130_fd_sc_hd__dlxtp_1
*I *1955:GATE I *D sky130_fd_sc_hd__dlxtp_1
*I *1954:GATE I *D sky130_fd_sc_hd__dlxtp_1
*I *2169:A I *D sky130_fd_sc_hd__buf_2
*I *1956:GATE I *D sky130_fd_sc_hd__dlxtp_1
*I *1953:GATE I *D sky130_fd_sc_hd__dlxtp_1
*I *1952:GATE I *D sky130_fd_sc_hd__dlxtp_1
*I *1957:GATE I *D sky130_fd_sc_hd__dlxtp_1
*I *1937:GATE I *D sky130_fd_sc_hd__dlxtp_1
*I *2170:X O *D sky130_fd_sc_hd__buf_2
*CAP
1 *1929:GATE 1.40724e-05
2 *1936:GATE 6.79092e-05
3 *1955:GATE 0.00032578
4 *1954:GATE 2.4034e-05
5 *2169:A 1.83028e-05
6 *1956:GATE 0
7 *1953:GATE 2.08101e-05
8 *1952:GATE 0.000211434
9 *1957:GATE 0
10 *1937:GATE 0
11 *2170:X 0.000730112
12 *668:140 0.000596449
13 *668:130 0.000779288
14 *668:115 0.000600845
15 *668:109 0.000443747
16 *668:107 0.000653858
17 *668:95 0.00140122
18 *668:81 0.00243685
19 *668:49 0.002161
20 *668:34 0.000929846
21 *668:14 0.00133249
22 *1929:GATE *672:124 4.66108e-05
23 *1936:GATE *687:92 0
24 *1955:GATE *699:66 0.000119242
25 *2169:A *689:24 1.56428e-05
26 *668:14 *1878:A1 0.000637754
27 *668:14 *1944:GATE 0.00011875
28 *668:14 *1945:GATE 1.79536e-05
29 *668:14 *698:68 0
30 *668:81 *1984:GATE 2.76356e-05
31 *668:81 *673:124 0.000503696
32 *668:81 *675:56 0.000174147
33 *668:81 *675:130 2.18831e-05
34 *668:81 *687:92 1.41411e-05
35 *668:81 *701:52 0.000102453
36 *668:95 *673:124 0.00105582
37 *668:107 *1986:GATE 0.000192005
38 *668:107 *673:124 9.04308e-05
39 *668:109 *1986:GATE 5.65627e-05
40 *1812:A1 *668:34 0.000134118
41 *1822:A0 *668:81 4.77757e-05
42 *1822:S *668:81 3.83194e-05
43 *1824:A2 *668:81 0.000167349
44 *1828:A3 *668:81 0.000108257
45 *1878:A0 *668:14 0.000590795
46 *1880:S1 *668:95 0
47 *1908:A0 *668:14 0.000514734
48 *1910:S1 *668:115 2.39856e-05
49 *1910:S1 *668:130 8.23457e-05
50 *1937:D *668:49 3.16174e-05
51 *1954:D *1954:GATE 8.41307e-05
52 *1955:D *1955:GATE 0.0004674
53 *1955:D *668:107 8.59145e-05
54 *1956:D *668:130 3.96284e-05
55 *1957:D *668:115 8.35106e-05
56 *1957:D *668:130 8.94502e-05
57 *1984:D *668:81 1.56428e-05
58 *2000:D *668:49 0.000107595
59 *2001:D *668:49 4.15898e-05
60 *2018:D *668:95 0.000120789
61 *2023:D *668:81 0.00010816
62 *2027:D *668:81 0.000470547
63 *2038:D *668:81 8.23457e-05
64 *2041:D *668:81 0.000570836
65 *2078:A *2169:A 4.66108e-05
66 *2086:A *668:95 3.77437e-05
67 *2102:A *668:81 3.86479e-05
68 *2109:A *668:34 4.66108e-05
69 *2241:A *668:34 0.00012934
70 *2271:A *668:14 0
71 *2274:A *1952:GATE 0.000142294
72 *153:39 *668:140 6.55038e-05
73 *153:59 *1952:GATE 6.36139e-05
74 *153:105 *668:34 6.45774e-05
75 *153:129 *1929:GATE 2.68526e-05
76 *153:129 *668:14 0
77 *157:91 *668:81 6.47801e-05
78 *409:32 *668:95 0.000782658
79 *409:32 *668:107 0.000309429
80 *409:32 *668:109 0.000464115
81 *479:46 *668:81 6.69156e-06
82 *479:46 *668:95 0.000253958
83 *479:60 *668:81 0.000104139
84 *502:8 *668:14 0.000267116
85 *505:22 *668:109 0.000583075
86 *505:22 *668:115 0.000342347
87 *544:46 *668:107 1.67131e-05
88 *546:31 *668:49 0.000241031
89 *546:31 *668:81 8.67779e-05
90 *587:44 *668:95 0.000261666
91 *587:44 *668:107 4.9367e-05
92 *587:44 *668:140 1.19928e-05
93 *591:48 *668:14 0.000114662
94 *591:126 *668:109 0.000125027
95 *591:126 *668:115 0.000180234
96 *593:46 *1952:GATE 3.75937e-05
97 *593:46 *668:140 0.000102232
98 *602:70 *668:34 0.00018955
99 *602:70 *668:49 2.66832e-05
100 *602:131 *1952:GATE 0.000193394
101 *602:166 *668:140 2.91921e-05
102 *603:68 *668:34 8.90632e-05
103 *626:70 *668:49 5.94968e-05
104 *626:100 *668:95 0
105 *628:112 *668:130 2.8107e-05
106 *628:112 *668:140 0.00020013
107 *630:84 *668:81 1.79098e-05
108 *631:65 *668:81 0.000131934
109 *633:78 *668:81 0.000153816
110 *635:102 *668:81 8.82591e-05
111 *636:159 *668:81 0.000238957
112 *637:114 *668:81 8.38495e-05
113 *638:24 *1952:GATE 0.000145627
114 *638:74 *1936:GATE 3.63869e-05
115 *643:50 *668:95 2.01543e-05
116 *643:50 *668:107 5.06608e-05
117 *644:115 *668:34 0.000176799
118 *652:139 *668:107 5.83121e-06
119 *652:181 *668:14 0.000192261
120 *652:181 *668:34 0.000102179
121 *654:88 *668:14 0.000273917
122 *654:88 *668:34 0.000294407
123 *658:109 *1954:GATE 3.99753e-05
124 *658:133 *668:81 0.000325836
125 *661:203 *668:81 0.000141891
126 *662:177 *668:81 5.97512e-05
127 *665:18 *668:34 0.00033249
*RES
1 *2170:X *668:14 22.59 
2 *668:14 *668:34 16.055 
3 *668:34 *1937:GATE 1.6 
4 *668:34 *668:49 8.315 
5 *668:49 *668:81 46.62 
6 *668:81 *668:95 22.495 
7 *668:95 *668:107 11.425 
8 *668:107 *668:109 8.265 
9 *668:109 *668:115 6.98 
10 *668:115 *1957:GATE 1.6 
11 *668:115 *668:130 6.285 
12 *668:130 *668:140 10.585 
13 *668:140 *1952:GATE 10.55 
14 *668:140 *1953:GATE 1.96 
15 *668:130 *1956:GATE 1.6 
16 *668:109 *2169:A 4.05 
17 *668:107 *1954:GATE 4.395 
18 *668:95 *1955:GATE 9.24 
19 *668:49 *1936:GATE 4.77 
20 *668:14 *1929:GATE 4.05 
*END

*D_NET *669 0.0256312
*CONN
*I *1943:GATE I *D sky130_fd_sc_hd__dlxtp_1
*I *1948:GATE I *D sky130_fd_sc_hd__dlxtp_1
*I *1949:GATE I *D sky130_fd_sc_hd__dlxtp_1
*I *1944:GATE I *D sky130_fd_sc_hd__dlxtp_1
*I *1945:GATE I *D sky130_fd_sc_hd__dlxtp_1
*I *1935:GATE I *D sky130_fd_sc_hd__dlxtp_1
*I *1938:GATE I *D sky130_fd_sc_hd__dlxtp_1
*I *1939:GATE I *D sky130_fd_sc_hd__dlxtp_1
*I *1934:GATE I *D sky130_fd_sc_hd__dlxtp_1
*I *2143:A I *D sky130_fd_sc_hd__clkbuf_1
*I *2171:X O *D sky130_fd_sc_hd__buf_2
*CAP
1 *1943:GATE 9.8508e-05
2 *1948:GATE 0.000107256
3 *1949:GATE 0.000152421
4 *1944:GATE 0.000230494
5 *1945:GATE 4.46771e-05
6 *1935:GATE 7.8235e-05
7 *1938:GATE 0.000398449
8 *1939:GATE 5.79096e-05
9 *1934:GATE 0.000328827
10 *2143:A 0.000214936
11 *2171:X 0
12 *669:155 0.000964348
13 *669:114 0.000552395
14 *669:108 0.000692853
15 *669:96 0.00151755
16 *669:75 0.00158638
17 *669:53 0.00136585
18 *669:45 0.00138156
19 *669:23 0.00153284
20 *669:4 0.000640639
21 *1938:GATE *1939:D 2.51154e-05
22 *1939:GATE *1939:D 6.69608e-06
23 *1939:GATE *676:10 2.82046e-05
24 *1944:GATE *1878:A1 0.000177913
25 *1944:GATE *698:175 0
26 *1949:GATE *735:DIODE 0.000118081
27 *2143:A *1988:GATE 2.10152e-05
28 *669:45 *1890:A1 9.20646e-05
29 *669:45 *679:72 1.80732e-05
30 *669:45 *679:85 9.98776e-05
31 *669:45 *691:105 4.80285e-05
32 *669:53 *691:105 0.000155892
33 *669:75 *673:106 1.24541e-05
34 *669:75 *701:58 0.000169236
35 *669:75 *708:84 0.000529247
36 *669:96 *1999:GATE 5.9964e-05
37 *669:155 *675:64 0.000812405
38 *1814:A2 *1949:GATE 0
39 *1881:A1 *669:114 0.00024119
40 *1882:S0 *1949:GATE 0.00026102
41 *1890:S1 *669:45 0.000118513
42 *1891:S1 *2143:A 5.02217e-05
43 *1893:S0 *669:45 7.00115e-05
44 *1900:S1 *669:53 0.000113826
45 *1900:S1 *669:75 5.53549e-06
46 *1934:D *1934:GATE 8.23457e-05
47 *1949:D *1949:GATE 0.000116814
48 *1975:D *2143:A 2.31229e-05
49 *1988:D *2143:A 0.000196572
50 *2056:D *1935:GATE 8.23457e-05
51 *2056:D *669:108 0.000553462
52 *2076:A *669:53 0.000107721
53 *2163:A *1934:GATE 2.68526e-05
54 *2271:A *1945:GATE 6.15576e-06
55 *2271:A *669:155 0
56 *2311:A *669:114 5.53549e-06
57 *2336:A *669:53 2.34475e-05
58 *2339:A *1948:GATE 1.91597e-05
59 *2342:A *669:96 0.00018955
60 *2343:A *669:45 0.00033764
61 *2351:A *669:23 0.000600135
62 *2353:A *1948:GATE 0.00026102
63 *2359:A *1934:GATE 2.49909e-05
64 *2360:A *1935:GATE 8.73389e-06
65 *2362:A *669:75 2.03757e-05
66 *2377:A *1943:GATE 0.000109786
67 *2377:A *669:45 0.000128608
68 *145:83 *1934:GATE 7.06865e-05
69 *145:83 *669:45 4.92206e-05
70 *145:83 *669:75 0.000375505
71 *148:89 *669:75 3.92756e-05
72 *148:111 *669:45 0.00016403
73 *150:57 *1934:GATE 7.49941e-05
74 *150:77 *1934:GATE 7.23533e-05
75 *150:77 *669:45 0.000240196
76 *150:77 *669:53 5.8678e-05
77 *150:77 *669:75 0.000374893
78 *151:85 *669:75 0.000881864
79 *159:101 *1943:GATE 0.000101821
80 *159:101 *669:45 0.000474951
81 *160:115 *1935:GATE 1.08758e-05
82 *233:8 *1935:GATE 3.57349e-05
83 *233:8 *669:108 0.000119632
84 *233:25 *669:114 2.03245e-05
85 *233:80 *669:75 1.94059e-05
86 *480:108 *1944:GATE 0.000174007
87 *482:76 *669:155 0.000147475
88 *482:105 *669:155 0.00021175
89 *491:96 *669:45 0.000453533
90 *491:102 *1943:GATE 8.40213e-05
91 *519:16 *669:45 2.25347e-05
92 *531:62 *669:53 2.05641e-05
93 *535:76 *669:75 7.7503e-05
94 *553:28 *669:108 0.000436455
95 *557:44 *1944:GATE 8.47041e-05
96 *557:147 *1948:GATE 0.000159109
97 *558:50 *669:108 0.00044004
98 *582:94 *1945:GATE 2.97522e-05
99 *593:118 *669:45 0.000147111
100 *593:118 *669:53 0.000195115
101 *595:28 *669:45 8.53113e-06
102 *618:112 *669:114 0.000249819
103 *625:8 *1945:GATE 4.41506e-05
104 *630:26 *2143:A 0.000121027
105 *631:18 *2143:A 9.54399e-05
106 *631:65 *669:155 1.88023e-05
107 *632:107 *669:155 0
108 *634:176 *669:108 0.00023573
109 *634:186 *669:45 4.79668e-05
110 *635:102 *669:75 0.000239258
111 *635:112 *669:45 4.88568e-05
112 *636:159 *1934:GATE 0.000118081
113 *636:166 *1934:GATE 4.66108e-05
114 *645:82 *669:53 8.51487e-05
115 *645:82 *669:75 1.79483e-05
116 *665:18 *1938:GATE 8.295e-05
117 *667:174 *669:75 6.09935e-05
118 *668:14 *1944:GATE 0.00011875
119 *668:14 *1945:GATE 1.79536e-05
*RES
1 *2171:X *669:4 1.6 
2 *669:4 *2143:A 10.295 
3 *669:4 *669:23 7.625 
4 *669:23 *669:45 31.34 
5 *669:45 *669:53 7.065 
6 *669:53 *669:75 9.3232 
7 *669:75 *1934:GATE 9.435 
8 *669:75 *669:96 7.555 
9 *669:96 *669:108 14.6 
10 *669:108 *669:114 7.165 
11 *669:114 *1939:GATE 2.77 
12 *669:114 *1938:GATE 6.115 
13 *669:108 *1935:GATE 3.1 
14 *669:96 *669:155 2.68467 
15 *669:155 *1945:GATE 4.6275 
16 *669:155 *1944:GATE 9.0975 
17 *669:53 *1949:GATE 7.17 
18 *669:45 *1948:GATE 6.465 
19 *669:23 *1943:GATE 5.775 
*END

*D_NET *670 0.00955252
*CONN
*I *1930:GATE I *D sky130_fd_sc_hd__dlxtp_1
*I *1931:GATE I *D sky130_fd_sc_hd__dlxtp_1
*I *2170:A I *D sky130_fd_sc_hd__buf_2
*I *1928:GATE I *D sky130_fd_sc_hd__dlxtp_1
*I *1942:GATE I *D sky130_fd_sc_hd__dlxtp_1
*I *2171:A I *D sky130_fd_sc_hd__buf_2
*I *2172:X O *D sky130_fd_sc_hd__clkbuf_2
*CAP
1 *1930:GATE 0
2 *1931:GATE 0
3 *2170:A 0
4 *1928:GATE 0.00027752
5 *1942:GATE 3.44675e-05
6 *2171:A 2.08101e-05
7 *2172:X 0.000488691
8 *670:65 0.000976527
9 *670:59 0.00100343
10 *670:45 0.000650864
11 *670:6 0.000197524
12 *1928:GATE *675:102 0.000176848
13 *670:45 *1995:GATE 0.00011852
14 *670:45 *674:114 0.000251588
15 *670:45 *679:97 2.91073e-05
16 *670:45 *687:24 0.000103192
17 *670:65 *1878:A1 4.77719e-05
18 *670:65 *673:21 7.00115e-05
19 *670:65 *673:34 3.35311e-05
20 *670:65 *673:185 0.000490005
21 *670:65 *673:189 3.48037e-05
22 *1878:A0 *670:65 8.35106e-05
23 *1891:S0 *670:45 1.16578e-05
24 *1958:D *1942:GATE 8.70256e-05
25 *1958:D *670:6 2.49909e-05
26 *1977:D *670:65 3.94887e-05
27 *1989:D *670:65 0.000159964
28 *1994:D *670:45 0.000141961
29 *1995:D *670:45 0.000200011
30 *1995:D *670:59 0.000118106
31 *2128:A *670:65 3.42935e-05
32 *2172:A *670:45 7.23602e-05
33 *2200:A *670:6 8.36788e-05
34 *2343:A *670:65 0.000266612
35 *2344:A *670:65 0.000100528
36 *2345:A *670:65 6.51658e-05
37 *2347:A *1928:GATE 8.35106e-05
38 *2347:A *670:65 3.6355e-05
39 *2351:A *1942:GATE 9.28568e-05
40 *2351:A *670:6 0.00038585
41 *2352:A *670:59 0.000105284
42 *2352:A *670:65 0.000112971
43 *153:129 *670:65 0.000474626
44 *480:153 *670:65 8.71796e-06
45 *502:8 *1928:GATE 3.83194e-05
46 *502:8 *670:65 5.14775e-05
47 *502:105 *670:65 0.000487129
48 *512:18 *1928:GATE 0.000331466
49 *535:16 *670:65 5.86739e-05
50 *557:44 *670:65 0.00013291
51 *557:143 *670:65 5.50009e-05
52 *613:42 *670:45 0
53 *625:10 *1928:GATE 8.4738e-05
54 *627:22 *670:6 4.82919e-05
55 *629:69 *670:59 0
56 *630:26 *670:6 0.00012363
57 *630:50 *670:45 8.12462e-06
58 *630:50 *670:59 3.68772e-05
59 *630:50 *670:65 0.000280583
60 *630:66 *670:65 2.05641e-05
*RES
1 *2172:X *670:6 6.19 
2 *670:6 *2171:A 1.96 
3 *670:6 *1942:GATE 3.085 
4 *2172:X *670:45 18.255 
5 *670:45 *670:59 10.53 
6 *670:59 *670:65 24.77 
7 *670:65 *1928:GATE 12.17 
8 *670:65 *2170:A 1.6 
9 *670:59 *1931:GATE 3.6 
10 *670:45 *1930:GATE 1.6 
*END

*D_NET *671 0.022072
*CONN
*I *1960:GATE I *D sky130_fd_sc_hd__dlxtp_1
*I *1961:GATE I *D sky130_fd_sc_hd__dlxtp_1
*I *1973:GATE I *D sky130_fd_sc_hd__dlxtp_1
*I *1970:GATE I *D sky130_fd_sc_hd__dlxtp_1
*I *1971:GATE I *D sky130_fd_sc_hd__dlxtp_1
*I *1966:GATE I *D sky130_fd_sc_hd__dlxtp_1
*I *1967:GATE I *D sky130_fd_sc_hd__dlxtp_1
*I *1972:GATE I *D sky130_fd_sc_hd__dlxtp_1
*I *1963:GATE I *D sky130_fd_sc_hd__dlxtp_1
*I *1962:GATE I *D sky130_fd_sc_hd__dlxtp_1
*I *2173:X O *D sky130_fd_sc_hd__clkbuf_2
*CAP
1 *1960:GATE 8.14942e-05
2 *1961:GATE 0
3 *1973:GATE 0
4 *1970:GATE 2.61242e-05
5 *1971:GATE 3.2335e-05
6 *1966:GATE 0
7 *1967:GATE 8.48709e-05
8 *1972:GATE 2.89361e-05
9 *1963:GATE 2.21004e-05
10 *1962:GATE 0.000335653
11 *2173:X 8.65056e-05
12 *671:164 0.000484827
13 *671:115 0.000146328
14 *671:113 0.000325156
15 *671:111 0.000972667
16 *671:87 0.00123847
17 *671:70 0.000990711
18 *671:53 0.00078398
19 *671:30 0.00252206
20 *671:10 0.00235285
21 *1967:GATE *676:99 2.05661e-05
22 *1967:GATE *690:65 0.000178095
23 *1971:GATE *699:66 8.23457e-05
24 *1972:GATE *1972:D 1.85674e-05
25 *671:10 *1808:A3 4.66108e-05
26 *671:10 *672:52 2.14725e-05
27 *671:10 *672:124 2.49909e-05
28 *671:30 *672:124 0.000122205
29 *671:30 *687:92 0.000165464
30 *671:30 *693:82 4.69607e-05
31 *671:30 *693:84 1.01643e-05
32 *671:70 *708:42 8.53113e-06
33 *671:87 *1902:A0 0.000153867
34 *671:87 *1902:A1 1.91597e-05
35 *671:87 *1902:A2 1.74678e-05
36 *671:87 *1972:D 4.11629e-05
37 *671:87 *690:65 2.14129e-05
38 *671:111 *690:65 0.000356392
39 *671:111 *694:76 0.000231025
40 *671:113 *1971:D 7.9642e-06
41 *671:113 *676:85 0.000119578
42 *671:113 *690:65 0.00030008
43 *671:115 *1971:D 9.94797e-05
44 *671:115 *676:85 0.000107444
45 *671:115 *676:99 5.30242e-05
46 *671:115 *690:65 2.0644e-05
47 *671:164 *672:124 0.000191335
48 *1813:A0 *671:164 0.000161103
49 *1822:A1 *671:111 0.000225285
50 *1875:S1 *671:111 0.000129835
51 *1884:A0 *671:111 0.000677287
52 *1907:S0 *1962:GATE 4.28819e-05
53 *1907:S0 *671:53 3.59784e-05
54 *1963:D *671:53 8.73389e-06
55 *1963:D *671:70 2.1859e-05
56 *2040:D *671:30 0.000157602
57 *2079:A *671:113 1.79483e-05
58 *2102:A *671:111 9.02064e-05
59 *2263:A *1960:GATE 0.00011456
60 *2296:A *671:87 8.71001e-05
61 *2296:A *671:111 6.71803e-06
62 *2297:A *671:30 0.00184187
63 *2304:A *671:30 0.000295245
64 *143:47 *671:111 0.000349927
65 *143:109 *671:70 0.000347965
66 *150:35 *671:111 5.4338e-05
67 *153:129 *671:10 7.30547e-05
68 *153:129 *671:30 0.000151518
69 *154:85 *1962:GATE 2.43767e-05
70 *160:85 *671:111 3.47471e-05
71 *479:62 *671:70 0.000292335
72 *502:65 *671:10 5.83121e-06
73 *512:18 *1960:GATE 0.00011456
74 *517:50 *671:111 0.000106501
75 *533:44 *671:111 5.74791e-05
76 *538:72 *671:111 6.65718e-05
77 *545:72 *1970:GATE 4.66108e-05
78 *585:66 *671:30 0.000162853
79 *586:92 *1962:GATE 3.26889e-05
80 *587:118 *671:53 0.000152831
81 *590:130 *671:30 3.19974e-05
82 *596:140 *671:111 1.08758e-05
83 *597:60 *671:70 2.25106e-05
84 *618:112 *671:30 0.000372655
85 *633:78 *671:53 0.000219252
86 *634:10 *671:53 0.000264583
87 *634:154 *671:53 0.000288822
88 *635:42 *671:30 4.14843e-05
89 *635:102 *671:30 9.67081e-06
90 *636:50 *1962:GATE 0.000263959
91 *636:50 *671:30 1.46216e-05
92 *636:50 *671:53 0.000269624
93 *636:50 *671:113 2.72199e-05
94 *642:38 *671:111 2.20678e-05
95 *652:181 *671:10 6.48391e-05
96 *652:181 *671:30 0.000221847
97 *659:116 *671:111 0.000107364
98 *661:112 *1967:GATE 0.000132623
99 *661:132 *1971:GATE 2.76356e-05
100 *661:132 *671:111 0.000142011
101 *661:132 *671:113 0.000415827
102 *665:50 *671:111 1.92979e-05
103 *667:64 *671:111 9.17274e-05
*RES
1 *2173:X *671:10 5.61 
2 *671:10 *671:30 13.3093 
3 *671:30 *1962:GATE 7.36 
4 *671:30 *671:53 13 
5 *671:53 *1963:GATE 1.96 
6 *671:53 *671:70 11.41 
7 *671:70 *1972:GATE 2.215 
8 *671:70 *671:87 9.71 
9 *671:87 *671:111 21.2391 
10 *671:111 *671:113 6.225 
11 *671:113 *671:115 1.89 
12 *671:115 *1967:GATE 6.195 
13 *671:115 *1966:GATE 3.6 
14 *671:113 *1971:GATE 4.395 
15 *671:111 *1970:GATE 4.05 
16 *671:87 *1973:GATE 3.6 
17 *671:10 *671:164 7.115 
18 *671:164 *1961:GATE 1.6 
19 *671:164 *1960:GATE 7.595 
*END

*D_NET *672 0.0439298
*CONN
*I *1965:GATE I *D sky130_fd_sc_hd__dlxtp_1
*I *1964:GATE I *D sky130_fd_sc_hd__dlxtp_1
*I *2173:A I *D sky130_fd_sc_hd__clkbuf_2
*I *1969:GATE I *D sky130_fd_sc_hd__dlxtp_1
*I *1968:GATE I *D sky130_fd_sc_hd__dlxtp_1
*I *1982:GATE I *D sky130_fd_sc_hd__dlxtp_1
*I *1983:GATE I *D sky130_fd_sc_hd__dlxtp_1
*I *1980:GATE I *D sky130_fd_sc_hd__dlxtp_1
*I *1981:GATE I *D sky130_fd_sc_hd__dlxtp_1
*I *2174:X O *D sky130_fd_sc_hd__buf_2
*CAP
1 *1965:GATE 0.000705802
2 *1964:GATE 0.000390655
3 *2173:A 0
4 *1969:GATE 0.000146853
5 *1968:GATE 0.000100496
6 *1982:GATE 0
7 *1983:GATE 0.000209911
8 *1980:GATE 0
9 *1981:GATE 0.000176474
10 *2174:X 0
11 *672:198 0.000259796
12 *672:194 0.000390769
13 *672:192 0.000124997
14 *672:190 0.00187657
15 *672:152 0.00201191
16 *672:148 0.0016334
17 *672:124 0.00487679
18 *672:52 0.00520386
19 *672:18 0.00298783
20 *672:4 0.00155167
21 *672:18 *698:175 4.55864e-06
22 *672:52 *1808:A3 4.58987e-05
23 *672:52 *674:40 0.000228224
24 *672:52 *679:59 0.000124246
25 *672:52 *693:84 1.15688e-05
26 *672:52 *693:117 0
27 *672:124 *2008:GATE 0.000156022
28 *672:124 *673:124 0
29 *672:124 *677:61 8.68332e-06
30 *672:124 *679:59 0.000373297
31 *672:124 *684:46 6.50568e-05
32 *672:124 *693:82 0.0002358
33 *672:124 *693:84 8.10123e-05
34 *672:124 *698:68 2.75092e-05
35 *672:148 *1876:A2 0.000864255
36 *672:152 *1876:A2 0.000199652
37 *672:190 *1876:A2 7.89538e-05
38 *672:190 *684:130 0.000240561
39 B_config_C_bit2 *672:190 6.03407e-05
40 B_config_C_bit3 *672:190 0.000102309
41 C_config_C_bit1 *672:152 0.000174377
42 D_config_C_bit2 *672:148 0.000207178
43 D_config_C_bit3 *672:148 3.71593e-05
44 *1808:A0 *672:52 0.000101896
45 *1812:A0 *672:124 9.67062e-05
46 *1812:S1 *672:124 0.000111914
47 *1827:A *672:124 1.87922e-05
48 *1838:C1 *672:190 2.43092e-05
49 *1842:A4 *672:190 5.6248e-05
50 *1842:B1 *672:190 0.000138126
51 *1875:S1 *672:124 2.51095e-05
52 *1885:S0 *1964:GATE 5.74263e-05
53 *1897:S1 *672:190 0.000104045
54 *1897:S1 *672:194 2.64559e-05
55 *1929:GATE *672:124 4.66108e-05
56 *1961:D *672:124 0
57 *1968:D *1968:GATE 0.000191232
58 *1968:D *672:148 0
59 *1981:D *1981:GATE 1.14169e-05
60 *2000:D *672:124 2.5946e-05
61 *2039:D *672:124 4.42853e-05
62 *2193:A *672:124 1.48698e-05
63 *2205:A *672:124 0.000102564
64 *2273:A *672:190 2.2142e-05
65 *2274:A *672:190 8.7152e-06
66 *2278:A *672:190 0.00096264
67 *2297:A *672:52 4.17781e-05
68 *2338:A *672:18 8.97667e-05
69 *2339:A *1965:GATE 7.11235e-06
70 *2345:A *672:18 4.14218e-05
71 *2393:A *672:190 3.96284e-05
72 *143:109 *672:52 0.000101896
73 *153:59 *672:190 9.93807e-06
74 *153:129 *672:124 6.28251e-05
75 *153:142 *672:18 2.3231e-05
76 *156:51 *672:148 0.000926201
77 *157:53 *672:148 7.62448e-06
78 *157:53 *672:190 0.000364385
79 *157:111 *672:124 0.00029854
80 *160:85 *672:148 6.77132e-05
81 *233:99 *1965:GATE 0.000154981
82 *482:30 *672:148 0.000799086
83 *482:105 *672:52 4.06072e-05
84 *491:57 *1964:GATE 6.5451e-05
85 *491:57 *672:18 0.000110081
86 *491:96 *1964:GATE 6.25379e-05
87 *502:65 *672:52 0.000379551
88 *505:22 *672:190 3.31994e-05
89 *513:86 *672:52 0.00015347
90 *524:14 *1964:GATE 0.000557526
91 *524:14 *672:18 0.000604809
92 *544:46 *672:124 5.49765e-05
93 *553:28 *1964:GATE 1.00941e-05
94 *557:44 *672:18 0
95 *557:104 *1981:GATE 0.000112279
96 *568:112 *1983:GATE 0.000206857
97 *568:112 *672:192 3.21081e-06
98 *568:112 *672:194 1.19928e-05
99 *568:114 *1981:GATE 0.00013375
100 *568:114 *672:198 0.000154954
101 *568:163 *1965:GATE 0.000112538
102 *568:163 *672:18 4.77757e-05
103 *568:188 *1965:GATE 0.00044527
104 *579:32 *672:18 0.000402865
105 *585:66 *672:124 1.88656e-05
106 *587:118 *672:124 0.000426498
107 *590:14 *672:148 0.000328797
108 *590:130 *672:124 2.89667e-05
109 *590:170 *672:52 0.000341425
110 *591:48 *672:52 1.30932e-06
111 *591:102 *672:124 0.000491772
112 *602:80 *672:124 1.49294e-05
113 *602:166 *672:190 1.52776e-05
114 *603:68 *672:124 0.00024111
115 *613:95 *672:124 0.000192734
116 *618:24 *672:190 0.000240688
117 *618:112 *672:124 0.000233645
118 *624:118 *672:148 0.000191335
119 *626:148 *672:190 0.000269686
120 *627:106 *672:148 0.000401495
121 *631:65 *672:52 0.000214448
122 *631:112 *672:148 0.00032547
123 *632:107 *672:52 8.56377e-05
124 *632:107 *672:124 0
125 *632:152 *672:52 1.228e-05
126 *635:102 *1964:GATE 1.92979e-05
127 *635:102 *672:124 0.0001684
128 *635:112 *1965:GATE 9.29768e-05
129 *636:159 *672:124 4.96021e-05
130 *637:114 *672:124 0
131 *638:16 *672:148 0.000864255
132 *638:18 *672:152 4.36573e-06
133 *638:24 *672:152 1.01152e-05
134 *638:24 *672:190 0.000231298
135 *639:58 *1981:GATE 0
136 *639:58 *672:198 0
137 *643:50 *672:190 1.82476e-05
138 *643:116 *672:124 1.625e-05
139 *643:129 *672:124 1.29665e-05
140 *643:164 *672:52 0.000846246
141 *644:115 *672:124 0.000102222
142 *651:137 *672:190 0.000467457
143 *652:34 *672:190 2.68721e-05
144 *652:181 *672:124 0.000909317
145 *654:88 *672:124 0.000379845
146 *658:109 *672:124 0.000367815
147 *671:10 *672:52 2.14725e-05
148 *671:10 *672:124 2.49909e-05
149 *671:30 *672:124 0.000122205
150 *671:164 *672:124 0.000191335
*RES
1 *2174:X *672:4 1.6 
2 *672:4 *672:18 11.7119 
3 *672:18 *672:52 18.6056 
4 *672:52 *672:124 43.0647 
5 *672:124 *672:148 35.6471 
6 *672:148 *672:152 4.4 
7 *672:152 *672:190 49.585 
8 *672:190 *672:192 0.615 
9 *672:192 *672:194 1.485 
10 *672:194 *672:198 3.89 
11 *672:198 *1981:GATE 7.095 
12 *672:198 *1980:GATE 3.6 
13 *672:194 *1983:GATE 5.44 
14 *672:192 *1982:GATE 1.6 
15 *672:152 *1968:GATE 5.43 
16 *672:148 *1969:GATE 3.43 
17 *672:52 *2173:A 1.6 
18 *672:18 *1964:GATE 5.27363 
19 *672:4 *1965:GATE 13.45 
*END

*D_NET *673 0.0309317
*CONN
*I *1990:GATE I *D sky130_fd_sc_hd__dlxtp_1
*I *1989:GATE I *D sky130_fd_sc_hd__dlxtp_1
*I *1991:GATE I *D sky130_fd_sc_hd__dlxtp_1
*I *1978:GATE I *D sky130_fd_sc_hd__dlxtp_1
*I *1979:GATE I *D sky130_fd_sc_hd__dlxtp_1
*I *1987:GATE I *D sky130_fd_sc_hd__dlxtp_1
*I *2142:A I *D sky130_fd_sc_hd__buf_1
*I *1986:GATE I *D sky130_fd_sc_hd__dlxtp_1
*I *1977:GATE I *D sky130_fd_sc_hd__dlxtp_1
*I *1976:GATE I *D sky130_fd_sc_hd__dlxtp_1
*I *2175:X O *D sky130_fd_sc_hd__buf_2
*CAP
1 *1990:GATE 0
2 *1989:GATE 0.000164794
3 *1991:GATE 2.61242e-05
4 *1978:GATE 0.000151299
5 *1979:GATE 6.84061e-05
6 *1987:GATE 0
7 *2142:A 4.39108e-05
8 *1986:GATE 0.000165857
9 *1977:GATE 0.000155214
10 *1976:GATE 1.63287e-05
11 *2175:X 5.14767e-05
12 *673:189 0.000291817
13 *673:185 0.000389137
14 *673:143 0.000317136
15 *673:124 0.00184172
16 *673:106 0.00429043
17 *673:50 0.00303134
18 *673:48 0.00135037
19 *673:34 0.00142361
20 *673:21 0.000243201
21 *673:6 0.000144361
22 *1986:GATE *705:49 9.84957e-05
23 *673:106 *675:140 2.35435e-05
24 *673:106 *675:174 1.08758e-05
25 *673:106 *688:30 3.3846e-05
26 *673:106 *693:82 0.000385566
27 *673:106 *701:52 0.000565473
28 *673:106 *703:60 9.2563e-06
29 *673:106 *708:84 0.000207633
30 *673:124 *689:92 0.000179306
31 *673:124 *705:49 0.000270089
32 *673:143 *705:49 1.1392e-05
33 FrameData_O[5] *673:106 7.00115e-05
34 *1812:A0 *673:106 0.000262426
35 *1813:A2 *673:106 4.40445e-05
36 *1823:C *673:124 8.10701e-05
37 *1824:A2 *673:124 4.46808e-07
38 *1824:C1 *673:124 0.000186607
39 *1827:A *673:124 7.38921e-05
40 *1875:S1 *673:124 3.70546e-05
41 *1880:A2 *673:143 3.92306e-05
42 *1880:S1 *2142:A 2.68526e-05
43 *1884:S1 *673:124 0.000241422
44 *1885:S1 *673:48 0.000117804
45 *1896:A3 *673:106 0.000109431
46 *1899:S1 *1979:GATE 0.000104482
47 *1899:S1 *673:106 8.46591e-05
48 *1976:D *673:6 1.91597e-05
49 *1976:D *673:21 2.10214e-05
50 *1977:D *1977:GATE 3.64998e-06
51 *1977:D *673:21 7.00115e-05
52 *1977:D *673:34 3.91191e-05
53 *1977:D *673:185 4.01535e-05
54 *1979:D *1979:GATE 4.66108e-05
55 *1986:D *1986:GATE 0.000113531
56 *1987:D *673:143 4.89295e-05
57 *1989:D *1991:GATE 4.66108e-05
58 *1998:D *673:106 8.10852e-05
59 *1999:D *673:106 0.000338505
60 *2041:D *673:106 2.76356e-05
61 *2041:D *673:124 7.0334e-05
62 *2081:A *673:48 4.66108e-05
63 *2124:A *1976:GATE 9.53428e-06
64 *2124:A *673:6 0.000120407
65 *2128:A *673:189 8.30853e-06
66 *2284:A *673:106 0.000111186
67 *2291:A *673:48 0.000282511
68 *2304:A *673:106 0.000124069
69 *2330:A *673:106 7.4615e-05
70 *2333:A *673:106 4.03257e-05
71 *2337:A *673:48 7.66738e-05
72 *2338:A *1978:GATE 0.00010163
73 *2339:A *673:185 6.11019e-05
74 *2343:A *1989:GATE 5.30361e-05
75 *2343:A *673:185 1.52418e-05
76 *2343:A *673:189 0.000116853
77 *2350:A *673:185 0
78 *2352:A *1989:GATE 0.00011099
79 *143:109 *673:106 0.000378496
80 *145:71 *673:106 5.83121e-06
81 *150:77 *673:48 6.83087e-05
82 *151:85 *673:106 0.000256305
83 *159:77 *1986:GATE 3.08559e-05
84 *159:101 *673:106 1.0764e-05
85 *160:133 *673:48 3.16865e-05
86 *160:133 *673:106 2.59191e-05
87 *235:45 *673:106 5.11552e-05
88 *235:113 *673:106 3.993e-05
89 *245:59 *673:124 3.54721e-05
90 *246:10 *673:124 8.26034e-05
91 *409:32 *673:124 4.64853e-05
92 *479:46 *673:124 0.000125532
93 *479:161 *1978:GATE 5.83121e-06
94 *479:161 *673:106 0.0004598
95 *480:153 *673:48 1.63662e-05
96 *480:153 *673:185 0.000173918
97 *505:22 *1986:GATE 4.88555e-05
98 *531:62 *673:106 2.39315e-06
99 *535:16 *673:6 0.000120407
100 *535:16 *673:48 0.00095446
101 *535:76 *673:106 0.000125992
102 *539:26 *673:106 8.53113e-06
103 *553:28 *673:106 3.89627e-05
104 *558:50 *673:106 0.000143495
105 *593:94 *673:106 9.96596e-05
106 *593:94 *673:124 0.000102906
107 *593:118 *673:50 1.4054e-05
108 *593:118 *673:106 2.03321e-05
109 *595:28 *1989:GATE 2.49909e-05
110 *596:140 *673:106 0
111 *600:74 *673:124 0.000516125
112 *618:112 *673:106 0.000590563
113 *624:108 *2142:A 0.000121031
114 *628:90 *673:143 0
115 *629:69 *673:189 0
116 *632:107 *673:106 0
117 *633:53 *1989:GATE 8.30853e-06
118 *634:186 *673:48 0.000305562
119 *635:102 *673:48 0.000426032
120 *635:102 *673:106 2.60794e-05
121 *636:159 *673:106 0.000322371
122 *637:114 *673:106 0
123 *640:34 *1986:GATE 8.11126e-05
124 *640:34 *673:124 4.64666e-05
125 *640:45 *673:124 1.98677e-05
126 *643:116 *673:124 0.000441071
127 *645:82 *1978:GATE 0.000113511
128 *645:82 *673:50 0.000243938
129 *645:82 *673:106 0.000445499
130 *652:139 *673:124 0.000242067
131 *658:133 *673:124 0.000326013
132 *661:203 *673:106 0.000165417
133 *662:177 *673:106 0.000179333
134 *662:177 *673:124 4.75465e-05
135 *662:188 *673:106 2.69847e-05
136 *667:174 *1978:GATE 0.000106646
137 *667:174 *1979:GATE 7.94912e-05
138 *667:174 *673:50 0.000200133
139 *668:81 *673:124 0.000503696
140 *668:95 *673:124 0.00105582
141 *668:107 *1986:GATE 0.000192005
142 *668:107 *673:124 9.04308e-05
143 *668:109 *1986:GATE 5.65627e-05
144 *669:75 *673:106 1.24541e-05
145 *670:65 *673:21 7.00115e-05
146 *670:65 *673:34 3.35311e-05
147 *670:65 *673:185 0.000490005
148 *670:65 *673:189 3.48037e-05
149 *672:124 *673:124 0
*RES
1 *2175:X *673:6 3.085 
2 *673:6 *1976:GATE 1.96 
3 *673:6 *673:21 3.68 
4 *673:21 *1977:GATE 5.355 
5 *673:21 *673:34 0.4875 
6 *673:34 *673:48 14.8087 
7 *673:48 *673:50 2.91 
8 *673:50 *673:106 43.7205 
9 *673:106 *673:124 31.671 
10 *673:124 *1986:GATE 8.595 
11 *673:124 *673:143 5.915 
12 *673:143 *2142:A 2.74 
13 *673:143 *1987:GATE 1.6 
14 *673:50 *1979:GATE 5.43 
15 *673:48 *1978:GATE 6.81 
16 *673:34 *673:185 9.7025 
17 *673:185 *673:189 4.145 
18 *673:189 *1991:GATE 4.05 
19 *673:189 *1989:GATE 6.75 
20 *673:185 *1990:GATE 1.6 
*END

*D_NET *674 0.0234596
*CONN
*I *1975:GATE I *D sky130_fd_sc_hd__dlxtp_1
*I *1974:GATE I *D sky130_fd_sc_hd__dlxtp_1
*I *1988:GATE I *D sky130_fd_sc_hd__dlxtp_1
*I *1984:GATE I *D sky130_fd_sc_hd__dlxtp_1
*I *1985:GATE I *D sky130_fd_sc_hd__dlxtp_1
*I *2176:X O *D sky130_fd_sc_hd__dlymetal6s2s_1
*CAP
1 *1975:GATE 0
2 *1974:GATE 0.000133305
3 *1988:GATE 9.46076e-05
4 *1984:GATE 3.73699e-05
5 *1985:GATE 0.000220261
6 *2176:X 0.000203199
7 *674:129 0.000334688
8 *674:114 0.000987888
9 *674:80 0.00193446
10 *674:40 0.00325404
11 *674:8 0.00247231
12 *1984:GATE *675:130 4.41506e-05
13 *1985:GATE *687:92 0.000134503
14 *674:40 *1808:A3 0.000228855
15 *674:40 *679:59 2.01214e-05
16 *674:40 *693:117 2.68499e-05
17 *674:40 *703:72 8.71779e-05
18 *674:80 *675:56 0.000296701
19 *674:80 *679:59 1.82682e-05
20 *674:80 *687:92 0.000103305
21 *674:80 *698:68 0.000201134
22 *674:114 *1995:GATE 1.82859e-05
23 *722:DIODE *1974:GATE 4.77757e-05
24 *723:DIODE *674:129 1.91597e-05
25 *1813:A0 *674:40 4.06967e-05
26 *1908:S1 *674:40 3.4246e-06
27 *1985:D *1985:GATE 1.56428e-05
28 *1988:D *1988:GATE 8.52883e-05
29 *1994:D *674:114 0.000192924
30 *2132:A *1985:GATE 1.44009e-05
31 *2143:A *1988:GATE 2.10152e-05
32 *2148:A *674:129 0.000117825
33 *2172:A *674:114 2.86817e-05
34 *2191:A *674:40 8.61961e-05
35 *2192:A *674:40 4.04634e-05
36 *2194:A *674:114 6.44676e-05
37 *2195:A *674:114 0.00014971
38 *2196:A *674:114 8.75474e-05
39 *2198:A *674:114 4.18147e-05
40 *2214:A *674:80 0.000270184
41 *2215:A *674:80 0.000177018
42 *2241:A *674:80 0.000110213
43 *2311:A *674:80 0.000190712
44 *2342:A *674:80 0.000830308
45 *2376:A *1974:GATE 8.99e-05
46 *2376:A *1988:GATE 2.86975e-05
47 *2378:A *1974:GATE 2.78574e-05
48 *2380:A *1974:GATE 2.68526e-05
49 *2381:A *674:129 0.000196048
50 *153:105 *674:80 3.1562e-06
51 *154:99 *674:80 0.000101735
52 *156:69 *674:114 0.000262353
53 *157:111 *674:40 0.00138018
54 *157:111 *674:80 0.000108409
55 *158:71 *674:80 8.7442e-05
56 *158:97 *1974:GATE 5.8166e-05
57 *480:70 *674:80 5.0117e-05
58 *502:65 *674:40 6.74067e-05
59 *502:65 *674:80 2.25106e-05
60 *510:28 *674:80 0.000135548
61 *512:18 *674:40 0.00017523
62 *512:18 *674:114 0.00102561
63 *513:86 *674:40 2.38758e-05
64 *546:42 *674:80 1.25877e-05
65 *556:22 *1974:GATE 4.18421e-05
66 *582:94 *674:40 5.2442e-05
67 *582:94 *674:80 3.2253e-05
68 *587:118 *674:80 5.43236e-05
69 *591:48 *674:40 5.71301e-05
70 *591:48 *674:80 0.000104132
71 *591:102 *674:80 3.68738e-05
72 *602:20 *674:40 3.64998e-06
73 *602:70 *674:80 1.77679e-05
74 *602:80 *1985:GATE 1.84596e-05
75 *603:68 *674:80 8.3213e-05
76 *615:14 *674:129 0.000129325
77 *616:44 *674:129 0.000148488
78 *624:58 *674:114 0.000279196
79 *625:10 *674:40 0.000462698
80 *625:10 *674:114 0.000322977
81 *626:70 *674:80 0.000351025
82 *626:70 *674:114 4.18203e-05
83 *626:70 *674:129 0.000110683
84 *627:22 *674:114 7.86351e-05
85 *628:26 *674:114 0.000339826
86 *628:26 *674:129 5.56013e-05
87 *629:58 *674:40 0.0013767
88 *629:69 *674:114 0.000197623
89 *630:26 *1988:GATE 1.31297e-05
90 *630:26 *674:114 7.70758e-05
91 *630:26 *674:129 0.00051069
92 *636:159 *674:80 3.59784e-05
93 *637:114 *674:80 8.23457e-05
94 *638:16 *674:80 1.41165e-05
95 *638:74 *674:80 4.77719e-05
96 *643:129 *674:80 1.01155e-05
97 *643:164 *674:80 1.01155e-05
98 *644:115 *674:80 8.71749e-05
99 *652:181 *1985:GATE 0.000131411
100 *652:181 *674:80 7.6628e-05
101 *654:88 *674:40 6.9561e-05
102 *654:88 *674:80 3.11771e-06
103 *654:96 *674:40 1.56428e-05
104 *668:81 *1984:GATE 2.76356e-05
105 *670:45 *674:114 0.000251588
106 *672:52 *674:40 0.000228224
*RES
1 *2176:X *674:8 6.12 
2 *674:8 *674:40 48.5475 
3 *674:40 *674:80 32.2622 
4 *674:80 *1985:GATE 7.335 
5 *674:80 *1984:GATE 4.395 
6 *674:8 *674:114 25.05 
7 *674:114 *1988:GATE 5.43 
8 *674:114 *674:129 10.145 
9 *674:129 *1974:GATE 8.885 
10 *674:129 *1975:GATE 1.6 
*END

*D_NET *675 0.0321799
*CONN
*I *2022:GATE I *D sky130_fd_sc_hd__dlxtp_1
*I *2023:GATE I *D sky130_fd_sc_hd__dlxtp_1
*I *2002:GATE I *D sky130_fd_sc_hd__dlxtp_1
*I *2003:GATE I *D sky130_fd_sc_hd__dlxtp_1
*I *2018:GATE I *D sky130_fd_sc_hd__dlxtp_1
*I *2019:GATE I *D sky130_fd_sc_hd__dlxtp_1
*I *2021:GATE I *D sky130_fd_sc_hd__dlxtp_1
*I *2020:GATE I *D sky130_fd_sc_hd__dlxtp_1
*I *1998:GATE I *D sky130_fd_sc_hd__dlxtp_1
*I *1999:GATE I *D sky130_fd_sc_hd__dlxtp_1
*I *2177:X O *D sky130_fd_sc_hd__buf_2
*CAP
1 *2022:GATE 9.86853e-05
2 *2023:GATE 0
3 *2002:GATE 8.60267e-05
4 *2003:GATE 0.000160927
5 *2018:GATE 0.000123756
6 *2019:GATE 2.58486e-05
7 *2021:GATE 0
8 *2020:GATE 0.000127738
9 *1998:GATE 0.000331399
10 *1999:GATE 0.000351456
11 *2177:X 0
12 *675:192 0.00106267
13 *675:176 0.00116331
14 *675:174 0.00190657
15 *675:140 0.0018968
16 *675:130 0.000840658
17 *675:102 0.000436888
18 *675:64 0.00169004
19 *675:56 0.0026136
20 *675:4 0.00187367
21 *1999:GATE *677:26 0.000276919
22 *2003:GATE *676:85 2.10433e-05
23 *2003:GATE *685:49 1.93834e-05
24 *2003:GATE *690:65 6.61307e-05
25 *2003:GATE *694:76 2.22315e-05
26 *2018:GATE *1884:A1 0.000158476
27 *2020:GATE *698:175 3.88452e-05
28 *675:56 *679:59 0.000121019
29 *675:56 *687:6 3.57349e-05
30 *675:56 *687:24 8.35068e-05
31 *675:56 *687:92 5.15916e-05
32 *675:64 *693:142 0.000232985
33 *675:130 *677:61 0
34 *675:174 *692:22 0.000124598
35 *675:174 *692:64 0.000284976
36 *675:176 *692:22 0.000270744
37 *675:192 *1884:A1 0.000318337
38 *675:192 *692:22 1.88602e-05
39 *733:DIODE *675:174 0.000370179
40 *1879:A1 *675:192 0.000301277
41 *1884:A0 *675:174 0.000118818
42 *1884:A0 *675:176 0.00026646
43 *1884:A0 *675:192 2.05571e-05
44 *1896:S1 *2022:GATE 0.000221733
45 *1896:S1 *675:130 0.000225285
46 *1902:A3 *675:174 9.66687e-05
47 *1907:S0 *675:174 0.00018955
48 *1928:GATE *675:102 0.000176848
49 *1984:D *675:130 2.49909e-05
50 *1984:GATE *675:130 4.41506e-05
51 *2018:D *2018:GATE 0.000118081
52 *2022:D *2022:GATE 2.39856e-05
53 *2023:D *675:140 0.000151755
54 *2023:D *675:174 4.54268e-05
55 *2027:D *675:192 0.000153816
56 *2027:GATE *675:192 4.41506e-05
57 *2041:D *675:140 0.000119242
58 *2089:A *675:174 8.36335e-05
59 *2090:A *675:192 5.26865e-05
60 *2108:A *675:102 6.5172e-05
61 *2187:A *675:56 4.69661e-05
62 *2187:A *675:64 5.74263e-05
63 *2187:A *675:102 4.13879e-05
64 *2188:A *675:102 4.18147e-05
65 *2215:A *675:56 0.000124496
66 *2271:A *675:64 4.409e-05
67 *2299:A *675:174 1.77194e-05
68 *2304:A *675:192 0.000106502
69 *2328:A *2003:GATE 1.81196e-05
70 *2331:A *1998:GATE 0.000746257
71 *2342:A *1999:GATE 0.000278893
72 *2345:A *675:64 7.33639e-05
73 *2347:A *2020:GATE 0.000159387
74 *2347:A *675:64 6.52988e-05
75 *2356:A *1998:GATE 0.000586205
76 *142:89 *675:56 5.83121e-06
77 *144:111 *675:174 8.35068e-05
78 *150:57 *675:174 7.41632e-05
79 *153:105 *675:56 0.000283207
80 *153:129 *675:56 0.00012079
81 *154:99 *675:56 0.000478365
82 *157:111 *675:56 0.000118081
83 *158:71 *675:56 5.08756e-05
84 *181:56 *675:174 6.48173e-05
85 *479:130 *675:174 3.88392e-05
86 *480:70 *675:56 5.01321e-05
87 *482:66 *675:56 9.03508e-06
88 *482:76 *675:56 0.000423624
89 *482:76 *675:64 2.67815e-06
90 *483:80 *2003:GATE 1.54272e-05
91 *483:80 *675:174 8.46805e-05
92 *491:14 *675:102 1.88656e-05
93 *502:79 *675:130 0.000215139
94 *512:18 *2020:GATE 0.00033369
95 *512:18 *675:56 7.01859e-05
96 *512:18 *675:102 0.000165459
97 *513:10 *2020:GATE 1.56428e-05
98 *513:86 *675:140 0.000162318
99 *517:50 *675:174 0.000812909
100 *520:56 *1998:GATE 0.000120789
101 *533:44 *675:174 4.38521e-05
102 *538:72 *675:174 2.9976e-05
103 *544:46 *675:56 0.000400764
104 *553:28 *1998:GATE 0.000158297
105 *553:28 *675:64 4.01535e-05
106 *556:46 *675:56 6.15886e-05
107 *558:50 *1998:GATE 0.00015212
108 *558:50 *675:64 4.18203e-05
109 *569:58 *2002:GATE 0.000123042
110 *579:32 *2020:GATE 0.000104031
111 *582:94 *675:56 0.000166085
112 *586:92 *2022:GATE 0.000144763
113 *586:92 *675:130 0.000226446
114 *587:118 *2018:GATE 8.31206e-05
115 *587:118 *2019:GATE 8.38498e-06
116 *587:118 *675:192 0.000144398
117 *593:94 *675:174 0
118 *596:140 *675:174 2.47627e-05
119 *597:44 *675:192 0.000118081
120 *602:70 *675:56 5.36363e-05
121 *625:10 *675:56 9.18608e-05
122 *625:10 *675:102 0.000579847
123 *629:58 *675:56 0.000415897
124 *632:152 *1998:GATE 5.16418e-05
125 *632:152 *675:64 0
126 *634:78 *675:174 7.42406e-05
127 *634:176 *1998:GATE 4.9968e-05
128 *635:102 *675:130 0.000138133
129 *637:46 *2003:GATE 4.99289e-05
130 *637:114 *675:56 9.03138e-05
131 *637:114 *675:130 1.77595e-05
132 *638:74 *675:56 4.66108e-05
133 *642:106 *675:174 0.0001793
134 *644:115 *675:56 9.84937e-05
135 *658:133 *675:140 0.000160658
136 *661:203 *2002:GATE 0.000128686
137 *667:74 *675:174 0.000404873
138 *668:81 *675:56 0.000174147
139 *668:81 *675:130 2.18831e-05
140 *669:96 *1999:GATE 5.9964e-05
141 *669:155 *675:64 0.000812405
142 *673:106 *675:140 2.35435e-05
143 *673:106 *675:174 1.08758e-05
144 *674:80 *675:56 0.000296701
*RES
1 *2177:X *675:4 1.6 
2 *675:4 *675:56 45.0253 
3 *675:56 *675:64 3.50657 
4 *675:64 *1999:GATE 10.605 
5 *675:64 *1998:GATE 18.265 
6 *675:56 *675:102 10.3625 
7 *675:102 *2020:GATE 9.98 
8 *675:102 *2021:GATE 1.6 
9 *675:4 *675:130 13.42 
10 *675:130 *675:140 8.425 
11 *675:140 *675:174 29.4121 
12 *675:174 *675:176 3.2925 
13 *675:176 *675:192 19.2625 
14 *675:192 *2019:GATE 4.05 
15 *675:192 *2018:GATE 6.63 
16 *675:176 *2003:GATE 5.16943 
17 *675:174 *2002:GATE 5.775 
18 *675:140 *2023:GATE 1.6 
19 *675:130 *2022:GATE 4.6 
*END

*D_NET *676 0.0213499
*CONN
*I *1939:D I *D sky130_fd_sc_hd__dlxtp_1
*I *1971:D I *D sky130_fd_sc_hd__dlxtp_1
*I *2119:A I *D sky130_fd_sc_hd__buf_1
*I *2035:D I *D sky130_fd_sc_hd__dlxtp_1
*I *2003:D I *D sky130_fd_sc_hd__dlxtp_1
*I *2252:X O *D sky130_fd_sc_hd__clkbuf_2
*CAP
1 *1939:D 3.20737e-05
2 *1971:D 5.11457e-05
3 *2119:A 0
4 *2035:D 6.74508e-05
5 *2003:D 0
6 *2252:X 0.000774758
7 *676:99 0.000856734
8 *676:85 0.00157844
9 *676:48 0.00249521
10 *676:10 0.00256403
11 *2035:D *2035:GATE 4.66108e-05
12 *676:48 *1915:A3 0.000205805
13 *676:48 *686:46 0.00096751
14 *676:48 *702:30 1.08856e-05
15 *676:48 *708:84 0.000329353
16 *676:85 *685:30 7.9642e-06
17 *676:85 *685:49 0.000602283
18 *676:85 *690:65 0.000869759
19 *676:99 *1810:A2 5.82679e-05
20 *676:99 *1910:A3 5.19541e-05
21 *676:99 *2035:GATE 8.23457e-05
22 *676:99 *2037:D 0.000402361
23 *676:99 *2037:GATE 7.40446e-05
24 *676:99 *681:103 1.52184e-05
25 *676:99 *690:8 7.27817e-05
26 *676:99 *690:17 7.416e-05
27 *676:99 *690:65 4.67263e-05
28 *676:99 *698:129 0.000914439
29 *676:99 *707:28 9.14049e-05
30 *732:DIODE *676:48 2.81395e-05
31 *1812:A0 *676:48 4.14078e-05
32 *1812:A2 *676:10 0.000119727
33 *1879:A1 *676:85 2.56045e-05
34 *1881:A1 *676:48 0.000134831
35 *1881:S1 *676:48 7.20524e-05
36 *1887:A0 *676:85 1.18243e-05
37 *1887:S0 *676:48 0.000133039
38 *1903:A2 *676:85 4.41506e-05
39 *1905:A0 *676:99 7.04807e-05
40 *1915:S0 *676:48 0.000425855
41 *1938:GATE *1939:D 2.51154e-05
42 *1939:GATE *1939:D 6.69608e-06
43 *1939:GATE *676:10 2.82046e-05
44 *1967:GATE *676:99 2.05661e-05
45 *2003:GATE *676:85 2.10433e-05
46 *2098:A *676:48 0.000135439
47 *2245:A *676:99 1.79536e-05
48 *2269:A *676:99 0.000166588
49 *2289:A *676:48 0.000741714
50 *2292:A *676:48 1.08758e-05
51 *2299:A *676:48 0.000649704
52 *2307:A *676:10 0.000296755
53 *2311:A *676:10 0.000213217
54 *2316:A *676:48 0.000241424
55 *2321:A *676:48 0.000147585
56 *2328:A *676:48 2.3058e-05
57 *2330:A *676:48 0.000179826
58 *2342:A *676:10 0.000638562
59 *144:75 *676:85 3.1562e-06
60 *144:111 *676:48 0.000200256
61 *147:75 *676:99 0.000121654
62 *235:113 *676:48 7.96104e-06
63 *236:116 *676:48 5.9964e-05
64 *236:116 *676:85 1.74678e-05
65 *479:130 *676:48 0.000383207
66 *484:18 *2035:D 3.93162e-05
67 *484:18 *676:99 2.10214e-05
68 *514:94 *676:48 0
69 *516:54 *676:48 1.2176e-05
70 *517:50 *676:48 0.000174099
71 *517:50 *676:85 5.62985e-05
72 *525:32 *676:99 0.000141606
73 *535:76 *676:48 8.00322e-05
74 *569:58 *2035:D 3.59784e-05
75 *590:112 *676:10 0.000228307
76 *596:140 *676:48 8.53113e-06
77 *597:60 *676:48 7.16491e-05
78 *603:68 *676:10 0.000289364
79 *636:50 *1971:D 0.000108674
80 *636:50 *676:99 5.30242e-05
81 *650:236 *676:48 3.2865e-05
82 *659:116 *676:85 6.03517e-05
83 *661:112 *676:85 1.1392e-05
84 *661:112 *676:99 0.000162115
85 *664:125 *2035:D 4.66108e-05
86 *664:125 *676:99 0.000107205
87 *665:18 *1939:D 3.83194e-05
88 *665:18 *676:10 0.000374641
89 *671:113 *1971:D 7.9642e-06
90 *671:113 *676:85 0.000119578
91 *671:115 *1971:D 9.94797e-05
92 *671:115 *676:85 0.000107444
93 *671:115 *676:99 5.30242e-05
*RES
1 *2252:X *676:10 19.075 
2 *676:10 *676:48 49.7898 
3 *676:48 *2003:D 1.6 
4 *676:48 *676:85 26.665 
5 *676:85 *676:99 23.0103 
6 *676:99 *2035:D 3.085 
7 *676:99 *2119:A 1.6 
8 *676:85 *1971:D 4.98 
9 *676:10 *1939:D 2.395 
*END

*D_NET *677 0.0149048
*CONN
*I *2006:GATE I *D sky130_fd_sc_hd__dlxtp_1
*I *2013:GATE I *D sky130_fd_sc_hd__dlxtp_1
*I *2141:A I *D sky130_fd_sc_hd__buf_1
*I *2007:GATE I *D sky130_fd_sc_hd__dlxtp_1
*I *2015:GATE I *D sky130_fd_sc_hd__dlxtp_1
*I *2014:GATE I *D sky130_fd_sc_hd__dlxtp_1
*I *2001:GATE I *D sky130_fd_sc_hd__dlxtp_1
*I *2009:GATE I *D sky130_fd_sc_hd__dlxtp_1
*I *2008:GATE I *D sky130_fd_sc_hd__dlxtp_1
*I *2000:GATE I *D sky130_fd_sc_hd__dlxtp_1
*I *2178:X O *D sky130_fd_sc_hd__clkbuf_2
*CAP
1 *2006:GATE 3.41748e-05
2 *2013:GATE 0.000440159
3 *2141:A 4.43468e-05
4 *2007:GATE 0
5 *2015:GATE 0
6 *2014:GATE 0
7 *2001:GATE 0
8 *2009:GATE 0
9 *2008:GATE 0.000121967
10 *2000:GATE 5.08666e-05
11 *2178:X 5.2556e-05
12 *677:104 0.000187993
13 *677:98 0.000641314
14 *677:61 0.000436073
15 *677:57 0.000410592
16 *677:42 0.000581092
17 *677:32 0.000497925
18 *677:26 0.00140809
19 *677:10 0.00140141
20 *677:8 8.67309e-05
21 *2008:GATE *687:92 6.33103e-05
22 *2013:GATE *679:72 0.00023418
23 *677:8 *679:72 5.83121e-06
24 *677:26 *679:72 2.85364e-05
25 *677:26 *693:142 0.000611165
26 *677:26 *708:84 0.000194647
27 *677:57 *693:82 0.000126492
28 *677:61 *693:82 0.000230876
29 *677:98 *679:72 0.00012576
30 *1808:S0 *677:26 7.23533e-05
31 *1812:S0 *677:57 9.14049e-05
32 *1812:S1 *2000:GATE 1.81672e-05
33 *1812:S1 *677:42 1.2385e-05
34 *1881:S0 *677:26 1.14169e-05
35 *1888:S0 *677:42 0.000149459
36 *1900:S0 *2013:GATE 1.14169e-05
37 *1908:A2 *677:26 4.6368e-06
38 *1999:GATE *677:26 0.000276919
39 *2000:D *2000:GATE 8.33308e-05
40 *2000:D *677:42 0.00023151
41 *2006:D *677:8 4.87465e-06
42 *2006:D *677:26 2.13396e-05
43 *2007:D *677:104 3.64998e-06
44 *2068:A *2013:GATE 7.09866e-05
45 *2074:A *677:26 6.3124e-06
46 *2162:A *677:26 0.000138606
47 *2164:A *677:26 0.000245206
48 *2165:A *677:26 0.000418198
49 *2291:A *2013:GATE 4.77719e-05
50 *2307:A *677:26 0.00019876
51 *2338:A *2141:A 4.66108e-05
52 *2338:A *677:104 2.35435e-05
53 *2358:A *677:26 0.000101217
54 *2360:A *677:26 0.000522073
55 *502:79 *677:61 0
56 *516:54 *677:26 8.9997e-05
57 *568:188 *2013:GATE 2.74107e-05
58 *579:52 *677:42 0.0001925
59 *590:112 *2000:GATE 6.5132e-06
60 *593:94 *677:32 0.000174619
61 *595:28 *2013:GATE 0.000240888
62 *595:28 *677:26 0.000115571
63 *595:28 *677:98 0.00013325
64 *597:60 *677:26 0.000956003
65 *602:70 *677:61 0.000111547
66 *602:80 *677:61 0.000200987
67 *634:154 *677:42 0.000153816
68 *635:102 *677:61 0.000217869
69 *636:50 *677:61 6.86767e-05
70 *636:159 *677:42 7.05181e-05
71 *637:114 *677:26 0.000458041
72 *652:181 *2008:GATE 0.000160719
73 *652:181 *677:57 2.05661e-05
74 *654:88 *677:57 3.09164e-05
75 *654:88 *677:61 0.000114789
76 *661:203 *677:42 0.000190712
77 *662:196 *677:32 0.000175968
78 *672:124 *2008:GATE 0.000156022
79 *672:124 *677:61 8.68332e-06
80 *675:130 *677:61 0
*RES
1 *2178:X *677:8 2.41 
2 *677:8 *677:10 2 
3 *677:10 *677:26 38.97 
4 *677:26 *677:32 6.145 
5 *677:32 *677:42 8.88 
6 *677:42 *2000:GATE 2.755 
7 *677:42 *677:57 4.34 
8 *677:57 *677:61 10.265 
9 *677:61 *2008:GATE 8.63 
10 *677:61 *2009:GATE 1.6 
11 *677:57 *2001:GATE 3.6 
12 *677:32 *2014:GATE 1.6 
13 *677:26 *2015:GATE 1.6 
14 *677:10 *677:98 1.635 
15 *677:98 *677:104 3.755 
16 *677:104 *2007:GATE 1.6 
17 *677:104 *2141:A 2.41 
18 *677:98 *2013:GATE 11.505 
19 *677:8 *2006:GATE 2.05 
*END

*D_NET *678 0.00741881
*CONN
*I *2011:GATE I *D sky130_fd_sc_hd__dlxtp_1
*I *2010:GATE I *D sky130_fd_sc_hd__dlxtp_1
*I *2004:GATE I *D sky130_fd_sc_hd__dlxtp_1
*I *2005:GATE I *D sky130_fd_sc_hd__dlxtp_1
*I *2012:GATE I *D sky130_fd_sc_hd__dlxtp_1
*I *2179:X O *D sky130_fd_sc_hd__buf_1
*CAP
1 *2011:GATE 0.000201554
2 *2010:GATE 0.000777725
3 *2004:GATE 0
4 *2005:GATE 0.000290125
5 *2012:GATE 0.000220084
6 *2179:X 0.00018837
7 *678:49 0.00120872
8 *678:20 0.000578985
9 *678:16 0.00018111
10 *678:10 0.000530144
11 *2010:GATE *1809:A2 1.54111e-05
12 *2011:GATE *1809:A2 8.36198e-05
13 *2011:GATE *1894:A0 0.000108733
14 *678:10 *687:28 6.11888e-05
15 *678:49 *1809:A2 3.42204e-05
16 *711:DIODE *678:10 8.5225e-05
17 *711:DIODE *678:49 0.000148562
18 *742:DIODE *2011:GATE 0.000127062
19 *743:DIODE *2010:GATE 2.62443e-05
20 *1809:S1 *678:49 6.28765e-05
21 *1814:S1 *2012:GATE 0.000140487
22 *1883:A2 *2005:GATE 7.43528e-05
23 *1883:A2 *678:16 0.000267949
24 *1883:A2 *678:20 8.73389e-06
25 *1886:A1 *2012:GATE 4.07468e-05
26 *1886:S1 *2005:GATE 4.82863e-05
27 *1958:GATE *678:10 3.05373e-05
28 *1958:GATE *678:49 4.04139e-05
29 *1959:GATE *678:16 5.83121e-06
30 *2010:D *2010:GATE 0.00018955
31 *2011:D *2011:GATE 1.01661e-05
32 *2065:A *2010:GATE 5.81434e-06
33 *2336:A *678:16 5.12399e-05
34 *2343:A *2012:GATE 2.68464e-05
35 *2377:A *2012:GATE 0.000666137
36 *148:111 *2011:GATE 0.000230824
37 *148:111 *678:49 0.000229959
38 *479:174 *2012:GATE 8.41082e-05
39 *483:102 *2011:GATE 9.67081e-06
40 *483:102 *678:49 7.9642e-06
41 *535:112 *2011:GATE 1.23624e-05
42 *535:112 *678:49 4.07391e-05
43 *576:42 *2012:GATE 0.000205135
44 *667:187 *678:10 6.10014e-05
*RES
1 *2179:X *678:10 6.975 
2 *678:10 *678:16 4.88 
3 *678:16 *678:20 1.065 
4 *678:20 *2012:GATE 13.805 
5 *678:20 *2005:GATE 5.86 
6 *678:16 *2004:GATE 1.6 
7 *678:10 *678:49 6.48 
8 *678:49 *2010:GATE 13.86 
9 *678:49 *2011:GATE 9.06 
*END

*D_NET *679 0.0190291
*CONN
*I *1996:GATE I *D sky130_fd_sc_hd__dlxtp_1
*I *2179:A I *D sky130_fd_sc_hd__buf_1
*I *1994:GATE I *D sky130_fd_sc_hd__dlxtp_1
*I *1995:GATE I *D sky130_fd_sc_hd__dlxtp_1
*I *1997:GATE I *D sky130_fd_sc_hd__dlxtp_1
*I *2178:A I *D sky130_fd_sc_hd__clkbuf_2
*I *2177:A I *D sky130_fd_sc_hd__buf_2
*I *2180:X O *D sky130_fd_sc_hd__clkbuf_2
*CAP
1 *1996:GATE 0
2 *2179:A 0.000227463
3 *1994:GATE 0
4 *1995:GATE 0.000178632
5 *1997:GATE 1.38185e-05
6 *2178:A 0
7 *2177:A 2.61242e-05
8 *2180:X 0.000170524
9 *679:97 0.000826554
10 *679:91 0.00102906
11 *679:85 0.000209966
12 *679:72 0.000615333
13 *679:61 0.00064651
14 *679:59 0.00182308
15 *679:8 0.00191844
16 *2179:A *687:28 0.00041178
17 *679:8 *687:92 0
18 *679:59 *1808:A3 0.000134906
19 *679:59 *703:60 5.97471e-05
20 *679:72 *1890:A1 0.000116158
21 *679:72 *693:142 0.000518479
22 *679:72 *693:163 0.000483678
23 *679:97 *687:28 0.000275846
24 *1808:S1 *679:59 0.000114565
25 *1812:A0 *679:59 0.000199906
26 *1891:S0 *679:97 7.26176e-06
27 *1893:A3 *679:59 9.57555e-05
28 *1894:S1 *1997:GATE 1.77665e-05
29 *1900:S0 *679:72 9.07407e-05
30 *1908:S1 *679:59 0.000300175
31 *1994:D *1995:GATE 2.99445e-05
32 *1994:D *679:97 4.58616e-05
33 *1995:D *1995:GATE 0
34 *2013:GATE *679:72 0.00023418
35 *2172:A *1995:GATE 3.64998e-06
36 *2282:A *679:8 2.98256e-05
37 *2282:A *679:59 1.68627e-05
38 *2304:A *679:59 0.000138529
39 *2331:A *679:59 0.000296775
40 *2343:A *1997:GATE 4.77757e-05
41 *2352:A *679:91 6.33103e-05
42 *143:109 *679:59 9.33565e-05
43 *143:117 *2179:A 7.20898e-05
44 *143:117 *679:59 1.87943e-05
45 *143:117 *679:72 7.67944e-05
46 *143:117 *679:91 0.000314151
47 *153:129 *679:59 0
48 *480:108 *679:59 1.1008e-05
49 *502:65 *679:59 0.000708993
50 *513:37 *679:59 0.00102951
51 *513:86 *679:59 0.00059002
52 *519:16 *679:72 0.000130756
53 *519:16 *679:85 0.000175337
54 *546:31 *679:59 0.000135234
55 *587:118 *679:59 0.000367343
56 *591:48 *679:59 2.53191e-06
57 *595:28 *679:72 0.00082271
58 *613:42 *679:59 1.42012e-05
59 *629:52 *679:8 0.00010136
60 *631:22 *2179:A 6.48461e-05
61 *631:22 *679:91 0.000315811
62 *634:154 *679:59 3.72899e-05
63 *636:50 *679:8 9.06223e-05
64 *636:159 *679:8 6.89508e-05
65 *636:159 *679:59 0.00064249
66 *637:46 *679:8 0.000143166
67 *637:114 *2177:A 4.66108e-05
68 *637:114 *679:59 0
69 *643:116 *679:59 4.04634e-05
70 *643:164 *679:59 0.000276317
71 *652:181 *679:59 5.92147e-05
72 *654:88 *679:59 5.92147e-05
73 *669:45 *679:72 1.80732e-05
74 *669:45 *679:85 9.98776e-05
75 *670:45 *1995:GATE 0.00011852
76 *670:45 *679:97 2.91073e-05
77 *672:52 *679:59 0.000124246
78 *672:124 *679:59 0.000373297
79 *674:40 *679:59 2.01214e-05
80 *674:80 *679:59 1.82682e-05
81 *674:114 *1995:GATE 1.82859e-05
82 *675:56 *679:59 0.000121019
83 *677:8 *679:72 5.83121e-06
84 *677:26 *679:72 2.85364e-05
85 *677:98 *679:72 0.00012576
*RES
1 *2180:X *679:8 7.275 
2 *679:8 *2177:A 4.05 
3 *679:8 *679:59 49.7172 
4 *679:59 *679:61 1.14 
5 *679:61 *2178:A 1.6 
6 *679:61 *679:72 19.475 
7 *679:72 *1997:GATE 4.05 
8 *679:72 *679:85 4.145 
9 *679:85 *679:91 6.815 
10 *679:91 *679:97 9.965 
11 *679:97 *1995:GATE 8.54 
12 *679:97 *1994:GATE 1.6 
13 *679:91 *2179:A 8.37 
14 *679:85 *1996:GATE 1.6 
*END

*D_NET *680 0.0101048
*CONN
*I *2180:A I *D sky130_fd_sc_hd__clkbuf_2
*I *1993:GATE I *D sky130_fd_sc_hd__dlxtp_1
*I *1992:GATE I *D sky130_fd_sc_hd__dlxtp_1
*I *2017:GATE I *D sky130_fd_sc_hd__dlxtp_1
*I *2016:GATE I *D sky130_fd_sc_hd__dlxtp_1
*I *2181:X O *D sky130_fd_sc_hd__dlymetal6s2s_1
*CAP
1 *2180:A 0.000721145
2 *1993:GATE 0.00015544
3 *1992:GATE 0.000118533
4 *2017:GATE 0
5 *2016:GATE 8.91447e-05
6 *2181:X 0.000131161
7 *680:50 0.000329439
8 *680:46 0.0017784
9 *680:10 0.000226399
10 *680:8 0.00127021
11 *2016:GATE *1876:A2 0.000197923
12 *2180:A *2040:GATE 0.000174007
13 *2180:A *684:46 1.36984e-05
14 *680:10 *1876:A2 0.000335964
15 *680:46 *1876:A2 0.000211542
16 *680:46 *684:35 0.0001057
17 *680:46 *684:124 0.000162189
18 D_config_C_bit0 *2016:GATE 1.88656e-05
19 D_config_C_bit1 *680:10 7.78921e-05
20 D_config_C_bit1 *680:46 5.22105e-05
21 D_config_C_bit2 *680:46 1.88656e-05
22 D_config_C_bit3 *680:46 8.7002e-05
23 *1875:S1 *2180:A 0.000257084
24 *1875:S1 *680:46 0.000180738
25 *1876:A0 *680:46 0.000210441
26 *1880:S0 *680:10 9.43274e-05
27 *1992:D *1992:GATE 1.08758e-05
28 *1992:D *680:50 0.000182245
29 *1993:D *1993:GATE 8.35106e-05
30 *2181:A *680:8 0.00012182
31 *2230:A *680:46 0.000143034
32 *2279:A *680:46 6.21955e-05
33 *2281:A *680:46 1.1732e-05
34 *2304:A *680:46 7.65773e-05
35 *2391:A *2180:A 0.000125211
36 *142:57 *680:46 8.15318e-05
37 *154:85 *1993:GATE 0.000244144
38 *154:85 *2180:A 0
39 *243:42 *680:46 0.00010128
40 *480:70 *1993:GATE 9.09788e-06
41 *480:70 *680:50 0.000156762
42 *568:112 *2016:GATE 3.28682e-05
43 *586:92 *2180:A 3.30577e-05
44 *587:44 *2016:GATE 1.33644e-05
45 *590:112 *680:46 0.000224781
46 *602:117 *2180:A 2.49909e-05
47 *603:68 *680:46 3.69766e-05
48 *613:48 *2180:A 4.09927e-05
49 *613:95 *2180:A 0.000372489
50 *613:95 *680:8 2.39856e-05
51 *613:107 *2016:GATE 1.89685e-05
52 *613:107 *680:10 4.38607e-05
53 *613:138 *2016:GATE 0
54 *624:58 *1993:GATE 6.60915e-05
55 *629:35 *2180:A 0
56 *629:52 *2180:A 0.000164753
57 *631:112 *680:46 5.4308e-05
58 *636:50 *2180:A 6.39651e-05
59 *637:46 *680:46 0.000221019
60 *652:181 *1993:GATE 5.21764e-05
61 *652:181 *2180:A 0.000113454
62 *652:181 *680:46 1.55049e-05
63 *654:41 *680:46 5.88556e-05
*RES
1 *2181:X *680:8 5.775 
2 *680:8 *680:10 4.185 
3 *680:10 *2016:GATE 6 
4 *680:10 *2017:GATE 3.6 
5 *680:8 *680:46 15.7048 
6 *680:46 *680:50 3.83 
7 *680:50 *1992:GATE 3.1 
8 *680:50 *1993:GATE 9.665 
9 *680:46 *2180:A 18.285 
*END

*D_NET *681 0.0166176
*CONN
*I *2032:GATE I *D sky130_fd_sc_hd__dlxtp_1
*I *2034:GATE I *D sky130_fd_sc_hd__dlxtp_1
*I *2031:GATE I *D sky130_fd_sc_hd__dlxtp_1
*I *2037:GATE I *D sky130_fd_sc_hd__dlxtp_1
*I *2035:GATE I *D sky130_fd_sc_hd__dlxtp_1
*I *2036:GATE I *D sky130_fd_sc_hd__dlxtp_1
*I *2030:GATE I *D sky130_fd_sc_hd__dlxtp_1
*I *2029:GATE I *D sky130_fd_sc_hd__dlxtp_1
*I *2028:GATE I *D sky130_fd_sc_hd__dlxtp_1
*I *2033:GATE I *D sky130_fd_sc_hd__dlxtp_1
*I *2182:X O *D sky130_fd_sc_hd__clkbuf_2
*CAP
1 *2032:GATE 0
2 *2034:GATE 0.000337827
3 *2031:GATE 0
4 *2037:GATE 7.54075e-05
5 *2035:GATE 4.34013e-05
6 *2036:GATE 0.000427793
7 *2030:GATE 0
8 *2029:GATE 3.93314e-05
9 *2028:GATE 4.22806e-05
10 *2033:GATE 5.93808e-05
11 *2182:X 1.83028e-05
12 *681:103 0.000216099
13 *681:80 0.00101793
14 *681:67 0.000797139
15 *681:59 0.000973848
16 *681:44 0.00098897
17 *681:36 0.000868297
18 *681:23 0.000850635
19 *681:8 0.000617345
20 *681:6 1.83028e-05
21 *2033:GATE *683:34 7.5416e-05
22 *2036:GATE *2036:D 1.9872e-05
23 *2036:GATE *708:22 1.16854e-05
24 *681:6 *2182:A 1.56428e-05
25 *681:23 *683:34 0.000177554
26 *1805:A *2036:GATE 0.00014018
27 *1844:B *681:44 9.5433e-05
28 *1905:A0 *681:80 0.000301186
29 *1905:A0 *681:103 0.000209178
30 *2030:D *681:67 7.9642e-06
31 *2032:D *681:6 4.66108e-05
32 *2035:D *2035:GATE 4.66108e-05
33 *2112:A *2028:GATE 8.40269e-05
34 *2112:A *681:23 2.10152e-05
35 *2112:A *681:36 2.8107e-05
36 *2226:A *681:67 8.52845e-05
37 *2226:A *681:80 3.10365e-05
38 *2239:A *681:59 4.28819e-05
39 *2265:A *2037:GATE 9.59148e-05
40 *2268:A *2037:GATE 2.49909e-05
41 *2389:A *681:59 0.00031351
42 *143:9 *681:44 0.000151541
43 *146:67 *681:80 0.000258877
44 *147:47 *681:67 0
45 *248:16 *681:67 0.000240029
46 *248:35 *681:67 0.000178334
47 *263:10 *2034:GATE 0.000194267
48 *481:30 *2037:GATE 0.000131849
49 *484:18 *2037:GATE 1.05984e-05
50 *493:16 *681:44 0.000308893
51 *493:16 *681:59 0.000281874
52 *500:28 *681:44 0.000338219
53 *568:122 *2033:GATE 5.70587e-05
54 *569:58 *2035:GATE 6.33103e-05
55 *569:58 *2037:GATE 5.83121e-06
56 *583:28 *681:23 0.000371226
57 *583:82 *2029:GATE 5.05521e-05
58 *596:50 *2028:GATE 2.75229e-05
59 *596:50 *681:36 4.66108e-05
60 *597:12 *681:44 1.95531e-05
61 *597:12 *681:59 8.05768e-05
62 *600:74 *681:23 0.00022645
63 *634:84 *2034:GATE 0.000201702
64 *634:84 *681:36 3.03775e-05
65 *639:60 *2033:GATE 0.000176983
66 *639:60 *681:23 0.000166558
67 *644:24 *681:59 0.000661039
68 *648:109 *681:80 3.00617e-05
69 *649:43 *2034:GATE 0.000374239
70 *649:134 *681:80 0.000340918
71 *650:12 *681:80 0.000130372
72 *650:139 *681:80 6.80137e-05
73 *651:28 *681:80 0.000112911
74 *652:16 *681:80 0
75 *657:44 *681:59 0.000103937
76 *658:12 *681:67 0.000199747
77 *658:27 *681:67 5.25041e-05
78 *660:6 *681:59 0.000228848
79 *660:16 *681:59 0.000118081
80 *661:81 *681:67 0
81 *662:77 *681:80 9.75559e-06
82 *662:140 *2036:GATE 0
83 *663:14 *681:59 0.000116555
84 *664:51 *2034:GATE 0.000374239
85 *664:125 *681:80 0.000463293
86 *664:125 *681:103 0.000176273
87 *676:99 *2035:GATE 8.23457e-05
88 *676:99 *2037:GATE 7.40446e-05
89 *676:99 *681:103 1.52184e-05
*RES
1 *2182:X *681:6 2.05 
2 *681:6 *681:8 2 
3 *681:8 *2033:GATE 5.745 
4 *681:8 *681:23 13.91 
5 *681:23 *2028:GATE 2.755 
6 *681:23 *681:36 3.135 
7 *681:36 *681:44 10.31 
8 *681:44 *2029:GATE 4.395 
9 *681:44 *681:59 19.4 
10 *681:59 *681:67 11.02 
11 *681:67 *2030:GATE 1.6 
12 *681:67 *681:80 15.365 
13 *681:80 *2036:GATE 9.825 
14 *681:80 *681:103 4.655 
15 *681:103 *2035:GATE 2.74 
16 *681:103 *2037:GATE 4.12 
17 *681:59 *2031:GATE 1.6 
18 *681:36 *2034:GATE 14.405 
19 *681:6 *2032:GATE 1.6 
*END

*D_NET *682 0.00414299
*CONN
*I *2048:GATE I *D sky130_fd_sc_hd__dlxtp_1
*I *2046:GATE I *D sky130_fd_sc_hd__dlxtp_1
*I *2044:GATE I *D sky130_fd_sc_hd__dlxtp_1
*I *2045:GATE I *D sky130_fd_sc_hd__dlxtp_1
*I *2047:GATE I *D sky130_fd_sc_hd__dlxtp_1
*I *2183:X O *D sky130_fd_sc_hd__buf_1
*CAP
1 *2048:GATE 0.000196345
2 *2046:GATE 2.11917e-05
3 *2044:GATE 0
4 *2045:GATE 0.000124515
5 *2047:GATE 8.30104e-05
6 *2183:X 6.92566e-05
7 *682:29 0.000687511
8 *682:14 0.000667557
9 *682:12 0.000121757
10 *682:10 0.000344616
11 *682:10 *2183:A 7.00889e-06
12 *1831:A2 *2045:GATE 0.000101118
13 *1831:A2 *682:29 4.94474e-05
14 *1831:C1 *682:29 7.99009e-05
15 *1832:A *682:29 0.000111559
16 *1832:C_N *682:29 0.000162688
17 *1833:A1 *2045:GATE 4.82919e-05
18 *2044:D *2045:GATE 6.08805e-05
19 *2045:D *2045:GATE 8.53113e-06
20 *2046:D *2046:GATE 8.49205e-05
21 *2046:D *682:29 0.000198945
22 *2048:D *2048:GATE 4.82919e-05
23 *2384:A *2046:GATE 1.08758e-05
24 *146:67 *2045:GATE 0
25 *157:31 *2047:GATE 0
26 *157:31 *682:14 0
27 *159:39 *2047:GATE 7.36562e-05
28 *159:39 *682:10 5.02217e-05
29 *159:39 *682:12 0.000107366
30 *159:39 *682:14 2.59981e-05
31 *253:14 *682:29 0.000201508
32 *487:32 *2046:GATE 4.21973e-05
33 *487:32 *682:29 2.97373e-05
34 *579:84 *682:10 0.000100375
35 *579:84 *682:12 0.00019279
36 *579:84 *682:14 3.09233e-05
*RES
1 *2183:X *682:10 5.175 
2 *682:10 *682:12 2.4 
3 *682:12 *682:14 0.615 
4 *682:14 *2047:GATE 5.235 
5 *682:14 *682:29 12.035 
6 *682:29 *2045:GATE 8.54 
7 *682:29 *2044:GATE 1.6 
8 *682:12 *2046:GATE 4.395 
9 *682:10 *2048:GATE 6.135 
*END

*D_NET *683 0.0144903
*CONN
*I *2042:GATE I *D sky130_fd_sc_hd__dlxtp_1
*I *2043:GATE I *D sky130_fd_sc_hd__dlxtp_1
*I *2050:GATE I *D sky130_fd_sc_hd__dlxtp_1
*I *2049:GATE I *D sky130_fd_sc_hd__dlxtp_1
*I *2052:GATE I *D sky130_fd_sc_hd__dlxtp_1
*I *2051:GATE I *D sky130_fd_sc_hd__dlxtp_1
*I *2183:A I *D sky130_fd_sc_hd__buf_1
*I *2182:A I *D sky130_fd_sc_hd__clkbuf_2
*I *2184:X O *D sky130_fd_sc_hd__clkbuf_2
*CAP
1 *2042:GATE 0.000375052
2 *2043:GATE 0
3 *2050:GATE 0
4 *2049:GATE 0
5 *2052:GATE 0
6 *2051:GATE 0.000134936
7 *2183:A 0.000881856
8 *2182:A 0.000183986
9 *2184:X 0.000244865
10 *683:106 0.00107018
11 *683:34 0.00128559
12 *683:30 0.000432386
13 *683:28 0.000414247
14 *683:18 0.000605981
15 *683:10 0.000423963
16 *683:6 0.00109453
17 *683:10 *2184:A 9.61344e-05
18 *683:106 *2184:A 1.26626e-05
19 *1816:B *2183:A 4.66108e-05
20 *1816:C *2183:A 0.000147106
21 *1821:A2 *2183:A 1.7635e-05
22 *1821:A4 *2183:A 0.000113821
23 *1821:B1 *2183:A 1.44809e-05
24 *1923:D *683:30 6.3062e-05
25 *1923:D *683:34 0.000285875
26 *1980:D *683:6 5.16211e-05
27 *2032:D *2182:A 2.97143e-05
28 *2032:D *2183:A 2.01259e-05
29 *2033:GATE *683:34 7.5416e-05
30 *2043:D *2042:GATE 3.80429e-05
31 *2043:D *683:106 4.66108e-05
32 *2049:D *683:18 1.71773e-05
33 *2135:A *2051:GATE 3.88392e-05
34 *2387:A *683:10 0.000597926
35 *2387:A *683:18 0.000115254
36 *2387:A *683:106 0.000287344
37 *2389:A *683:106 0.000577096
38 *159:39 *2183:A 0.000482277
39 *267:14 *2183:A 4.11678e-06
40 *524:142 *2042:GATE 0.00011215
41 *557:58 *683:6 6.34651e-05
42 *568:114 *683:10 1.38403e-05
43 *568:122 *683:18 5.42833e-05
44 *568:122 *683:28 0.000312089
45 *568:122 *683:30 0.000223032
46 *568:122 *683:34 0.000697882
47 *579:84 *2183:A 9.94578e-05
48 *582:20 *2183:A 4.05524e-05
49 *602:166 *2183:A 2.15594e-05
50 *618:24 *683:106 0.000315139
51 *626:150 *2051:GATE 1.19928e-05
52 *639:60 *683:28 4.82262e-05
53 *639:60 *683:30 4.88177e-05
54 *639:60 *683:34 8.42171e-05
55 *643:10 *683:18 3.70632e-05
56 *643:10 *683:28 0.000239731
57 *648:8 *2042:GATE 7.9642e-06
58 *648:109 *2042:GATE 0.000108201
59 *650:12 *2042:GATE 0.000126815
60 *650:12 *683:106 0.000309386
61 *650:59 *2183:A 1.08758e-05
62 *651:28 *2042:GATE 9.14314e-05
63 *660:16 *2042:GATE 0.000120154
64 *662:77 *2042:GATE 1.44775e-05
65 *666:32 *683:28 0.000195925
66 *666:32 *683:30 4.9968e-05
67 *666:56 *683:28 2.49909e-05
68 *666:76 *683:10 0.000471151
69 *666:76 *683:18 8.7152e-06
70 *681:6 *2182:A 1.56428e-05
71 *681:23 *683:34 0.000177554
72 *682:10 *2183:A 7.00889e-06
*RES
1 *2184:X *683:6 4.465 
2 *683:6 *683:10 8.99 
3 *683:10 *683:18 6.08 
4 *683:18 *683:28 9.26 
5 *683:28 *683:30 2.655 
6 *683:30 *683:34 10.265 
7 *683:34 *2182:A 3.955 
8 *683:34 *2183:A 19.145 
9 *683:30 *2051:GATE 5.565 
10 *683:28 *2052:GATE 3.6 
11 *683:18 *2049:GATE 1.6 
12 *683:10 *2050:GATE 3.6 
13 *683:6 *683:106 19.615 
14 *683:106 *2043:GATE 1.6 
15 *683:106 *2042:GATE 15.96 
*END

*D_NET *684 0.020336
*CONN
*I *2054:GATE I *D sky130_fd_sc_hd__dlxtp_1
*I *2053:GATE I *D sky130_fd_sc_hd__dlxtp_1
*I *2055:GATE I *D sky130_fd_sc_hd__dlxtp_1
*I *2184:A I *D sky130_fd_sc_hd__clkbuf_2
*I *2025:GATE I *D sky130_fd_sc_hd__dlxtp_1
*I *2041:GATE I *D sky130_fd_sc_hd__dlxtp_1
*I *2040:GATE I *D sky130_fd_sc_hd__dlxtp_1
*I *2026:GATE I *D sky130_fd_sc_hd__dlxtp_1
*I *2039:GATE I *D sky130_fd_sc_hd__dlxtp_1
*I *2024:GATE I *D sky130_fd_sc_hd__dlxtp_1
*I *2185:X O *D sky130_fd_sc_hd__clkbuf_2
*CAP
1 *2054:GATE 0.000106488
2 *2053:GATE 0
3 *2055:GATE 0
4 *2184:A 0.000647494
5 *2025:GATE 3.45842e-05
6 *2041:GATE 0
7 *2040:GATE 9.97478e-05
8 *2026:GATE 0.000336943
9 *2039:GATE 0
10 *2024:GATE 9.83754e-05
11 *2185:X 0.000162853
12 *684:144 0.000801983
13 *684:136 0.000337443
14 *684:130 0.000899045
15 *684:124 0.00177092
16 *684:48 0.000526721
17 *684:46 0.0001444
18 *684:35 0.000784975
19 *684:12 0.00099196
20 *684:8 0.00048884
21 *684:6 0.00161545
22 *684:124 *1876:A2 0.000131774
23 *684:124 *689:92 5.12302e-05
24 *684:130 *1876:A2 0.000210216
25 B_config_C_bit2 *684:130 6.03407e-05
26 B_config_C_bit3 *684:130 0.000103983
27 C_config_C_bit0 *684:130 4.36573e-06
28 C_config_C_bit3 *684:130 1.88656e-05
29 *1875:S1 *684:35 0.000285661
30 *1875:S1 *684:46 0.000127579
31 *1880:S0 *684:124 0.000118081
32 *1925:D *684:144 0.000152764
33 *1926:D *684:144 2.24558e-05
34 *1953:D *684:130 0.00017317
35 *1980:D *2184:A 0.000107205
36 *2016:D *684:124 4.28819e-05
37 *2024:D *684:35 2.01259e-05
38 *2025:D *684:8 1.56428e-05
39 *2055:D *2184:A 8.73389e-06
40 *2138:A *2054:GATE 0.000121023
41 *2139:A *684:136 6.58339e-05
42 *2180:A *2040:GATE 0.000174007
43 *2180:A *684:46 1.36984e-05
44 *2209:A *2040:GATE 0
45 *2274:A *684:130 0.00058878
46 *2276:A *684:130 6.8316e-05
47 *2279:A *684:124 0.00010481
48 *2304:A *684:35 7.89609e-05
49 *2387:A *2184:A 0.000198759
50 *2389:A *2184:A 0.000445971
51 *2389:A *684:144 0.000119866
52 *2393:A *684:130 0.000148992
53 *2393:A *684:136 0.000166346
54 *2394:A *684:130 0.000179227
55 *2394:A *684:136 0.000163019
56 *2395:A *684:130 1.92979e-05
57 *153:59 *684:8 8.73389e-06
58 *153:59 *684:12 3.75937e-05
59 *157:53 *2025:GATE 0
60 *157:53 *684:130 0.000808792
61 *181:56 *684:124 0.000486284
62 *243:42 *684:124 0.000312709
63 *510:28 *684:8 5.75554e-06
64 *544:46 *684:124 1.7635e-05
65 *557:58 *2184:A 0.000196669
66 *568:112 *684:130 0.00013754
67 *568:114 *2184:A 0.000243245
68 *587:44 *2184:A 9.85216e-05
69 *587:44 *684:130 0.000256736
70 *590:112 *684:6 3.83194e-05
71 *590:112 *684:8 2.49909e-05
72 *590:112 *684:124 0.000173226
73 *593:46 *2054:GATE 2.39856e-05
74 *602:117 *2024:GATE 4.59563e-05
75 *602:117 *2025:GATE 0
76 *602:117 *684:12 7.48621e-05
77 *613:95 *684:6 2.82119e-05
78 *613:95 *684:8 3.10952e-05
79 *613:95 *684:46 1.71207e-05
80 *616:44 *684:124 8.82804e-05
81 *618:24 *2184:A 0.000381135
82 *618:40 *684:124 0.000267867
83 *624:58 *684:35 0.000265405
84 *624:82 *684:124 4.87234e-06
85 *624:108 *684:124 0.000330003
86 *626:100 *684:124 0.000219839
87 *628:90 *684:124 3.49757e-05
88 *629:18 *2026:GATE 2.62017e-05
89 *629:35 *2026:GATE 4.1168e-05
90 *629:35 *2040:GATE 5.31686e-05
91 *633:78 *2040:GATE 4.66108e-05
92 *634:10 *2040:GATE 2.49909e-05
93 *639:58 *684:144 6.45617e-05
94 *643:79 *684:124 0.000110829
95 *652:181 *684:46 1.93765e-05
96 *654:20 *684:35 1.38265e-05
97 *654:20 *684:124 1.48937e-05
98 *654:41 *684:35 0.000138238
99 *654:88 *684:35 0.000153794
100 *654:88 *684:46 8.36122e-05
101 *666:76 *2184:A 4.18909e-05
102 *672:124 *684:46 6.50568e-05
103 *672:190 *684:130 0.000240561
104 *680:46 *684:35 0.0001057
105 *680:46 *684:124 0.000162189
106 *683:10 *2184:A 9.61344e-05
107 *683:106 *2184:A 1.26626e-05
*RES
1 *2185:X *684:6 3.43 
2 *684:6 *684:8 3.21 
3 *684:8 *684:12 2.355 
4 *684:12 *2024:GATE 3.7 
5 *684:12 *684:35 18.57 
6 *684:35 *2039:GATE 3.6 
7 *684:35 *684:46 4.145 
8 *684:46 *684:48 1.14 
9 *684:48 *2026:GATE 6.145 
10 *684:48 *2040:GATE 8.195 
11 *684:46 *2041:GATE 1.6 
12 *684:8 *2025:GATE 2.215 
13 *684:6 *684:124 41.85 
14 *684:124 *684:130 20.895 
15 *684:130 *684:136 6.065 
16 *684:136 *684:144 7.54 
17 *684:144 *2184:A 21.38 
18 *684:144 *2055:GATE 1.6 
19 *684:136 *2053:GATE 1.6 
20 *684:130 *2054:GATE 5.43 
*END

*D_NET *685 0.0103732
*CONN
*I *1903:A3 I *D sky130_fd_sc_hd__mux4_1
*I *1902:A0 I *D sky130_fd_sc_hd__mux4_1
*I *1892:A0 I *D sky130_fd_sc_hd__mux4_1
*I *1911:A3 I *D sky130_fd_sc_hd__mux4_1
*I *2240:X O *D sky130_fd_sc_hd__buf_1
*CAP
1 *1903:A3 1.66048e-05
2 *1902:A0 0.000141334
3 *1892:A0 5.34637e-05
4 *1911:A3 0.000441342
5 *2240:X 0.000454945
6 *685:49 0.000833091
7 *685:30 0.00138119
8 *685:22 0.000773109
9 *1892:A0 *1892:A1 4.66108e-05
10 *1892:A0 *1892:A2 4.66108e-05
11 *1892:A0 *698:68 2.39856e-05
12 *1902:A0 *1902:A1 0.00018615
13 *1902:A0 *690:65 4.20052e-05
14 *1903:A3 *702:30 5.47418e-05
15 *1911:A3 *693:38 1.8799e-05
16 *685:22 *689:24 1.56428e-05
17 *685:22 *699:66 0.000191335
18 *685:22 *700:12 0.000146132
19 *685:22 *702:30 0.000135389
20 *685:30 *690:65 4.36573e-06
21 *685:49 *688:30 1.7635e-05
22 *685:49 *690:65 0.00026222
23 *685:49 *692:22 0.000941536
24 E1BEG[0] *685:22 0.0001925
25 *1879:A1 *685:49 6.83488e-05
26 *1879:A2 *685:49 0.000151284
27 *1884:A0 *685:30 1.83975e-05
28 *1884:A0 *685:49 6.3837e-05
29 *1902:A3 *1902:A0 4.75959e-05
30 *1902:S0 *1902:A0 1.48873e-05
31 *1903:A2 *1911:A3 1.91597e-05
32 *1905:S0 *685:22 5.33085e-05
33 *1911:A0 *1911:A3 0
34 *1911:A2 *1911:A3 0.00011121
35 *2003:GATE *685:49 1.93834e-05
36 *2079:A *685:30 9.43585e-05
37 *2091:A *685:49 0.000134546
38 *2284:A *1903:A3 6.2706e-05
39 *2284:A *685:22 0.000137213
40 *2292:A *685:22 0.000347389
41 *2292:A *685:30 9.04081e-05
42 *2302:A *685:49 3.96119e-05
43 *2328:A *685:30 7.94713e-05
44 *147:75 *685:22 0.000419296
45 *148:51 *685:22 0.00048724
46 *149:45 *1911:A3 3.64998e-06
47 *485:29 *1911:A3 3.83194e-05
48 *517:50 *685:49 4.39271e-05
49 *524:142 *685:30 3.57284e-05
50 *538:72 *1902:A0 6.57653e-06
51 *594:48 *685:30 0.000511058
52 *596:140 *1892:A0 1.91597e-05
53 *596:140 *1902:A0 1.79098e-05
54 *596:140 *685:49 5.23362e-05
55 *671:87 *1902:A0 0.000153867
56 *676:85 *685:30 7.9642e-06
57 *676:85 *685:49 0.000602283
*RES
1 *2240:X *685:22 21.4825 
2 *685:22 *685:30 2.08623 
3 *685:30 *1911:A3 9.255 
4 *685:30 *685:49 17.49 
5 *685:49 *1892:A0 4.74 
6 *685:49 *1902:A0 7.335 
7 *685:22 *1903:A3 4.3425 
*END

*D_NET *686 0.034619
*CONN
*I *1894:A2 I *D sky130_fd_sc_hd__mux4_1
*I *1901:A2 I *D sky130_fd_sc_hd__mux4_1
*I *1891:A2 I *D sky130_fd_sc_hd__mux4_1
*I *2242:X O *D sky130_fd_sc_hd__dlymetal6s2s_1
*CAP
1 *1894:A2 2.35281e-05
2 *1901:A2 9.37836e-05
3 *1891:A2 0.000576077
4 *2242:X 0.00559662
5 *686:58 0.000820736
6 *686:52 0.00147409
7 *686:46 0.00689631
8 *1891:A2 *1891:A1 9.42302e-05
9 *1891:A2 *1901:A0 0.000240782
10 *1891:A2 *1901:A1 4.45507e-06
11 *1891:A2 *694:92 0
12 *686:46 *1893:A1 0.00126048
13 *686:46 *696:26 0
14 *686:46 *699:66 0.000483731
15 *686:46 *703:60 0.000918774
16 *686:52 *696:26 0
17 *686:52 *696:30 0.000395371
18 *686:52 *704:110 1.32529e-05
19 *686:58 *696:30 0.000397446
20 E6BEG[3] *686:46 0.00030763
21 E6BEG[4] *686:46 1.46993e-05
22 *742:DIODE *686:52 0.000296144
23 *742:DIODE *686:58 0.00040531
24 *1811:A0 *686:46 4.49305e-05
25 *1811:A1 *686:46 0.000103315
26 *1891:A3 *1891:A2 3.08098e-05
27 *1891:S1 *1891:A2 8.53113e-06
28 *1894:S0 *1894:A2 1.32668e-05
29 *1894:S1 *1894:A2 1.00941e-05
30 *1901:A3 *1901:A2 7.24866e-05
31 *1901:S1 *1901:A2 9.9535e-05
32 *1903:S1 *686:46 5.8054e-05
33 *1970:D *686:46 0.000138
34 *1974:D *1901:A2 3.64675e-05
35 *1974:D *686:58 0.000146469
36 *2002:D *686:46 4.04634e-05
37 *2071:A *686:46 0.000130119
38 *2146:A *1891:A2 0
39 *2149:A *1901:A2 4.9968e-05
40 *2149:A *686:58 0.000124749
41 *2289:A *686:46 0.000402396
42 *2292:A *686:46 0.000818014
43 *2293:A *686:46 8.41307e-05
44 *2296:A *686:46 3.18234e-05
45 *2297:A *686:46 0.000386624
46 *2299:A *686:46 1.93834e-05
47 *2301:A *686:46 1.38403e-05
48 *2316:A *686:46 0.000479569
49 *2317:A *686:46 0.000870366
50 *2328:A *686:46 0.000147353
51 *147:75 *686:46 8.52837e-05
52 *148:51 *686:46 0.000109431
53 *149:111 *686:52 0
54 *160:115 *686:46 4.32417e-05
55 *160:133 *686:58 1.7635e-05
56 *483:80 *686:46 0.00393933
57 *514:94 *686:46 5.80352e-06
58 *516:54 *686:46 0.000111197
59 *517:50 *686:46 1.86911e-05
60 *520:56 *686:46 0.000110744
61 *528:36 *686:46 0
62 *528:36 *686:52 0.000151511
63 *536:26 *686:46 8.5049e-05
64 *538:72 *686:46 7.53186e-05
65 *545:72 *686:46 0.000145596
66 *556:22 *1891:A2 0.000414375
67 *558:50 *686:46 0.0001324
68 *631:18 *1891:A2 1.94636e-05
69 *642:106 *686:46 0.000251466
70 *646:53 *686:46 0.000243211
71 *646:88 *686:46 0.00167314
72 *647:244 *686:46 6.83488e-05
73 *661:132 *686:46 2.78026e-05
74 *661:203 *686:46 3.47971e-05
75 *665:38 *686:46 0.00121346
76 *676:48 *686:46 0.00096751
*RES
1 *2242:X *686:46 49.3349 
2 *686:46 *686:52 2.55993 
3 *686:52 *686:58 2.88317 
4 *686:58 *1891:A2 17.2375 
5 *686:58 *1901:A2 6.45375 
6 *686:52 *1894:A2 4.53125 
*END

*D_NET *687 0.0375567
*CONN
*I *1972:D I *D sky130_fd_sc_hd__dlxtp_1
*I *1940:D I *D sky130_fd_sc_hd__dlxtp_1
*I *2036:D I *D sky130_fd_sc_hd__dlxtp_1
*I *2004:D I *D sky130_fd_sc_hd__dlxtp_1
*I *2120:A I *D sky130_fd_sc_hd__clkbuf_1
*I *2263:X O *D sky130_fd_sc_hd__clkbuf_2
*CAP
1 *1972:D 0.000472813
2 *1940:D 6.98041e-05
3 *2036:D 0.000466436
4 *2004:D 0.000266013
5 *2120:A 0
6 *2263:X 3.89877e-05
7 *687:114 0.00353074
8 *687:92 0.0055051
9 *687:28 0.00087915
10 *687:24 0.00201846
11 *687:6 0.0034821
12 *1940:D *689:24 5.16211e-05
13 *1972:D *1884:A1 1.7635e-05
14 *1972:D *693:82 0.000105796
15 *1972:D *708:42 5.86036e-05
16 *687:24 *698:175 0
17 *687:92 *689:114 0.000456402
18 *687:92 *698:68 0.000160984
19 *687:114 *693:38 1.65286e-05
20 *687:114 *694:76 0.000152198
21 *719:DIODE *687:24 0.00268493
22 *719:DIODE *687:92 2.53191e-06
23 *1805:A *2036:D 0.000438775
24 *1813:A0 *687:92 0.000489769
25 *1825:A *1972:D 8.23457e-05
26 *1825:B *1972:D 0.00026102
27 *1825:C_N *1972:D 2.21577e-05
28 *1827:A *1972:D 2.22315e-05
29 *1828:A2 *1972:D 1.19928e-05
30 *1828:A4 *1972:D 0.000337827
31 *1891:S0 *687:28 4.38278e-05
32 *1910:S1 *2036:D 5.83121e-06
33 *1936:GATE *687:92 0
34 *1941:GATE *1940:D 8.247e-05
35 *1950:D *687:114 2.7894e-05
36 *1961:D *687:92 0.000147768
37 *1972:GATE *1972:D 1.85674e-05
38 *1985:D *687:92 1.7635e-05
39 *1985:GATE *687:92 0.000134503
40 *1995:D *687:24 1.88619e-05
41 *2001:D *687:92 1.67601e-05
42 *2008:GATE *687:92 6.33103e-05
43 *2036:GATE *2036:D 1.9872e-05
44 *2179:A *687:28 0.00041178
45 *2198:A *687:24 0
46 *2263:A *687:92 0.000171792
47 *2282:A *687:92 0.00015609
48 *2297:A *687:92 0.000221266
49 *2326:A *687:114 0.000652885
50 *2345:A *687:24 4.03905e-05
51 *2350:A *687:92 7.8632e-06
52 *2391:A *1972:D 0.000118081
53 *143:47 *2036:D 0.000244972
54 *146:99 *2004:D 2.11674e-05
55 *154:99 *687:92 0.000218192
56 *240:10 *2036:D 6.69608e-06
57 *243:42 *2036:D 0.00038147
58 *243:42 *687:114 0.000117028
59 *479:46 *687:114 2.2955e-05
60 *480:70 *687:24 2.0734e-05
61 *480:70 *687:92 0.000143495
62 *483:90 *2004:D 0.000117832
63 *486:18 *2036:D 4.41506e-05
64 *502:79 *687:92 5.87861e-05
65 *512:18 *687:92 0.00020888
66 *546:31 *687:92 0.000298032
67 *546:42 *687:92 0.000338115
68 *569:58 *2036:D 2.76356e-05
69 *576:42 *2004:D 0.000177772
70 *582:40 *687:114 0.000282096
71 *582:94 *1972:D 1.96913e-05
72 *582:94 *687:6 1.94027e-05
73 *585:66 *687:92 0.000159722
74 *591:102 *687:114 5.28608e-05
75 *593:46 *687:114 0.000106079
76 *602:70 *687:92 0.000127318
77 *603:68 *687:92 5.8678e-05
78 *613:48 *687:92 0.00011899
79 *618:112 *687:92 4.47861e-05
80 *624:58 *687:24 0
81 *625:8 *687:6 0.000118081
82 *625:8 *687:24 4.66108e-05
83 *625:10 *687:24 0.00267944
84 *627:106 *687:114 0.000808269
85 *630:50 *687:24 0.00023613
86 *630:84 *687:92 0.000247415
87 *630:84 *687:114 0.000664705
88 *631:112 *687:114 0.000139064
89 *634:78 *687:114 0
90 *635:42 *687:92 0.000598678
91 *635:42 *687:114 0.000816995
92 *636:50 *687:92 0.000447434
93 *637:114 *687:92 0.000152681
94 *639:98 *687:92 0.00018955
95 *644:24 *2036:D 8.07851e-05
96 *652:181 *687:92 0.000156928
97 *659:83 *2036:D 0.000365865
98 *659:83 *687:114 0.000414454
99 *664:143 *2036:D 8.53113e-06
100 *664:143 *687:114 0.000532003
101 *668:81 *687:92 1.41411e-05
102 *670:45 *687:24 0.000103192
103 *671:30 *687:92 0.000165464
104 *671:87 *1972:D 4.11629e-05
105 *674:80 *687:92 0.000103305
106 *675:56 *687:6 3.57349e-05
107 *675:56 *687:24 8.35068e-05
108 *675:56 *687:92 5.15916e-05
109 *678:10 *687:28 6.11888e-05
110 *679:8 *687:92 0
111 *679:97 *687:28 0.000275846
*RES
1 *2263:X *687:6 2.74 
2 *687:6 *687:24 41.192 
3 *687:24 *687:28 11.505 
4 *687:28 *2120:A 1.6 
5 *687:28 *2004:D 10.355 
6 *687:6 *687:92 45.4272 
7 *687:92 *687:114 15.7454 
8 *687:114 *2036:D 24.56 
9 *687:114 *1940:D 5.085 
10 *687:92 *1972:D 13.6596 
*END

*D_NET *688 0.0167475
*CONN
*I *1889:A2 I *D sky130_fd_sc_hd__mux4_1
*I *1899:A2 I *D sky130_fd_sc_hd__mux4_1
*I *2243:X O *D sky130_fd_sc_hd__buf_1
*CAP
1 *1889:A2 0.000307556
2 *1899:A2 8.25684e-05
3 *2243:X 0.00242135
4 *688:30 0.00281148
5 *1889:A2 *695:103 3.64998e-06
6 *688:30 *1885:A2 0.00420211
7 *740:DIODE *1889:A2 1.79483e-05
8 *1998:D *1889:A2 2.58293e-06
9 *2071:A *688:30 4.11718e-05
10 *2294:A *688:30 0.000118081
11 *2302:A *688:30 2.05571e-05
12 *2328:A *688:30 0.00062794
13 *2362:A *1889:A2 3.97095e-06
14 *2362:A *688:30 5.95642e-06
15 *145:71 *688:30 0.000143849
16 *148:89 *688:30 4.22972e-05
17 *234:14 *1899:A2 9.64638e-06
18 *234:26 *1889:A2 5.3512e-05
19 *235:45 *1889:A2 2.15352e-05
20 *235:45 *1899:A2 0.000155466
21 *479:161 *1899:A2 0.00020861
22 *519:46 *688:30 0.000141541
23 *520:56 *688:30 0.000106321
24 *531:62 *688:30 0.000873617
25 *538:72 *688:30 0.000113069
26 *539:26 *1899:A2 1.54111e-05
27 *545:72 *688:30 1.4641e-05
28 *559:46 *1889:A2 0.000107357
29 *618:112 *688:30 4.02448e-06
30 *637:46 *688:30 0.000449534
31 *642:106 *688:30 0.000123462
32 *645:64 *688:30 0.00336334
33 *659:227 *1889:A2 2.10674e-05
34 *659:227 *1899:A2 4.14843e-05
35 *667:154 *1889:A2 1.92979e-05
36 *673:106 *688:30 3.3846e-05
37 *685:49 *688:30 1.7635e-05
*RES
1 *2243:X *688:30 16.9082 
2 *688:30 *1899:A2 6.905 
3 *688:30 *1889:A2 5.09365 
*END

*D_NET *689 0.0324443
*CONN
*I *1890:A0 I *D sky130_fd_sc_hd__mux4_1
*I *1900:A0 I *D sky130_fd_sc_hd__mux4_1
*I *1912:A3 I *D sky130_fd_sc_hd__mux4_1
*I *1904:A3 I *D sky130_fd_sc_hd__mux4_1
*I *2244:X O *D sky130_fd_sc_hd__clkbuf_2
*CAP
1 *1890:A0 0.000308054
2 *1900:A0 0
3 *1912:A3 0.000124004
4 *1904:A3 0.000169005
5 *2244:X 0.00138884
6 *689:114 0.00307957
7 *689:92 0.004636
8 *689:37 0.00198849
9 *689:24 0.00155784
10 *1912:A3 *706:38 4.60061e-05
11 *689:24 *705:6 6.61627e-05
12 *689:24 *705:10 0.000174782
13 *689:92 *694:76 7.33639e-05
14 *689:114 *698:68 0.000386425
15 *689:114 *701:52 1.52035e-05
16 *738:DIODE *689:114 0.00220021
17 *1880:A0 *689:92 7.81996e-05
18 *1880:S0 *689:92 2.48724e-05
19 *1893:S0 *1890:A0 6.36139e-05
20 *1900:S1 *689:114 6.63225e-05
21 *1904:A2 *1904:A3 4.31192e-06
22 *1904:A2 *689:24 0.000125345
23 *1904:S0 *689:92 2.76356e-05
24 *1904:S1 *689:92 5.83121e-06
25 *1913:S1 *689:24 2.67275e-05
26 *1940:D *689:24 5.16211e-05
27 *1941:GATE *689:24 1.15136e-05
28 *1991:D *1890:A0 1.08758e-05
29 *2069:A *689:24 0.000190712
30 *2078:A *689:24 3.3314e-05
31 *2169:A *689:24 1.56428e-05
32 *2240:A *689:24 9.87313e-05
33 *2245:A *689:24 4.77719e-05
34 *2260:A *689:24 0.000136461
35 *2276:A *689:92 0.000301761
36 *2279:A *689:92 0.000253778
37 *2287:A *689:24 4.82919e-05
38 *2292:A *689:24 4.82863e-05
39 *2297:A *689:114 1.4641e-05
40 *2300:A *689:24 2.49909e-05
41 *2304:A *689:92 4.66108e-05
42 *2326:A *689:92 7.33639e-05
43 *2330:A *689:114 0.00208034
44 *143:47 *689:24 9.17274e-05
45 *181:21 *1912:A3 0.000245825
46 *181:21 *689:92 0.000138961
47 *233:80 *689:114 0.000137611
48 *243:42 *689:92 0.000554895
49 *491:96 *689:114 0.000239385
50 *519:16 *1890:A0 8.35106e-05
51 *519:40 *1890:A0 0.000717035
52 *519:40 *689:114 0.000432534
53 *520:56 *689:114 0.000768013
54 *524:14 *689:114 0.000523592
55 *544:46 *689:92 1.00941e-05
56 *579:52 *689:114 1.4641e-05
57 *587:44 *689:92 1.17309e-05
58 *590:18 *689:92 3.64998e-06
59 *590:49 *689:92 0.000136615
60 *600:122 *689:92 0.000382905
61 *600:122 *689:114 0.00016752
62 *602:117 *689:92 5.68523e-06
63 *613:95 *689:92 0
64 *613:107 *689:92 9.57742e-06
65 *613:138 *1912:A3 8.9746e-05
66 *613:138 *689:92 0.00031178
67 *615:14 *1890:A0 0.000709987
68 *615:14 *689:114 0.000271943
69 *616:44 *689:92 2.1724e-05
70 *624:108 *689:92 0.000109723
71 *626:96 *689:92 0.000130587
72 *626:126 *1904:A3 6.70326e-06
73 *626:126 *1912:A3 0.000115398
74 *626:126 *689:24 8.91174e-06
75 *626:126 *689:92 0.00013043
76 *628:90 *1912:A3 2.76356e-05
77 *630:66 *689:114 0.000658505
78 *630:84 *689:114 0.00111357
79 *631:112 *689:114 5.50424e-05
80 *632:66 *689:114 0.00109593
81 *632:107 *689:114 0.000688616
82 *634:154 *689:114 0.000244682
83 *634:176 *689:114 0.000222737
84 *639:30 *689:92 4.11223e-05
85 *639:58 *689:92 0.000156642
86 *640:34 *689:92 0.000106377
87 *640:45 *689:92 8.13972e-05
88 *644:24 *689:24 9.17274e-05
89 *662:177 *689:114 0.000201947
90 *664:143 *689:24 2.97593e-05
91 *667:8 *689:24 0.000112895
92 *667:224 *689:24 0.000105152
93 *673:124 *689:92 0.000179306
94 *684:124 *689:92 5.12302e-05
95 *685:22 *689:24 1.56428e-05
96 *687:92 *689:114 0.000456402
*RES
1 *2244:X *689:24 27.2 
2 *689:24 *1904:A3 4.15 
3 *689:24 *689:37 2 
4 *689:37 *1912:A3 7.305 
5 *689:37 *689:92 48.4429 
6 *689:92 *689:114 16.7115 
7 *689:114 *1900:A0 3.6 
8 *689:114 *1890:A0 13.95 
*END

*D_NET *690 0.00858221
*CONN
*I *1905:A3 I *D sky130_fd_sc_hd__mux4_1
*I *1902:A1 I *D sky130_fd_sc_hd__mux4_1
*I *1892:A1 I *D sky130_fd_sc_hd__mux4_1
*I *1913:A3 I *D sky130_fd_sc_hd__mux4_1
*I *2245:X O *D sky130_fd_sc_hd__buf_1
*CAP
1 *1905:A3 0.000251517
2 *1902:A1 9.18287e-05
3 *1892:A1 1.40724e-05
4 *1913:A3 0
5 *2245:X 5.19194e-05
6 *690:65 0.0014573
7 *690:17 0.00165015
8 *690:8 9.91517e-05
9 *1892:A1 *698:68 2.68526e-05
10 *1902:A1 *1902:A2 2.00281e-05
11 *1902:A1 *698:68 1.42256e-05
12 *690:65 *698:68 4.60061e-05
13 *690:65 *702:30 2.99599e-05
14 *690:65 *707:28 9.30787e-05
15 *1884:A0 *690:65 1.24447e-05
16 *1887:A0 *690:65 0.000187687
17 *1892:A0 *1892:A1 4.66108e-05
18 *1902:A0 *1902:A1 0.00018615
19 *1902:A0 *690:65 4.20052e-05
20 *1902:A3 *1902:A1 4.43871e-06
21 *1902:S0 *1902:A1 4.75959e-05
22 *1905:A0 *1905:A3 2.68464e-05
23 *1905:A0 *690:8 0.000135487
24 *1905:A0 *690:17 0.000128337
25 *1905:A0 *690:65 4.21314e-05
26 *1905:S0 *1905:A3 0.000128956
27 *1967:GATE *690:65 0.000178095
28 *2003:GATE *690:65 6.61307e-05
29 *2079:A *690:65 2.10433e-05
30 *2091:A *690:65 0
31 *2247:A *1905:A3 6.59887e-05
32 *2292:A *690:65 6.66779e-05
33 *2328:A *690:65 7.81767e-05
34 *483:80 *690:65 9.23627e-05
35 *485:20 *690:65 1.33949e-05
36 *517:50 *690:65 0.000317069
37 *538:72 *1902:A1 0
38 *596:140 *1902:A1 0.00016163
39 *600:74 *690:65 1.44947e-05
40 *637:46 *690:65 6.00867e-05
41 *645:64 *690:65 2.46724e-05
42 *659:116 *690:65 5.8678e-05
43 *661:112 *690:65 1.86954e-05
44 *661:132 *690:65 0.00025701
45 *661:203 *690:65 1.47316e-05
46 *665:50 *690:65 0.000190787
47 *671:87 *1902:A1 1.91597e-05
48 *671:87 *690:65 2.14129e-05
49 *671:111 *690:65 0.000356392
50 *671:113 *690:65 0.00030008
51 *671:115 *690:65 2.0644e-05
52 *676:85 *690:65 0.000869759
53 *676:99 *690:8 7.27817e-05
54 *676:99 *690:17 7.416e-05
55 *676:99 *690:65 4.67263e-05
56 *685:30 *690:65 4.36573e-06
57 *685:49 *690:65 0.00026222
*RES
1 *2245:X *690:8 5.235 
2 *690:8 *1913:A3 3.6 
3 *690:8 *690:17 1.635 
4 *690:17 *690:65 32.0265 
5 *690:65 *1892:A1 2.05 
6 *690:65 *1902:A1 8.645 
7 *690:17 *1905:A3 7.725 
*END

*D_NET *691 0.0282613
*CONN
*I *1906:A3 I *D sky130_fd_sc_hd__mux4_1
*I *1914:A3 I *D sky130_fd_sc_hd__mux4_1
*I *1893:A0 I *D sky130_fd_sc_hd__mux4_1
*I *1890:A1 I *D sky130_fd_sc_hd__mux4_1
*I *1900:A1 I *D sky130_fd_sc_hd__mux4_1
*I *2246:X O *D sky130_fd_sc_hd__clkbuf_2
*CAP
1 *1906:A3 0.000235443
2 *1914:A3 0
3 *1893:A0 0
4 *1890:A1 0.00051634
5 *1900:A1 0.000873948
6 *2246:X 0.00140896
7 *691:105 0.000781158
8 *691:88 0.00157752
9 *691:74 0.000534921
10 *691:72 0.00114693
11 *691:44 0.00251494
12 *691:16 0.00310859
13 *1890:A1 *1893:A2 6.90889e-06
14 *1900:A1 *1900:A2 8.53728e-05
15 *1906:A3 *1882:A2 0.000109259
16 *1906:A3 *708:113 0.000124135
17 *691:16 *695:66 0.000765522
18 *691:16 *704:70 0.000294558
19 *691:44 *695:90 0.00013661
20 *691:44 *704:70 0.000991496
21 *691:72 *1899:A1 4.61866e-05
22 *691:72 *704:110 0.000372401
23 *691:72 *708:113 5.59667e-05
24 *691:74 *1914:A2 2.87981e-05
25 *691:74 *708:113 0.000100175
26 *691:88 *1914:A1 8.23457e-05
27 *691:88 *708:99 4.66108e-05
28 *691:88 *708:113 0.000237998
29 *691:105 *1893:A1 0.000118081
30 E2BEG[4] *691:16 1.88904e-05
31 E2BEG[5] *691:16 1.88656e-05
32 E2BEGb[2] *691:16 9.89625e-05
33 E2BEGb[4] *691:16 2.05641e-05
34 E6BEG[1] *691:44 6.32332e-05
35 E6BEG[2] *691:44 2.95316e-05
36 EE4BEG[10] *691:44 6.14579e-06
37 FrameData_O[11] *691:72 0.000269456
38 FrameData_O[12] *691:72 0.000176247
39 FrameData_O[1] *691:44 7.9642e-06
40 FrameData_O[3] *691:44 0.00018955
41 FrameData_O[5] *691:44 1.69587e-05
42 FrameData_O[6] *691:44 0.000108695
43 FrameData_O[8] *691:72 0.000106285
44 *728:DIODE *691:88 4.50233e-05
45 *1814:A2 *691:72 8.23457e-05
46 *1889:S0 *691:44 1.09931e-05
47 *1889:S0 *691:72 1.07806e-05
48 *1893:S1 *1890:A1 0.000108199
49 *1900:S1 *1900:A1 8.33571e-05
50 *1906:A0 *1906:A3 0.0001521
51 *2068:A *691:72 0.000185238
52 *2081:A *1900:A1 5.76167e-05
53 *2081:A *691:88 1.8325e-05
54 *2094:A *1900:A1 2.49909e-05
55 *2107:A *691:16 0.000140579
56 *2253:A *691:16 0.000106996
57 *2285:A *691:16 7.90792e-05
58 *2290:A *691:16 0.000111329
59 *2300:A *691:16 5.48541e-05
60 *2332:A *691:72 0.000179334
61 *2336:A *1906:A3 0.000175452
62 *2336:A *691:105 0.000297646
63 *2337:A *691:72 0
64 *2340:A *691:72 0
65 *2346:A *691:44 0.00021799
66 *2348:A *691:72 0
67 *2354:A *691:105 1.91597e-05
68 *2359:A *691:44 8.6777e-06
69 *2361:A *691:44 8.51875e-05
70 *143:117 *1890:A1 0.000117825
71 *144:75 *691:16 0.000880756
72 *147:99 *691:44 0.00116753
73 *149:75 *691:16 0.000436273
74 *149:111 *691:72 4.46808e-07
75 *151:23 *691:16 0.000519448
76 *151:33 *691:44 8.61898e-05
77 *234:94 *691:16 0.000152883
78 *481:88 *691:16 0.000566316
79 *516:54 *691:44 0.000348689
80 *524:180 *691:88 8.43255e-05
81 *535:76 *691:44 0.000433993
82 *538:72 *691:44 3.21081e-06
83 *539:26 *691:44 0.000384193
84 *539:26 *691:72 1.0221e-05
85 *558:50 *1900:A1 4.90039e-06
86 *559:46 *691:44 0.00029136
87 *560:44 *691:16 0.000277155
88 *564:52 *691:44 0.000403018
89 *576:42 *1906:A3 0.000136623
90 *576:42 *691:72 0
91 *637:67 *691:16 1.73074e-05
92 *645:82 *691:105 0.000467342
93 *646:88 *691:72 5.69231e-05
94 *647:189 *691:16 1.38403e-05
95 *647:244 *691:16 0.000211684
96 *653:237 *691:44 0.000292699
97 *659:175 *691:16 0.000136658
98 *659:213 *691:44 0.000407032
99 *659:227 *691:72 0
100 *659:227 *691:88 2.87433e-05
101 *660:87 *691:44 0.000223798
102 *669:45 *1890:A1 9.20646e-05
103 *669:45 *691:105 4.80285e-05
104 *669:53 *691:105 0.000155892
105 *679:72 *1890:A1 0.000116158
*RES
1 *2246:X *691:16 41.485 
2 *691:16 *691:44 49.285 
3 *691:44 *691:72 23.535 
4 *691:72 *691:74 1.83 
5 *691:74 *691:88 7.875 
6 *691:88 *1900:A1 11.29 
7 *691:88 *691:105 11.545 
8 *691:105 *1890:A1 13.325 
9 *691:105 *1893:A0 1.6 
10 *691:74 *1914:A3 1.6 
11 *691:72 *1906:A3 12.245 
*END

*D_NET *692 0.0125546
*CONN
*I *1907:A3 I *D sky130_fd_sc_hd__mux4_1
*I *1915:A3 I *D sky130_fd_sc_hd__mux4_1
*I *1902:A2 I *D sky130_fd_sc_hd__mux4_1
*I *1892:A2 I *D sky130_fd_sc_hd__mux4_1
*I *2247:X O *D sky130_fd_sc_hd__buf_1
*CAP
1 *1907:A3 0.000118373
2 *1915:A3 0.000229656
3 *1902:A2 0.000733788
4 *1892:A2 0.000198929
5 *2247:X 0.000908844
6 *692:64 0.000726157
7 *692:37 0.00118088
8 *692:22 0.00117674
9 *1892:A2 *698:68 9.07247e-05
10 *1915:A3 *1915:A2 1.453e-05
11 *1915:A3 *702:41 1.7635e-05
12 *692:22 *694:76 0.000173015
13 *692:22 *701:52 0.000254534
14 *692:22 *707:14 2.76356e-05
15 *1826:A2 *692:64 8.43317e-05
16 *1877:A3 *1915:A3 0.000126456
17 *1884:A0 *692:22 0.000280901
18 *1884:A0 *692:37 0.00026281
19 *1884:A0 *692:64 0.000128346
20 *1892:A0 *1892:A2 4.66108e-05
21 *1892:A3 *1892:A2 5.79655e-05
22 *1892:S0 *1892:A2 9.03042e-05
23 *1902:A1 *1902:A2 2.00281e-05
24 *1902:A3 *1902:A2 5.74791e-05
25 *1902:S0 *1902:A2 0.000298342
26 *1907:A0 *1907:A3 2.98312e-05
27 *1907:S0 *1907:A3 1.68397e-05
28 *1907:S0 *692:64 0.000192135
29 *2291:A *1915:A3 0.000125603
30 *2299:A *1915:A3 0.000183484
31 *2302:A *692:22 6.76938e-05
32 *2316:A *1915:A3 0.000208181
33 *2322:A *692:64 8.53224e-05
34 *2327:A *1915:A3 0.000131122
35 *2328:A *692:22 0.000260038
36 *144:31 *692:22 0.000252282
37 *149:75 *692:22 8.53224e-05
38 *485:20 *692:22 0.000344968
39 *517:50 *692:64 1.8279e-05
40 *520:56 *692:64 2.32919e-05
41 *533:44 *692:22 0.000206753
42 *538:72 *692:64 0.000180689
43 *545:72 *692:22 4.77757e-05
44 *596:140 *1892:A2 8.23457e-05
45 *596:140 *692:22 2.92496e-05
46 *596:140 *692:37 0.000271341
47 *596:140 *692:64 0.000102257
48 *597:20 *692:22 0.000164679
49 *642:106 *692:64 6.03272e-05
50 *659:116 *692:22 0.000215774
51 *671:87 *1902:A2 1.74678e-05
52 *675:174 *692:22 0.000124598
53 *675:174 *692:64 0.000284976
54 *675:176 *692:22 0.000270744
55 *675:192 *692:22 1.88602e-05
56 *676:48 *1915:A3 0.000205805
57 *685:49 *692:22 0.000941536
*RES
1 *2247:X *692:22 34.105 
2 *692:22 *1892:A2 7.71375 
3 *692:22 *692:37 3.165 
4 *692:37 *1902:A2 13.5675 
5 *692:37 *692:64 14.715 
6 *692:64 *1915:A3 11.6128 
7 *692:64 *1907:A3 3.46 
*END

*D_NET *693 0.0298344
*CONN
*I *1890:A2 I *D sky130_fd_sc_hd__mux4_1
*I *1893:A2 I *D sky130_fd_sc_hd__mux4_1
*I *1900:A2 I *D sky130_fd_sc_hd__mux4_1
*I *1908:A3 I *D sky130_fd_sc_hd__mux4_1
*I *1808:A3 I *D sky130_fd_sc_hd__mux4_1
*I *2248:X O *D sky130_fd_sc_hd__clkbuf_2
*CAP
1 *1890:A2 0.00019439
2 *1893:A2 1.20632e-05
3 *1900:A2 0.000157052
4 *1908:A3 0
5 *1808:A3 0.000202977
6 *2248:X 0.00195585
7 *693:163 0.000574132
8 *693:142 0.00121096
9 *693:117 0.00125752
10 *693:84 0.00090517
11 *693:82 0.00177906
12 *693:38 0.00360401
13 *1808:A3 *703:60 5.8023e-05
14 *693:38 *1905:A2 6.12343e-05
15 *693:38 *1913:A2 7.30825e-05
16 *693:38 *694:76 8.87958e-05
17 *693:38 *700:14 9.58025e-05
18 *693:38 *708:22 2.31188e-05
19 *693:38 *708:42 0.00119874
20 *693:82 *698:68 1.7635e-05
21 *693:82 *708:42 0.000436908
22 *1808:S0 *693:142 0.00010467
23 *1809:A0 *1890:A2 0.000137665
24 *1809:A0 *693:163 6.11965e-05
25 *1812:A0 *693:82 0.000101784
26 *1812:S0 *693:82 0.000162455
27 *1822:A1 *693:38 5.75805e-06
28 *1825:C_N *693:38 0.000261287
29 *1825:C_N *693:82 7.01501e-05
30 *1828:A2 *693:82 0
31 *1828:A4 *693:82 0
32 *1878:A0 *693:117 2.84508e-05
33 *1879:A1 *693:38 6.59891e-05
34 *1879:S0 *693:38 0.000137887
35 *1884:A0 *693:82 1.84688e-05
36 *1884:S0 *693:82 0.000224022
37 *1888:A1 *693:82 8.87062e-05
38 *1890:A1 *1893:A2 6.90889e-06
39 *1890:S0 *1890:A2 9.50342e-06
40 *1892:S1 *693:38 2.95721e-05
41 *1893:A3 *1890:A2 7.9642e-06
42 *1893:A3 *693:163 5.98468e-05
43 *1893:S0 *1890:A2 6.33103e-05
44 *1895:S1 *693:38 0.000315462
45 *1896:S0 *693:82 0.000226446
46 *1900:A1 *1900:A2 8.53728e-05
47 *1911:A3 *693:38 1.8799e-05
48 *1972:D *693:82 0.000105796
49 *2000:D *693:82 9.12146e-06
50 *2022:D *693:82 3.86814e-05
51 *2023:D *693:82 5.02126e-06
52 *2088:A *693:142 0.000289896
53 *2245:A *693:38 0.000659843
54 *2297:A *693:82 0.000265267
55 *2322:A *693:82 0.000258496
56 *2350:A *693:117 1.2225e-05
57 *2350:A *693:163 0.000126385
58 *143:47 *693:38 0.00103702
59 *143:109 *1808:A3 1.82334e-05
60 *143:109 *693:38 0.000231126
61 *143:109 *693:82 4.1566e-05
62 *143:117 *1808:A3 5.93727e-05
63 *143:117 *693:142 0.000962815
64 *143:117 *693:163 0.000478496
65 *145:71 *693:82 0.000175917
66 *149:45 *693:38 0.000295866
67 *153:129 *693:84 0.000238434
68 *153:129 *693:117 0.000113273
69 *233:99 *1890:A2 0.000114232
70 *482:76 *693:117 0.000175549
71 *482:105 *693:117 0.000107538
72 *502:65 *1808:A3 0.000201463
73 *502:65 *693:84 7.47145e-05
74 *502:65 *693:117 0.000215013
75 *502:65 *693:142 1.84424e-05
76 *502:79 *693:82 9.22251e-05
77 *513:37 *693:117 3.0632e-05
78 *513:37 *693:142 4.04634e-05
79 *513:86 *693:117 6.17446e-06
80 *544:46 *693:84 2.53191e-06
81 *558:50 *1900:A2 3.01974e-05
82 *579:52 *693:38 0.000145068
83 *586:92 *693:82 0.00019478
84 *590:112 *693:82 0.000122857
85 *591:48 *693:117 0.000112483
86 *596:50 *693:38 0.000220044
87 *596:140 *693:38 3.64998e-06
88 *597:44 *693:38 0.000497653
89 *597:60 *693:82 1.08994e-05
90 *630:66 *693:163 0.000262127
91 *630:84 *693:82 0.000473963
92 *631:65 *693:82 1.41626e-05
93 *634:154 *693:82 0.000226761
94 *635:102 *693:82 0.000345178
95 *636:159 *693:82 2.49102e-05
96 *637:114 *693:82 0.000237091
97 *643:116 *693:82 5.02217e-05
98 *643:164 *1808:A3 5.69898e-06
99 *643:164 *693:84 0
100 *647:189 *693:38 2.70428e-05
101 *652:181 *693:82 5.52444e-05
102 *659:83 *693:38 7.90639e-06
103 *661:203 *693:82 9.74451e-06
104 *662:177 *693:82 1.20478e-05
105 *664:143 *693:38 0.000278837
106 *664:166 *693:38 0.000291429
107 *671:10 *1808:A3 4.66108e-05
108 *671:30 *693:82 4.69607e-05
109 *671:30 *693:84 1.01643e-05
110 *672:52 *1808:A3 4.58987e-05
111 *672:52 *693:84 1.15688e-05
112 *672:52 *693:117 0
113 *672:124 *693:82 0.0002358
114 *672:124 *693:84 8.10123e-05
115 *673:106 *693:82 0.000385566
116 *674:40 *1808:A3 0.000228855
117 *674:40 *693:117 2.68499e-05
118 *675:64 *693:142 0.000232985
119 *677:26 *693:142 0.000611165
120 *677:57 *693:82 0.000126492
121 *677:61 *693:82 0.000230876
122 *679:59 *1808:A3 0.000134906
123 *679:72 *693:142 0.000518479
124 *679:72 *693:163 0.000483678
125 *687:114 *693:38 1.65286e-05
*RES
1 *2248:X *693:38 49.1893 
2 *693:38 *693:82 47.5884 
3 *693:82 *693:84 3.2925 
4 *693:84 *1808:A3 12.79 
5 *693:84 *693:117 6.14313 
6 *693:117 *1908:A3 3.6 
7 *693:117 *693:142 18.7726 
8 *693:142 *1900:A2 6.22875 
9 *693:142 *693:163 8.03087 
10 *693:163 *1893:A2 3.79875 
11 *693:163 *1890:A2 7.53375 
*END

*D_NET *694 0.0432477
*CONN
*I *1894:A0 I *D sky130_fd_sc_hd__mux4_1
*I *1909:A3 I *D sky130_fd_sc_hd__mux4_1
*I *1809:A3 I *D sky130_fd_sc_hd__mux4_1
*I *1901:A0 I *D sky130_fd_sc_hd__mux4_1
*I *1891:A0 I *D sky130_fd_sc_hd__mux4_1
*I *2249:X O *D sky130_fd_sc_hd__clkbuf_2
*CAP
1 *1894:A0 0.000288639
2 *1909:A3 0
3 *1809:A3 0.000154947
4 *1901:A0 0.000251893
5 *1891:A0 0.000378366
6 *2249:X 0.00702238
7 *694:134 0.000195628
8 *694:130 0.000791536
9 *694:94 0.000793068
10 *694:92 0.002725
11 *694:76 0.00912236
12 *1891:A0 *1891:A1 6.34651e-05
13 *1894:A0 *1909:A1 0.000152145
14 *1901:A0 *1891:A1 5.86739e-05
15 *1901:A0 *1901:A1 0.000336302
16 *694:76 *1905:A2 4.12356e-05
17 *694:76 *697:62 0.00104102
18 *694:76 *704:70 0.00052686
19 *694:130 *1909:A1 0.000356206
20 *724:DIODE *694:92 0.000114196
21 *724:DIODE *694:130 2.51154e-05
22 *730:DIODE *1891:A0 0.000104162
23 *730:DIODE *694:94 0.000122837
24 *730:DIODE *694:130 1.14169e-05
25 *743:DIODE *1809:A3 8.75256e-05
26 *1809:A1 *1809:A3 4.9253e-06
27 *1884:A0 *694:76 0.000175324
28 *1891:A2 *1901:A0 0.000240782
29 *1891:A2 *694:92 0
30 *1891:S0 *1891:A0 1.14169e-05
31 *1891:S1 *694:92 0
32 *1894:A3 *1894:A0 8.49205e-05
33 *1894:S1 *1809:A3 9.76802e-05
34 *1894:S1 *694:134 3.31204e-05
35 *1909:A2 *1809:A3 0.000116158
36 *1909:A2 *694:134 9.50342e-06
37 *1909:S1 *1809:A3 2.38541e-05
38 *2003:GATE *694:76 2.22315e-05
39 *2011:GATE *1894:A0 0.000108733
40 *2127:A *1894:A0 5.83121e-06
41 *2146:A *694:92 8.30853e-06
42 *2146:A *694:130 4.77757e-05
43 *2195:A *694:92 8.05793e-05
44 *2196:A *694:92 0.000195821
45 *2203:A *1891:A0 0
46 *2207:A *1901:A0 4.18603e-06
47 *2211:A *694:76 5.44697e-05
48 *2212:A *694:76 0.000138278
49 *2246:A *694:76 0
50 *2249:A *694:76 2.46324e-05
51 *2263:A *694:76 2.34717e-05
52 *2271:A *694:76 2.53169e-05
53 *2281:A *694:76 3.26607e-05
54 *2304:A *694:76 0.000484731
55 *2326:A *694:76 0.000242937
56 *2337:A *694:92 0.000144967
57 *2347:A *694:76 7.57568e-05
58 *2362:A *694:76 0.00186134
59 *2376:A *1891:A0 0.000239353
60 *2376:A *1901:A0 0
61 *2378:A *1901:A0 0.000137571
62 *2379:A *1901:A0 0
63 *142:89 *694:76 0.00027646
64 *143:47 *694:76 2.25371e-05
65 *148:111 *694:134 0
66 *156:59 *694:76 0.00032534
67 *157:91 *694:76 5.29276e-05
68 *158:75 *694:76 0.000280335
69 *160:85 *694:76 0.000590475
70 *480:153 *694:92 0
71 *480:159 *694:92 0.000196998
72 *482:30 *694:76 0.000799714
73 *483:80 *694:76 9.3231e-06
74 *483:102 *1809:A3 5.6361e-05
75 *511:12 *694:76 0.000779449
76 *535:112 *1894:A0 5.30358e-05
77 *545:72 *694:76 9.4675e-06
78 *568:42 *694:76 0.00042471
79 *569:58 *694:76 0.000259898
80 *593:46 *694:76 0.000243197
81 *600:122 *694:76 7.24353e-05
82 *615:14 *694:92 0.00113791
83 *618:112 *694:76 5.91417e-05
84 *624:58 *694:76 0.00251864
85 *627:12 *1891:A0 0
86 *627:40 *694:76 0.0011542
87 *627:106 *694:76 0.000545451
88 *628:38 *694:92 1.09082e-05
89 *628:68 *694:76 0.000599628
90 *630:26 *1891:A0 0
91 *630:50 *694:92 0
92 *630:66 *694:92 0.000350208
93 *631:18 *1901:A0 6.36156e-05
94 *631:112 *694:76 0.000495459
95 *635:42 *694:76 6.89298e-05
96 *637:46 *694:76 0.000448671
97 *642:38 *694:76 8.9464e-06
98 *654:88 *694:76 0.000426019
99 *658:109 *694:76 0.000385611
100 *665:83 *694:76 0.000281726
101 *671:111 *694:76 0.000231025
102 *687:114 *694:76 0.000152198
103 *689:92 *694:76 7.33639e-05
104 *692:22 *694:76 0.000173015
105 *693:38 *694:76 8.87958e-05
*RES
1 *2249:X *694:76 49.9952 
2 *694:76 *694:92 26.8824 
3 *694:92 *694:94 2.175 
4 *694:94 *1891:A0 11.825 
5 *694:94 *1901:A0 12.455 
6 *694:92 *694:130 6.45 
7 *694:130 *694:134 2.87 
8 *694:134 *1809:A3 7.68 
9 *694:134 *1909:A3 3.6 
10 *694:130 *1894:A0 10.295 
*END

*D_NET *695 0.0313582
*CONN
*I *1893:A1 I *D sky130_fd_sc_hd__mux4_1
*I *1899:A0 I *D sky130_fd_sc_hd__mux4_1
*I *1889:A0 I *D sky130_fd_sc_hd__mux4_1
*I *1810:A3 I *D sky130_fd_sc_hd__mux4_1
*I *1910:A3 I *D sky130_fd_sc_hd__mux4_1
*I *2250:X O *D sky130_fd_sc_hd__clkbuf_2
*CAP
1 *1893:A1 0.002465
2 *1899:A0 2.40044e-05
3 *1889:A0 0
4 *1810:A3 8.06523e-05
5 *1910:A3 0.000717327
6 *2250:X 0.000100164
7 *695:103 0.00285424
8 *695:90 0.0018013
9 *695:66 0.00249034
10 *695:16 0.00173925
11 *695:8 0.00209571
12 *1810:A3 *698:129 3.05373e-05
13 *1893:A1 *704:110 3.46743e-05
14 *1910:A3 *2037:D 7.70828e-05
15 *1910:A3 *698:129 6.36438e-07
16 *695:16 *1810:A2 4.28873e-05
17 *695:16 *704:70 8.2379e-05
18 *695:66 *1903:A1 0.000381676
19 *695:90 *1889:A1 4.00541e-06
20 *695:90 *704:70 0.000196389
21 *695:103 *1889:A1 2.34602e-05
22 E6BEG[10] *695:90 2.53877e-05
23 E6BEG[11] *695:90 2.99133e-05
24 E6BEG[6] *695:90 2.4994e-05
25 E6BEG[9] *695:90 0.000124496
26 EE4BEG[7] *695:90 0.000533355
27 FrameData_O[0] *695:90 0.000783737
28 FrameData_O[23] *1893:A1 0
29 FrameData_O[2] *695:90 0.000104665
30 FrameData_O[4] *695:90 0.000322455
31 FrameData_O[9] *1893:A1 0.000145958
32 *738:DIODE *1893:A1 7.37528e-05
33 *740:DIODE *1899:A0 3.64998e-06
34 *740:DIODE *695:103 6.95753e-05
35 *1883:A3 *1893:A1 1.7635e-05
36 *1889:A2 *695:103 3.64998e-06
37 *1889:A3 *695:103 2.76356e-05
38 *1889:S0 *695:90 7.06865e-05
39 *1889:S0 *695:103 4.83831e-05
40 *1899:S0 *1893:A1 0.000124376
41 *1905:A0 *1810:A3 2.68721e-05
42 *1905:A0 *1910:A3 0.00018305
43 *1910:A0 *1910:A3 3.14093e-05
44 *1910:A2 *1910:A3 0.000207008
45 *1941:GATE *1910:A3 1.56428e-05
46 *2064:A *695:16 1.35894e-05
47 *2246:A *695:8 4.77719e-05
48 *2295:A *1910:A3 2.62017e-05
49 *2300:A *695:16 0.000322283
50 *2300:A *695:66 0.000805112
51 *2324:A *695:90 7.91584e-06
52 *2335:A *1893:A1 8.75811e-06
53 *2346:A *695:90 0.00067503
54 *2348:A *1893:A1 7.28469e-05
55 *2350:A *1893:A1 2.64672e-05
56 *2354:A *1893:A1 0.000478896
57 *2359:A *695:90 4.55864e-06
58 *2361:A *695:90 0.000265696
59 *2362:A *1893:A1 0.000150489
60 *142:57 *695:66 5.78621e-05
61 *146:89 *695:66 1.20478e-05
62 *146:89 *695:90 0.00134032
63 *147:99 *695:66 0.00123684
64 *147:99 *695:90 6.40469e-05
65 *149:75 *695:66 0.000221185
66 *149:111 *1893:A1 4.8779e-05
67 *151:23 *695:8 0.000228224
68 *151:33 *695:90 4.26938e-06
69 *236:93 *695:66 8.97876e-06
70 *236:93 *695:90 0.000210668
71 *481:30 *695:16 0.0004148
72 *481:30 *695:66 7.9642e-06
73 *514:22 *695:90 0.00010163
74 *514:94 *695:90 1.27848e-05
75 *525:32 *695:16 5.83687e-05
76 *539:26 *1899:A0 2.68526e-05
77 *542:30 *1893:A1 1.88904e-05
78 *559:46 *695:90 6.3289e-05
79 *560:44 *695:66 1.44839e-05
80 *560:66 *695:66 0.00153822
81 *564:52 *695:90 1.39329e-05
82 *585:66 *1893:A1 3.59531e-06
83 *585:66 *695:103 3.1529e-05
84 *632:152 *1893:A1 0.000100544
85 *645:82 *1893:A1 0.000114839
86 *646:32 *695:90 0.000355031
87 *646:88 *1893:A1 7.33639e-05
88 *647:244 *695:66 0.00022786
89 *650:164 *695:66 0.00026102
90 *651:209 *695:66 8.77137e-05
91 *653:237 *695:90 5.53549e-06
92 *653:275 *695:90 0.000538433
93 *659:175 *695:90 9.44589e-05
94 *659:213 *695:90 0.000124907
95 *659:227 *1893:A1 1.41765e-05
96 *660:87 *695:66 1.20478e-05
97 *667:154 *1893:A1 5.79169e-06
98 *667:154 *695:103 0.000124644
99 *676:99 *1910:A3 5.19541e-05
100 *686:46 *1893:A1 0.00126048
101 *691:16 *695:66 0.000765522
102 *691:44 *695:90 0.00013661
103 *691:105 *1893:A1 0.000118081
*RES
1 *2250:X *695:8 5.775 
2 *695:8 *695:16 17.68 
3 *695:16 *1910:A3 13.815 
4 *695:16 *1810:A3 5.115 
5 *695:8 *695:66 40.375 
6 *695:66 *695:90 48.0128 
7 *695:90 *1889:A0 1.6 
8 *695:90 *695:103 7.46 
9 *695:103 *1899:A0 4.05 
10 *695:103 *1893:A1 16.2637 
*END

*D_NET *696 0.0338604
*CONN
*I *1894:A1 I *D sky130_fd_sc_hd__mux4_1
*I *1901:A1 I *D sky130_fd_sc_hd__mux4_1
*I *1891:A1 I *D sky130_fd_sc_hd__mux4_1
*I *2251:X O *D sky130_fd_sc_hd__dlymetal6s2s_1
*CAP
1 *1894:A1 2.72389e-05
2 *1901:A1 0.00044625
3 *1891:A1 0.000779316
4 *2251:X 0.00495538
5 *696:30 0.00197135
6 *696:26 0.0057284
7 *696:26 *697:62 0.00147355
8 *696:26 *704:70 0.000192839
9 *696:26 *704:110 7.54285e-05
10 E1BEG[1] *696:26 0.000313509
11 E1BEG[3] *696:26 0.000180899
12 E2BEG[0] *696:26 0.000348379
13 FrameData_O[9] *696:26 0.000477882
14 *742:DIODE *696:30 6.34783e-05
15 *743:DIODE *1894:A1 9.3062e-06
16 *1891:A0 *1891:A1 6.34651e-05
17 *1891:A2 *1891:A1 9.42302e-05
18 *1891:A2 *1901:A1 4.45507e-06
19 *1891:A3 *1891:A1 4.9253e-06
20 *1891:S0 *1891:A1 9.76407e-06
21 *1894:A3 *1894:A1 3.97211e-05
22 *1894:A3 *696:26 0.000176031
23 *1901:A0 *1891:A1 5.86739e-05
24 *1901:A0 *1901:A1 0.000336302
25 *1903:S0 *696:26 0.000162584
26 *2146:A *1901:A1 1.35181e-05
27 *2284:A *696:26 0.000162983
28 *2286:A *696:26 9.76758e-05
29 *2294:A *696:26 0.000126456
30 *2317:A *696:26 0.00066594
31 *2317:A *696:30 0
32 *2376:A *1901:A1 1.82476e-05
33 *2379:A *1901:A1 8.92083e-05
34 *142:57 *696:26 4.4682e-05
35 *144:75 *696:26 0.000111041
36 *146:89 *696:26 0.00243981
37 *150:77 *696:26 3.96088e-05
38 *151:85 *696:26 0.00018796
39 *160:133 *696:30 0
40 *236:93 *696:26 0.000471692
41 *483:102 *696:26 0.000204567
42 *483:102 *696:30 4.36315e-05
43 *524:142 *696:26 0.000635663
44 *528:36 *696:26 0.00234356
45 *535:112 *1894:A1 2.3654e-05
46 *535:112 *696:26 7.68201e-05
47 *536:26 *696:26 0.000158497
48 *615:14 *1901:A1 0.000195946
49 *631:18 *1891:A1 0.00023318
50 *631:18 *1901:A1 0.000253384
51 *646:32 *696:26 0.00296409
52 *650:236 *696:26 3.38876e-05
53 *651:209 *696:26 0.0018163
54 *653:275 *696:26 0.00162218
55 *686:46 *696:26 0
56 *686:52 *696:26 0
57 *686:52 *696:30 0.000395371
58 *686:58 *696:30 0.000397446
*RES
1 *2251:X *696:26 34.6734 
2 *696:26 *696:30 2.1112 
3 *696:30 *1891:A1 11.4984 
4 *696:30 *1901:A1 16.5525 
5 *696:26 *1894:A1 4.3425 
*END

*D_NET *697 0.0189853
*CONN
*I *1889:A1 I *D sky130_fd_sc_hd__mux4_1
*I *1899:A1 I *D sky130_fd_sc_hd__mux4_1
*I *2253:X O *D sky130_fd_sc_hd__buf_1
*CAP
1 *1889:A1 4.6872e-05
2 *1899:A1 0.000234396
3 *2253:X 0.00406681
4 *697:62 0.00434808
5 *697:62 *698:129 7.83988e-05
6 *697:62 *703:60 0.000633826
7 *697:62 *704:70 3.67606e-05
8 E1BEG[1] *697:62 1.7635e-05
9 E2BEGb[7] *697:62 0.000277894
10 EE4BEG[0] *697:62 0.000316245
11 FrameData_O[2] *697:62 9.20758e-05
12 FrameData_O[4] *697:62 2.76774e-05
13 FrameData_O[8] *1899:A1 7.1242e-05
14 FrameData_O[8] *697:62 8.05822e-05
15 FrameData_O[9] *697:62 8.05822e-05
16 *2249:A *697:62 1.01747e-06
17 *2284:A *697:62 1.17036e-05
18 *2302:A *697:62 0.000178107
19 *2315:A *697:62 6.27915e-05
20 *2317:A *697:62 0.000850644
21 *2361:A *1899:A1 0.000119242
22 *2361:A *697:62 1.2774e-05
23 *144:75 *697:62 3.3438e-05
24 *149:111 *1899:A1 2.15594e-05
25 *151:85 *697:62 0.000192829
26 *160:85 *697:62 0.000776544
27 *483:80 *697:62 0.000557757
28 *524:49 *697:62 8.247e-05
29 *539:26 *1899:A1 0.000197607
30 *569:58 *697:62 1.29049e-05
31 *594:74 *697:62 0.00101684
32 *637:67 *697:62 4.60123e-05
33 *646:32 *697:62 0.00152068
34 *653:172 *697:62 0.000141993
35 *653:275 *697:62 0.000151121
36 *691:72 *1899:A1 4.61866e-05
37 *694:76 *697:62 0.00104102
38 *695:90 *1889:A1 4.00541e-06
39 *695:103 *1889:A1 2.34602e-05
40 *696:26 *697:62 0.00147355
*RES
1 *2253:X *697:62 28.6043 
2 *697:62 *1899:A1 10.55 
3 *697:62 *1889:A1 2.665 
*END

*D_NET *698 0.0393925
*CONN
*I *2121:A I *D sky130_fd_sc_hd__clkbuf_1
*I *2005:D I *D sky130_fd_sc_hd__dlxtp_1
*I *1941:D I *D sky130_fd_sc_hd__dlxtp_1
*I *2037:D I *D sky130_fd_sc_hd__dlxtp_1
*I *1973:D I *D sky130_fd_sc_hd__dlxtp_1
*I *2271:X O *D sky130_fd_sc_hd__clkbuf_2
*CAP
1 *2121:A 0.000163093
2 *2005:D 0
3 *1941:D 0
4 *2037:D 0.000430113
5 *1973:D 0
6 *2271:X 2.67331e-05
7 *698:175 0.00396807
8 *698:129 0.00301144
9 *698:68 0.00577041
10 *698:8 0.0070208
11 *698:68 *708:42 4.36573e-06
12 *698:129 *1810:A2 3.60648e-06
13 *698:129 *704:70 0.000155368
14 *698:175 *1878:A1 0
15 E1BEG[0] *698:129 7.90397e-05
16 E1BEG[1] *698:129 0
17 E2BEG[2] *698:129 9.92175e-05
18 E2BEG[6] *698:129 4.88767e-05
19 E2BEGb[0] *698:129 1.81253e-05
20 *742:DIODE *698:175 9.69284e-06
21 *1810:A3 *698:129 3.05373e-05
22 *1813:A0 *698:68 2.22899e-05
23 *1825:C_N *698:68 4.59096e-05
24 *1862:A2 *2037:D 7.17949e-05
25 *1866:A1 *2037:D 8.08153e-06
26 *1886:S0 *2121:A 0.000306816
27 *1886:S0 *698:175 0.000123027
28 *1892:A0 *698:68 2.39856e-05
29 *1892:A1 *698:68 2.68526e-05
30 *1892:A2 *698:68 9.07247e-05
31 *1892:A3 *698:68 4.88478e-05
32 *1894:A3 *698:175 7.4865e-05
33 *1902:A1 *698:68 1.42256e-05
34 *1902:S1 *698:129 4.66108e-05
35 *1905:A0 *2037:D 0.000178098
36 *1905:A0 *698:129 0
37 *1910:A3 *2037:D 7.70828e-05
38 *1910:A3 *698:129 6.36438e-07
39 *1944:GATE *698:175 0
40 *1961:D *698:68 0.00011178
41 *2020:D *698:175 6.26936e-05
42 *2020:GATE *698:175 3.88452e-05
43 *2021:D *698:175 1.88656e-05
44 *2030:D *698:129 0.000305932
45 *2059:D *698:68 2.51154e-05
46 *2107:A *698:129 3.09423e-06
47 *2108:A *698:175 6.60005e-05
48 *2191:A *698:175 5.56633e-06
49 *2242:A *698:129 2.55848e-05
50 *2243:A *698:129 0.000273733
51 *2249:A *698:129 0
52 *2251:A *698:129 6.16226e-06
53 *2269:A *2037:D 9.10429e-05
54 *2270:A *2037:D 2.65814e-06
55 *2271:A *698:8 4.60061e-05
56 *2271:A *698:68 3.93371e-05
57 *2291:A *698:68 2.22315e-05
58 *2291:A *698:129 1.66925e-05
59 *2293:A *698:129 0.000169286
60 *2294:A *698:129 0
61 *2295:A *2037:D 4.66108e-05
62 *2295:A *698:129 4.66108e-05
63 *2297:A *698:68 0.000641981
64 *2300:A *698:129 0.000339459
65 *2301:A *698:68 3.64998e-06
66 *2301:A *698:129 9.60727e-05
67 *2302:A *698:129 0.000112497
68 *2315:A *698:129 0.000156264
69 *2335:A *2121:A 8.08129e-05
70 *2341:A *698:175 1.34361e-05
71 *2345:A *698:175 0
72 *2347:A *698:175 0.000357087
73 *2377:A *698:175 0
74 *143:109 *698:68 0.00010987
75 *144:75 *698:129 5.03206e-05
76 *145:71 *698:68 1.82289e-05
77 *147:75 *698:129 0.000995381
78 *148:51 *698:129 0.000147878
79 *156:69 *698:175 0.00189358
80 *157:91 *698:68 0.000442466
81 *157:111 *698:68 0.000488236
82 *159:101 *698:175 0
83 *236:116 *698:129 2.99158e-05
84 *479:60 *698:68 0.000299555
85 *480:108 *698:175 4.37173e-05
86 *485:20 *2037:D 1.74678e-05
87 *486:18 *2037:D 9.76407e-06
88 *502:65 *698:68 0.000850643
89 *512:18 *698:68 7.91584e-06
90 *512:18 *698:175 0.000169048
91 *524:14 *698:175 9.23627e-05
92 *525:32 *698:129 3.64998e-06
93 *535:112 *698:175 2.00796e-05
94 *557:44 *698:175 0.000154838
95 *569:58 *698:129 4.04847e-05
96 *579:32 *698:175 0.000260943
97 *587:118 *698:68 6.17446e-06
98 *591:48 *698:68 4.41506e-05
99 *591:48 *698:175 0.000189028
100 *593:94 *698:68 1.12856e-05
101 *594:48 *698:129 0.000137213
102 *597:60 *698:68 0.000130314
103 *600:122 *698:68 0.000312983
104 *613:42 *698:175 0.00016083
105 *618:112 *698:68 0.000180861
106 *624:58 *698:175 9.23379e-06
107 *625:8 *698:8 8.23457e-05
108 *626:70 *698:175 1.92756e-05
109 *628:38 *698:175 0.00115068
110 *631:112 *698:68 0.000782787
111 *632:66 *698:68 0.000453052
112 *632:107 *698:68 0.000430711
113 *635:42 *698:129 0.000126363
114 *637:46 *698:129 2.39315e-06
115 *637:114 *698:68 2.97573e-06
116 *643:116 *698:68 0.000137194
117 *645:64 *698:129 0.000101242
118 *650:236 *698:129 0.000283763
119 *654:88 *698:68 0
120 *654:96 *698:68 0.000109417
121 *654:96 *698:175 0.000494517
122 *660:51 *2037:D 0.000158495
123 *661:112 *698:129 3.30007e-05
124 *661:203 *698:68 2.22315e-05
125 *662:177 *698:68 0.000209717
126 *668:14 *698:68 0
127 *672:18 *698:175 4.55864e-06
128 *672:124 *698:68 2.75092e-05
129 *674:80 *698:68 0.000201134
130 *676:99 *2037:D 0.000402361
131 *676:99 *698:129 0.000914439
132 *687:24 *698:175 0
133 *687:92 *698:68 0.000160984
134 *689:114 *698:68 0.000386425
135 *690:65 *698:68 4.60061e-05
136 *693:82 *698:68 1.7635e-05
137 *697:62 *698:129 7.83988e-05
*RES
1 *2271:X *698:8 4.395 
2 *698:8 *698:68 47.5965 
3 *698:68 *1973:D 1.6 
4 *698:68 *698:129 47.7573 
5 *698:129 *2037:D 19.845 
6 *698:129 *1941:D 1.6 
7 *698:8 *698:175 27.0593 
8 *698:175 *2005:D 1.6 
9 *698:175 *2121:A 5.5 
*END

*D_NET *699 0.0195606
*CONN
*I *1903:A1 I *D sky130_fd_sc_hd__mux4_1
*I *1875:A2 I *D sky130_fd_sc_hd__mux4_1
*I *1911:A1 I *D sky130_fd_sc_hd__mux4_1
*I *2254:X O *D sky130_fd_sc_hd__buf_1
*CAP
1 *1903:A1 0.00024845
2 *1875:A2 0.000714884
3 *1911:A1 3.60562e-05
4 *2254:X 0.001751
5 *699:66 0.00207348
6 *699:40 0.00332199
7 *1875:A2 *708:42 0.000403479
8 E1BEG[0] *699:66 0.000472251
9 *1836:A1 *699:40 1.91396e-05
10 *1864:A2 *699:40 9.54817e-06
11 *1866:A1 *699:40 9.04004e-05
12 *1875:A1 *1875:A2 4.28873e-05
13 *1879:A0 *1875:A2 4.41506e-05
14 *1879:A2 *1875:A2 5.4003e-05
15 *1879:A3 *1875:A2 2.76356e-05
16 *1887:A1 *1875:A2 7.13691e-05
17 *1895:A3 *1875:A2 4.97452e-05
18 *1903:A0 *1903:A1 0.000154981
19 *1911:A0 *1875:A2 9.03508e-06
20 *1911:A0 *699:66 7.00225e-05
21 *1911:S1 *699:66 4.60061e-05
22 *1955:D *699:66 3.59784e-05
23 *1955:GATE *699:66 0.000119242
24 *1971:GATE *699:66 8.23457e-05
25 *2248:A *699:40 0.00017568
26 *2254:A *699:40 9.57707e-05
27 *2261:A *699:40 0.000201773
28 *2262:A *699:40 0.00105605
29 *2283:A *699:66 8.23457e-05
30 *2293:A *699:66 3.95618e-05
31 *142:31 *699:40 0.00162342
32 *142:57 *1903:A1 0.000198521
33 *142:57 *699:40 0.000394799
34 *143:9 *699:40 5.86739e-05
35 *146:67 *699:40 6.78375e-05
36 *181:56 *1875:A2 0.000248257
37 *236:124 *1875:A2 2.18287e-05
38 *481:30 *699:40 0.000207721
39 *514:94 *699:66 0.000118081
40 *533:44 *1875:A2 2.21813e-05
41 *560:66 *1903:A1 0.000186723
42 *560:66 *699:40 0.000355287
43 *596:50 *699:40 0.0014151
44 *597:20 *699:40 6.03272e-05
45 *600:74 *699:66 6.08945e-05
46 *644:46 *699:66 3.0298e-05
47 *647:189 *1903:A1 0.000107825
48 *650:164 *1903:A1 7.66388e-05
49 *650:164 *699:40 0.000153607
50 *652:16 *699:40 6.29056e-05
51 *652:139 *1875:A2 0.00042073
52 *652:139 *1911:A1 3.64998e-06
53 *659:116 *699:66 2.11536e-05
54 *660:51 *699:40 0.000411318
55 *661:132 *699:66 1.74678e-05
56 *663:14 *699:40 2.49909e-05
57 *664:166 *699:66 3.1562e-06
58 *667:64 *1875:A2 0.000418362
59 *667:64 *699:66 0.000112792
60 *685:22 *699:66 0.000191335
61 *686:46 *699:66 0.000483731
62 *695:66 *1903:A1 0.000381676
*RES
1 *2254:X *699:40 40.9941 
2 *699:40 *699:66 29.175 
3 *699:66 *1911:A1 2.05 
4 *699:66 *1875:A2 25.1588 
5 *699:40 *1903:A1 10.59 
*END

*D_NET *700 0.0238536
*CONN
*I *1905:A2 I *D sky130_fd_sc_hd__mux4_1
*I *1885:A2 I *D sky130_fd_sc_hd__mux4_1
*I *1913:A2 I *D sky130_fd_sc_hd__mux4_1
*I *2255:X O *D sky130_fd_sc_hd__buf_1
*CAP
1 *1905:A2 0.000347097
2 *1885:A2 0.00309453
3 *1913:A2 0.000393762
4 *2255:X 0.000262239
5 *700:14 0.00383529
6 *700:12 0.000956343
7 *1905:A2 *704:70 0.00013975
8 *733:DIODE *1885:A2 3.71563e-05
9 *1810:S1 *700:12 0.000116158
10 *1913:A0 *1913:A2 0.000124582
11 *1913:S0 *1913:A2 0.000226311
12 *2077:A *1905:A2 0.000106259
13 *2247:A *1905:A2 9.64638e-06
14 *2260:A *700:12 6.99601e-05
15 *2284:A *1885:A2 0.00145473
16 *2287:A *1905:A2 3.56649e-05
17 *2318:A *1885:A2 4.03791e-05
18 *2328:A *1885:A2 0.000893509
19 *143:47 *1913:A2 2.05571e-05
20 *145:71 *1885:A2 0.000120352
21 *147:75 *700:12 0.000184241
22 *148:51 *700:12 0.000578088
23 *151:23 *700:12 4.39079e-05
24 *151:85 *1885:A2 0.0013296
25 *160:133 *1885:A2 2.0458e-05
26 *233:62 *1885:A2 1.88656e-05
27 *486:18 *700:12 9.60582e-07
28 *517:50 *1885:A2 0.000107996
29 *531:62 *1885:A2 9.67128e-05
30 *535:26 *1885:A2 2.22315e-05
31 *539:26 *1885:A2 6.34581e-05
32 *567:90 *1885:A2 0.00158013
33 *596:140 *1885:A2 0.000910639
34 *600:74 *1885:A2 0.000346642
35 *618:112 *1885:A2 0.000331648
36 *634:78 *1885:A2 0.00056883
37 *635:102 *1885:A2 1.46319e-05
38 *642:106 *1885:A2 0.000713094
39 *644:24 *1913:A2 1.7635e-05
40 *685:22 *700:12 0.000146132
41 *688:30 *1885:A2 0.00420211
42 *693:38 *1905:A2 6.12343e-05
43 *693:38 *1913:A2 7.30825e-05
44 *693:38 *700:14 9.58025e-05
45 *694:76 *1905:A2 4.12356e-05
*RES
1 *2255:X *700:12 12.4325 
2 *700:12 *700:14 0.591533 
3 *700:14 *1913:A2 7.78673 
4 *700:14 *1885:A2 18.7801 
5 *700:12 *1905:A2 7.14087 
*END

*D_NET *701 0.0339869
*CONN
*I *1914:A2 I *D sky130_fd_sc_hd__mux4_1
*I *1906:A2 I *D sky130_fd_sc_hd__mux4_1
*I *1886:A2 I *D sky130_fd_sc_hd__mux4_1
*I *2256:X O *D sky130_fd_sc_hd__dlymetal6s2s_1
*CAP
1 *1914:A2 0.000346338
2 *1906:A2 2.97674e-05
3 *1886:A2 0.000595046
4 *2256:X 0.00454927
5 *701:81 0.000556801
6 *701:58 0.00139873
7 *701:52 0.00517227
8 *701:52 *703:60 8.6325e-08
9 *701:52 *708:84 0.000467861
10 *701:58 *708:84 0.000206732
11 FrameData_O[23] *1914:A2 0.000138279
12 *738:DIODE *701:52 0.00179207
13 *738:DIODE *701:58 8.19348e-05
14 *738:DIODE *701:81 5.01843e-05
15 *1862:B1 *701:52 0.000133004
16 *1875:S1 *701:52 9.21826e-05
17 *1879:S0 *701:52 3.49355e-05
18 *1882:S0 *1906:A2 6.10352e-05
19 *1884:A0 *701:52 0.000203837
20 *1886:A1 *1886:A2 4.66108e-05
21 *1895:A3 *701:52 0.000239884
22 *1906:A0 *1906:A2 6.90889e-06
23 *1914:S1 *1914:A2 7.9642e-06
24 *2012:D *1886:A2 0.000470839
25 *2027:D *701:52 0.000208473
26 *2260:A *701:52 0
27 *2288:A *701:52 9.2563e-06
28 *2304:A *701:52 0.000774746
29 *2335:A *1914:A2 0.000228114
30 *2336:A *1906:A2 1.10377e-05
31 *2337:A *1914:A2 4.31236e-05
32 *2337:A *701:81 7.79279e-06
33 *2350:A *1914:A2 5.04703e-05
34 *2350:A *701:58 6.73258e-05
35 *2350:A *701:81 9.4675e-06
36 *2353:A *1906:A2 6.2695e-05
37 *2353:A *701:81 7.60121e-05
38 *143:109 *701:52 0.000105649
39 *145:71 *701:52 0.000751042
40 *146:99 *1886:A2 0.000168448
41 *149:75 *701:52 9.59423e-05
42 *150:57 *701:52 0.000106321
43 *150:77 *701:58 7.53239e-05
44 *151:85 *1886:A2 0.00042346
45 *151:85 *701:58 0.000149698
46 *159:77 *701:52 0.000382467
47 *181:56 *701:52 0.000118136
48 *243:42 *701:52 1.74678e-05
49 *409:32 *701:52 0.000892436
50 *479:161 *1886:A2 0.000411124
51 *479:174 *1886:A2 0.000512772
52 *483:90 *1886:A2 0.000130302
53 *520:56 *701:52 0.000525057
54 *524:142 *701:52 0.000382113
55 *524:180 *701:58 9.24781e-05
56 *524:180 *701:81 4.3249e-05
57 *535:26 *701:58 0.000607355
58 *535:112 *701:58 0.000337965
59 *558:50 *701:52 0.000548127
60 *567:32 *701:52 0.00112718
61 *576:42 *1886:A2 0.000407892
62 *576:42 *1914:A2 3.90355e-05
63 *579:52 *701:52 0.00181437
64 *583:82 *701:52 0.00175233
65 *596:140 *701:52 6.73297e-05
66 *618:112 *701:52 2.92637e-05
67 *634:78 *701:52 2.2955e-05
68 *636:50 *701:52 0.000331407
69 *637:46 *701:52 0.000595311
70 *642:38 *701:52 2.76638e-05
71 *642:106 *701:52 0.000516657
72 *647:189 *701:52 1.9873e-05
73 *661:203 *701:52 4.77719e-05
74 *662:142 *701:52 3.86529e-05
75 *662:177 *701:52 1.01851e-05
76 *667:64 *701:52 0.000429483
77 *667:174 *701:58 0.000465792
78 *668:81 *701:52 0.000102453
79 *669:75 *701:58 0.000169236
80 *673:106 *701:52 0.000565473
81 *689:114 *701:52 1.52035e-05
82 *691:74 *1914:A2 2.87981e-05
83 *692:22 *701:52 0.000254534
*RES
1 *2256:X *701:52 48.5317 
2 *701:52 *701:58 2.93833 
3 *701:58 *1886:A2 22.6963 
4 *701:58 *701:81 0.3876 
5 *701:81 *1906:A2 5.04125 
6 *701:81 *1914:A2 8.3426 
*END

*D_NET *702 0.0103584
*CONN
*I *1915:A2 I *D sky130_fd_sc_hd__mux4_1
*I *1877:A1 I *D sky130_fd_sc_hd__mux4_1
*I *1907:A2 I *D sky130_fd_sc_hd__mux4_1
*I *2257:X O *D sky130_fd_sc_hd__buf_1
*CAP
1 *1915:A2 0.00012776
2 *1877:A1 1.44529e-05
3 *1907:A2 1.66349e-05
4 *2257:X 0.00168678
5 *702:41 0.000207934
6 *702:30 0.00176914
7 *702:30 *1913:A1 0.000287354
8 *702:30 *703:60 0
9 *702:30 *704:70 0
10 *702:30 *707:83 0.00102066
11 *1877:A2 *1877:A1 1.92187e-05
12 *1887:S0 *702:30 2.36084e-05
13 *1902:S1 *702:30 2.95556e-05
14 *1903:A3 *702:30 5.47418e-05
15 *1907:A0 *702:30 0.000130314
16 *1907:A0 *702:41 6.6484e-05
17 *1915:A3 *1915:A2 1.453e-05
18 *1915:A3 *702:41 1.7635e-05
19 *2030:D *702:30 1.93834e-05
20 *2064:A *702:30 0.000132115
21 *2107:A *702:30 0.00015826
22 *2260:A *702:30 7.61014e-05
23 *2284:A *702:30 0.000212588
24 *2286:A *702:30 0.000186751
25 *2287:A *702:30 0.000544299
26 *2288:A *702:30 8.00143e-05
27 *2289:A *702:30 2.18318e-05
28 *2297:A *702:30 0.000216482
29 *2299:A *702:30 1.21093e-05
30 *2299:A *702:41 4.0636e-05
31 *2302:A *702:30 0.000324341
32 *2321:A *702:30 0.000558552
33 *2327:A *1877:A1 1.08758e-05
34 *2327:A *1915:A2 0.000131122
35 *2328:A *702:30 0.000568009
36 *151:23 *702:30 0.000274552
37 *481:88 *1877:A1 4.77719e-05
38 *483:80 *702:30 0.000101234
39 *517:50 *702:30 7.64555e-05
40 *545:72 *702:30 1.79483e-05
41 *645:64 *702:30 9.52253e-06
42 *650:236 *1915:A2 0.000182992
43 *650:236 *702:30 0.000459503
44 *650:236 *702:41 0.00016505
45 *651:209 *702:30 5.14623e-05
46 *660:99 *1915:A2 1.54111e-05
47 *676:48 *702:30 1.08856e-05
48 *685:22 *702:30 0.000135389
49 *690:65 *702:30 2.99599e-05
*RES
1 *2257:X *702:30 47.3425 
2 *702:30 *1907:A2 3.79875 
3 *702:30 *702:41 2.145 
4 *702:41 *1877:A1 4.05 
5 *702:41 *1915:A2 6.4725 
*END

*D_NET *703 0.0266485
*CONN
*I *1808:A2 I *D sky130_fd_sc_hd__mux4_1
*I *1908:A1 I *D sky130_fd_sc_hd__mux4_1
*I *1878:A1 I *D sky130_fd_sc_hd__mux4_1
*I *2258:X O *D sky130_fd_sc_hd__dlymetal6s2s_1
*CAP
1 *1808:A2 0
2 *1908:A1 0
3 *1878:A1 0.000383269
4 *2258:X 0.00469008
5 *703:72 0.000744967
6 *703:60 0.00505178
7 E6BEG[3] *703:60 7.07688e-05
8 EE4BEG[5] *703:60 2.35896e-05
9 EE4BEG[8] *703:60 8.31725e-06
10 *1808:A3 *703:60 5.8023e-05
11 *1813:A0 *703:60 5.20644e-06
12 *1813:A0 *703:72 0.000118435
13 *1877:A3 *703:60 4.73375e-06
14 *1878:A0 *1878:A1 3.64998e-06
15 *1878:A0 *703:72 2.19562e-06
16 *1908:S0 *703:72 0.000348311
17 *1908:S1 *703:60 6.90889e-06
18 *1908:S1 *703:72 0.000148546
19 *1944:GATE *1878:A1 0.000177913
20 *2108:A *1878:A1 3.21125e-05
21 *2259:A *703:60 0.000186848
22 *2260:A *703:60 0.000285702
23 *2291:A *703:60 0.00141506
24 *2297:A *703:60 0.000122738
25 *2327:A *703:60 0.000238603
26 *2330:A *703:60 7.22997e-05
27 *2347:A *1878:A1 2.56752e-06
28 *2350:A *1878:A1 5.96078e-05
29 *143:109 *703:60 6.89286e-05
30 *144:75 *703:60 0.000559766
31 *146:67 *703:60 0.0011893
32 *153:129 *703:72 0.000306606
33 *479:130 *703:60 1.62783e-05
34 *480:108 *1878:A1 3.50435e-05
35 *483:80 *703:60 0.000458864
36 *502:8 *1878:A1 4.77719e-05
37 *502:14 *1878:A1 6.23541e-06
38 *502:105 *1878:A1 5.50183e-07
39 *516:54 *703:60 8.70254e-05
40 *557:44 *1878:A1 1.83975e-05
41 *567:90 *703:60 0.000244284
42 *569:58 *703:60 0.000686946
43 *579:52 *703:60 0.00041862
44 *596:140 *703:60 0.000201804
45 *600:122 *703:60 0.00022907
46 *632:107 *703:60 0.000797509
47 *635:102 *703:60 0.000259447
48 *642:38 *703:60 0.00180799
49 *643:164 *703:60 0.000102224
50 *646:32 *703:60 0.00113259
51 *647:189 *703:60 3.18097e-05
52 *653:172 *703:60 0.00103978
53 *661:203 *703:60 0.000205584
54 *665:83 *703:60 3.94609e-05
55 *668:14 *1878:A1 0.000637754
56 *670:65 *1878:A1 4.77719e-05
57 *673:106 *703:60 9.2563e-06
58 *674:40 *703:72 8.71779e-05
59 *679:59 *703:60 5.97471e-05
60 *686:46 *703:60 0.000918774
61 *697:62 *703:60 0.000633826
62 *698:175 *1878:A1 0
63 *701:52 *703:60 8.6325e-08
64 *702:30 *703:60 0
*RES
1 *2258:X *703:60 26.5826 
2 *703:60 *703:72 12.8912 
3 *703:72 *1878:A1 15.11 
4 *703:72 *1908:A1 1.6 
5 *703:60 *1808:A2 1.6 
*END

*D_NET *704 0.0335998
*CONN
*I *1809:A2 I *D sky130_fd_sc_hd__mux4_1
*I *1909:A1 I *D sky130_fd_sc_hd__mux4_1
*I *1883:A1 I *D sky130_fd_sc_hd__mux4_1
*I *2259:X O *D sky130_fd_sc_hd__dlymetal6s2s_1
*CAP
1 *1809:A2 0.000165328
2 *1909:A1 0.000269998
3 *1883:A1 0
4 *2259:X 0.0035725
5 *704:119 0.000537882
6 *704:110 0.00250409
7 *704:90 0.00368275
8 *704:70 0.00485373
9 *704:110 *708:113 0
10 E1BEG[1] *704:70 8.20723e-05
11 E2BEGb[3] *704:70 0.000171345
12 E2BEGb[4] *704:70 2.22315e-05
13 E2BEGb[5] *704:70 0.000131411
14 E2BEGb[6] *704:70 4.30278e-06
15 EE4BEG[10] *704:70 4.36573e-06
16 EE4BEG[11] *704:70 0.000281209
17 EE4BEG[12] *704:70 0.000277894
18 EE4BEG[13] *704:70 3.92756e-05
19 EE4BEG[14] *704:70 3.92756e-05
20 EE4BEG[1] *704:70 1.79483e-05
21 FrameData_O[12] *704:110 0.000500849
22 FrameData_O[13] *704:90 0.000156187
23 FrameData_O[25] *704:110 0.000143124
24 FrameData_O[26] *704:110 0.000127691
25 FrameData_O[28] *704:110 0.000133874
26 FrameData_O[30] *704:110 9.83261e-05
27 FrameData_O[4] *704:90 0.000334275
28 *710:DIODE *704:110 0.000303249
29 *743:DIODE *1809:A2 1.23883e-05
30 *743:DIODE *704:110 1.88656e-05
31 *1814:A2 *704:110 3.93935e-05
32 *1893:A1 *704:110 3.46743e-05
33 *1894:A0 *1909:A1 0.000152145
34 *1894:A3 *704:110 2.05641e-05
35 *1905:A2 *704:70 0.00013975
36 *1905:S1 *704:70 0.000116151
37 *1909:A0 *1909:A1 0.000182071
38 *1909:A0 *704:119 2.03356e-05
39 *1909:A2 *1909:A1 2.05864e-05
40 *1909:S0 *1909:A1 4.66108e-05
41 *2010:GATE *1809:A2 1.54111e-05
42 *2011:GATE *1809:A2 8.36198e-05
43 *2068:A *704:110 1.71207e-05
44 *2073:A *704:119 6.83659e-05
45 *2077:A *704:70 9.14872e-05
46 *2246:A *704:70 0
47 *2247:A *704:70 0
48 *2249:A *704:70 0.000234901
49 *2260:A *704:70 0.000118513
50 *2284:A *704:70 2.04694e-05
51 *2285:A *704:70 0.00026416
52 *2287:A *704:70 2.9076e-05
53 *2300:A *704:70 0.000167725
54 *2302:A *704:70 0.000126602
55 *2321:A *704:70 4.73375e-06
56 *2324:A *704:70 7.74869e-05
57 *2332:A *704:110 0.000220071
58 *2337:A *704:110 0
59 *2347:A *704:110 4.04046e-05
60 *146:89 *704:110 0.000524635
61 *149:111 *704:110 0.000259079
62 *150:87 *704:119 6.58423e-05
63 *160:85 *704:70 0.000475258
64 *481:88 *704:70 6.75188e-05
65 *482:30 *704:70 0.000375469
66 *514:22 *704:90 0.000401491
67 *516:54 *704:70 1.13272e-05
68 *524:49 *704:90 0.000751595
69 *524:67 *704:70 6.51774e-05
70 *524:142 *704:70 0.00018796
71 *524:180 *704:110 0.000584853
72 *535:112 *1809:A2 0.000193141
73 *535:112 *704:110 8.18197e-05
74 *545:72 *704:70 0.000762998
75 *559:46 *704:70 0.000147749
76 *559:46 *704:90 1.99559e-05
77 *560:66 *704:70 5.98468e-05
78 *564:16 *704:90 0.000117811
79 *564:52 *704:70 0.000550805
80 *564:52 *704:90 0.000763755
81 *567:96 *704:90 1.72133e-05
82 *569:58 *704:70 8.66972e-05
83 *576:42 *704:110 0.000137936
84 *583:82 *704:70 0.0015372
85 *594:74 *704:90 0.000300411
86 *594:102 *704:110 2.48256e-05
87 *632:152 *704:110 0.000567722
88 *647:189 *704:70 0
89 *661:112 *704:70 2.22315e-05
90 *665:38 *704:70 4.0241e-05
91 *667:174 *704:110 0.000230172
92 *678:49 *1809:A2 3.42204e-05
93 *686:52 *704:110 1.32529e-05
94 *691:16 *704:70 0.000294558
95 *691:44 *704:70 0.000991496
96 *691:72 *704:110 0.000372401
97 *694:76 *704:70 0.00052686
98 *694:130 *1909:A1 0.000356206
99 *695:16 *704:70 8.2379e-05
100 *695:90 *704:70 0.000196389
101 *696:26 *704:70 0.000192839
102 *696:26 *704:110 7.54285e-05
103 *697:62 *704:70 3.67606e-05
104 *698:129 *704:70 0.000155368
105 *702:30 *704:70 0
*RES
1 *2259:X *704:70 49.8635 
2 *704:70 *704:90 34.965 
3 *704:90 *704:110 24.808 
4 *704:110 *1883:A1 1.6 
5 *704:110 *704:119 2.19 
6 *704:119 *1909:A1 8.74 
7 *704:119 *1809:A2 9.1925 
*END

*D_NET *705 0.0132203
*CONN
*I *1810:A2 I *D sky130_fd_sc_hd__mux4_1
*I *1884:A1 I *D sky130_fd_sc_hd__mux4_1
*I *1910:A1 I *D sky130_fd_sc_hd__mux4_1
*I *2260:X O *D sky130_fd_sc_hd__buf_1
*CAP
1 *1810:A2 0.000119953
2 *1884:A1 0.000849476
3 *1910:A1 0.000193214
4 *2260:X 8.84045e-05
5 *705:49 0.00153188
6 *705:10 0.00184927
7 *705:6 0.00118201
8 *1910:A1 *706:38 4.1745e-05
9 *1827:A *1884:A1 0.000217149
10 *1880:A2 *1884:A1 9.50342e-06
11 *1884:A0 *1884:A1 8.35106e-05
12 *1884:A3 *1884:A1 8.35106e-05
13 *1895:S0 *705:49 8.23457e-05
14 *1905:A0 *1810:A2 0.000116158
15 *1910:A0 *1910:A1 1.85674e-05
16 *1951:D *705:10 2.72318e-05
17 *1951:GATE *705:10 8.71734e-05
18 *1972:D *1884:A1 1.7635e-05
19 *1986:D *705:49 2.62017e-05
20 *1986:GATE *705:49 9.84957e-05
21 *2018:GATE *1884:A1 0.000158476
22 *2038:GATE *1884:A1 0.000166942
23 *2086:A *705:49 4.66108e-05
24 *2292:A *705:10 4.94457e-05
25 *2304:A *1884:A1 0.000244479
26 *157:91 *1884:A1 0.000177127
27 *159:77 *1910:A1 0.000243523
28 *159:77 *705:49 0.00034837
29 *245:10 *1884:A1 0.000134203
30 *245:16 *1884:A1 0.000313804
31 *409:32 *705:10 4.87234e-06
32 *409:32 *705:49 0.000355595
33 *582:94 *1884:A1 0.000546855
34 *587:44 *1884:A1 0.000165745
35 *587:118 *1884:A1 7.10263e-06
36 *634:78 *1884:A1 8.02904e-05
37 *640:34 *1884:A1 0.000706746
38 *640:34 *705:49 0.000369523
39 *640:45 *1884:A1 0.000166885
40 *643:50 *1910:A1 0.000241849
41 *643:50 *705:49 0.000404979
42 *643:116 *1884:A1 0.000139915
43 *652:139 *1884:A1 0.000263174
44 *662:140 *705:10 1.19928e-05
45 *662:142 *705:49 8.53113e-06
46 *667:64 *705:49 0.000194331
47 *673:124 *705:49 0.000270089
48 *673:143 *705:49 1.1392e-05
49 *675:192 *1884:A1 0.000318337
50 *676:99 *1810:A2 5.82679e-05
51 *689:24 *705:6 6.61627e-05
52 *689:24 *705:10 0.000174782
53 *695:16 *1810:A2 4.28873e-05
54 *698:129 *1810:A2 3.60648e-06
*RES
1 *2260:X *705:6 2.74 
2 *705:6 *705:10 12.455 
3 *705:10 *1910:A1 8.37 
4 *705:10 *705:49 28.92 
5 *705:49 *1884:A1 29.235 
6 *705:6 *1810:A2 8.21375 
*END

*D_NET *706 0.0169185
*CONN
*I *1912:A1 I *D sky130_fd_sc_hd__mux4_1
*I *1904:A1 I *D sky130_fd_sc_hd__mux4_1
*I *1876:A2 I *D sky130_fd_sc_hd__mux4_1
*I *2261:X O *D sky130_fd_sc_hd__buf_1
*CAP
1 *1912:A1 0
2 *1904:A1 0
3 *1876:A2 0.00138579
4 *2261:X 0.00278743
5 *706:46 0.00155867
6 *706:38 0.00296031
7 C_config_C_bit1 *1876:A2 6.31505e-05
8 C_config_C_bit2 *1876:A2 1.7635e-05
9 *1856:A2 *706:38 0.000116904
10 *1859:A0 *706:38 0
11 *1861:A0 *706:38 0
12 *1861:A2 *706:38 1.1055e-05
13 *1861:A3 *706:38 1.71982e-05
14 *1862:B1 *706:38 3.64017e-05
15 *1864:A2 *706:38 2.10433e-05
16 *1904:A0 *706:46 0.000179665
17 *1910:A0 *706:38 2.01259e-05
18 *1910:A1 *706:38 4.1745e-05
19 *1912:A0 *706:38 0.000114369
20 *1912:A2 *706:38 1.10377e-05
21 *1912:A3 *706:38 4.60061e-05
22 *1912:S0 *706:38 8.49205e-05
23 *1912:S1 *706:38 4.88478e-05
24 *2016:GATE *1876:A2 0.000197923
25 *2070:A *706:38 8.23457e-05
26 *2269:A *706:38 0.000145762
27 *2273:A *1876:A2 8.23457e-05
28 *2274:A *1876:A2 1.19928e-05
29 *2281:A *1876:A2 0.000111459
30 *145:35 *706:38 0.000169538
31 *147:47 *706:38 0.00135813
32 *153:39 *706:38 7.33639e-05
33 *157:53 *1876:A2 0.000553722
34 *181:21 *706:38 0.000293034
35 *483:80 *706:38 0.000208705
36 *568:112 *1876:A2 1.24035e-05
37 *593:46 *706:46 6.99522e-05
38 *600:122 *1876:A2 8.39495e-05
39 *618:40 *1876:A2 1.45388e-05
40 *624:82 *1876:A2 6.90889e-06
41 *626:96 *1876:A2 0.000375358
42 *626:126 *706:38 0.000426678
43 *628:90 *706:38 2.60185e-06
44 *638:16 *1876:A2 7.55233e-05
45 *638:18 *1876:A2 4.15613e-05
46 *639:58 *706:46 1.04035e-05
47 *643:79 *1876:A2 0.000173986
48 *647:133 *706:38 0
49 *649:10 *706:38 3.98546e-05
50 *649:134 *706:38 0.000241615
51 *650:139 *706:38 2.96921e-05
52 *660:51 *706:38 4.19561e-05
53 *662:140 *706:38 0.000428518
54 *664:125 *706:38 0
55 *672:148 *1876:A2 0.000864255
56 *672:152 *1876:A2 0.000199652
57 *672:190 *1876:A2 7.89538e-05
58 *680:10 *1876:A2 0.000335964
59 *680:46 *1876:A2 0.000211542
60 *684:124 *1876:A2 0.000131774
61 *684:130 *1876:A2 0.000210216
*RES
1 *2261:X *706:38 43.9527 
2 *706:38 *706:46 7.54 
3 *706:46 *1876:A2 41.1037 
4 *706:46 *1904:A1 1.6 
5 *706:38 *1912:A1 1.6 
*END

*D_NET *707 0.0220394
*CONN
*I *1905:A1 I *D sky130_fd_sc_hd__mux4_1
*I *1881:A2 I *D sky130_fd_sc_hd__mux4_1
*I *1913:A1 I *D sky130_fd_sc_hd__mux4_1
*I *2262:X O *D sky130_fd_sc_hd__buf_1
*CAP
1 *1905:A1 4.01256e-05
2 *1881:A2 0.00120128
3 *1913:A1 0.000117683
4 *2262:X 0.000752974
5 *707:83 0.00293685
6 *707:28 0.00218345
7 *707:14 0.00112329
8 E6BEG[3] *1881:A2 6.15576e-06
9 EE4BEG[10] *1881:A2 4.77427e-05
10 *1827:A *707:83 9.57985e-05
11 *1861:A1 *707:14 1.53821e-05
12 *1877:A3 *1881:A2 0.000539348
13 *1884:A0 *1881:A2 8.00602e-05
14 *1887:A2 *707:83 2.55801e-05
15 *1887:A3 *707:83 6.91945e-05
16 *1887:S0 *707:83 4.04052e-05
17 *1887:S1 *707:83 9.073e-05
18 *1902:S1 *707:83 5.66369e-05
19 *1903:S1 *707:83 0.000130434
20 *1905:A0 *1905:A1 4.66108e-05
21 *1905:A0 *707:28 8.35106e-05
22 *1905:S0 *1913:A1 0.000179008
23 *1905:S0 *707:83 0.000207062
24 *1915:S1 *1881:A2 5.83121e-06
25 *2079:A *707:83 5.84716e-05
26 *2247:A *707:14 1.41095e-05
27 *2247:A *707:28 0.000152555
28 *2262:A *707:14 3.87359e-05
29 *2284:A *707:83 7.84003e-05
30 *2288:A *707:83 8.35106e-05
31 *2291:A *1881:A2 3.77855e-05
32 *2292:A *707:28 0.000154981
33 *2292:A *707:83 7.09968e-05
34 *2294:A *707:83 1.88602e-05
35 *2297:A *707:83 0.000255758
36 *2302:A *707:83 0.00029308
37 *2305:A *1881:A2 9.64638e-06
38 *2308:A *1881:A2 0.000261211
39 *2314:A *1881:A2 1.91597e-05
40 *2315:A *707:83 8.74489e-05
41 *2316:A *1881:A2 1.23707e-05
42 *2318:A *1881:A2 3.82018e-05
43 *2321:A *1881:A2 0.00059999
44 *2321:A *707:83 0.000459957
45 *2326:A *1881:A2 0.000496489
46 *2327:A *1881:A2 0.000357488
47 *2333:A *1881:A2 5.74243e-05
48 *143:9 *707:14 0.000561689
49 *144:31 *707:14 0.0010067
50 *144:111 *1881:A2 0.000415463
51 *144:111 *707:83 0.000364018
52 *148:51 *1913:A1 4.14291e-05
53 *148:51 *707:83 0.000109334
54 *148:89 *1881:A2 9.0157e-05
55 *149:75 *707:83 3.83194e-05
56 *151:23 *1913:A1 7.51418e-05
57 *160:85 *707:83 9.67062e-05
58 *234:44 *1881:A2 0.000228888
59 *234:94 *707:83 2.3583e-06
60 *236:116 *707:83 1.22898e-05
61 *483:80 *707:83 0.000184272
62 *514:94 *1881:A2 1.54111e-05
63 *516:54 *1881:A2 0.000112091
64 *517:50 *707:83 0.00014011
65 *531:62 *1881:A2 8.93641e-05
66 *538:72 *707:83 0.000477215
67 *597:20 *707:14 0.00158971
68 *637:67 *707:28 7.76294e-05
69 *650:236 *1881:A2 5.97512e-05
70 *650:236 *707:83 0.000686401
71 *650:254 *1881:A2 2.53191e-06
72 *667:64 *1881:A2 8.04254e-06
73 *667:74 *1881:A2 0.000302496
74 *676:99 *707:28 9.14049e-05
75 *690:65 *707:28 9.30787e-05
76 *692:22 *707:14 2.76356e-05
77 *702:30 *1913:A1 0.000287354
78 *702:30 *707:83 0.00102066
*RES
1 *2262:X *707:14 27.545 
2 *707:14 *707:28 11.745 
3 *707:28 *1913:A1 7.47 
4 *707:28 *707:83 49.7496 
5 *707:83 *1881:A2 33.2043 
6 *707:14 *1905:A1 2.395 
*END

*D_NET *708 0.0300917
*CONN
*I *1914:A1 I *D sky130_fd_sc_hd__mux4_1
*I *1882:A2 I *D sky130_fd_sc_hd__mux4_1
*I *1906:A1 I *D sky130_fd_sc_hd__mux4_1
*I *735:DIODE I *D sky130_fd_sc_hd__diode_2
*I *2264:X O *D sky130_fd_sc_hd__dlymetal6s2s_1
*CAP
1 *1914:A1 2.14676e-05
2 *1882:A2 0.000243638
3 *1906:A1 0
4 *735:DIODE 3.45886e-05
5 *2264:X 0.00141755
6 *708:113 0.00100554
7 *708:99 0.000868688
8 *708:84 0.00183402
9 *708:42 0.00320222
10 *708:22 0.00290565
11 FrameData_O[23] *1882:A2 9.20028e-05
12 FrameData_O[24] *1882:A2 0.000462425
13 *728:DIODE *1914:A1 4.66108e-05
14 *728:DIODE *708:113 0.000107419
15 *732:DIODE *708:42 0.000154981
16 *732:DIODE *708:84 0.000347149
17 *1805:A *708:22 0.000480785
18 *1866:B2 *708:22 3.1562e-06
19 *1875:A2 *708:42 0.000403479
20 *1879:A2 *708:42 2.86817e-05
21 *1881:S1 *708:84 0.00010698
22 *1884:S1 *708:42 5.07362e-05
23 *1885:S0 *708:84 0.000126254
24 *1888:S1 *708:84 2.54418e-05
25 *1892:S1 *708:42 3.47307e-05
26 *1895:S1 *708:22 0.000204786
27 *1906:A3 *1882:A2 0.000109259
28 *1906:A3 *708:113 0.000124135
29 *1911:S0 *708:22 4.36573e-06
30 *1911:S0 *708:42 1.33707e-05
31 *1949:D *735:DIODE 0.000118081
32 *1949:GATE *735:DIODE 0.000118081
33 *1972:D *708:42 5.86036e-05
34 *2036:GATE *708:22 1.16854e-05
35 *2068:A *708:113 3.59531e-06
36 *2081:A *708:113 0
37 *2084:A *1882:A2 1.54111e-05
38 *2106:A *708:84 0.00011321
39 *2162:A *708:84 0.000148556
40 *2304:A *708:84 0.000766686
41 *2307:A *708:42 0.000545061
42 *2318:A *708:84 9.44328e-05
43 *2318:A *708:99 1.39329e-05
44 *2322:A *708:42 4.86912e-05
45 *2327:A *708:84 5.83121e-06
46 *2335:A *1882:A2 0.000355312
47 *2336:A *1882:A2 0.000172996
48 *2336:A *708:113 1.20813e-05
49 *2377:A *708:99 1.92979e-05
50 *143:47 *708:42 0.000287076
51 *143:109 *708:42 7.84931e-05
52 *145:71 *708:42 8.247e-05
53 *149:45 *708:22 0.00149505
54 *151:85 *708:84 1.40633e-05
55 *160:133 *708:84 3.78392e-05
56 *181:56 *708:42 8.70634e-05
57 *240:10 *708:22 6.95753e-05
58 *479:161 *708:84 0.000235407
59 *479:161 *708:99 0.00014924
60 *516:54 *708:84 0.000118317
61 *517:50 *708:84 0
62 *520:56 *708:42 8.43255e-05
63 *535:26 *708:84 3.36689e-05
64 *539:26 *708:84 0.000333686
65 *539:26 *708:99 0.000100422
66 *553:28 *708:42 9.70792e-05
67 *569:58 *708:22 0.000875377
68 *569:58 *708:42 5.9216e-05
69 *576:42 *708:113 1.38422e-05
70 *593:94 *708:42 0.00051733
71 *596:140 *708:42 9.96023e-06
72 *596:140 *708:84 1.65321e-05
73 *597:20 *708:22 3.83194e-05
74 *597:44 *708:42 0.000488181
75 *597:60 *708:42 0.000735714
76 *597:60 *708:84 1.2678e-05
77 *618:112 *708:84 2.22315e-05
78 *635:102 *708:84 0.00138731
79 *644:46 *708:42 0.000249109
80 *647:133 *708:22 0.000130027
81 *658:58 *708:22 4.22926e-05
82 *658:109 *708:22 0.000414497
83 *659:83 *708:22 0.000323893
84 *659:227 *708:113 9.57985e-06
85 *660:115 *708:84 0.000130115
86 *662:140 *708:22 3.64998e-06
87 *662:177 *708:42 1.61489e-05
88 *664:166 *708:42 7.90639e-06
89 *667:64 *708:42 7.20938e-05
90 *667:154 *708:84 0
91 *669:75 *708:84 0.000529247
92 *671:70 *708:42 8.53113e-06
93 *673:106 *708:84 0.000207633
94 *676:48 *708:84 0.000329353
95 *677:26 *708:84 0.000194647
96 *691:72 *708:113 5.59667e-05
97 *691:74 *708:113 0.000100175
98 *691:88 *1914:A1 8.23457e-05
99 *691:88 *708:99 4.66108e-05
100 *691:88 *708:113 0.000237998
101 *693:38 *708:22 2.31188e-05
102 *693:38 *708:42 0.00119874
103 *693:82 *708:42 0.000436908
104 *698:68 *708:42 4.36573e-06
105 *701:52 *708:84 0.000467861
106 *701:58 *708:84 0.000206732
107 *704:110 *708:113 0
*RES
1 *2264:X *708:22 39.6175 
2 *708:22 *708:42 49.6325 
3 *708:42 *708:84 26.2362 
4 *708:84 *735:DIODE 4.74 
5 *708:84 *708:99 4.34 
6 *708:99 *708:113 14.485 
7 *708:113 *1906:A1 1.6 
8 *708:113 *1882:A2 13.3475 
9 *708:99 *1914:A1 2.395 
*END
