*SPEF "ieee 1481-1999"
*DESIGN "S_EF_ADC12"
*DATE "08:04:13 Friday May 09, 2025"
*VENDOR "The OpenROAD Project"
*PROGRAM "OpenROAD"
*VERSION "87af90f72f3f9be1fdfa1d886f0dd8d8b8f34694"
*DESIGN_FLOW "NAME_SCOPE LOCAL" "PIN_CAP NONE"
*DIVIDER /
*DELIMITER :
*BUS_DELIMITER []
*T_UNIT 1 NS
*C_UNIT 1 PF
*R_UNIT 1 OHM
*L_UNIT 1 HENRY

*NAME_MAP
*1 CMP_top
*2 net218
*3 FrameData[0]
*4 FrameData[10]
*5 FrameData[11]
*6 FrameData[12]
*7 FrameData[13]
*8 FrameData[14]
*9 FrameData[15]
*10 FrameData[16]
*11 FrameData[17]
*12 FrameData[18]
*13 FrameData[19]
*14 FrameData[1]
*15 FrameData[20]
*16 FrameData[21]
*17 FrameData[22]
*18 FrameData[23]
*19 FrameData[24]
*20 FrameData[25]
*21 FrameData[26]
*22 FrameData[27]
*23 FrameData[28]
*24 FrameData[29]
*25 FrameData[2]
*26 FrameData[30]
*27 FrameData[31]
*28 FrameData[3]
*29 FrameData[4]
*30 FrameData[5]
*31 FrameData[6]
*32 FrameData[7]
*33 FrameData[8]
*34 FrameData[9]
*35 FrameData_O[0]
*36 FrameData_O[10]
*37 FrameData_O[11]
*38 FrameData_O[12]
*39 FrameData_O[13]
*40 FrameData_O[14]
*41 FrameData_O[15]
*42 FrameData_O[16]
*43 FrameData_O[17]
*44 FrameData_O[18]
*45 FrameData_O[19]
*46 FrameData_O[1]
*47 FrameData_O[20]
*48 FrameData_O[21]
*49 FrameData_O[22]
*50 FrameData_O[23]
*51 FrameData_O[24]
*52 FrameData_O[25]
*53 FrameData_O[26]
*54 FrameData_O[27]
*55 FrameData_O[28]
*56 FrameData_O[29]
*57 FrameData_O[2]
*58 FrameData_O[30]
*59 FrameData_O[31]
*60 FrameData_O[3]
*61 FrameData_O[4]
*62 FrameData_O[5]
*63 FrameData_O[6]
*64 FrameData_O[7]
*65 FrameData_O[8]
*66 FrameData_O[9]
*67 FrameStrobe[0]
*68 FrameStrobe[10]
*69 FrameStrobe[11]
*70 FrameStrobe[12]
*71 FrameStrobe[13]
*72 FrameStrobe[14]
*73 FrameStrobe[15]
*74 FrameStrobe[16]
*75 FrameStrobe[17]
*76 FrameStrobe[18]
*77 FrameStrobe[19]
*78 FrameStrobe[1]
*79 FrameStrobe[2]
*80 FrameStrobe[3]
*81 FrameStrobe[4]
*82 FrameStrobe[5]
*83 FrameStrobe[6]
*84 FrameStrobe[7]
*85 FrameStrobe[8]
*86 FrameStrobe[9]
*87 FrameStrobe_O[0]
*88 FrameStrobe_O[10]
*89 FrameStrobe_O[11]
*90 FrameStrobe_O[12]
*91 FrameStrobe_O[13]
*92 FrameStrobe_O[14]
*93 FrameStrobe_O[15]
*94 FrameStrobe_O[16]
*95 FrameStrobe_O[17]
*96 FrameStrobe_O[18]
*97 FrameStrobe_O[19]
*98 FrameStrobe_O[1]
*99 FrameStrobe_O[2]
*100 FrameStrobe_O[3]
*101 FrameStrobe_O[4]
*102 FrameStrobe_O[5]
*103 FrameStrobe_O[6]
*104 FrameStrobe_O[7]
*105 FrameStrobe_O[8]
*106 FrameStrobe_O[9]
*107 HOLD_top
*108 N1BEG[0]
*109 N1BEG[1]
*110 N1BEG[2]
*111 N1BEG[3]
*112 N2BEG[0]
*113 N2BEG[1]
*114 N2BEG[2]
*115 N2BEG[3]
*116 N2BEG[4]
*117 N2BEG[5]
*118 N2BEG[6]
*119 N2BEG[7]
*120 N2BEGb[0]
*121 N2BEGb[1]
*122 N2BEGb[2]
*123 N2BEGb[3]
*124 N2BEGb[4]
*125 N2BEGb[5]
*126 N2BEGb[6]
*127 N2BEGb[7]
*128 N4BEG[0]
*129 N4BEG[10]
*130 N4BEG[11]
*131 N4BEG[12]
*132 N4BEG[13]
*133 N4BEG[14]
*134 N4BEG[15]
*135 N4BEG[1]
*136 N4BEG[2]
*137 N4BEG[3]
*138 N4BEG[4]
*139 N4BEG[5]
*140 N4BEG[6]
*141 N4BEG[7]
*142 N4BEG[8]
*143 N4BEG[9]
*144 NN4BEG[0]
*145 NN4BEG[10]
*146 NN4BEG[11]
*147 NN4BEG[12]
*148 NN4BEG[13]
*149 NN4BEG[14]
*150 NN4BEG[15]
*151 NN4BEG[1]
*152 NN4BEG[2]
*153 NN4BEG[3]
*154 NN4BEG[4]
*155 NN4BEG[5]
*156 NN4BEG[6]
*157 NN4BEG[7]
*158 NN4BEG[8]
*159 NN4BEG[9]
*160 RESET_top
*161 S1END[0]
*162 S1END[1]
*163 S1END[2]
*164 S1END[3]
*165 S2END[0]
*166 S2END[1]
*167 S2END[2]
*168 S2END[3]
*169 S2END[4]
*170 S2END[5]
*171 S2END[6]
*172 S2END[7]
*173 S2MID[0]
*174 S2MID[1]
*175 S2MID[2]
*176 S2MID[3]
*177 S2MID[4]
*178 S2MID[5]
*179 S2MID[6]
*180 S2MID[7]
*181 S4END[0]
*182 S4END[10]
*183 S4END[11]
*184 S4END[12]
*185 S4END[13]
*186 S4END[14]
*187 S4END[15]
*188 S4END[1]
*189 S4END[2]
*190 S4END[3]
*191 S4END[4]
*192 S4END[5]
*193 S4END[6]
*194 S4END[7]
*195 S4END[8]
*196 S4END[9]
*197 SS4END[0]
*198 SS4END[10]
*199 SS4END[11]
*200 SS4END[12]
*201 SS4END[13]
*202 SS4END[14]
*203 SS4END[15]
*204 SS4END[1]
*205 SS4END[2]
*206 SS4END[3]
*207 SS4END[4]
*208 SS4END[5]
*209 SS4END[6]
*210 SS4END[7]
*211 SS4END[8]
*212 SS4END[9]
*213 UserCLK
*214 UserCLKo
*215 VALUE_top0
*216 VALUE_top1
*217 VALUE_top10
*218 VALUE_top11
*219 VALUE_top2
*220 VALUE_top3
*221 VALUE_top4
*222 VALUE_top5
*223 VALUE_top6
*224 VALUE_top7
*225 VALUE_top8
*226 VALUE_top9
*229 Inst_EF_ADC12\.VALID
*230 Inst_EF_ADC12\.curr_state\[0\]
*231 Inst_EF_ADC12\.curr_state\[1\]
*232 Inst_EF_ADC12\.curr_state\[2\]
*233 Inst_EF_ADC12\.curr_state\[3\]
*234 Inst_EF_ADC12\.curr_state\[5\]
*235 Inst_EF_ADC12\.next_bit\[0\]
*236 Inst_EF_ADC12\.next_bit\[10\]
*237 Inst_EF_ADC12\.next_bit\[1\]
*238 Inst_EF_ADC12\.next_bit\[2\]
*239 Inst_EF_ADC12\.next_bit\[3\]
*240 Inst_EF_ADC12\.next_bit\[4\]
*241 Inst_EF_ADC12\.next_bit\[5\]
*242 Inst_EF_ADC12\.next_bit\[6\]
*243 Inst_EF_ADC12\.next_bit\[7\]
*244 Inst_EF_ADC12\.next_bit\[8\]
*245 Inst_EF_ADC12\.next_bit\[9\]
*246 Inst_EF_ADC12\.sample_counter\[0\]
*247 Inst_EF_ADC12\.sample_counter\[1\]
*248 Inst_EF_ADC12\.sample_counter\[2\]
*249 Inst_EF_ADC12\.sample_counter\[3\]
*250 Inst_EF_ADC12\.shift_value\[0\]
*251 Inst_S_EF_ADC12_ConfigMem\.Inst_frame0_bit0\.Q
*252 Inst_S_EF_ADC12_ConfigMem\.Inst_frame0_bit1\.Q
*253 Inst_S_EF_ADC12_ConfigMem\.Inst_frame0_bit10\.Q
*254 Inst_S_EF_ADC12_ConfigMem\.Inst_frame0_bit11\.Q
*255 Inst_S_EF_ADC12_ConfigMem\.Inst_frame0_bit12\.Q
*256 Inst_S_EF_ADC12_ConfigMem\.Inst_frame0_bit13\.Q
*257 Inst_S_EF_ADC12_ConfigMem\.Inst_frame0_bit14\.Q
*258 Inst_S_EF_ADC12_ConfigMem\.Inst_frame0_bit15\.Q
*259 Inst_S_EF_ADC12_ConfigMem\.Inst_frame0_bit16\.Q
*260 Inst_S_EF_ADC12_ConfigMem\.Inst_frame0_bit17\.Q
*261 Inst_S_EF_ADC12_ConfigMem\.Inst_frame0_bit18\.Q
*262 Inst_S_EF_ADC12_ConfigMem\.Inst_frame0_bit19\.Q
*263 Inst_S_EF_ADC12_ConfigMem\.Inst_frame0_bit2\.Q
*264 Inst_S_EF_ADC12_ConfigMem\.Inst_frame0_bit20\.Q
*265 Inst_S_EF_ADC12_ConfigMem\.Inst_frame0_bit21\.Q
*266 Inst_S_EF_ADC12_ConfigMem\.Inst_frame0_bit22\.Q
*267 Inst_S_EF_ADC12_ConfigMem\.Inst_frame0_bit23\.Q
*268 Inst_S_EF_ADC12_ConfigMem\.Inst_frame0_bit24\.Q
*269 Inst_S_EF_ADC12_ConfigMem\.Inst_frame0_bit25\.Q
*270 Inst_S_EF_ADC12_ConfigMem\.Inst_frame0_bit26\.Q
*271 Inst_S_EF_ADC12_ConfigMem\.Inst_frame0_bit27\.Q
*272 Inst_S_EF_ADC12_ConfigMem\.Inst_frame0_bit28\.Q
*273 Inst_S_EF_ADC12_ConfigMem\.Inst_frame0_bit29\.Q
*274 Inst_S_EF_ADC12_ConfigMem\.Inst_frame0_bit3\.Q
*275 Inst_S_EF_ADC12_ConfigMem\.Inst_frame0_bit30\.Q
*276 Inst_S_EF_ADC12_ConfigMem\.Inst_frame0_bit31\.Q
*277 Inst_S_EF_ADC12_ConfigMem\.Inst_frame0_bit4\.Q
*278 Inst_S_EF_ADC12_ConfigMem\.Inst_frame0_bit5\.Q
*279 Inst_S_EF_ADC12_ConfigMem\.Inst_frame0_bit6\.Q
*280 Inst_S_EF_ADC12_ConfigMem\.Inst_frame0_bit7\.Q
*281 Inst_S_EF_ADC12_ConfigMem\.Inst_frame0_bit8\.Q
*282 Inst_S_EF_ADC12_ConfigMem\.Inst_frame0_bit9\.Q
*283 Inst_S_EF_ADC12_ConfigMem\.Inst_frame1_bit0\.Q
*284 Inst_S_EF_ADC12_ConfigMem\.Inst_frame1_bit1\.Q
*285 Inst_S_EF_ADC12_ConfigMem\.Inst_frame1_bit10\.Q
*286 Inst_S_EF_ADC12_ConfigMem\.Inst_frame1_bit11\.Q
*287 Inst_S_EF_ADC12_ConfigMem\.Inst_frame1_bit12\.Q
*288 Inst_S_EF_ADC12_ConfigMem\.Inst_frame1_bit13\.Q
*289 Inst_S_EF_ADC12_ConfigMem\.Inst_frame1_bit14\.Q
*290 Inst_S_EF_ADC12_ConfigMem\.Inst_frame1_bit15\.Q
*291 Inst_S_EF_ADC12_ConfigMem\.Inst_frame1_bit16\.Q
*292 Inst_S_EF_ADC12_ConfigMem\.Inst_frame1_bit17\.Q
*293 Inst_S_EF_ADC12_ConfigMem\.Inst_frame1_bit18\.Q
*294 Inst_S_EF_ADC12_ConfigMem\.Inst_frame1_bit19\.Q
*295 Inst_S_EF_ADC12_ConfigMem\.Inst_frame1_bit2\.Q
*296 Inst_S_EF_ADC12_ConfigMem\.Inst_frame1_bit20\.Q
*297 Inst_S_EF_ADC12_ConfigMem\.Inst_frame1_bit21\.Q
*298 Inst_S_EF_ADC12_ConfigMem\.Inst_frame1_bit22\.Q
*299 Inst_S_EF_ADC12_ConfigMem\.Inst_frame1_bit23\.Q
*300 Inst_S_EF_ADC12_ConfigMem\.Inst_frame1_bit24\.Q
*301 Inst_S_EF_ADC12_ConfigMem\.Inst_frame1_bit25\.Q
*302 Inst_S_EF_ADC12_ConfigMem\.Inst_frame1_bit26\.Q
*303 Inst_S_EF_ADC12_ConfigMem\.Inst_frame1_bit27\.Q
*304 Inst_S_EF_ADC12_ConfigMem\.Inst_frame1_bit28\.Q
*305 Inst_S_EF_ADC12_ConfigMem\.Inst_frame1_bit29\.Q
*306 Inst_S_EF_ADC12_ConfigMem\.Inst_frame1_bit3\.Q
*307 Inst_S_EF_ADC12_ConfigMem\.Inst_frame1_bit30\.Q
*308 Inst_S_EF_ADC12_ConfigMem\.Inst_frame1_bit31\.Q
*309 Inst_S_EF_ADC12_ConfigMem\.Inst_frame1_bit4\.Q
*310 Inst_S_EF_ADC12_ConfigMem\.Inst_frame1_bit5\.Q
*311 Inst_S_EF_ADC12_ConfigMem\.Inst_frame1_bit6\.Q
*312 Inst_S_EF_ADC12_ConfigMem\.Inst_frame1_bit7\.Q
*313 Inst_S_EF_ADC12_ConfigMem\.Inst_frame1_bit8\.Q
*314 Inst_S_EF_ADC12_ConfigMem\.Inst_frame1_bit9\.Q
*315 Inst_S_EF_ADC12_ConfigMem\.Inst_frame2_bit30\.Q
*316 Inst_S_EF_ADC12_ConfigMem\.Inst_frame2_bit31\.Q
*317 Inst_S_EF_ADC12_switch_matrix\.N1BEG0
*318 Inst_S_EF_ADC12_switch_matrix\.N1BEG1
*319 Inst_S_EF_ADC12_switch_matrix\.N1BEG2
*320 Inst_S_EF_ADC12_switch_matrix\.N1BEG3
*321 Inst_S_EF_ADC12_switch_matrix\.N2BEG0
*322 Inst_S_EF_ADC12_switch_matrix\.N2BEG1
*323 Inst_S_EF_ADC12_switch_matrix\.N2BEG2
*324 Inst_S_EF_ADC12_switch_matrix\.N2BEG3
*325 Inst_S_EF_ADC12_switch_matrix\.N2BEG4
*326 Inst_S_EF_ADC12_switch_matrix\.N2BEG5
*327 Inst_S_EF_ADC12_switch_matrix\.N2BEG6
*328 Inst_S_EF_ADC12_switch_matrix\.N2BEG7
*329 Inst_S_EF_ADC12_switch_matrix\.N2BEGb0
*330 Inst_S_EF_ADC12_switch_matrix\.N2BEGb1
*331 Inst_S_EF_ADC12_switch_matrix\.N2BEGb2
*332 Inst_S_EF_ADC12_switch_matrix\.N2BEGb3
*333 Inst_S_EF_ADC12_switch_matrix\.N2BEGb4
*334 Inst_S_EF_ADC12_switch_matrix\.N2BEGb5
*335 Inst_S_EF_ADC12_switch_matrix\.N2BEGb6
*336 Inst_S_EF_ADC12_switch_matrix\.N2BEGb7
*337 Inst_S_EF_ADC12_switch_matrix\.N4BEG0
*338 Inst_S_EF_ADC12_switch_matrix\.N4BEG1
*339 Inst_S_EF_ADC12_switch_matrix\.N4BEG10
*340 Inst_S_EF_ADC12_switch_matrix\.N4BEG11
*341 Inst_S_EF_ADC12_switch_matrix\.N4BEG12
*342 Inst_S_EF_ADC12_switch_matrix\.N4BEG13
*343 Inst_S_EF_ADC12_switch_matrix\.N4BEG14
*344 Inst_S_EF_ADC12_switch_matrix\.N4BEG15
*345 Inst_S_EF_ADC12_switch_matrix\.N4BEG2
*346 Inst_S_EF_ADC12_switch_matrix\.N4BEG3
*347 Inst_S_EF_ADC12_switch_matrix\.N4BEG4
*348 Inst_S_EF_ADC12_switch_matrix\.N4BEG5
*349 Inst_S_EF_ADC12_switch_matrix\.N4BEG6
*350 Inst_S_EF_ADC12_switch_matrix\.N4BEG7
*351 Inst_S_EF_ADC12_switch_matrix\.N4BEG8
*352 Inst_S_EF_ADC12_switch_matrix\.N4BEG9
*353 Inst_S_EF_ADC12_switch_matrix\.NN4BEG0
*354 Inst_S_EF_ADC12_switch_matrix\.NN4BEG1
*355 Inst_S_EF_ADC12_switch_matrix\.NN4BEG10
*356 Inst_S_EF_ADC12_switch_matrix\.NN4BEG11
*357 Inst_S_EF_ADC12_switch_matrix\.NN4BEG12
*358 Inst_S_EF_ADC12_switch_matrix\.NN4BEG13
*359 Inst_S_EF_ADC12_switch_matrix\.NN4BEG14
*360 Inst_S_EF_ADC12_switch_matrix\.NN4BEG15
*361 Inst_S_EF_ADC12_switch_matrix\.NN4BEG2
*362 Inst_S_EF_ADC12_switch_matrix\.NN4BEG3
*363 Inst_S_EF_ADC12_switch_matrix\.NN4BEG4
*364 Inst_S_EF_ADC12_switch_matrix\.NN4BEG5
*365 Inst_S_EF_ADC12_switch_matrix\.NN4BEG6
*366 Inst_S_EF_ADC12_switch_matrix\.NN4BEG7
*367 Inst_S_EF_ADC12_switch_matrix\.NN4BEG8
*368 Inst_S_EF_ADC12_switch_matrix\.NN4BEG9
*369 UserCLK_regs
*370 _000_
*371 _001_
*372 _002_
*373 _003_
*374 _004_
*375 _005_
*376 _006_
*377 _007_
*378 _008_
*379 _009_
*380 _010_
*381 _011_
*382 _012_
*383 _013_
*384 _014_
*385 _015_
*386 _016_
*387 _017_
*388 _018_
*389 _019_
*390 _020_
*391 _021_
*392 _022_
*393 _023_
*394 _024_
*395 _025_
*396 _026_
*397 _027_
*398 _028_
*399 _029_
*400 _030_
*401 _031_
*402 _032_
*403 _033_
*404 _034_
*405 _035_
*406 _036_
*407 _037_
*408 _038_
*409 _039_
*410 _040_
*411 _041_
*412 _042_
*413 _043_
*414 _044_
*415 _045_
*416 _046_
*417 _047_
*418 _048_
*419 _049_
*420 _050_
*421 _051_
*422 _052_
*423 _053_
*424 _054_
*425 _055_
*426 _056_
*427 _057_
*428 _058_
*429 _059_
*430 _060_
*431 _061_
*432 _062_
*433 _063_
*434 _064_
*435 _065_
*436 _066_
*437 _067_
*438 _068_
*439 _069_
*440 _070_
*441 _071_
*442 _072_
*443 _073_
*444 _074_
*445 _075_
*446 _076_
*447 _077_
*448 _078_
*449 _079_
*450 _080_
*451 _081_
*452 clknet_0_UserCLK
*453 clknet_0_UserCLK_regs
*454 clknet_1_0__leaf_UserCLK
*455 clknet_2_0__leaf_UserCLK_regs
*456 clknet_2_1__leaf_UserCLK_regs
*457 clknet_2_2__leaf_UserCLK_regs
*458 clknet_2_3__leaf_UserCLK_regs
*459 net1
*460 net10
*461 net100
*462 net101
*463 net102
*464 net103
*465 net104
*466 net105
*467 net106
*468 net107
*469 net108
*470 net109
*471 net11
*472 net110
*473 net111
*474 net112
*475 net113
*476 net114
*477 net115
*478 net116
*479 net117
*480 net118
*481 net119
*482 net12
*483 net120
*484 net121
*485 net122
*486 net123
*487 net124
*488 net125
*489 net126
*490 net127
*491 net128
*492 net129
*493 net13
*494 net130
*495 net131
*496 net132
*497 net133
*498 net134
*499 net135
*500 net136
*501 net137
*502 net138
*503 net139
*504 net14
*505 net140
*506 net141
*507 net142
*508 net143
*509 net144
*510 net145
*511 net146
*512 net147
*513 net148
*514 net149
*515 net15
*516 net150
*517 net151
*518 net152
*519 net153
*520 net154
*521 net155
*522 net156
*523 net157
*524 net158
*525 net159
*526 net16
*527 net160
*528 net161
*529 net162
*530 net163
*531 net164
*532 net165
*533 net166
*534 net167
*535 net168
*536 net169
*537 net17
*538 net170
*539 net171
*540 net172
*541 net173
*542 net174
*543 net175
*544 net176
*545 net177
*546 net178
*547 net179
*548 net18
*549 net180
*550 net181
*551 net182
*552 net183
*553 net184
*554 net185
*555 net186
*556 net187
*557 net188
*558 net189
*559 net19
*560 net190
*561 net191
*562 net192
*563 net193
*564 net194
*565 net195
*566 net196
*567 net197
*568 net198
*569 net199
*570 net2
*571 net20
*572 net200
*573 net201
*574 net202
*575 net203
*576 net204
*577 net205
*578 net206
*579 net207
*580 net208
*581 net209
*582 net21
*583 net210
*584 net211
*585 net212
*586 net213
*587 net214
*588 net215
*589 net216
*590 net217
*591 net219
*592 net22
*593 net220
*594 net221
*595 net222
*596 net223
*597 net224
*598 net225
*599 net226
*600 net227
*601 net228
*602 net229
*603 net23
*604 net230
*605 net231
*606 net232
*607 net233
*608 net234
*609 net235
*610 net236
*611 net237
*612 net24
*613 net25
*614 net26
*615 net27
*616 net28
*617 net29
*618 net3
*619 net30
*620 net31
*621 net32
*622 net33
*623 net34
*624 net35
*625 net36
*626 net37
*627 net38
*628 net39
*629 net4
*630 net40
*631 net41
*632 net42
*633 net43
*634 net44
*635 net45
*636 net46
*637 net47
*638 net48
*639 net49
*640 net5
*641 net50
*642 net51
*643 net52
*644 net53
*645 net54
*646 net55
*647 net56
*648 net57
*649 net58
*650 net59
*651 net6
*652 net60
*653 net61
*654 net62
*655 net63
*656 net64
*657 net65
*658 net66
*659 net67
*660 net68
*661 net69
*662 net7
*663 net70
*664 net71
*665 net72
*666 net73
*667 net74
*668 net75
*669 net76
*670 net77
*671 net78
*672 net79
*673 net8
*674 net80
*675 net81
*676 net82
*677 net83
*678 net84
*679 net85
*680 net86
*681 net87
*682 net88
*683 net89
*684 net9
*685 net90
*686 net91
*687 net92
*688 net93
*689 net94
*690 net95
*691 net96
*692 net97
*693 net98
*694 net99
*695 ANTENNA_1
*696 ANTENNA_2
*697 ANTENNA_3
*698 ANTENNA_4
*699 ANTENNA_5
*700 ANTENNA_6
*701 ANTENNA_7
*702 FILLER_0_105
*703 FILLER_0_151
*704 FILLER_0_195
*705 FILLER_0_200
*706 FILLER_0_203
*707 FILLER_0_206
*708 FILLER_0_209
*709 FILLER_0_212
*710 FILLER_0_215
*711 FILLER_0_218
*712 FILLER_0_221
*713 FILLER_0_234
*714 FILLER_0_237
*715 FILLER_0_240
*716 FILLER_0_243
*717 FILLER_0_246
*718 FILLER_0_249
*719 FILLER_0_253
*720 FILLER_0_256
*721 FILLER_0_259
*722 FILLER_0_262
*723 FILLER_0_265
*724 FILLER_0_268
*725 FILLER_0_27
*726 FILLER_0_271
*727 FILLER_0_274
*728 FILLER_0_277
*729 FILLER_0_281
*730 FILLER_0_284
*731 FILLER_0_287
*732 FILLER_0_29
*733 FILLER_0_290
*734 FILLER_0_293
*735 FILLER_0_296
*736 FILLER_0_299
*737 FILLER_0_302
*738 FILLER_0_305
*739 FILLER_0_309
*740 FILLER_0_312
*741 FILLER_0_315
*742 FILLER_0_318
*743 FILLER_0_321
*744 FILLER_0_324
*745 FILLER_0_327
*746 FILLER_0_330
*747 FILLER_0_334
*748 FILLER_0_337
*749 FILLER_0_34
*750 FILLER_0_37
*751 FILLER_0_44
*752 FILLER_0_57
*753 FILLER_10_124
*754 FILLER_10_127
*755 FILLER_10_13
*756 FILLER_10_130
*757 FILLER_10_133
*758 FILLER_10_141
*759 FILLER_10_173
*760 FILLER_10_176
*761 FILLER_10_179
*762 FILLER_10_182
*763 FILLER_10_185
*764 FILLER_10_188
*765 FILLER_10_191
*766 FILLER_10_194
*767 FILLER_10_197
*768 FILLER_10_201
*769 FILLER_10_204
*770 FILLER_10_217
*771 FILLER_10_232
*772 FILLER_10_235
*773 FILLER_10_238
*774 FILLER_10_241
*775 FILLER_10_244
*776 FILLER_10_247
*777 FILLER_10_268
*778 FILLER_10_271
*779 FILLER_10_285
*780 FILLER_10_288
*781 FILLER_10_291
*782 FILLER_10_309
*783 FILLER_10_312
*784 FILLER_10_316
*785 FILLER_10_319
*786 FILLER_10_322
*787 FILLER_10_325
*788 FILLER_10_328
*789 FILLER_10_331
*790 FILLER_10_334
*791 FILLER_10_50
*792 FILLER_10_53
*793 FILLER_10_56
*794 FILLER_10_59
*795 FILLER_10_82
*796 FILLER_11_100
*797 FILLER_11_103
*798 FILLER_11_128
*799 FILLER_11_13
*800 FILLER_11_131
*801 FILLER_11_134
*802 FILLER_11_137
*803 FILLER_11_184
*804 FILLER_11_187
*805 FILLER_11_190
*806 FILLER_11_193
*807 FILLER_11_196
*808 FILLER_11_211
*809 FILLER_11_229
*810 FILLER_11_232
*811 FILLER_11_235
*812 FILLER_11_238
*813 FILLER_11_241
*814 FILLER_11_244
*815 FILLER_11_247
*816 FILLER_11_250
*817 FILLER_11_253
*818 FILLER_11_256
*819 FILLER_11_259
*820 FILLER_11_262
*821 FILLER_11_265
*822 FILLER_11_268
*823 FILLER_11_271
*824 FILLER_11_274
*825 FILLER_11_277
*826 FILLER_11_284
*827 FILLER_11_287
*828 FILLER_11_290
*829 FILLER_11_293
*830 FILLER_11_296
*831 FILLER_11_299
*832 FILLER_11_302
*833 FILLER_11_305
*834 FILLER_11_308
*835 FILLER_11_311
*836 FILLER_11_315
*837 FILLER_11_318
*838 FILLER_11_321
*839 FILLER_11_324
*840 FILLER_11_327
*841 FILLER_11_330
*842 FILLER_11_333
*843 FILLER_11_337
*844 FILLER_11_41
*845 FILLER_11_44
*846 FILLER_11_47
*847 FILLER_11_50
*848 FILLER_11_53
*849 FILLER_11_57
*850 FILLER_11_60
*851 FILLER_11_76
*852 FILLER_11_79
*853 FILLER_11_82
*854 FILLER_12_100
*855 FILLER_12_117
*856 FILLER_12_13
*857 FILLER_12_130
*858 FILLER_12_16
*859 FILLER_12_189
*860 FILLER_12_19
*861 FILLER_12_192
*862 FILLER_12_195
*863 FILLER_12_197
*864 FILLER_12_200
*865 FILLER_12_203
*866 FILLER_12_206
*867 FILLER_12_209
*868 FILLER_12_212
*869 FILLER_12_22
*870 FILLER_12_224
*871 FILLER_12_227
*872 FILLER_12_237
*873 FILLER_12_240
*874 FILLER_12_243
*875 FILLER_12_246
*876 FILLER_12_249
*877 FILLER_12_25
*878 FILLER_12_263
*879 FILLER_12_266
*880 FILLER_12_269
*881 FILLER_12_272
*882 FILLER_12_296
*883 FILLER_12_299
*884 FILLER_12_302
*885 FILLER_12_305
*886 FILLER_12_309
*887 FILLER_12_312
*888 FILLER_12_315
*889 FILLER_12_318
*890 FILLER_12_321
*891 FILLER_12_324
*892 FILLER_12_327
*893 FILLER_12_330
*894 FILLER_12_333
*895 FILLER_12_336
*896 FILLER_12_36
*897 FILLER_12_41
*898 FILLER_12_44
*899 FILLER_12_79
*900 FILLER_12_85
*901 FILLER_13_12
*902 FILLER_13_136
*903 FILLER_13_149
*904 FILLER_13_15
*905 FILLER_13_166
*906 FILLER_13_18
*907 FILLER_13_181
*908 FILLER_13_206
*909 FILLER_13_219
*910 FILLER_13_270
*911 FILLER_13_273
*912 FILLER_13_277
*913 FILLER_13_284
*914 FILLER_13_287
*915 FILLER_13_290
*916 FILLER_13_293
*917 FILLER_13_296
*918 FILLER_13_299
*919 FILLER_13_302
*920 FILLER_13_305
*921 FILLER_13_308
*922 FILLER_13_311
*923 FILLER_13_314
*924 FILLER_13_317
*925 FILLER_13_320
*926 FILLER_13_323
*927 FILLER_13_326
*928 FILLER_13_329
*929 FILLER_13_332
*930 FILLER_13_335
*931 FILLER_13_337
*932 FILLER_13_42
*933 FILLER_13_81
*934 FILLER_13_94
*935 FILLER_14_134
*936 FILLER_14_157
*937 FILLER_14_168
*938 FILLER_14_17
*939 FILLER_14_20
*940 FILLER_14_212
*941 FILLER_14_251
*942 FILLER_14_268
*943 FILLER_14_306
*944 FILLER_14_309
*945 FILLER_14_312
*946 FILLER_14_315
*947 FILLER_14_318
*948 FILLER_14_321
*949 FILLER_14_324
*950 FILLER_14_327
*951 FILLER_14_330
*952 FILLER_14_333
*953 FILLER_14_336
*954 FILLER_14_50
*955 FILLER_15_13
*956 FILLER_15_141
*957 FILLER_15_16
*958 FILLER_15_164
*959 FILLER_15_19
*960 FILLER_15_278
*961 FILLER_15_29
*962 FILLER_15_305
*963 FILLER_15_313
*964 FILLER_15_316
*965 FILLER_15_319
*966 FILLER_15_322
*967 FILLER_15_325
*968 FILLER_15_328
*969 FILLER_15_331
*970 FILLER_15_337
*971 FILLER_15_57
*972 FILLER_15_94
*973 FILLER_1_113
*974 FILLER_1_122
*975 FILLER_1_127
*976 FILLER_1_166
*977 FILLER_1_169
*978 FILLER_1_19
*979 FILLER_1_196
*980 FILLER_1_199
*981 FILLER_1_204
*982 FILLER_1_207
*983 FILLER_1_210
*984 FILLER_1_213
*985 FILLER_1_216
*986 FILLER_1_22
*987 FILLER_1_225
*988 FILLER_1_239
*989 FILLER_1_25
*990 FILLER_1_252
*991 FILLER_1_266
*992 FILLER_1_269
*993 FILLER_1_272
*994 FILLER_1_275
*995 FILLER_1_278
*996 FILLER_1_281
*997 FILLER_1_309
*998 FILLER_1_312
*999 FILLER_1_315
*1000 FILLER_1_319
*1001 FILLER_1_322
*1002 FILLER_1_334
*1003 FILLER_1_337
*1004 FILLER_1_46
*1005 FILLER_2_129
*1006 FILLER_2_161
*1007 FILLER_2_183
*1008 FILLER_2_215
*1009 FILLER_2_218
*1010 FILLER_2_221
*1011 FILLER_2_224
*1012 FILLER_2_250
*1013 FILLER_2_259
*1014 FILLER_2_262
*1015 FILLER_2_265
*1016 FILLER_2_268
*1017 FILLER_2_271
*1018 FILLER_2_274
*1019 FILLER_2_277
*1020 FILLER_2_280
*1021 FILLER_2_283
*1022 FILLER_2_286
*1023 FILLER_2_289
*1024 FILLER_2_292
*1025 FILLER_2_295
*1026 FILLER_2_298
*1027 FILLER_2_301
*1028 FILLER_2_304
*1029 FILLER_2_307
*1030 FILLER_2_309
*1031 FILLER_2_312
*1032 FILLER_2_315
*1033 FILLER_2_318
*1034 FILLER_2_321
*1035 FILLER_2_324
*1036 FILLER_2_327
*1037 FILLER_2_336
*1038 FILLER_2_68
*1039 FILLER_2_83
*1040 FILLER_2_85
*1041 FILLER_3_103
*1042 FILLER_3_126
*1043 FILLER_3_13
*1044 FILLER_3_151
*1045 FILLER_3_176
*1046 FILLER_3_179
*1047 FILLER_3_182
*1048 FILLER_3_185
*1049 FILLER_3_189
*1050 FILLER_3_192
*1051 FILLER_3_195
*1052 FILLER_3_208
*1053 FILLER_3_211
*1054 FILLER_3_214
*1055 FILLER_3_217
*1056 FILLER_3_220
*1057 FILLER_3_223
*1058 FILLER_3_225
*1059 FILLER_3_228
*1060 FILLER_3_231
*1061 FILLER_3_234
*1062 FILLER_3_239
*1063 FILLER_3_254
*1064 FILLER_3_257
*1065 FILLER_3_260
*1066 FILLER_3_263
*1067 FILLER_3_266
*1068 FILLER_3_269
*1069 FILLER_3_272
*1070 FILLER_3_275
*1071 FILLER_3_278
*1072 FILLER_3_290
*1073 FILLER_3_303
*1074 FILLER_3_306
*1075 FILLER_3_309
*1076 FILLER_3_312
*1077 FILLER_3_315
*1078 FILLER_3_318
*1079 FILLER_3_321
*1080 FILLER_3_324
*1081 FILLER_3_327
*1082 FILLER_3_330
*1083 FILLER_3_333
*1084 FILLER_3_337
*1085 FILLER_3_45
*1086 FILLER_3_54
*1087 FILLER_3_73
*1088 FILLER_4_117
*1089 FILLER_4_124
*1090 FILLER_4_139
*1091 FILLER_4_157
*1092 FILLER_4_173
*1093 FILLER_4_176
*1094 FILLER_4_179
*1095 FILLER_4_182
*1096 FILLER_4_185
*1097 FILLER_4_188
*1098 FILLER_4_191
*1099 FILLER_4_197
*1100 FILLER_4_210
*1101 FILLER_4_213
*1102 FILLER_4_216
*1103 FILLER_4_219
*1104 FILLER_4_223
*1105 FILLER_4_226
*1106 FILLER_4_229
*1107 FILLER_4_232
*1108 FILLER_4_235
*1109 FILLER_4_238
*1110 FILLER_4_253
*1111 FILLER_4_256
*1112 FILLER_4_259
*1113 FILLER_4_262
*1114 FILLER_4_265
*1115 FILLER_4_268
*1116 FILLER_4_297
*1117 FILLER_4_300
*1118 FILLER_4_303
*1119 FILLER_4_306
*1120 FILLER_4_309
*1121 FILLER_4_312
*1122 FILLER_4_315
*1123 FILLER_4_318
*1124 FILLER_4_331
*1125 FILLER_4_336
*1126 FILLER_4_6
*1127 FILLER_5_127
*1128 FILLER_5_182
*1129 FILLER_5_185
*1130 FILLER_5_188
*1131 FILLER_5_191
*1132 FILLER_5_202
*1133 FILLER_5_225
*1134 FILLER_5_238
*1135 FILLER_5_241
*1136 FILLER_5_244
*1137 FILLER_5_247
*1138 FILLER_5_250
*1139 FILLER_5_253
*1140 FILLER_5_256
*1141 FILLER_5_267
*1142 FILLER_5_287
*1143 FILLER_5_290
*1144 FILLER_5_293
*1145 FILLER_5_296
*1146 FILLER_5_299
*1147 FILLER_5_302
*1148 FILLER_5_305
*1149 FILLER_5_308
*1150 FILLER_5_311
*1151 FILLER_5_327
*1152 FILLER_5_330
*1153 FILLER_5_333
*1154 FILLER_5_57
*1155 FILLER_6_105
*1156 FILLER_6_115
*1157 FILLER_6_150
*1158 FILLER_6_167
*1159 FILLER_6_170
*1160 FILLER_6_173
*1161 FILLER_6_176
*1162 FILLER_6_179
*1163 FILLER_6_182
*1164 FILLER_6_185
*1165 FILLER_6_209
*1166 FILLER_6_223
*1167 FILLER_6_226
*1168 FILLER_6_229
*1169 FILLER_6_232
*1170 FILLER_6_235
*1171 FILLER_6_238
*1172 FILLER_6_241
*1173 FILLER_6_244
*1174 FILLER_6_247
*1175 FILLER_6_253
*1176 FILLER_6_285
*1177 FILLER_6_288
*1178 FILLER_6_291
*1179 FILLER_6_321
*1180 FILLER_6_325
*1181 FILLER_6_328
*1182 FILLER_6_331
*1183 FILLER_6_53
*1184 FILLER_6_83
*1185 FILLER_7_10
*1186 FILLER_7_124
*1187 FILLER_7_166
*1188 FILLER_7_179
*1189 FILLER_7_182
*1190 FILLER_7_185
*1191 FILLER_7_188
*1192 FILLER_7_191
*1193 FILLER_7_194
*1194 FILLER_7_20
*1195 FILLER_7_210
*1196 FILLER_7_213
*1197 FILLER_7_216
*1198 FILLER_7_219
*1199 FILLER_7_222
*1200 FILLER_7_225
*1201 FILLER_7_230
*1202 FILLER_7_233
*1203 FILLER_7_236
*1204 FILLER_7_239
*1205 FILLER_7_279
*1206 FILLER_7_281
*1207 FILLER_7_284
*1208 FILLER_7_287
*1209 FILLER_7_299
*1210 FILLER_7_302
*1211 FILLER_7_305
*1212 FILLER_7_308
*1213 FILLER_7_334
*1214 FILLER_7_346
*1215 FILLER_7_47
*1216 FILLER_7_50
*1217 FILLER_8_118
*1218 FILLER_8_123
*1219 FILLER_8_13
*1220 FILLER_8_138
*1221 FILLER_8_16
*1222 FILLER_8_173
*1223 FILLER_8_176
*1224 FILLER_8_179
*1225 FILLER_8_182
*1226 FILLER_8_185
*1227 FILLER_8_188
*1228 FILLER_8_191
*1229 FILLER_8_194
*1230 FILLER_8_209
*1231 FILLER_8_215
*1232 FILLER_8_218
*1233 FILLER_8_221
*1234 FILLER_8_270
*1235 FILLER_8_273
*1236 FILLER_8_276
*1237 FILLER_8_279
*1238 FILLER_8_282
*1239 FILLER_8_285
*1240 FILLER_8_288
*1241 FILLER_8_299
*1242 FILLER_8_302
*1243 FILLER_8_305
*1244 FILLER_8_309
*1245 FILLER_8_312
*1246 FILLER_8_315
*1247 FILLER_8_318
*1248 FILLER_8_331
*1249 FILLER_8_334
*1250 FILLER_8_337
*1251 FILLER_8_46
*1252 FILLER_8_69
*1253 FILLER_8_72
*1254 FILLER_8_75
*1255 FILLER_8_78
*1256 FILLER_9_103
*1257 FILLER_9_106
*1258 FILLER_9_109
*1259 FILLER_9_116
*1260 FILLER_9_120
*1261 FILLER_9_123
*1262 FILLER_9_126
*1263 FILLER_9_129
*1264 FILLER_9_13
*1265 FILLER_9_169
*1266 FILLER_9_172
*1267 FILLER_9_175
*1268 FILLER_9_178
*1269 FILLER_9_181
*1270 FILLER_9_184
*1271 FILLER_9_187
*1272 FILLER_9_190
*1273 FILLER_9_240
*1274 FILLER_9_243
*1275 FILLER_9_273
*1276 FILLER_9_276
*1277 FILLER_9_279
*1278 FILLER_9_281
*1279 FILLER_9_284
*1280 FILLER_9_30
*1281 FILLER_9_300
*1282 FILLER_9_303
*1283 FILLER_9_306
*1284 FILLER_9_309
*1285 FILLER_9_321
*1286 FILLER_9_324
*1287 FILLER_9_327
*1288 FILLER_9_330
*1289 FILLER_9_333
*1290 FILLER_9_337
*1291 FILLER_9_44
*1292 FILLER_9_47
*1293 FILLER_9_50
*1294 FILLER_9_53
*1295 FILLER_9_57
*1296 FILLER_9_60
*1297 FILLER_9_63
*1298 FILLER_9_66
*1299 FILLER_9_71
*1300 FILLER_9_81
*1301 FILLER_9_84
*1302 FILLER_9_87
*1303 PHY_EDGE_ROW_0_Left_16
*1304 PHY_EDGE_ROW_0_Right_0
*1305 PHY_EDGE_ROW_10_Left_26
*1306 PHY_EDGE_ROW_10_Right_10
*1307 PHY_EDGE_ROW_11_Left_27
*1308 PHY_EDGE_ROW_11_Right_11
*1309 PHY_EDGE_ROW_12_Left_28
*1310 PHY_EDGE_ROW_12_Right_12
*1311 PHY_EDGE_ROW_13_Left_29
*1312 PHY_EDGE_ROW_13_Right_13
*1313 PHY_EDGE_ROW_14_Left_30
*1314 PHY_EDGE_ROW_14_Right_14
*1315 PHY_EDGE_ROW_15_Left_31
*1316 PHY_EDGE_ROW_15_Right_15
*1317 PHY_EDGE_ROW_1_Left_17
*1318 PHY_EDGE_ROW_1_Right_1
*1319 PHY_EDGE_ROW_2_Left_18
*1320 PHY_EDGE_ROW_2_Right_2
*1321 PHY_EDGE_ROW_3_Left_19
*1322 PHY_EDGE_ROW_3_Right_3
*1323 PHY_EDGE_ROW_4_Left_20
*1324 PHY_EDGE_ROW_4_Right_4
*1325 PHY_EDGE_ROW_5_Left_21
*1326 PHY_EDGE_ROW_5_Right_5
*1327 PHY_EDGE_ROW_6_Left_22
*1328 PHY_EDGE_ROW_6_Right_6
*1329 PHY_EDGE_ROW_7_Left_23
*1330 PHY_EDGE_ROW_7_Right_7
*1331 PHY_EDGE_ROW_8_Left_24
*1332 PHY_EDGE_ROW_8_Right_8
*1333 PHY_EDGE_ROW_9_Left_25
*1334 PHY_EDGE_ROW_9_Right_9
*1335 S_EF_ADC12_207
*1336 TAP_TAPCELL_ROW_0_32
*1337 TAP_TAPCELL_ROW_0_33
*1338 TAP_TAPCELL_ROW_0_34
*1339 TAP_TAPCELL_ROW_0_35
*1340 TAP_TAPCELL_ROW_0_36
*1341 TAP_TAPCELL_ROW_0_37
*1342 TAP_TAPCELL_ROW_0_38
*1343 TAP_TAPCELL_ROW_0_39
*1344 TAP_TAPCELL_ROW_0_40
*1345 TAP_TAPCELL_ROW_0_41
*1346 TAP_TAPCELL_ROW_0_42
*1347 TAP_TAPCELL_ROW_0_43
*1348 TAP_TAPCELL_ROW_10_100
*1349 TAP_TAPCELL_ROW_10_101
*1350 TAP_TAPCELL_ROW_10_102
*1351 TAP_TAPCELL_ROW_10_103
*1352 TAP_TAPCELL_ROW_10_98
*1353 TAP_TAPCELL_ROW_10_99
*1354 TAP_TAPCELL_ROW_11_104
*1355 TAP_TAPCELL_ROW_11_105
*1356 TAP_TAPCELL_ROW_11_106
*1357 TAP_TAPCELL_ROW_11_107
*1358 TAP_TAPCELL_ROW_11_108
*1359 TAP_TAPCELL_ROW_11_109
*1360 TAP_TAPCELL_ROW_12_110
*1361 TAP_TAPCELL_ROW_12_111
*1362 TAP_TAPCELL_ROW_12_112
*1363 TAP_TAPCELL_ROW_12_113
*1364 TAP_TAPCELL_ROW_12_114
*1365 TAP_TAPCELL_ROW_12_115
*1366 TAP_TAPCELL_ROW_13_116
*1367 TAP_TAPCELL_ROW_13_117
*1368 TAP_TAPCELL_ROW_13_118
*1369 TAP_TAPCELL_ROW_13_119
*1370 TAP_TAPCELL_ROW_13_120
*1371 TAP_TAPCELL_ROW_13_121
*1372 TAP_TAPCELL_ROW_14_122
*1373 TAP_TAPCELL_ROW_14_123
*1374 TAP_TAPCELL_ROW_14_124
*1375 TAP_TAPCELL_ROW_14_125
*1376 TAP_TAPCELL_ROW_14_126
*1377 TAP_TAPCELL_ROW_14_127
*1378 TAP_TAPCELL_ROW_15_128
*1379 TAP_TAPCELL_ROW_15_129
*1380 TAP_TAPCELL_ROW_15_130
*1381 TAP_TAPCELL_ROW_15_131
*1382 TAP_TAPCELL_ROW_15_132
*1383 TAP_TAPCELL_ROW_15_133
*1384 TAP_TAPCELL_ROW_15_134
*1385 TAP_TAPCELL_ROW_15_135
*1386 TAP_TAPCELL_ROW_15_136
*1387 TAP_TAPCELL_ROW_15_137
*1388 TAP_TAPCELL_ROW_15_138
*1389 TAP_TAPCELL_ROW_15_139
*1390 TAP_TAPCELL_ROW_1_44
*1391 TAP_TAPCELL_ROW_1_45
*1392 TAP_TAPCELL_ROW_1_46
*1393 TAP_TAPCELL_ROW_1_47
*1394 TAP_TAPCELL_ROW_1_48
*1395 TAP_TAPCELL_ROW_1_49
*1396 TAP_TAPCELL_ROW_2_50
*1397 TAP_TAPCELL_ROW_2_51
*1398 TAP_TAPCELL_ROW_2_52
*1399 TAP_TAPCELL_ROW_2_53
*1400 TAP_TAPCELL_ROW_2_54
*1401 TAP_TAPCELL_ROW_2_55
*1402 TAP_TAPCELL_ROW_3_56
*1403 TAP_TAPCELL_ROW_3_57
*1404 TAP_TAPCELL_ROW_3_58
*1405 TAP_TAPCELL_ROW_3_59
*1406 TAP_TAPCELL_ROW_3_60
*1407 TAP_TAPCELL_ROW_3_61
*1408 TAP_TAPCELL_ROW_4_62
*1409 TAP_TAPCELL_ROW_4_63
*1410 TAP_TAPCELL_ROW_4_64
*1411 TAP_TAPCELL_ROW_4_65
*1412 TAP_TAPCELL_ROW_4_66
*1413 TAP_TAPCELL_ROW_4_67
*1414 TAP_TAPCELL_ROW_5_68
*1415 TAP_TAPCELL_ROW_5_69
*1416 TAP_TAPCELL_ROW_5_70
*1417 TAP_TAPCELL_ROW_5_71
*1418 TAP_TAPCELL_ROW_5_72
*1419 TAP_TAPCELL_ROW_5_73
*1420 TAP_TAPCELL_ROW_6_74
*1421 TAP_TAPCELL_ROW_6_75
*1422 TAP_TAPCELL_ROW_6_76
*1423 TAP_TAPCELL_ROW_6_77
*1424 TAP_TAPCELL_ROW_6_78
*1425 TAP_TAPCELL_ROW_6_79
*1426 TAP_TAPCELL_ROW_7_80
*1427 TAP_TAPCELL_ROW_7_81
*1428 TAP_TAPCELL_ROW_7_82
*1429 TAP_TAPCELL_ROW_7_83
*1430 TAP_TAPCELL_ROW_7_84
*1431 TAP_TAPCELL_ROW_7_85
*1432 TAP_TAPCELL_ROW_8_86
*1433 TAP_TAPCELL_ROW_8_87
*1434 TAP_TAPCELL_ROW_8_88
*1435 TAP_TAPCELL_ROW_8_89
*1436 TAP_TAPCELL_ROW_8_90
*1437 TAP_TAPCELL_ROW_8_91
*1438 TAP_TAPCELL_ROW_9_92
*1439 TAP_TAPCELL_ROW_9_93
*1440 TAP_TAPCELL_ROW_9_94
*1441 TAP_TAPCELL_ROW_9_95
*1442 TAP_TAPCELL_ROW_9_96
*1443 TAP_TAPCELL_ROW_9_97
*1444 _082_
*1445 _083_
*1446 _084_
*1447 _085_
*1448 _086_
*1449 _087_
*1450 _088_
*1451 _089_
*1452 _090_
*1453 _091_
*1454 _092_
*1455 _093_
*1456 _094_
*1457 _095_
*1458 _096_
*1459 _097_
*1460 _098_
*1461 _099_
*1462 _100_
*1463 _101_
*1464 _102_
*1465 _103_
*1466 _104_
*1467 _105_
*1468 _106_
*1469 _107_
*1470 _108_
*1471 _109_
*1472 _110_
*1473 _111_
*1474 _112_
*1475 _113_
*1476 _114_
*1477 _115_
*1478 _116_
*1479 _117_
*1480 _118_
*1481 _119_
*1482 _120_
*1483 _121_
*1484 _122_
*1485 _123_
*1486 _124_
*1487 _125_
*1488 _126_
*1489 _127_
*1490 _128_
*1491 _129_
*1492 _130_
*1493 _131_
*1494 _132_
*1495 _133_
*1496 _134_
*1497 _135_
*1498 _136_
*1499 _137_
*1500 _138_
*1501 _139_
*1502 _140_
*1503 _141_
*1504 _142_
*1505 _143_
*1506 _144_
*1507 _145_
*1508 _146_
*1509 _147_
*1510 _148_
*1511 _149_
*1512 _150_
*1513 _151_
*1514 _152_
*1515 _153_
*1516 _154_
*1517 _155_
*1518 _156_
*1519 _157_
*1520 _158_
*1521 _159_
*1522 _160_
*1523 _161_
*1524 _162_
*1525 _163_
*1526 _164_
*1527 _165_
*1528 _166_
*1529 _167_
*1530 _168_
*1531 _169_
*1532 _170_
*1533 _171_
*1534 _172_
*1535 _173_
*1536 _174_
*1537 _175_
*1538 _176_
*1539 _177_
*1540 _178_
*1541 _179_
*1542 _180_
*1543 _181_
*1544 _182_
*1545 _183_
*1546 _184_
*1547 _185_
*1548 _186_
*1549 _187_
*1550 _188_
*1551 _189_
*1552 _190_
*1553 _191_
*1554 _192_
*1555 _193_
*1556 _194_
*1557 _195_
*1558 _196_
*1559 _197_
*1560 _198_
*1561 _199_
*1562 _200_
*1563 _201_
*1564 _202_
*1565 _203_
*1566 _204_
*1567 _205_
*1568 _206_
*1569 _207_
*1570 _208_
*1571 _209_
*1572 _210_
*1573 _211_
*1574 _212_
*1575 _213_
*1576 _214_
*1577 _215_
*1578 _216_
*1579 _217_
*1580 _218_
*1581 _219_
*1582 _220_
*1583 _221_
*1584 _222_
*1585 _223_
*1586 _224_
*1587 _225_
*1588 _226_
*1589 _227_
*1590 _228_
*1591 _229_
*1592 _230_
*1593 _231_
*1594 _232_
*1595 _233_
*1596 _234_
*1597 _235_
*1598 _236_
*1599 _237_
*1600 _238_
*1601 _239_
*1602 _240_
*1603 _241_
*1604 _242_
*1605 _243_
*1606 _244_
*1607 _245_
*1608 _246_
*1609 _247_
*1610 _248_
*1611 _249_
*1612 _250_
*1613 _251_
*1614 _252_
*1615 _253_
*1616 _254_
*1617 _255_
*1618 _256_
*1619 _257_
*1620 _258_
*1621 _259_
*1622 _260_
*1623 _261_
*1624 _262_
*1625 _263_
*1626 _264_
*1627 _265_
*1628 _266_
*1629 _267_
*1630 _268_
*1631 _269_
*1632 _270_
*1633 _271_
*1634 _272_
*1635 _273_
*1636 _274_
*1637 _275_
*1638 _276_
*1639 _277_
*1640 _278_
*1641 _279_
*1642 _280_
*1643 _281_
*1644 _282_
*1645 _283_
*1646 _284_
*1647 _285_
*1648 _286_
*1649 _287_
*1650 _288_
*1651 _289_
*1652 _290_
*1653 _291_
*1654 _292_
*1655 _293_
*1656 _294_
*1657 _295_
*1658 _296_
*1659 _297_
*1660 _298_
*1661 _299_
*1662 _300_
*1663 _301_
*1664 _302_
*1665 _303_
*1666 _304_
*1667 _305_
*1668 _306_
*1669 _307_
*1670 _308_
*1671 _309_
*1672 _310_
*1673 _311_
*1674 _312_
*1675 _313_
*1676 _314_
*1677 _315_
*1678 _316_
*1679 _317_
*1680 _319_
*1681 _320_
*1682 _321_
*1683 _322_
*1684 _323_
*1685 _324_
*1686 _325_
*1687 _326_
*1688 _327_
*1689 _328_
*1690 _329_
*1691 _330_
*1692 _331_
*1693 _332_
*1694 _333_
*1695 _334_
*1696 _335_
*1697 _336_
*1698 _337_
*1699 _338_
*1700 _339_
*1701 _340_
*1702 _341_
*1703 _342_
*1704 _343_
*1705 _344_
*1706 _345_
*1707 _346_
*1708 _347_
*1709 _348_
*1710 _349_
*1711 _350_
*1712 _351_
*1713 _352_
*1714 _353_
*1715 _354_
*1716 _355_
*1717 _356_
*1718 _357_
*1719 _358_
*1720 _359_
*1721 _360_
*1722 _361_
*1723 _362_
*1724 _363_
*1725 _364_
*1726 _365_
*1727 _366_
*1728 _367_
*1729 _368_
*1730 _369_
*1731 _370_
*1732 _371_
*1733 _372_
*1734 _373_
*1735 _374_
*1736 _375_
*1737 _376_
*1738 _377_
*1739 _378_
*1740 _379_
*1741 _380_
*1742 _381_
*1743 _382_
*1744 _383_
*1745 _384_
*1746 _385_
*1747 _386_
*1748 _387_
*1749 _388_
*1750 _389_
*1751 _390_
*1752 _391_
*1753 _392_
*1754 _393_
*1755 _394_
*1756 _395_
*1757 _396_
*1758 _397_
*1759 _398_
*1760 _399_
*1761 _400_
*1762 _401_
*1763 _402_
*1764 _403_
*1765 _404_
*1766 _405_
*1767 _406_
*1768 _407_
*1769 _408_
*1770 _409_
*1771 _410_
*1772 _411_
*1773 _412_
*1774 _413_
*1775 _414_
*1776 _415_
*1777 _416_
*1778 _417_
*1779 _418_
*1780 _419_
*1781 _420_
*1782 _421_
*1783 _422_
*1784 _423_
*1785 clkbuf_0_UserCLK
*1786 clkbuf_0_UserCLK_regs
*1787 clkbuf_1_0__f_UserCLK
*1788 clkbuf_2_0__f_UserCLK_regs
*1789 clkbuf_2_1__f_UserCLK_regs
*1790 clkbuf_2_2__f_UserCLK_regs
*1791 clkbuf_2_3__f_UserCLK_regs
*1792 clkbuf_regs_0_UserCLK
*1793 clkload0
*1794 fanout33
*1795 fanout34
*1796 fanout35
*1797 fanout36
*1798 fanout37
*1799 fanout38
*1800 fanout39
*1801 fanout40
*1802 fanout41
*1803 fanout42
*1804 fanout43
*1805 hold1
*1806 hold10
*1807 hold11
*1808 hold12
*1809 hold13
*1810 hold14
*1811 hold15
*1812 hold16
*1813 hold17
*1814 hold18
*1815 hold19
*1816 hold2
*1817 hold3
*1818 hold4
*1819 hold5
*1820 hold6
*1821 hold7
*1822 hold8
*1823 hold9
*1824 input1
*1825 input10
*1826 input11
*1827 input12
*1828 input13
*1829 input14
*1830 input15
*1831 input16
*1832 input17
*1833 input18
*1834 input19
*1835 input2
*1836 input20
*1837 input21
*1838 input22
*1839 input23
*1840 input24
*1841 input25
*1842 input26
*1843 input27
*1844 input28
*1845 input29
*1846 input3
*1847 input30
*1848 input31
*1849 input32
*1850 input33
*1851 input34
*1852 input35
*1853 input36
*1854 input37
*1855 input38
*1856 input39
*1857 input4
*1858 input40
*1859 input41
*1860 input42
*1861 input43
*1862 input44
*1863 input45
*1864 input46
*1865 input47
*1866 input48
*1867 input49
*1868 input5
*1869 input50
*1870 input51
*1871 input52
*1872 input53
*1873 input54
*1874 input55
*1875 input56
*1876 input57
*1877 input58
*1878 input59
*1879 input6
*1880 input60
*1881 input61
*1882 input62
*1883 input63
*1884 input64
*1885 input65
*1886 input66
*1887 input67
*1888 input68
*1889 input69
*1890 input7
*1891 input70
*1892 input71
*1893 input72
*1894 input73
*1895 input74
*1896 input75
*1897 input76
*1898 input77
*1899 input78
*1900 input79
*1901 input8
*1902 input80
*1903 input81
*1904 input82
*1905 input83
*1906 input84
*1907 input85
*1908 input86
*1909 input87
*1910 input9
*1911 output100
*1912 output101
*1913 output102
*1914 output103
*1915 output104
*1916 output105
*1917 output106
*1918 output107
*1919 output108
*1920 output109
*1921 output110
*1922 output111
*1923 output112
*1924 output113
*1925 output114
*1926 output115
*1927 output116
*1928 output117
*1929 output118
*1930 output119
*1931 output120
*1932 output121
*1933 output122
*1934 output123
*1935 output124
*1936 output125
*1937 output126
*1938 output127
*1939 output128
*1940 output129
*1941 output130
*1942 output131
*1943 output132
*1944 output133
*1945 output134
*1946 output135
*1947 output136
*1948 output137
*1949 output138
*1950 output139
*1951 output140
*1952 output141
*1953 output142
*1954 output143
*1955 output144
*1956 output145
*1957 output146
*1958 output147
*1959 output148
*1960 output149
*1961 output150
*1962 output151
*1963 output152
*1964 output153
*1965 output154
*1966 output155
*1967 output156
*1968 output157
*1969 output158
*1970 output159
*1971 output160
*1972 output161
*1973 output162
*1974 output163
*1975 output164
*1976 output165
*1977 output166
*1978 output167
*1979 output168
*1980 output169
*1981 output170
*1982 output171
*1983 output172
*1984 output173
*1985 output174
*1986 output175
*1987 output176
*1988 output177
*1989 output178
*1990 output179
*1991 output180
*1992 output181
*1993 output182
*1994 output183
*1995 output184
*1996 output185
*1997 output186
*1998 output187
*1999 output188
*2000 output189
*2001 output190
*2002 output191
*2003 output192
*2004 output193
*2005 output194
*2006 output195
*2007 output196
*2008 output197
*2009 output198
*2010 output199
*2011 output200
*2012 output201
*2013 output202
*2014 output203
*2015 output204
*2016 output205
*2017 output206
*2018 output88
*2019 output89
*2020 output90
*2021 output91
*2022 output92
*2023 output93
*2024 output94
*2025 output95
*2026 output96
*2027 output97
*2028 output98
*2029 output99

*PORTS
CMP_top I
Co O
FrameData[0] I
FrameData[10] I
FrameData[11] I
FrameData[12] I
FrameData[13] I
FrameData[14] I
FrameData[15] I
FrameData[16] I
FrameData[17] I
FrameData[18] I
FrameData[19] I
FrameData[1] I
FrameData[20] I
FrameData[21] I
FrameData[22] I
FrameData[23] I
FrameData[24] I
FrameData[25] I
FrameData[26] I
FrameData[27] I
FrameData[28] I
FrameData[29] I
FrameData[2] I
FrameData[30] I
FrameData[31] I
FrameData[3] I
FrameData[4] I
FrameData[5] I
FrameData[6] I
FrameData[7] I
FrameData[8] I
FrameData[9] I
FrameData_O[0] O
FrameData_O[10] O
FrameData_O[11] O
FrameData_O[12] O
FrameData_O[13] O
FrameData_O[14] O
FrameData_O[15] O
FrameData_O[16] O
FrameData_O[17] O
FrameData_O[18] O
FrameData_O[19] O
FrameData_O[1] O
FrameData_O[20] O
FrameData_O[21] O
FrameData_O[22] O
FrameData_O[23] O
FrameData_O[24] O
FrameData_O[25] O
FrameData_O[26] O
FrameData_O[27] O
FrameData_O[28] O
FrameData_O[29] O
FrameData_O[2] O
FrameData_O[30] O
FrameData_O[31] O
FrameData_O[3] O
FrameData_O[4] O
FrameData_O[5] O
FrameData_O[6] O
FrameData_O[7] O
FrameData_O[8] O
FrameData_O[9] O
FrameStrobe[0] I
FrameStrobe[10] I
FrameStrobe[11] I
FrameStrobe[12] I
FrameStrobe[13] I
FrameStrobe[14] I
FrameStrobe[15] I
FrameStrobe[16] I
FrameStrobe[17] I
FrameStrobe[18] I
FrameStrobe[19] I
FrameStrobe[1] I
FrameStrobe[2] I
FrameStrobe[3] I
FrameStrobe[4] I
FrameStrobe[5] I
FrameStrobe[6] I
FrameStrobe[7] I
FrameStrobe[8] I
FrameStrobe[9] I
FrameStrobe_O[0] O
FrameStrobe_O[10] O
FrameStrobe_O[11] O
FrameStrobe_O[12] O
FrameStrobe_O[13] O
FrameStrobe_O[14] O
FrameStrobe_O[15] O
FrameStrobe_O[16] O
FrameStrobe_O[17] O
FrameStrobe_O[18] O
FrameStrobe_O[19] O
FrameStrobe_O[1] O
FrameStrobe_O[2] O
FrameStrobe_O[3] O
FrameStrobe_O[4] O
FrameStrobe_O[5] O
FrameStrobe_O[6] O
FrameStrobe_O[7] O
FrameStrobe_O[8] O
FrameStrobe_O[9] O
HOLD_top O
N1BEG[0] O
N1BEG[1] O
N1BEG[2] O
N1BEG[3] O
N2BEG[0] O
N2BEG[1] O
N2BEG[2] O
N2BEG[3] O
N2BEG[4] O
N2BEG[5] O
N2BEG[6] O
N2BEG[7] O
N2BEGb[0] O
N2BEGb[1] O
N2BEGb[2] O
N2BEGb[3] O
N2BEGb[4] O
N2BEGb[5] O
N2BEGb[6] O
N2BEGb[7] O
N4BEG[0] O
N4BEG[10] O
N4BEG[11] O
N4BEG[12] O
N4BEG[13] O
N4BEG[14] O
N4BEG[15] O
N4BEG[1] O
N4BEG[2] O
N4BEG[3] O
N4BEG[4] O
N4BEG[5] O
N4BEG[6] O
N4BEG[7] O
N4BEG[8] O
N4BEG[9] O
NN4BEG[0] O
NN4BEG[10] O
NN4BEG[11] O
NN4BEG[12] O
NN4BEG[13] O
NN4BEG[14] O
NN4BEG[15] O
NN4BEG[1] O
NN4BEG[2] O
NN4BEG[3] O
NN4BEG[4] O
NN4BEG[5] O
NN4BEG[6] O
NN4BEG[7] O
NN4BEG[8] O
NN4BEG[9] O
RESET_top O
S1END[0] I
S1END[1] I
S1END[2] I
S1END[3] I
S2END[0] I
S2END[1] I
S2END[2] I
S2END[3] I
S2END[4] I
S2END[5] I
S2END[6] I
S2END[7] I
S2MID[0] I
S2MID[1] I
S2MID[2] I
S2MID[3] I
S2MID[4] I
S2MID[5] I
S2MID[6] I
S2MID[7] I
S4END[0] I
S4END[10] I
S4END[11] I
S4END[12] I
S4END[13] I
S4END[14] I
S4END[15] I
S4END[1] I
S4END[2] I
S4END[3] I
S4END[4] I
S4END[5] I
S4END[6] I
S4END[7] I
S4END[8] I
S4END[9] I
SS4END[0] I
SS4END[10] I
SS4END[11] I
SS4END[12] I
SS4END[13] I
SS4END[14] I
SS4END[15] I
SS4END[1] I
SS4END[2] I
SS4END[3] I
SS4END[4] I
SS4END[5] I
SS4END[6] I
SS4END[7] I
SS4END[8] I
SS4END[9] I
UserCLK I
UserCLKo O
VALUE_top0 O
VALUE_top1 O
VALUE_top10 O
VALUE_top11 O
VALUE_top2 O
VALUE_top3 O
VALUE_top4 O
VALUE_top5 O
VALUE_top6 O
VALUE_top7 O
VALUE_top8 O
VALUE_top9 O

*D_NET *1 0.00167072
*CONN
*P CMP_top I
*I *1824:A I *D sky130_fd_sc_hd__buf_1
*CAP
1 CMP_top 0.000674388
2 *1824:A 0.000674388
3 *1824:A VALUE_top0 0.000196669
4 *1824:A *1835:A 0
5 *1824:A *1845:A 8.8266e-05
6 *1824:A *459:24 1.08758e-05
7 *1824:A *493:26 2.61299e-05
8 *1824:A *548:44 0
9 *1824:A *617:22 0
*RES
1 CMP_top *1824:A 14.94 
*END

*D_NET *2 0.00416851
*CONN
*P Co O
*I *1335:LO O *D sky130_fd_sc_hd__conb_1
*CAP
1 Co 0.000713203
2 *1335:LO 0.000713203
3 Co NN4BEG[10] 0.00011381
4 Co NN4BEG[11] 0.000375528
5 Co NN4BEG[15] 0.000117401
6 Co NN4BEG[5] 4.93647e-05
7 Co NN4BEG[6] 2.99555e-05
8 Co NN4BEG[7] 0.000317293
9 Co *1649:GATE 7.58908e-05
10 Co *1754:A 5.24337e-05
11 Co *1853:A 0.000117401
12 Co *1854:A 0.000703021
13 Co *1919:A 5.75434e-05
14 Co *2001:A 0.000312571
15 Co *529:32 0.000122075
16 Co *537:52 0.000184547
17 Co *587:147 8.46717e-05
18 Co *592:75 2.85992e-05
*RES
1 *1335:LO Co 26.71 
*END

*D_NET *3 0.00247579
*CONN
*P FrameData[0] I
*I *1835:A I *D sky130_fd_sc_hd__buf_1
*CAP
1 FrameData[0] 0.000849967
2 *1835:A 0.000849967
3 *1835:A VALUE_top1 6.62837e-05
4 *1835:A *1828:A 0.000528681
5 *1835:A *1843:A 0
6 *1835:A *2006:A 1.08723e-05
7 *1835:A *2007:A 0
8 *1835:A *459:24 6.42458e-05
9 *1835:A *493:26 7.33977e-05
10 *1835:A *548:44 0
11 *1835:A *619:50 3.23812e-05
12 *1824:A *1835:A 0
*RES
1 FrameData[0] *1835:A 8.88063 
*END

*D_NET *4 0.00118145
*CONN
*P FrameData[10] I
*I *1846:A I *D sky130_fd_sc_hd__buf_1
*CAP
1 FrameData[10] 0.000185371
2 *1846:A 0.000185371
3 *1846:A *1850:A 0.000446118
4 *1846:A *1857:A 0.000346313
5 *1846:A *614:40 1.82759e-05
*RES
1 FrameData[10] *1846:A 6.49163 
*END

*D_NET *5 0.00140057
*CONN
*P FrameData[11] I
*I *1857:A I *D sky130_fd_sc_hd__buf_1
*CAP
1 FrameData[11] 0.000222847
2 *1857:A 0.000222847
3 *1857:A *1552:B 1.59562e-05
4 *1857:A *1554:A 4.49328e-05
5 *1857:A *1850:A 1.26107e-05
6 *1857:A *1868:A 0.000353461
7 *1857:A *1879:A 2.91013e-05
8 *1857:A *614:40 0.000152503
9 *1846:A *1857:A 0.000346313
*RES
1 FrameData[11] *1857:A 6.92143 
*END

*D_NET *6 0.00108699
*CONN
*P FrameData[12] I
*I *1868:A I *D sky130_fd_sc_hd__buf_1
*CAP
1 FrameData[12] 0.000143627
2 *1868:A 0.000143627
3 *1868:A *1879:A 0.000346039
4 *1868:A *548:44 6.44676e-05
5 *1868:A *614:40 3.57702e-05
6 *1857:A *1868:A 0.000353461
*RES
1 FrameData[12] *1868:A 5.72663 
*END

*D_NET *7 0.00157998
*CONN
*P FrameData[13] I
*I *1879:A I *D sky130_fd_sc_hd__buf_1
*CAP
1 FrameData[13] 0.000262115
2 *1879:A 0.000262115
3 *1879:A *1554:B 0.000170403
4 *1879:A *1890:A 0.000376296
5 *1879:A *1901:A 1.43043e-05
6 *1879:A *614:40 4.55864e-06
7 *1879:A *640:12 6.6924e-05
8 *1879:A *662:22 4.81263e-05
9 *1857:A *1879:A 2.91013e-05
10 *1868:A *1879:A 0.000346039
*RES
1 FrameData[13] *1879:A 7.2347 
*END

*D_NET *8 0.00120393
*CONN
*P FrameData[14] I
*I *1890:A I *D sky130_fd_sc_hd__clkbuf_2
*CAP
1 FrameData[14] 0.000145475
2 *1890:A 0.000145475
3 *1890:A *1901:A 0.000364289
4 *1890:A *614:40 8.61961e-05
5 *1890:A *640:12 8.61961e-05
6 *1879:A *1890:A 0.000376296
*RES
1 FrameData[14] *1890:A 6.0399 
*END

*D_NET *9 0.00181324
*CONN
*P FrameData[15] I
*I *1901:A I *D sky130_fd_sc_hd__buf_1
*CAP
1 FrameData[15] 0.000390833
2 *1901:A 0.000390833
3 *1901:A *1825:A 3.68086e-05
4 *1901:A *1910:A 0.000369152
5 *1901:A *471:20 0
6 *1901:A *526:32 4.94284e-05
7 *1901:A *613:24 4.37173e-06
8 *1901:A *622:127 4.05129e-06
9 *1901:A *662:22 0.0001651
10 *1901:A *673:28 2.40647e-05
11 *1879:A *1901:A 1.43043e-05
12 *1890:A *1901:A 0.000364289
*RES
1 FrameData[15] *1901:A 7.1545 
*END

*D_NET *10 0.00110355
*CONN
*P FrameData[16] I
*I *1910:A I *D sky130_fd_sc_hd__clkbuf_2
*CAP
1 FrameData[16] 0.000142992
2 *1910:A 0.000142992
3 *1910:A *1825:A 0.000365639
4 *1910:A *614:40 4.13879e-05
5 *1910:A *640:12 4.13879e-05
6 *1901:A *1910:A 0.000369152
*RES
1 FrameData[16] *1910:A 5.5299 
*END

*D_NET *11 0.00127394
*CONN
*P FrameData[17] I
*I *1825:A I *D sky130_fd_sc_hd__buf_1
*CAP
1 FrameData[17] 0.00021984
2 *1825:A 0.00021984
3 *1825:A *1826:A 0.000349553
4 *1825:A *1827:A 4.2323e-05
5 *1825:A *526:32 3.99339e-05
6 *1825:A *613:24 0
7 *1901:A *1825:A 3.68086e-05
8 *1910:A *1825:A 0.000365639
*RES
1 FrameData[17] *1825:A 5.7047 
*END

*D_NET *12 0.00109415
*CONN
*P FrameData[18] I
*I *1826:A I *D sky130_fd_sc_hd__dlymetal6s2s_1
*CAP
1 FrameData[18] 0.000135486
2 *1826:A 0.000135486
3 *1826:A *1827:A 0.00034469
4 *1826:A *548:44 6.44676e-05
5 *1826:A *614:40 6.44676e-05
6 *1825:A *1826:A 0.000349553
*RES
1 FrameData[18] *1826:A 5.72663 
*END

*D_NET *13 0.00194072
*CONN
*P FrameData[19] I
*I *1827:A I *D sky130_fd_sc_hd__buf_1
*CAP
1 FrameData[19] 0.000325191
2 *1827:A 0.000325191
3 *1827:A *1829:A 0.000352789
4 *1827:A *1830:A 0.000216025
5 *1827:A *526:32 0.000276534
6 *1827:A *613:24 0
7 *1827:A *614:40 5.79711e-05
8 *1825:A *1827:A 4.2323e-05
9 *1826:A *1827:A 0.00034469
*RES
1 FrameData[19] *1827:A 9.2747 
*END

*D_NET *14 0.00199503
*CONN
*P FrameData[1] I
*I *1828:A I *D sky130_fd_sc_hd__buf_1
*CAP
1 FrameData[1] 0.000421493
2 *1828:A 0.000421493
3 *1828:A *1840:A 0.00042331
4 *1828:A *1843:A 3.29495e-05
5 *1828:A *526:32 0.000167106
6 *1828:A *548:44 0
7 *1835:A *1828:A 0.000528681
*RES
1 FrameData[1] *1828:A 7.5843 
*END

*D_NET *15 0.00108026
*CONN
*P FrameData[20] I
*I *1829:A I *D sky130_fd_sc_hd__dlymetal6s2s_1
*CAP
1 FrameData[20] 0.000126248
2 *1829:A 0.000126248
3 *1829:A *1830:A 0.000346039
4 *1829:A *548:44 6.44676e-05
5 *1829:A *614:40 6.44676e-05
6 *1827:A *1829:A 0.000352789
*RES
1 FrameData[20] *1829:A 5.72663 
*END

*D_NET *16 0.00180939
*CONN
*P FrameData[21] I
*I *1830:A I *D sky130_fd_sc_hd__buf_1
*CAP
1 FrameData[21] 0.00040636
2 *1830:A 0.00040636
3 *1830:A *1831:A 0.000373068
4 *1830:A *1832:A 1.26107e-05
5 *1830:A *1834:A 0
6 *1830:A *482:28 4.89295e-05
7 *1830:A *613:24 0
8 *1827:A *1830:A 0.000216025
9 *1829:A *1830:A 0.000346039
*RES
1 FrameData[21] *1830:A 8.08797 
*END

*D_NET *17 0.00118939
*CONN
*P FrameData[22] I
*I *1831:A I *D sky130_fd_sc_hd__clkbuf_2
*CAP
1 FrameData[22] 0.000145724
2 *1831:A 0.000145724
3 *1831:A *1832:A 0.000367261
4 *1831:A *548:44 8.61961e-05
5 *1831:A *614:40 7.14124e-05
6 *1830:A *1831:A 0.000373068
*RES
1 FrameData[22] *1831:A 6.0399 
*END

*D_NET *18 0.001885
*CONN
*P FrameData[23] I
*I *1832:A I *D sky130_fd_sc_hd__buf_1
*CAP
1 FrameData[23] 0.000364797
2 *1832:A 0.000364797
3 *1832:A *1833:A 0.000353461
4 *1832:A *1834:A 0.000191913
5 *1832:A *548:44 0.000131007
6 *1832:A *614:40 9.91538e-05
7 *1830:A *1832:A 1.26107e-05
8 *1831:A *1832:A 0.000367261
*RES
1 FrameData[23] *1832:A 9.95317 
*END

*D_NET *19 0.00104512
*CONN
*P FrameData[24] I
*I *1833:A I *D sky130_fd_sc_hd__dlymetal6s2s_1
*CAP
1 FrameData[24] 0.000140438
2 *1833:A 0.000140438
3 *1833:A *1834:A 0.000346313
4 *1833:A *548:44 6.44676e-05
5 *1832:A *1833:A 0.000353461
*RES
1 FrameData[24] *1833:A 5.72663 
*END

*D_NET *20 0.00151312
*CONN
*P FrameData[25] I
*I *1834:A I *D sky130_fd_sc_hd__buf_1
*CAP
1 FrameData[25] 0.000212054
2 *1834:A 0.000212054
3 *1834:A *1836:A 0.000506269
4 *1834:A *614:40 4.45146e-05
5 *1830:A *1834:A 0
6 *1832:A *1834:A 0.000191913
7 *1833:A *1834:A 0.000346313
*RES
1 FrameData[25] *1834:A 7.17643 
*END

*D_NET *21 0.00153599
*CONN
*P FrameData[26] I
*I *1836:A I *D sky130_fd_sc_hd__buf_1
*CAP
1 FrameData[26] 0.000233864
2 *1836:A 0.000233864
3 *1836:A *1837:A 0.000429304
4 *1836:A *559:48 4.77757e-05
5 *1836:A *614:40 8.49087e-05
6 *1834:A *1836:A 0.000506269
*RES
1 FrameData[26] *1836:A 7.0097 
*END

*D_NET *22 0.00178873
*CONN
*P FrameData[27] I
*I *1837:A I *D sky130_fd_sc_hd__buf_1
*CAP
1 FrameData[27] 0.000370429
2 *1837:A 0.000370429
3 *1837:A *1838:A 0.000512749
4 *1837:A *1842:A 3.60024e-06
5 *1837:A *537:26 0
6 *1837:A *613:24 7.24896e-05
7 *1837:A *614:40 2.97244e-05
8 *1836:A *1837:A 0.000429304
*RES
1 FrameData[27] *1837:A 7.21277 
*END

*D_NET *23 0.00190248
*CONN
*P FrameData[28] I
*I *1838:A I *D sky130_fd_sc_hd__buf_1
*CAP
1 FrameData[28] 0.000451917
2 *1838:A 0.000451917
3 *1838:A *1839:A 0.000347649
4 *1838:A *1841:A 1.09934e-05
5 *1838:A *1842:A 0
6 *1838:A *515:20 6.44676e-05
7 *1838:A *613:24 6.27875e-05
8 *1837:A *1838:A 0.000512749
*RES
1 FrameData[28] *1838:A 6.36757 
*END

*D_NET *24 0.00119207
*CONN
*P FrameData[29] I
*I *1839:A I *D sky130_fd_sc_hd__dlymetal6s2s_1
*CAP
1 FrameData[29] 0.000194608
2 *1839:A 0.000194608
3 *1839:A *1841:A 0.000449665
4 *1839:A *1842:A 0
5 *1839:A *537:26 5.53549e-06
6 *1838:A *1839:A 0.000347649
*RES
1 FrameData[29] *1839:A 6.74663 
*END

*D_NET *25 0.00170956
*CONN
*P FrameData[2] I
*I *1840:A I *D sky130_fd_sc_hd__buf_1
*CAP
1 FrameData[2] 0.000202224
2 *1840:A 0.000202224
3 *1840:A *1843:A 0.000409705
4 *1840:A *1845:A 0.000237225
5 *1840:A *548:44 0.00023487
6 *1828:A *1840:A 0.00042331
*RES
1 FrameData[2] *1840:A 7.94143 
*END

*D_NET *26 0.00128427
*CONN
*P FrameData[30] I
*I *1841:A I *D sky130_fd_sc_hd__clkbuf_2
*CAP
1 FrameData[30] 0.000163902
2 *1841:A 0.000163902
3 *1841:A *1842:A 0.000365912
4 *1841:A *537:26 0.000129898
5 *1838:A *1841:A 1.09934e-05
6 *1839:A *1841:A 0.000449665
*RES
1 FrameData[30] *1841:A 6.5499 
*END

*D_NET *27 0.0014017
*CONN
*P FrameData[31] I
*I *1842:A I *D sky130_fd_sc_hd__clkbuf_2
*CAP
1 FrameData[31] 0.000487496
2 *1842:A 0.000487496
3 *1842:A *537:26 5.71917e-05
4 *1842:A *582:14 0
5 *1837:A *1842:A 3.60024e-06
6 *1838:A *1842:A 0
7 *1839:A *1842:A 0
8 *1841:A *1842:A 0.000365912
*RES
1 FrameData[31] *1842:A 7.80297 
*END

*D_NET *28 0.00192353
*CONN
*P FrameData[3] I
*I *1843:A I *D sky130_fd_sc_hd__buf_1
*CAP
1 FrameData[3] 0.000449186
2 *1843:A 0.000449186
3 *1843:A *1558:B 6.63219e-06
4 *1843:A *1844:A 0.000474062
5 *1843:A *526:32 1.00941e-05
6 *1843:A *612:20 9.17179e-05
7 *1828:A *1843:A 3.29495e-05
8 *1835:A *1843:A 0
9 *1840:A *1843:A 0.000409705
*RES
1 FrameData[3] *1843:A 5.9741 
*END

*D_NET *29 0.00148514
*CONN
*P FrameData[4] I
*I *1844:A I *D sky130_fd_sc_hd__clkbuf_1
*CAP
1 FrameData[4] 0.00024948
2 *1844:A 0.00024948
3 *1844:A *1845:A 0.000387148
4 *1844:A *548:44 1.17462e-05
5 *1844:A *612:20 9.78866e-05
6 *1844:A *614:40 1.53353e-05
7 *1843:A *1844:A 0.000474062
*RES
1 FrameData[4] *1844:A 6.07623 
*END

*D_NET *30 0.00200126
*CONN
*P FrameData[5] I
*I *1845:A I *D sky130_fd_sc_hd__dlymetal6s2s_1
*CAP
1 FrameData[5] 0.000362188
2 *1845:A 0.000362188
3 *1845:A *1847:A 0.000432967
4 *1845:A *1849:A 4.01548e-05
5 *1845:A *548:44 7.37867e-05
6 *1845:A *614:40 8.80658e-06
7 *1845:A *617:22 8.53113e-06
8 *1824:A *1845:A 8.8266e-05
9 *1840:A *1845:A 0.000237225
10 *1844:A *1845:A 0.000387148
*RES
1 FrameData[5] *1845:A 10.4632 
*END

*D_NET *31 0.00145517
*CONN
*P FrameData[6] I
*I *1847:A I *D sky130_fd_sc_hd__dlymetal6s2s_1
*CAP
1 FrameData[6] 0.000275736
2 *1847:A 0.000275736
3 *1847:A *1848:A 0.000346313
4 *1847:A *1849:A 0.000124416
5 *1845:A *1847:A 0.000432967
*RES
1 FrameData[6] *1847:A 8.27663 
*END

*D_NET *32 0.000961531
*CONN
*P FrameData[7] I
*I *1848:A I *D sky130_fd_sc_hd__dlymetal6s2s_1
*CAP
1 FrameData[7] 0.00012123
2 *1848:A 0.00012123
3 *1848:A *1849:A 0.000372758
4 *1847:A *1848:A 0.000346313
*RES
1 FrameData[7] *1848:A 5.21663 
*END

*D_NET *33 0.00168333
*CONN
*P FrameData[8] I
*I *1849:A I *D sky130_fd_sc_hd__buf_1
*CAP
1 FrameData[8] 0.000294199
2 *1849:A 0.000294199
3 *1849:A *1850:A 0.000367535
4 *1849:A *548:44 4.86248e-05
5 *1849:A *614:40 0.000141438
6 *1845:A *1849:A 4.01548e-05
7 *1847:A *1849:A 0.000124416
8 *1848:A *1849:A 0.000372758
*RES
1 FrameData[8] *1849:A 9.0399 
*END

*D_NET *34 0.00149712
*CONN
*P FrameData[9] I
*I *1850:A I *D sky130_fd_sc_hd__buf_1
*CAP
1 FrameData[9] 0.000214439
2 *1850:A 0.000214439
3 *1850:A *548:44 7.13998e-05
4 *1850:A *614:40 0.000170583
5 *1846:A *1850:A 0.000446118
6 *1849:A *1850:A 0.000367535
7 *1857:A *1850:A 1.26107e-05
*RES
1 FrameData[9] *1850:A 7.5099 
*END

*D_NET *35 0.00120015
*CONN
*P FrameData_O[0] O
*I *2018:X O *D sky130_fd_sc_hd__buf_2
*CAP
1 FrameData_O[0] 0.000468682
2 *2018:X 0.000468682
3 FrameData_O[0] FrameData_O[1] 0.000232745
4 FrameData_O[0] *2029:A 0
5 FrameData_O[0] *489:46 3.00381e-05
*RES
1 *2018:X FrameData_O[0] 9.0953 
*END

*D_NET *36 0.00146859
*CONN
*P FrameData_O[10] O
*I *2019:X O *D sky130_fd_sc_hd__buf_2
*CAP
1 FrameData_O[10] 0.000343423
2 *2019:X 0.000343423
3 FrameData_O[10] FrameData_O[11] 0.000428002
4 FrameData_O[10] FrameData_O[9] 0.000353743
*RES
1 *2019:X FrameData_O[10] 5.50797 
*END

*D_NET *37 0.00186725
*CONN
*P FrameData_O[11] O
*I *2020:X O *D sky130_fd_sc_hd__buf_2
*CAP
1 FrameData_O[11] 0.000506997
2 *2020:X 0.000506997
3 FrameData_O[11] FrameData_O[12] 0.000188922
4 FrameData_O[11] FrameData_O[13] 9.76436e-05
5 FrameData_O[11] *695:DIODE 2.22315e-05
6 FrameData_O[11] *2022:A 9.03138e-05
7 FrameData_O[11] *2023:A 0
8 FrameData_O[11] *2027:A 2.30258e-05
9 FrameData_O[11] *509:32 3.11771e-06
10 FrameData_O[10] FrameData_O[11] 0.000428002
*RES
1 *2020:X FrameData_O[11] 6.76103 
*END

*D_NET *38 0.00112114
*CONN
*P FrameData_O[12] O
*I *2021:X O *D sky130_fd_sc_hd__buf_2
*CAP
1 FrameData_O[12] 0.000371648
2 *2021:X 0.000371648
3 FrameData_O[12] FrameData_O[13] 0.000188922
4 FrameData_O[12] FrameData_O[8] 0
5 FrameData_O[12] *2023:A 0
6 FrameData_O[11] FrameData_O[12] 0.000188922
*RES
1 *2021:X FrameData_O[12] 9.20377 
*END

*D_NET *39 0.00128335
*CONN
*P FrameData_O[13] O
*I *2022:X O *D sky130_fd_sc_hd__buf_2
*CAP
1 FrameData_O[13] 0.000284571
2 *2022:X 0.000284571
3 FrameData_O[13] FrameData_O[14] 0.000353743
4 FrameData_O[13] FrameData_O[15] 5.28564e-05
5 FrameData_O[13] *2027:A 2.10433e-05
6 FrameData_O[11] FrameData_O[13] 9.76436e-05
7 FrameData_O[12] FrameData_O[13] 0.000188922
*RES
1 *2022:X FrameData_O[13] 5.50797 
*END

*D_NET *40 0.00116196
*CONN
*P FrameData_O[14] O
*I *2023:X O *D sky130_fd_sc_hd__buf_2
*CAP
1 FrameData_O[14] 0.000232555
2 *2023:X 0.000232555
3 FrameData_O[14] FrameData_O[15] 0.000343109
4 FrameData_O[14] *2027:A 0
5 FrameData_O[13] FrameData_O[14] 0.000353743
*RES
1 *2023:X FrameData_O[14] 5.7849 
*END

*D_NET *41 0.00151167
*CONN
*P FrameData_O[15] O
*I *2024:X O *D sky130_fd_sc_hd__buf_2
*CAP
1 FrameData_O[15] 0.000323435
2 *2024:X 0.000323435
3 FrameData_O[15] FrameData_O[16] 0.000192142
4 FrameData_O[15] FrameData_O[17] 0.000100414
5 FrameData_O[15] *1523:A1 7.23602e-05
6 FrameData_O[15] *2027:A 0.000103924
7 FrameData_O[13] FrameData_O[15] 5.28564e-05
8 FrameData_O[14] FrameData_O[15] 0.000343109
*RES
1 *2024:X FrameData_O[15] 6.52797 
*END

*D_NET *42 0.00099714
*CONN
*P FrameData_O[16] O
*I *2025:X O *D sky130_fd_sc_hd__buf_2
*CAP
1 FrameData_O[16] 0.000306429
2 *2025:X 0.000306429
3 FrameData_O[16] FrameData_O[17] 0.000192142
4 FrameData_O[15] FrameData_O[16] 0.000192142
*RES
1 *2025:X FrameData_O[16] 7.67377 
*END

*D_NET *43 0.00147556
*CONN
*P FrameData_O[17] O
*I *2026:X O *D sky130_fd_sc_hd__buf_2
*CAP
1 FrameData_O[17] 0.000319315
2 *2026:X 0.000319315
3 FrameData_O[17] FrameData_O[18] 0.000353743
4 FrameData_O[17] FrameData_O[19] 4.51008e-05
5 FrameData_O[17] *1523:A1 3.97211e-05
6 FrameData_O[17] *2027:A 0.000105806
7 FrameData_O[15] FrameData_O[17] 0.000100414
8 FrameData_O[16] FrameData_O[17] 0.000192142
*RES
1 *2026:X FrameData_O[17] 6.52797 
*END

*D_NET *44 0.00108863
*CONN
*P FrameData_O[18] O
*I *2027:X O *D sky130_fd_sc_hd__buf_2
*CAP
1 FrameData_O[18] 0.00019589
2 *2027:X 0.00019589
3 FrameData_O[18] FrameData_O[19] 0.000343109
4 FrameData_O[17] FrameData_O[18] 0.000353743
*RES
1 *2027:X FrameData_O[18] 5.2749 
*END

*D_NET *45 0.00144443
*CONN
*P FrameData_O[19] O
*I *2028:X O *D sky130_fd_sc_hd__buf_2
*CAP
1 FrameData_O[19] 0.000407588
2 *2028:X 0.000407588
3 FrameData_O[19] FrameData_O[20] 0.000192142
4 FrameData_O[19] FrameData_O[21] 4.89043e-05
5 FrameData_O[19] FrameData_O[22] 0
6 FrameData_O[19] *1937:A 0
7 FrameData_O[17] FrameData_O[19] 4.51008e-05
8 FrameData_O[18] FrameData_O[19] 0.000343109
*RES
1 *2028:X FrameData_O[19] 6.52797 
*END

*D_NET *46 0.00121482
*CONN
*P FrameData_O[1] O
*I *2029:X O *D sky130_fd_sc_hd__buf_2
*CAP
1 FrameData_O[1] 0.000297304
2 *2029:X 0.000297304
3 FrameData_O[1] FrameData_O[2] 0.000350523
4 FrameData_O[1] *1730:A 0
5 FrameData_O[1] *2029:A 2.97561e-05
6 FrameData_O[1] *489:46 7.1932e-06
7 FrameData_O[0] FrameData_O[1] 0.000232745
*RES
1 *2029:X FrameData_O[1] 6.0399 
*END

*D_NET *47 0.00099714
*CONN
*P FrameData_O[20] O
*I *1911:X O *D sky130_fd_sc_hd__buf_2
*CAP
1 FrameData_O[20] 0.000306429
2 *1911:X 0.000306429
3 FrameData_O[20] FrameData_O[21] 0.000192142
4 FrameData_O[19] FrameData_O[20] 0.000192142
*RES
1 *1911:X FrameData_O[20] 7.67377 
*END

*D_NET *48 0.00122116
*CONN
*P FrameData_O[21] O
*I *1912:X O *D sky130_fd_sc_hd__buf_2
*CAP
1 FrameData_O[21] 0.000314795
2 *1912:X 0.000314795
3 FrameData_O[21] FrameData_O[22] 0.000350523
4 FrameData_O[19] FrameData_O[21] 4.89043e-05
5 FrameData_O[20] FrameData_O[21] 0.000192142
*RES
1 *1912:X FrameData_O[21] 6.2949 
*END

*D_NET *49 0.00132183
*CONN
*P FrameData_O[22] O
*I *1913:X O *D sky130_fd_sc_hd__buf_2
*CAP
1 FrameData_O[22] 0.000314098
2 *1913:X 0.000314098
3 FrameData_O[22] FrameData_O[23] 0.000343109
4 FrameData_O[22] FrameData_O[26] 0
5 FrameData_O[22] *1937:A 0
6 FrameData_O[19] FrameData_O[22] 0
7 FrameData_O[21] FrameData_O[22] 0.000350523
*RES
1 *1913:X FrameData_O[22] 5.50797 
*END

*D_NET *50 0.00123632
*CONN
*P FrameData_O[23] O
*I *1914:X O *D sky130_fd_sc_hd__buf_2
*CAP
1 FrameData_O[23] 0.000315769
2 *1914:X 0.000315769
3 FrameData_O[23] FrameData_O[24] 0.000235521
4 FrameData_O[23] FrameData_O[25] 2.61475e-05
5 FrameData_O[22] FrameData_O[23] 0.000343109
*RES
1 *1914:X FrameData_O[23] 6.2949 
*END

*D_NET *51 0.00147465
*CONN
*P FrameData_O[24] O
*I *1915:X O *D sky130_fd_sc_hd__buf_2
*CAP
1 FrameData_O[24] 0.000444298
2 *1915:X 0.000444298
3 FrameData_O[24] FrameData_O[25] 0.000232745
4 FrameData_O[24] *697:DIODE 8.77516e-05
5 FrameData_O[24] *1914:A 3.00381e-05
6 FrameData_O[23] FrameData_O[24] 0.000235521
*RES
1 *1915:X FrameData_O[24] 10.1903 
*END

*D_NET *52 0.00132229
*CONN
*P FrameData_O[25] O
*I *1916:X O *D sky130_fd_sc_hd__buf_2
*CAP
1 FrameData_O[25] 0.000358142
2 *1916:X 0.000358142
3 FrameData_O[25] FrameData_O[26] 0.000347119
4 FrameData_O[23] FrameData_O[25] 2.61475e-05
5 FrameData_O[24] FrameData_O[25] 0.000232745
*RES
1 *1916:X FrameData_O[25] 6.5499 
*END

*D_NET *53 0.00135101
*CONN
*P FrameData_O[26] O
*I *1917:X O *D sky130_fd_sc_hd__buf_2
*CAP
1 FrameData_O[26] 0.000330391
2 *1917:X 0.000330391
3 FrameData_O[26] FrameData_O[27] 0.000343109
4 FrameData_O[26] FrameData_O[30] 0
5 FrameData_O[26] *1922:A 0
6 FrameData_O[22] FrameData_O[26] 0
7 FrameData_O[25] FrameData_O[26] 0.000347119
*RES
1 *1917:X FrameData_O[26] 5.76297 
*END

*D_NET *54 0.0012338
*CONN
*P FrameData_O[27] O
*I *1918:X O *D sky130_fd_sc_hd__buf_2
*CAP
1 FrameData_O[27] 0.000314509
2 *1918:X 0.000314509
3 FrameData_O[27] FrameData_O[28] 0.000235521
4 FrameData_O[27] FrameData_O[29] 2.61475e-05
5 FrameData_O[27] *1920:A 0
6 FrameData_O[26] FrameData_O[27] 0.000343109
*RES
1 *1918:X FrameData_O[27] 6.2949 
*END

*D_NET *55 0.00138404
*CONN
*P FrameData_O[28] O
*I *1919:X O *D sky130_fd_sc_hd__buf_2
*CAP
1 FrameData_O[28] 0.000413755
2 *1919:X 0.000413755
3 FrameData_O[28] FrameData_O[29] 0.000232745
4 FrameData_O[28] *1918:A 8.8266e-05
5 FrameData_O[27] FrameData_O[28] 0.000235521
*RES
1 *1919:X FrameData_O[28] 9.5003 
*END

*D_NET *56 0.00127791
*CONN
*P FrameData_O[29] O
*I *1920:X O *D sky130_fd_sc_hd__buf_2
*CAP
1 FrameData_O[29] 0.000334337
2 *1920:X 0.000334337
3 FrameData_O[29] FrameData_O[30] 0.000350339
4 FrameData_O[29] *1920:A 0
5 FrameData_O[27] FrameData_O[29] 2.61475e-05
6 FrameData_O[28] FrameData_O[29] 0.000232745
*RES
1 *1920:X FrameData_O[29] 6.2949 
*END

*D_NET *57 0.00131766
*CONN
*P FrameData_O[2] O
*I *1921:X O *D sky130_fd_sc_hd__buf_2
*CAP
1 FrameData_O[2] 0.000282009
2 *1921:X 0.000282009
3 FrameData_O[2] FrameData_O[3] 0.000344446
4 FrameData_O[2] *1730:A 2.05641e-05
5 FrameData_O[2] *1924:A 1.92445e-05
6 FrameData_O[2] *489:46 1.88656e-05
7 FrameData_O[1] FrameData_O[2] 0.000350523
*RES
1 *1921:X FrameData_O[2] 5.50797 
*END

*D_NET *58 0.00135031
*CONN
*P FrameData_O[30] O
*I *1922:X O *D sky130_fd_sc_hd__buf_2
*CAP
1 FrameData_O[30] 0.000275845
2 *1922:X 0.000275845
3 FrameData_O[30] FrameData_O[31] 0.00042772
4 FrameData_O[30] *1920:A 2.05641e-05
5 FrameData_O[26] FrameData_O[30] 0
6 FrameData_O[29] FrameData_O[30] 0.000350339
*RES
1 *1922:X FrameData_O[30] 5.50797 
*END

*D_NET *59 0.00182685
*CONN
*P FrameData_O[31] O
*I *1923:X O *D sky130_fd_sc_hd__buf_2
*CAP
1 FrameData_O[31] 0.000672569
2 *1923:X 0.000672569
3 FrameData_O[31] *1916:A 0
4 FrameData_O[31] *1920:A 0
5 FrameData_O[31] *1922:A 5.39961e-05
6 FrameData_O[30] FrameData_O[31] 0.00042772
*RES
1 *1923:X FrameData_O[31] 6.42583 
*END

*D_NET *60 0.00113249
*CONN
*P FrameData_O[3] O
*I *1924:X O *D sky130_fd_sc_hd__buf_2
*CAP
1 FrameData_O[3] 0.000251794
2 *1924:X 0.000251794
3 FrameData_O[3] FrameData_O[4] 0.000235521
4 FrameData_O[3] FrameData_O[5] 2.32525e-05
5 FrameData_O[3] *1924:A 2.56866e-05
6 FrameData_O[2] FrameData_O[3] 0.000344446
*RES
1 *1924:X FrameData_O[3] 5.5299 
*END

*D_NET *61 0.00133154
*CONN
*P FrameData_O[4] O
*I *1925:X O *D sky130_fd_sc_hd__buf_2
*CAP
1 FrameData_O[4] 0.000419139
2 *1925:X 0.000419139
3 FrameData_O[4] FrameData_O[5] 0.000232745
4 FrameData_O[4] *489:46 2.49909e-05
5 FrameData_O[3] FrameData_O[4] 0.000235521
*RES
1 *1925:X FrameData_O[4] 8.4803 
*END

*D_NET *62 0.00108561
*CONN
*P FrameData_O[5] O
*I *1926:X O *D sky130_fd_sc_hd__buf_2
*CAP
1 FrameData_O[5] 0.000237935
2 *1926:X 0.000237935
3 FrameData_O[5] FrameData_O[6] 0.000353743
4 FrameData_O[3] FrameData_O[5] 2.32525e-05
5 FrameData_O[4] FrameData_O[5] 0.000232745
*RES
1 *1926:X FrameData_O[5] 5.2749 
*END

*D_NET *63 0.0013315
*CONN
*P FrameData_O[6] O
*I *1927:X O *D sky130_fd_sc_hd__buf_2
*CAP
1 FrameData_O[6] 0.000297117
2 *1927:X 0.000297117
3 FrameData_O[6] FrameData_O[7] 0.000344446
4 FrameData_O[6] *1924:A 3.90726e-05
5 FrameData_O[5] FrameData_O[6] 0.000353743
*RES
1 *1927:X FrameData_O[6] 5.50797 
*END

*D_NET *64 0.001147
*CONN
*P FrameData_O[7] O
*I *1928:X O *D sky130_fd_sc_hd__buf_2
*CAP
1 FrameData_O[7] 0.000271892
2 *1928:X 0.000271892
3 FrameData_O[7] FrameData_O[8] 0.000235521
4 FrameData_O[7] FrameData_O[9] 2.32525e-05
5 FrameData_O[6] FrameData_O[7] 0.000344446
*RES
1 *1928:X FrameData_O[7] 5.5299 
*END

*D_NET *65 0.00128994
*CONN
*P FrameData_O[8] O
*I *1929:X O *D sky130_fd_sc_hd__buf_2
*CAP
1 FrameData_O[8] 0.000394091
2 *1929:X 0.000394091
3 FrameData_O[8] FrameData_O[9] 0.000235521
4 FrameData_O[8] *1930:A 3.07153e-05
5 FrameData_O[12] FrameData_O[8] 0
6 FrameData_O[7] FrameData_O[8] 0.000235521
*RES
1 *1929:X FrameData_O[8] 8.4803 
*END

*D_NET *66 0.00110731
*CONN
*P FrameData_O[9] O
*I *1930:X O *D sky130_fd_sc_hd__buf_2
*CAP
1 FrameData_O[9] 0.000247396
2 *1930:X 0.000247396
3 FrameData_O[10] FrameData_O[9] 0.000353743
4 FrameData_O[7] FrameData_O[9] 2.32525e-05
5 FrameData_O[8] FrameData_O[9] 0.000235521
*RES
1 *1930:X FrameData_O[9] 5.2749 
*END

*D_NET *67 0.0103443
*CONN
*P FrameStrobe[0] I
*I *1804:A I *D sky130_fd_sc_hd__clkbuf_2
*CAP
1 FrameStrobe[0] 0.00168721
2 *1804:A 0.00050279
3 *67:15 0.00219
4 *1804:A *1456:A0 0.000801791
5 *1804:A *1480:S1 6.84448e-05
6 *1804:A *1483:A1 0
7 *1804:A *1595:D 6.10968e-05
8 *1804:A *1627:GATE 7.81763e-05
9 *1804:A *1706:A 4.66108e-05
10 *1804:A *1803:A 4.89295e-05
11 *1804:A *466:44 0.000306443
12 *1804:A *489:28 3.26024e-05
13 *1804:A *586:76 8.00716e-05
14 *1804:A *632:8 8.71886e-05
15 *1804:A *632:93 2.11559e-05
16 *1804:A *633:46 9.74218e-05
17 *1804:A *669:28 0
18 *1804:A *677:30 9.17274e-05
19 *67:15 *1456:A0 0.000349761
20 *67:15 *1458:A0 0
21 *67:15 *1458:A1 0
22 *67:15 *1470:A1 0.000110083
23 *67:15 *1483:A1 1.37515e-05
24 *67:15 *1518:S 0
25 *67:15 *1714:A 1.87674e-05
26 *67:15 *1718:A 0
27 *67:15 *1719:A 0
28 *67:15 *1732:A 0.000150588
29 *67:15 *80:19 0.00102992
30 *67:15 *82:15 0
31 *67:15 *471:36 0.000144114
32 *67:15 *491:38 0
33 *67:15 *518:24 0.000140716
34 *67:15 *526:34 0.00144595
35 *67:15 *528:28 4.82919e-05
36 *67:15 *560:24 8.50523e-05
37 *67:15 *570:12 0.00049892
38 *67:15 *613:44 0
39 *67:15 *636:10 0.000106691
*RES
1 FrameStrobe[0] *67:15 46.45 
2 *67:15 *1804:A 16.875 
*END

*D_NET *68 0.00708679
*CONN
*P FrameStrobe[10] I
*I *1722:A I *D sky130_fd_sc_hd__clkbuf_1
*CAP
1 FrameStrobe[10] 0.000827043
2 *1722:A 0.000827043
3 *1722:A *1716:A 0.000111324
4 *1722:A *1717:A 1.60203e-05
5 *1722:A *1718:A 0.000584963
6 *1722:A *1721:A 0
7 *1722:A *1723:A 0
8 *1722:A *1724:A 9.3062e-06
9 *1722:A *1727:A 0.000801551
10 *1722:A *1729:A 0.000179015
11 *1722:A *461:36 0.000731154
12 *1722:A *471:46 0.000579613
13 *1722:A *489:46 0.00207427
14 *1722:A *526:46 0.000345481
*RES
1 FrameStrobe[10] *1722:A 39.52 
*END

*D_NET *69 0.00413645
*CONN
*P FrameStrobe[11] I
*I *1723:A I *D sky130_fd_sc_hd__clkbuf_1
*CAP
1 FrameStrobe[11] 0.000931839
2 *1723:A 0.000931839
3 *1723:A *1716:A 0.000386052
4 *1723:A *1719:A 0.000410748
5 *1723:A *1724:A 0
6 *1723:A *1727:A 3.09233e-05
7 *1723:A *1730:A 0
8 *1723:A *2018:A 0
9 *1723:A *2029:A 0
10 *1723:A *81:13 0.00144505
11 *1722:A *1723:A 0
*RES
1 FrameStrobe[11] *1723:A 34.81 
*END

*D_NET *70 0.00505767
*CONN
*P FrameStrobe[12] I
*I *1724:A I *D sky130_fd_sc_hd__clkbuf_1
*CAP
1 FrameStrobe[12] 0.00161126
2 *1724:A 0.00161126
3 *1724:A *1721:A 0.00109721
4 *1724:A *1725:A 0
5 *1724:A *1729:A 0.000149903
6 *1724:A *1731:A 0
7 *1724:A *2020:A 2.25161e-05
8 *1724:A *2021:A 0
9 *1724:A *497:16 0.000130227
10 *1724:A *694:22 0.000425972
11 *1722:A *1724:A 9.3062e-06
12 *1723:A *1724:A 0
*RES
1 FrameStrobe[12] *1724:A 31.585 
*END

*D_NET *71 0.00123932
*CONN
*P FrameStrobe[13] I
*I *1725:A I *D sky130_fd_sc_hd__clkbuf_1
*CAP
1 FrameStrobe[13] 0.000473918
2 *1725:A 0.000473918
3 *1725:A *1726:A 0
4 *1725:A *1729:A 8.65961e-05
5 *1725:A *1731:A 0
6 *1725:A *1939:A 3.00381e-05
7 *1725:A *2021:A 0
8 *1725:A *492:30 0.000174853
9 *1724:A *1725:A 0
*RES
1 FrameStrobe[13] *1725:A 11.61 
*END

*D_NET *72 0.00150073
*CONN
*P FrameStrobe[14] I
*I *1726:A I *D sky130_fd_sc_hd__clkbuf_1
*CAP
1 FrameStrobe[14] 0.000441461
2 *1726:A 0.000441461
3 *1726:A *1719:A 2.53191e-06
4 *1726:A *1720:A 0.000409286
5 *1726:A *1727:A 0
6 *1726:A *1729:A 8.8266e-05
7 *1726:A *1930:A 2.94565e-05
8 *1726:A *1935:A 8.8266e-05
9 *1726:A *2021:A 0
10 *1725:A *1726:A 0
*RES
1 FrameStrobe[14] *1726:A 12.06 
*END

*D_NET *73 0.00411032
*CONN
*P FrameStrobe[15] I
*I *1727:A I *D sky130_fd_sc_hd__clkbuf_1
*CAP
1 FrameStrobe[15] 0.00110934
2 *1727:A 0.00110934
3 *1727:A *699:DIODE 4.77757e-05
4 *1727:A *1716:A 0.00010025
5 *1727:A *1717:A 0.000162332
6 *1727:A *1719:A 0
7 *1727:A *1721:A 0.000116158
8 *1727:A *1728:A 0
9 *1727:A *484:18 0
10 *1727:A *489:46 8.18542e-05
11 *1727:A *497:16 0.000234685
12 *1727:A *509:32 0.000316118
13 *1727:A *511:22 0
14 *1722:A *1727:A 0.000801551
15 *1723:A *1727:A 3.09233e-05
16 *1726:A *1727:A 0
*RES
1 FrameStrobe[15] *1727:A 29.965 
*END

*D_NET *74 0.00105532
*CONN
*P FrameStrobe[16] I
*I *1728:A I *D sky130_fd_sc_hd__clkbuf_1
*CAP
1 FrameStrobe[16] 0.000489762
2 *1728:A 0.000489762
3 *1728:A *1729:A 4.82863e-05
4 *1728:A *1934:A 2.75145e-05
5 *1728:A *2020:A 0
6 *1727:A *1728:A 0
*RES
1 FrameStrobe[16] *1728:A 11.265 
*END

*D_NET *75 0.00410501
*CONN
*P FrameStrobe[17] I
*I *1729:A I *D sky130_fd_sc_hd__clkbuf_1
*CAP
1 FrameStrobe[17] 0.000733316
2 *1729:A 0.000733316
3 *1729:A *1716:A 0.000165755
4 *1729:A *1720:A 4.66108e-05
5 *1729:A *1730:A 0.00156015
6 *1729:A *1934:A 8.87273e-05
7 *1729:A *1935:A 7.9901e-05
8 *1729:A *1938:A 0.000118207
9 *1729:A *1940:A 4.9253e-06
10 *1729:A *2020:A 0
11 *1729:A *496:20 1.83847e-05
12 *1729:A *511:22 3.64998e-06
13 *1722:A *1729:A 0.000179015
14 *1724:A *1729:A 0.000149903
15 *1725:A *1729:A 8.65961e-05
16 *1726:A *1729:A 8.8266e-05
17 *1728:A *1729:A 4.82863e-05
*RES
1 FrameStrobe[17] *1729:A 25.17 
*END

*D_NET *76 0.00516684
*CONN
*P FrameStrobe[18] I
*I *1730:A I *D sky130_fd_sc_hd__clkbuf_1
*CAP
1 FrameStrobe[18] 0.00141204
2 *1730:A 0.00141204
3 *1730:A *1716:A 0
4 *1730:A *1940:A 1.03423e-05
5 *1730:A *1941:A 2.65814e-06
6 *1730:A *1949:A 0.000423637
7 *1730:A *2018:A 0.000158391
8 *1730:A *2029:A 8.11477e-05
9 *1730:A *489:46 6.53902e-05
10 *1730:A *511:22 2.04748e-05
11 FrameData_O[1] *1730:A 0
12 FrameData_O[2] *1730:A 2.05641e-05
13 *1723:A *1730:A 0
14 *1729:A *1730:A 0.00156015
*RES
1 FrameStrobe[18] *1730:A 30.555 
*END

*D_NET *77 0.00654058
*CONN
*P FrameStrobe[19] I
*I *1731:A I *D sky130_fd_sc_hd__clkbuf_1
*CAP
1 FrameStrobe[19] 0.00104877
2 *1731:A 0.00104877
3 *1731:A *695:DIODE 0
4 *1731:A *1941:A 6.69608e-06
5 *1731:A *1949:A 7.33411e-05
6 *1731:A *2029:A 0.00219637
7 *1731:A *492:30 0.000122076
8 *1731:A *694:22 0.00204456
9 *1724:A *1731:A 0
10 *1725:A *1731:A 0
*RES
1 FrameStrobe[19] *1731:A 38.35 
*END

*D_NET *78 0.00292577
*CONN
*P FrameStrobe[1] I
*I *1851:A I *D sky130_fd_sc_hd__buf_1
*CAP
1 FrameStrobe[1] 0.000808305
2 *1851:A 0.000808305
3 *1851:A *1575:B 9.5799e-06
4 *1851:A *1575:C 1.88218e-05
5 *1851:A *1589:GATE 8.7152e-06
6 *1851:A *1852:A 0.00042453
7 *1851:A *1951:A 0.000238137
8 *1851:A *461:36 0.000275553
9 *1851:A *472:14 0.000168148
10 *1851:A *613:44 0
11 *1851:A *694:18 0.00016567
*RES
1 FrameStrobe[1] *1851:A 22.27 
*END

*D_NET *79 0.00237409
*CONN
*P FrameStrobe[2] I
*I *1852:A I *D sky130_fd_sc_hd__buf_1
*CAP
1 FrameStrobe[2] 0.000785914
2 *1852:A 0.000785914
3 *1852:A *1575:C 3.26822e-05
4 *1852:A *1951:A 0
5 *1852:A *461:36 4.94581e-05
6 *1852:A *551:12 0
7 *1852:A *570:24 4.12378e-05
8 *1852:A *613:44 1.71013e-05
9 *1852:A *694:18 0.000237249
10 *1851:A *1852:A 0.00042453
*RES
1 FrameStrobe[2] *1852:A 18.94 
*END

*D_NET *80 0.0126298
*CONN
*P FrameStrobe[3] I
*I *1715:A I *D sky130_fd_sc_hd__buf_1
*CAP
1 FrameStrobe[3] 0.000858975
2 *1715:A 0.00102525
3 *80:19 0.00188423
4 *1715:A *698:DIODE 0.00250218
5 *1715:A *1922:A 0.000489051
6 *1715:A *1941:A 0.000822759
7 *80:19 *1711:A 0.000153754
8 *80:19 *1719:A 0.00107738
9 *80:19 *1720:A 0.000412635
10 *80:19 *2029:A 9.80032e-06
11 *80:19 *81:13 0
12 *80:19 *471:36 0.0013364
13 *80:19 *488:28 0.000191756
14 *80:19 *494:28 0.000123816
15 *80:19 *518:24 0.000135083
16 *80:19 *526:34 7.43206e-05
17 *80:19 *526:46 0.000387962
18 *80:19 *579:94 0.000114492
19 *67:15 *80:19 0.00102992
*RES
1 FrameStrobe[3] *80:19 38.88 
2 *80:19 *1715:A 29.44 
*END

*D_NET *81 0.00911122
*CONN
*P FrameStrobe[4] I
*I *1716:A I *D sky130_fd_sc_hd__buf_1
*CAP
1 FrameStrobe[4] 0.00194524
2 *1716:A 0.000282514
3 *81:13 0.00222776
4 *1716:A *1717:A 0.000162332
5 *1716:A *497:16 0
6 *1716:A *511:22 3.98757e-05
7 *81:13 *1719:A 0
8 *81:13 *82:15 0
9 *81:13 *462:44 0.00132208
10 *81:13 *526:34 0.000922986
11 *1722:A *1716:A 0.000111324
12 *1723:A *1716:A 0.000386052
13 *1723:A *81:13 0.00144505
14 *1727:A *1716:A 0.00010025
15 *1729:A *1716:A 0.000165755
16 *1730:A *1716:A 0
17 *80:19 *81:13 0
*RES
1 FrameStrobe[4] *81:13 48.53 
2 *81:13 *1716:A 14.63 
*END

*D_NET *82 0.0108414
*CONN
*P FrameStrobe[5] I
*I *1717:A I *D sky130_fd_sc_hd__buf_1
*CAP
1 FrameStrobe[5] 0.00043784
2 *1717:A 0.00187749
3 *82:15 0.00231533
4 *1717:A *1756:A 0.000198051
5 *1717:A *461:36 7.45329e-05
6 *1717:A *471:46 0.00137462
7 *1717:A *489:46 0.00218406
8 *1717:A *579:84 0.000729083
9 *1717:A *579:94 0.000960783
10 *82:15 *1718:A 0
11 *82:15 *518:24 0.000348946
12 *1716:A *1717:A 0.000162332
13 *1722:A *1717:A 1.60203e-05
14 *1727:A *1717:A 0.000162332
15 *67:15 *82:15 0
16 *81:13 *82:15 0
*RES
1 FrameStrobe[5] *82:15 9.53 
2 *82:15 *1717:A 48.995 
*END

*D_NET *83 0.00798111
*CONN
*P FrameStrobe[6] I
*I *1718:A I *D sky130_fd_sc_hd__clkbuf_1
*CAP
1 FrameStrobe[6] 0.00241186
2 *1718:A 0.00241186
3 *1718:A *1719:A 9.32913e-05
4 *1718:A *1721:A 0.000101255
5 *1718:A *461:36 0.00114391
6 *1718:A *471:36 0
7 *1718:A *488:28 0
8 *1718:A *492:30 0.000118286
9 *1718:A *694:22 0.00111568
10 *1722:A *1718:A 0.000584963
11 *67:15 *1718:A 0
12 *82:15 *1718:A 0
*RES
1 FrameStrobe[6] *1718:A 48.905 
*END

*D_NET *84 0.00541068
*CONN
*P FrameStrobe[7] I
*I *1719:A I *D sky130_fd_sc_hd__clkbuf_1
*CAP
1 FrameStrobe[7] 0.00102452
2 *1719:A 0.00102452
3 *1719:A *1720:A 0.000665485
4 *1719:A *1930:A 0.000467591
5 *1719:A *2029:A 2.36616e-05
6 *1719:A *494:28 0.000160538
7 *1719:A *526:34 0.000460417
8 *1718:A *1719:A 9.32913e-05
9 *1723:A *1719:A 0.000410748
10 *1726:A *1719:A 2.53191e-06
11 *1727:A *1719:A 0
12 *67:15 *1719:A 0
13 *80:19 *1719:A 0.00107738
14 *81:13 *1719:A 0
*RES
1 FrameStrobe[7] *1719:A 40.21 
*END

*D_NET *85 0.00590726
*CONN
*P FrameStrobe[8] I
*I *1720:A I *D sky130_fd_sc_hd__clkbuf_1
*CAP
1 FrameStrobe[8] 0.000759032
2 *1720:A 0.000759032
3 *1720:A *1721:A 0
4 *1720:A *1930:A 0.000409286
5 *1720:A *1935:A 1.08758e-05
6 *1720:A *2029:A 0.00231722
7 *1720:A *463:20 0.000109836
8 *1720:A *471:36 7.9642e-06
9 *1719:A *1720:A 0.000665485
10 *1726:A *1720:A 0.000409286
11 *1729:A *1720:A 4.66108e-05
12 *80:19 *1720:A 0.000412635
*RES
1 FrameStrobe[8] *1720:A 36.52 
*END

*D_NET *86 0.0058777
*CONN
*P FrameStrobe[9] I
*I *1721:A I *D sky130_fd_sc_hd__clkbuf_1
*CAP
1 FrameStrobe[9] 0.00116513
2 *1721:A 0.00116513
3 *1721:A *526:46 0
4 *1721:A *694:22 0.00223281
5 *1718:A *1721:A 0.000101255
6 *1720:A *1721:A 0
7 *1722:A *1721:A 0
8 *1724:A *1721:A 0.00109721
9 *1727:A *1721:A 0.000116158
*RES
1 FrameStrobe[9] *1721:A 35.38 
*END

*D_NET *87 0.00111672
*CONN
*P FrameStrobe_O[0] O
*I *1931:X O *D sky130_fd_sc_hd__buf_2
*CAP
1 FrameStrobe_O[0] 0.000252171
2 *1931:X 0.000252171
3 FrameStrobe_O[0] FrameStrobe_O[1] 0.000131294
4 FrameStrobe_O[0] UserCLKo 0.000234759
5 FrameStrobe_O[0] *1895:A 0.000220452
6 FrameStrobe_O[0] *1906:A 2.58691e-05
*RES
1 *1931:X FrameStrobe_O[0] 9.825 
*END

*D_NET *88 0.00161929
*CONN
*P FrameStrobe_O[10] O
*I *1932:X O *D sky130_fd_sc_hd__buf_2
*CAP
1 FrameStrobe_O[10] 0.000381222
2 *1932:X 0.000381222
3 FrameStrobe_O[10] FrameStrobe_O[11] 0.00014383
4 FrameStrobe_O[10] FrameStrobe_O[9] 0.000307617
5 FrameStrobe_O[10] *1918:A 0.000121023
6 FrameStrobe_O[10] *1944:A 0.000133748
7 FrameStrobe_O[10] *1946:A 0.000132718
8 FrameStrobe_O[10] *550:16 1.79098e-05
*RES
1 *1932:X FrameStrobe_O[10] 12.765 
*END

*D_NET *89 0.00161944
*CONN
*P FrameStrobe_O[11] O
*I *1933:X O *D sky130_fd_sc_hd__buf_2
*CAP
1 FrameStrobe_O[11] 0.000361
2 *1933:X 0.000361
3 FrameStrobe_O[11] FrameStrobe_O[12] 0.000142055
4 FrameStrobe_O[11] FrameStrobe_O[16] 0.000208477
5 FrameStrobe_O[11] FrameStrobe_O[17] 0.000208477
6 FrameStrobe_O[11] *504:38 0.0001946
7 FrameStrobe_O[11] *529:20 0
8 FrameStrobe_O[10] FrameStrobe_O[11] 0.00014383
*RES
1 *1933:X FrameStrobe_O[11] 17.035 
*END

*D_NET *90 0.00134809
*CONN
*P FrameStrobe_O[12] O
*I *1934:X O *D sky130_fd_sc_hd__buf_2
*CAP
1 FrameStrobe_O[12] 0.000395868
2 *1934:X 0.000395868
3 FrameStrobe_O[12] FrameStrobe_O[13] 0.000239265
4 FrameStrobe_O[12] FrameStrobe_O[5] 6.63219e-06
5 FrameStrobe_O[12] *1918:A 8.6076e-05
6 FrameStrobe_O[12] *1931:A 8.23234e-05
7 FrameStrobe_O[12] *1946:A 0
8 FrameStrobe_O[11] FrameStrobe_O[12] 0.000142055
*RES
1 *1934:X FrameStrobe_O[12] 11.865 
*END

*D_NET *91 0.00219672
*CONN
*P FrameStrobe_O[13] O
*I *1935:X O *D sky130_fd_sc_hd__buf_2
*CAP
1 FrameStrobe_O[13] 0.00055609
2 *1935:X 0.00055609
3 FrameStrobe_O[13] FrameStrobe_O[14] 0.00037626
4 FrameStrobe_O[13] FrameStrobe_O[15] 0.000306155
5 FrameStrobe_O[13] *1931:A 0.000100156
6 FrameStrobe_O[13] *1948:A 6.27029e-05
7 FrameStrobe_O[12] FrameStrobe_O[13] 0.000239265
*RES
1 *1935:X FrameStrobe_O[13] 14.76 
*END

*D_NET *92 0.00139581
*CONN
*P FrameStrobe_O[14] O
*I *1936:X O *D sky130_fd_sc_hd__buf_2
*CAP
1 FrameStrobe_O[14] 0.000280801
2 *1936:X 0.000280801
3 FrameStrobe_O[14] FrameStrobe_O[15] 0.000306823
4 FrameStrobe_O[14] *1918:A 8.8266e-05
5 FrameStrobe_O[14] *1931:A 3.31282e-05
6 FrameStrobe_O[14] *504:40 2.97291e-05
7 FrameStrobe_O[13] FrameStrobe_O[14] 0.00037626
*RES
1 *1936:X FrameStrobe_O[14] 11.865 
*END

*D_NET *93 0.00203196
*CONN
*P FrameStrobe_O[15] O
*I *1937:X O *D sky130_fd_sc_hd__buf_2
*CAP
1 FrameStrobe_O[15] 0.000303236
2 *1937:X 0.000303236
3 FrameStrobe_O[15] FrameStrobe_O[16] 0.000168635
4 FrameStrobe_O[15] *1948:A 0.000378524
5 FrameStrobe_O[15] *1950:A 1.47347e-05
6 FrameStrobe_O[15] *504:40 0.000250616
7 FrameStrobe_O[13] FrameStrobe_O[15] 0.000306155
8 FrameStrobe_O[14] FrameStrobe_O[15] 0.000306823
*RES
1 *1937:X FrameStrobe_O[15] 13.95 
*END

*D_NET *94 0.0015544
*CONN
*P FrameStrobe_O[16] O
*I *1938:X O *D sky130_fd_sc_hd__buf_2
*CAP
1 FrameStrobe_O[16] 0.000261059
2 *1938:X 0.000261059
3 FrameStrobe_O[16] FrameStrobe_O[17] 0.000234102
4 FrameStrobe_O[16] *1918:A 8.8266e-05
5 FrameStrobe_O[16] *504:40 0.000332802
6 FrameStrobe_O[11] FrameStrobe_O[16] 0.000208477
7 FrameStrobe_O[15] FrameStrobe_O[16] 0.000168635
*RES
1 *1938:X FrameStrobe_O[16] 11.865 
*END

*D_NET *95 0.00168267
*CONN
*P FrameStrobe_O[17] O
*I *1939:X O *D sky130_fd_sc_hd__buf_2
*CAP
1 FrameStrobe_O[17] 0.000403283
2 *1939:X 0.000403283
3 FrameStrobe_O[17] FrameStrobe_O[18] 0.000204462
4 FrameStrobe_O[17] FrameStrobe_O[19] 0
5 FrameStrobe_O[17] *1918:A 0.000158066
6 FrameStrobe_O[17] *1919:A 0
7 FrameStrobe_O[17] *1933:A 7.09999e-05
8 FrameStrobe_O[11] FrameStrobe_O[17] 0.000208477
9 FrameStrobe_O[16] FrameStrobe_O[17] 0.000234102
*RES
1 *1939:X FrameStrobe_O[17] 13.005 
*END

*D_NET *96 0.00181259
*CONN
*P FrameStrobe_O[18] O
*I *1940:X O *D sky130_fd_sc_hd__buf_2
*CAP
1 FrameStrobe_O[18] 0.000333607
2 *1940:X 0.000333607
3 FrameStrobe_O[18] FrameStrobe_O[19] 0.000202594
4 FrameStrobe_O[18] *1916:A 0.000157959
5 FrameStrobe_O[18] *1919:A 0.000291358
6 FrameStrobe_O[18] *529:12 0.000289004
7 FrameStrobe_O[18] *529:20 0
8 FrameStrobe_O[17] FrameStrobe_O[18] 0.000204462
*RES
1 *1940:X FrameStrobe_O[18] 17.695 
*END

*D_NET *97 0.00173961
*CONN
*P FrameStrobe_O[19] O
*I *1941:X O *D sky130_fd_sc_hd__buf_2
*CAP
1 FrameStrobe_O[19] 0.000594328
2 *1941:X 0.000594328
3 FrameStrobe_O[19] *1919:A 0
4 FrameStrobe_O[19] *1923:A 4.43591e-05
5 FrameStrobe_O[19] *1937:A 6.07575e-06
6 FrameStrobe_O[19] *1941:A 2.75229e-05
7 FrameStrobe_O[19] *1950:A 0.000270404
8 FrameStrobe_O[17] FrameStrobe_O[19] 0
9 FrameStrobe_O[18] FrameStrobe_O[19] 0.000202594
*RES
1 *1941:X FrameStrobe_O[19] 13.275 
*END

*D_NET *98 0.00148378
*CONN
*P FrameStrobe_O[1] O
*I *1942:X O *D sky130_fd_sc_hd__buf_2
*CAP
1 FrameStrobe_O[1] 0.000277704
2 *1942:X 0.000277704
3 FrameStrobe_O[1] FrameStrobe_O[2] 0.000283637
4 FrameStrobe_O[1] *1895:A 0.000308254
5 FrameStrobe_O[1] *1899:A 0.000177547
6 FrameStrobe_O[1] *1931:A 2.76356e-05
7 FrameStrobe_O[0] FrameStrobe_O[1] 0.000131294
*RES
1 *1942:X FrameStrobe_O[1] 11.535 
*END

*D_NET *99 0.00178333
*CONN
*P FrameStrobe_O[2] O
*I *1943:X O *D sky130_fd_sc_hd__buf_2
*CAP
1 FrameStrobe_O[2] 0.0004258
2 *1943:X 0.0004258
3 FrameStrobe_O[2] FrameStrobe_O[3] 0.000159947
4 FrameStrobe_O[2] FrameStrobe_O[4] 0
5 FrameStrobe_O[2] *1894:A 0.000221832
6 FrameStrobe_O[2] *1898:A 7.21296e-06
7 FrameStrobe_O[2] *1899:A 0.000202293
8 FrameStrobe_O[2] *1931:A 2.73237e-05
9 FrameStrobe_O[2] *1942:A 2.94864e-05
10 FrameStrobe_O[1] FrameStrobe_O[2] 0.000283637
*RES
1 *1943:X FrameStrobe_O[2] 12.825 
*END

*D_NET *100 0.00160918
*CONN
*P FrameStrobe_O[3] O
*I *1944:X O *D sky130_fd_sc_hd__buf_2
*CAP
1 FrameStrobe_O[3] 0.000307074
2 *1944:X 0.000307074
3 FrameStrobe_O[3] FrameStrobe_O[4] 0.000159947
4 FrameStrobe_O[3] FrameStrobe_O[6] 0.000176646
5 FrameStrobe_O[3] FrameStrobe_O[7] 0.000181369
6 FrameStrobe_O[3] *1931:A 4.82863e-05
7 FrameStrobe_O[3] *504:38 0.000268835
8 FrameStrobe_O[3] *550:16 0
9 FrameStrobe_O[2] FrameStrobe_O[3] 0.000159947
*RES
1 *1944:X FrameStrobe_O[3] 16.105 
*END

*D_NET *101 0.0014652
*CONN
*P FrameStrobe_O[4] O
*I *1945:X O *D sky130_fd_sc_hd__buf_2
*CAP
1 FrameStrobe_O[4] 0.000325243
2 *1945:X 0.000325243
3 FrameStrobe_O[4] FrameStrobe_O[5] 0.00028305
4 FrameStrobe_O[4] FrameStrobe_O[6] 0
5 FrameStrobe_O[4] *1521:A0 1.91597e-05
6 FrameStrobe_O[4] *1898:A 0.000192406
7 FrameStrobe_O[4] *1918:A 4.77757e-05
8 FrameStrobe_O[4] *1942:A 9.47454e-05
9 FrameStrobe_O[4] *508:30 1.7635e-05
10 FrameStrobe_O[2] FrameStrobe_O[4] 0
11 FrameStrobe_O[3] FrameStrobe_O[4] 0.000159947
*RES
1 *1945:X FrameStrobe_O[4] 11.865 
*END

*D_NET *102 0.0018977
*CONN
*P FrameStrobe_O[5] O
*I *1946:X O *D sky130_fd_sc_hd__buf_2
*CAP
1 FrameStrobe_O[5] 0.000579964
2 *1946:X 0.000579964
3 FrameStrobe_O[5] FrameStrobe_O[6] 0.000279576
4 FrameStrobe_O[5] *697:DIODE 0
5 FrameStrobe_O[5] *1946:A 1.92979e-05
6 FrameStrobe_O[5] *508:30 1.88602e-05
7 FrameStrobe_O[5] *647:22 0.000102635
8 FrameStrobe_O[5] *679:38 2.77165e-05
9 FrameStrobe_O[12] FrameStrobe_O[5] 6.63219e-06
10 FrameStrobe_O[4] FrameStrobe_O[5] 0.00028305
*RES
1 *1946:X FrameStrobe_O[5] 11.8339 
*END

*D_NET *103 0.00140662
*CONN
*P FrameStrobe_O[6] O
*I *1947:X O *D sky130_fd_sc_hd__buf_2
*CAP
1 FrameStrobe_O[6] 0.000334266
2 *1947:X 0.000334266
3 FrameStrobe_O[6] FrameStrobe_O[7] 0.000209385
4 FrameStrobe_O[6] FrameStrobe_O[8] 2.25161e-05
5 FrameStrobe_O[6] *1918:A 4.99619e-05
6 FrameStrobe_O[3] FrameStrobe_O[6] 0.000176646
7 FrameStrobe_O[4] FrameStrobe_O[6] 0
8 FrameStrobe_O[5] FrameStrobe_O[6] 0.000279576
*RES
1 *1947:X FrameStrobe_O[6] 12.075 
*END

*D_NET *104 0.00191848
*CONN
*P FrameStrobe_O[7] O
*I *1948:X O *D sky130_fd_sc_hd__buf_2
*CAP
1 FrameStrobe_O[7] 0.000539749
2 *1948:X 0.000539749
3 FrameStrobe_O[7] FrameStrobe_O[8] 0.00031397
4 FrameStrobe_O[7] *1931:A 5.83877e-05
5 FrameStrobe_O[7] *1944:A 2.76356e-05
6 FrameStrobe_O[7] *1946:A 4.82369e-05
7 FrameStrobe_O[3] FrameStrobe_O[7] 0.000181369
8 FrameStrobe_O[6] FrameStrobe_O[7] 0.000209385
*RES
1 *1948:X FrameStrobe_O[7] 14.205 
*END

*D_NET *105 0.00154375
*CONN
*P FrameStrobe_O[8] O
*I *1949:X O *D sky130_fd_sc_hd__buf_2
*CAP
1 FrameStrobe_O[8] 0.000277737
2 *1949:X 0.000277737
3 FrameStrobe_O[8] FrameStrobe_O[9] 8.37487e-05
4 FrameStrobe_O[8] *1918:A 8.40213e-05
5 FrameStrobe_O[8] *550:16 0.000484015
6 FrameStrobe_O[6] FrameStrobe_O[8] 2.25161e-05
7 FrameStrobe_O[7] FrameStrobe_O[8] 0.00031397
*RES
1 *1949:X FrameStrobe_O[8] 11.865 
*END

*D_NET *106 0.00192776
*CONN
*P FrameStrobe_O[9] O
*I *1950:X O *D sky130_fd_sc_hd__buf_2
*CAP
1 FrameStrobe_O[9] 0.000440617
2 *1950:X 0.000440617
3 FrameStrobe_O[9] *1931:A 0.000308124
4 FrameStrobe_O[9] *1948:A 3.03775e-05
5 FrameStrobe_O[9] *550:16 0.000316659
6 FrameStrobe_O[10] FrameStrobe_O[9] 0.000307617
7 FrameStrobe_O[8] FrameStrobe_O[9] 8.37487e-05
*RES
1 *1950:X FrameStrobe_O[9] 12.93 
*END

*D_NET *107 0.0013379
*CONN
*P HOLD_top O
*I *1951:X O *D sky130_fd_sc_hd__buf_2
*CAP
1 HOLD_top 0.00043277
2 *1951:X 0.00043277
3 HOLD_top *1455:A1 5.3619e-05
4 HOLD_top *1577:B 4.20483e-05
5 HOLD_top *2008:A 0
6 HOLD_top *493:43 7.00889e-06
7 HOLD_top *548:68 0.00036968
*RES
1 *1951:X HOLD_top 11.865 
*END

*D_NET *108 0.00323372
*CONN
*P N1BEG[0] O
*I *1952:X O *D sky130_fd_sc_hd__buf_2
*CAP
1 N1BEG[0] 0.000564883
2 *1952:X 0.000564883
3 N1BEG[0] N1BEG[1] 0.000148928
4 N1BEG[0] N1BEG[2] 0.000904784
5 N1BEG[0] N2BEG[2] 4.70919e-05
6 N1BEG[0] N2BEG[4] 0.000189278
7 N1BEG[0] N2BEGb[1] 0.000231367
8 N1BEG[0] N2BEGb[2] 0.000251939
9 N1BEG[0] *1952:A 0.000122797
10 N1BEG[0] *1964:A 0.000119762
11 N1BEG[0] *537:26 8.80056e-05
*RES
1 *1952:X N1BEG[0] 19.92 
*END

*D_NET *109 0.00249929
*CONN
*P N1BEG[1] O
*I *1953:X O *D sky130_fd_sc_hd__buf_2
*CAP
1 N1BEG[1] 0.0005433
2 *1953:X 0.0005433
3 N1BEG[1] N1BEG[2] 0.000137857
4 N1BEG[1] N2BEG[1] 2.68568e-05
5 N1BEG[1] N2BEGb[1] 3.27107e-05
6 N1BEG[1] N2BEGb[2] 0.000294507
7 N1BEG[1] N2BEGb[3] 0.000481599
8 N1BEG[1] *1528:A1 3.72952e-05
9 N1BEG[1] *1961:A 0.000131502
10 N1BEG[1] *464:56 0.000121437
11 N1BEG[1] *530:30 0
12 N1BEG[0] N1BEG[1] 0.000148928
*RES
1 *1953:X N1BEG[1] 16.29 
*END

*D_NET *110 0.00348639
*CONN
*P N1BEG[2] O
*I *1954:X O *D sky130_fd_sc_hd__buf_2
*CAP
1 N1BEG[2] 0.000611986
2 *1954:X 0.000611986
3 N1BEG[2] N1BEG[3] 0.000175509
4 N1BEG[2] N2BEG[4] 2.17931e-05
5 N1BEG[2] N2BEG[5] 0.000190099
6 N1BEG[2] N2BEGb[2] 4.82863e-05
7 N1BEG[2] N2BEGb[3] 0.000269948
8 N1BEG[2] N2BEGb[4] 1.16578e-05
9 N1BEG[2] *1966:A 7.93716e-05
10 N1BEG[2] *537:26 0.000423117
11 N1BEG[0] N1BEG[2] 0.000904784
12 N1BEG[1] N1BEG[2] 0.000137857
*RES
1 *1954:X N1BEG[2] 19.92 
*END

*D_NET *111 0.00262875
*CONN
*P N1BEG[3] O
*I *1955:X O *D sky130_fd_sc_hd__buf_2
*CAP
1 N1BEG[3] 0.000672465
2 *1955:X 0.000672465
3 N1BEG[3] N2BEG[0] 0.000202992
4 N1BEG[3] N2BEG[5] 6.79508e-05
5 N1BEG[3] N2BEG[6] 0.000335065
6 N1BEG[3] N2BEG[7] 8.53113e-06
7 N1BEG[3] N2BEGb[0] 0.00017213
8 N1BEG[3] N2BEGb[1] 0.000140943
9 N1BEG[3] *1528:A0 1.92979e-05
10 N1BEG[3] *1528:A1 0
11 N1BEG[3] *1957:A 4.99619e-05
12 N1BEG[3] *1964:A 0.000111434
13 N1BEG[2] N1BEG[3] 0.000175509
*RES
1 *1955:X N1BEG[3] 20.875 
*END

*D_NET *112 0.00269634
*CONN
*P N2BEG[0] O
*I *1956:X O *D sky130_fd_sc_hd__buf_2
*CAP
1 N2BEG[0] 0.00064241
2 *1956:X 0.00064241
3 N2BEG[0] N2BEG[1] 0.00031054
4 N2BEG[0] N2BEG[5] 3.98308e-05
5 N2BEG[0] N2BEG[7] 0.00024878
6 N2BEG[0] *1956:A 2.30292e-05
7 N2BEG[0] *1968:A 0.000306603
8 N2BEG[0] *464:56 0.00016063
9 N2BEG[0] *530:30 0.000119113
10 N1BEG[3] N2BEG[0] 0.000202992
*RES
1 *1956:X N2BEG[0] 16.98 
*END

*D_NET *113 0.0025846
*CONN
*P N2BEG[1] O
*I *1957:X O *D sky130_fd_sc_hd__buf_2
*CAP
1 N2BEG[1] 0.000564541
2 *1957:X 0.000564541
3 N2BEG[1] N2BEG[2] 0.000208382
4 N2BEG[1] N2BEG[5] 0.000175897
5 N2BEG[1] N2BEGb[3] 0.000121305
6 N2BEG[1] N2BEGb[4] 0.000159262
7 N2BEG[1] *1528:A1 0.000252847
8 N2BEG[1] *1961:A 4.66826e-05
9 N2BEG[1] *1966:A 0.000101551
10 N2BEG[1] *1968:A 2.44932e-05
11 N2BEG[1] *587:75 2.77016e-05
12 N1BEG[1] N2BEG[1] 2.68568e-05
13 N2BEG[0] N2BEG[1] 0.00031054
*RES
1 *1957:X N2BEG[1] 15.8476 
*END

*D_NET *114 0.00339705
*CONN
*P N2BEG[2] O
*I *1958:X O *D sky130_fd_sc_hd__buf_2
*CAP
1 N2BEG[2] 0.000915436
2 *1958:X 0.000915436
3 N2BEG[2] N2BEG[3] 0.000107868
4 N2BEG[2] N2BEG[4] 0.000888219
5 N2BEG[2] N2BEGb[4] 5.63183e-05
6 N2BEG[2] N4BEG[0] 0.0002583
7 N1BEG[0] N2BEG[2] 4.70919e-05
8 N2BEG[1] N2BEG[2] 0.000208382
*RES
1 *1958:X N2BEG[2] 18.45 
*END

*D_NET *115 0.0033276
*CONN
*P N2BEG[3] O
*I *1959:X O *D sky130_fd_sc_hd__buf_2
*CAP
1 N2BEG[3] 0.000674776
2 *1959:X 0.000674776
3 N2BEG[3] N2BEG[4] 7.90356e-05
4 N2BEG[3] N4BEG[0] 0.000338634
5 N2BEG[3] *1690:A 2.49909e-05
6 N2BEG[3] *1956:A 0.000404856
7 N2BEG[3] *1965:A 0
8 N2BEG[3] *1968:A 4.33972e-05
9 N2BEG[3] *461:24 8.65905e-05
10 N2BEG[3] *504:26 0.000892681
11 N2BEG[2] N2BEG[3] 0.000107868
*RES
1 *1959:X N2BEG[3] 19.5 
*END

*D_NET *116 0.00359916
*CONN
*P N2BEG[4] O
*I *1960:X O *D sky130_fd_sc_hd__buf_2
*CAP
1 N2BEG[4] 0.000588514
2 *1960:X 0.000588514
3 N2BEG[4] N2BEG[5] 0.000162243
4 N2BEG[4] N2BEG[6] 0
5 N2BEG[4] N4BEG[0] 1.19928e-05
6 N2BEG[4] *1960:A 1.70935e-05
7 N2BEG[4] *1964:A 0.000119762
8 N2BEG[4] *1966:A 0.000126423
9 N2BEG[4] *1968:A 0.000229536
10 N2BEG[4] *1972:A 0.000240429
11 N2BEG[4] *504:26 0.000327795
12 N2BEG[4] *537:26 8.53113e-06
13 N2BEG[4] *655:52 0
14 N1BEG[0] N2BEG[4] 0.000189278
15 N1BEG[2] N2BEG[4] 2.17931e-05
16 N2BEG[2] N2BEG[4] 0.000888219
17 N2BEG[3] N2BEG[4] 7.90356e-05
*RES
1 *1960:X N2BEG[4] 24.175 
*END

*D_NET *117 0.00319181
*CONN
*P N2BEG[5] O
*I *1961:X O *D sky130_fd_sc_hd__buf_2
*CAP
1 N2BEG[5] 0.000565643
2 *1961:X 0.000565643
3 N2BEG[5] N2BEG[6] 0.00010862
4 N2BEG[5] N2BEG[7] 0.00010793
5 N2BEG[5] N2BEGb[0] 0.000483154
6 N2BEG[5] N2BEGb[3] 4.75232e-05
7 N2BEG[5] *1961:A 3.00381e-05
8 N2BEG[5] *1966:A 1.93834e-05
9 N2BEG[5] *1967:A 0.000127068
10 N2BEG[5] *1972:A 1.7635e-05
11 N2BEG[5] *515:20 0.000483154
12 N1BEG[2] N2BEG[5] 0.000190099
13 N1BEG[3] N2BEG[5] 6.79508e-05
14 N2BEG[0] N2BEG[5] 3.98308e-05
15 N2BEG[1] N2BEG[5] 0.000175897
16 N2BEG[4] N2BEG[5] 0.000162243
*RES
1 *1961:X N2BEG[5] 22.255 
*END

*D_NET *118 0.00378977
*CONN
*P N2BEG[6] O
*I *1962:X O *D sky130_fd_sc_hd__buf_2
*CAP
1 N2BEG[6] 0.000568259
2 *1962:X 0.000568259
3 N2BEG[6] N2BEG[7] 0.000529714
4 N2BEG[6] *1960:A 6.9787e-05
5 N2BEG[6] *1962:A 5.64319e-05
6 N2BEG[6] *1967:A 0.000160802
7 N2BEG[6] *515:20 0.00130775
8 N2BEG[6] *587:75 8.50807e-05
9 N1BEG[3] N2BEG[6] 0.000335065
10 N2BEG[4] N2BEG[6] 0
11 N2BEG[5] N2BEG[6] 0.00010862
*RES
1 *1962:X N2BEG[6] 24.175 
*END

*D_NET *119 0.00322963
*CONN
*P N2BEG[7] O
*I *1963:X O *D sky130_fd_sc_hd__buf_2
*CAP
1 N2BEG[7] 0.000741176
2 *1963:X 0.000741176
3 N2BEG[7] N2BEGb[0] 0.000125035
4 N2BEG[7] N2BEGb[1] 0.000122331
5 N2BEG[7] N4BEG[4] 0.00016928
6 N2BEG[7] *1966:A 1.79536e-05
7 N2BEG[7] *515:20 0.000297064
8 N2BEG[7] *537:26 0.000120655
9 N1BEG[3] N2BEG[7] 8.53113e-06
10 N2BEG[0] N2BEG[7] 0.00024878
11 N2BEG[5] N2BEG[7] 0.00010793
12 N2BEG[6] N2BEG[7] 0.000529714
*RES
1 *1963:X N2BEG[7] 21.85 
*END

*D_NET *120 0.00355334
*CONN
*P N2BEGb[0] O
*I *1964:X O *D sky130_fd_sc_hd__buf_2
*CAP
1 N2BEGb[0] 0.000595044
2 *1964:X 0.000595044
3 N2BEGb[0] N2BEGb[1] 0.00108678
4 N2BEGb[0] N4BEG[4] 8.53307e-05
5 N2BEGb[0] N4BEG[6] 2.65814e-06
6 N2BEGb[0] *1962:A 9.40525e-05
7 N2BEGb[0] *1964:A 7.13883e-05
8 N2BEGb[0] *515:20 0.000237664
9 N2BEGb[0] *580:95 5.06382e-06
10 N2BEGb[0] *582:18 0
11 N1BEG[3] N2BEGb[0] 0.00017213
12 N2BEG[5] N2BEGb[0] 0.000483154
13 N2BEG[7] N2BEGb[0] 0.000125035
*RES
1 *1964:X N2BEGb[0] 24.175 
*END

*D_NET *121 0.00454143
*CONN
*P N2BEGb[1] O
*I *1965:X O *D sky130_fd_sc_hd__buf_2
*CAP
1 N2BEGb[1] 0.000749287
2 *1965:X 0.000749287
3 N2BEGb[1] N2BEGb[2] 0.00107145
4 N2BEGb[1] N2BEGb[3] 3.95558e-05
5 N2BEGb[1] N4BEG[2] 2.97872e-06
6 N2BEGb[1] N4BEG[6] 2.19562e-06
7 N2BEGb[1] *1528:A1 9.69737e-05
8 N2BEGb[1] *1962:A 0
9 N2BEGb[1] *1963:A 6.54713e-05
10 N2BEGb[1] *537:26 0.000120182
11 N2BEGb[1] *551:30 1.56428e-05
12 N2BEGb[1] *580:95 7.9642e-06
13 N2BEGb[1] *582:18 6.3124e-06
14 N1BEG[0] N2BEGb[1] 0.000231367
15 N1BEG[1] N2BEGb[1] 3.27107e-05
16 N1BEG[3] N2BEGb[1] 0.000140943
17 N2BEG[7] N2BEGb[1] 0.000122331
18 N2BEGb[0] N2BEGb[1] 0.00108678
*RES
1 *1965:X N2BEGb[1] 28.675 
*END

*D_NET *122 0.00393966
*CONN
*P N2BEGb[2] O
*I *1966:X O *D sky130_fd_sc_hd__buf_2
*CAP
1 N2BEGb[2] 0.000532542
2 *1966:X 0.000532542
3 N2BEGb[2] N2BEGb[3] 0.000967024
4 N2BEGb[2] N4BEG[2] 0.000169018
5 N2BEGb[2] *551:30 7.11235e-06
6 N2BEGb[2] *580:95 4.77757e-05
7 N2BEGb[2] *582:18 1.74678e-05
8 N1BEG[0] N2BEGb[2] 0.000251939
9 N1BEG[1] N2BEGb[2] 0.000294507
10 N1BEG[2] N2BEGb[2] 4.82863e-05
11 N2BEGb[1] N2BEGb[2] 0.00107145
*RES
1 *1966:X N2BEGb[2] 24.28 
*END

*D_NET *123 0.00473653
*CONN
*P N2BEGb[3] O
*I *1967:X O *D sky130_fd_sc_hd__buf_2
*CAP
1 N2BEGb[3] 0.000873384
2 *1967:X 0.000873384
3 N2BEGb[3] N2BEGb[4] 7.83538e-05
4 N2BEGb[3] N4BEG[2] 0.000150837
5 N2BEGb[3] N4BEG[4] 0.00026459
6 N2BEGb[3] *1963:A 0.000213826
7 N2BEGb[3] *1967:A 7.66388e-05
8 N2BEGb[3] *580:95 4.11718e-05
9 N2BEGb[3] *582:18 0.000212882
10 N2BEGb[3] *658:18 2.45089e-05
11 N1BEG[1] N2BEGb[3] 0.000481599
12 N1BEG[2] N2BEGb[3] 0.000269948
13 N2BEG[1] N2BEGb[3] 0.000121305
14 N2BEG[5] N2BEGb[3] 4.75232e-05
15 N2BEGb[1] N2BEGb[3] 3.95558e-05
16 N2BEGb[2] N2BEGb[3] 0.000967024
*RES
1 *1967:X N2BEGb[3] 29.08 
*END

*D_NET *124 0.00437849
*CONN
*P N2BEGb[4] O
*I *1968:X O *D sky130_fd_sc_hd__buf_2
*CAP
1 N2BEGb[4] 0.000797336
2 *1968:X 0.000797336
3 N2BEGb[4] N2BEGb[5] 5.75321e-05
4 N2BEGb[4] N4BEG[0] 5.59803e-05
5 N2BEGb[4] N4BEG[5] 0.000272604
6 N2BEGb[4] *1954:A 0.000779099
7 N2BEGb[4] *1966:A 5.80923e-05
8 N2BEGb[4] *1968:A 0.000136174
9 N2BEGb[4] *527:36 0.000765186
10 N2BEGb[4] *587:75 0.000315356
11 N2BEGb[4] *658:18 3.82072e-05
12 N1BEG[2] N2BEGb[4] 1.16578e-05
13 N2BEG[1] N2BEGb[4] 0.000159262
14 N2BEG[2] N2BEGb[4] 5.63183e-05
15 N2BEGb[3] N2BEGb[4] 7.83538e-05
*RES
1 *1968:X N2BEGb[4] 13.7244 
*END

*D_NET *125 0.00306833
*CONN
*P N2BEGb[5] O
*I *1969:X O *D sky130_fd_sc_hd__buf_2
*CAP
1 N2BEGb[5] 0.00066526
2 *1969:X 0.00066526
3 N2BEGb[5] N2BEGb[6] 0.000654281
4 N2BEGb[5] *1953:A 8.51862e-05
5 N2BEGb[5] *1970:A 0.000109782
6 N2BEGb[5] *1983:A 1.4816e-05
7 N2BEGb[5] *482:28 7.06865e-05
8 N2BEGb[5] *492:30 1.01152e-05
9 N2BEGb[5] *521:38 1.22961e-05
10 N2BEGb[5] *616:49 7.06865e-05
11 N2BEGb[5] *625:140 4.06644e-05
12 N2BEGb[5] *630:94 8.53307e-05
13 N2BEGb[5] *658:18 0.000526434
14 N2BEGb[4] N2BEGb[5] 5.75321e-05
*RES
1 *1969:X N2BEGb[5] 18.495 
*END

*D_NET *126 0.00292915
*CONN
*P N2BEGb[6] O
*I *1970:X O *D sky130_fd_sc_hd__buf_2
*CAP
1 N2BEGb[6] 0.00086814
2 *1970:X 0.00086814
3 N2BEGb[6] N2BEGb[7] 6.94467e-05
4 N2BEGb[6] N4BEG[0] 0
5 N2BEGb[6] N4BEG[10] 2.25058e-05
6 N2BEGb[6] *1477:A0 7.77704e-05
7 N2BEGb[6] *1528:A0 7.78544e-05
8 N2BEGb[6] *1597:D 4.1527e-05
9 N2BEGb[6] *1762:A 2.44572e-05
10 N2BEGb[6] *1973:A 0.000130545
11 N2BEGb[6] *1987:A 0
12 N2BEGb[6] *616:49 4.78726e-05
13 N2BEGb[6] *630:94 4.66108e-05
14 N2BEGb[5] N2BEGb[6] 0.000654281
*RES
1 *1970:X N2BEGb[6] 18.8199 
*END

*D_NET *127 0.00354835
*CONN
*P N2BEGb[7] O
*I *1971:X O *D sky130_fd_sc_hd__buf_2
*CAP
1 N2BEGb[7] 0.00125044
2 *1971:X 0.00125044
3 N2BEGb[7] N4BEG[0] 0.000162593
4 N2BEGb[7] N4BEG[3] 0.000148746
5 N2BEGb[7] *1477:A0 2.25816e-05
6 N2BEGb[7] *1528:A0 3.92756e-05
7 N2BEGb[7] *1962:A 2.41342e-05
8 N2BEGb[7] *1969:A 4.77719e-05
9 N2BEGb[7] *1970:A 0
10 N2BEGb[7] *1987:A 0.000386768
11 N2BEGb[7] *587:75 0.000146158
12 N2BEGb[7] *616:49 0
13 N2BEGb[6] N2BEGb[7] 6.94467e-05
*RES
1 *1971:X N2BEGb[7] 14.1579 
*END

*D_NET *128 0.00402246
*CONN
*P N4BEG[0] O
*I *1972:X O *D sky130_fd_sc_hd__buf_2
*CAP
1 N4BEG[0] 0.000966714
2 *1972:X 0.000966714
3 N4BEG[0] N4BEG[1] 8.52309e-05
4 N4BEG[0] *1962:A 0.000996563
5 N4BEG[0] *1968:A 5.41834e-05
6 N4BEG[0] *587:75 0.000125552
7 N2BEG[2] N4BEG[0] 0.0002583
8 N2BEG[3] N4BEG[0] 0.000338634
9 N2BEG[4] N4BEG[0] 1.19928e-05
10 N2BEGb[4] N4BEG[0] 5.59803e-05
11 N2BEGb[6] N4BEG[0] 0
12 N2BEGb[7] N4BEG[0] 0.000162593
*RES
1 *1972:X N4BEG[0] 13.2162 
*END

*D_NET *129 0.00309217
*CONN
*P N4BEG[10] O
*I *1973:X O *D sky130_fd_sc_hd__buf_2
*CAP
1 N4BEG[10] 0.000771067
2 *1973:X 0.000771067
3 N4BEG[10] N4BEG[11] 8.3737e-05
4 N4BEG[10] N4BEG[13] 0.000193806
5 N4BEG[10] N4BEG[1] 2.8531e-05
6 N4BEG[10] N4BEG[4] 0.000270415
7 N4BEG[10] N4BEG[9] 0.000215237
8 N4BEG[10] *1452:A0 8.69417e-06
9 N4BEG[10] *1762:A 2.67503e-05
10 N4BEG[10] *1967:A 0.000250644
11 N4BEG[10] *1973:A 0.000108254
12 N4BEG[10] *1986:A 1.67131e-05
13 N4BEG[10] *529:32 1.79536e-05
14 N4BEG[10] *580:95 0.000215767
15 N4BEG[10] *655:42 9.10305e-05
16 N2BEGb[6] N4BEG[10] 2.25058e-05
*RES
1 *1973:X N4BEG[10] 24.34 
*END

*D_NET *130 0.00302253
*CONN
*P N4BEG[11] O
*I *1974:X O *D sky130_fd_sc_hd__buf_2
*CAP
1 N4BEG[11] 0.000804883
2 *1974:X 0.000804883
3 N4BEG[11] N4BEG[12] 0.000104992
4 N4BEG[11] N4BEG[15] 1.01643e-05
5 N4BEG[11] NN4BEG[1] 9.97553e-05
6 N4BEG[11] NN4BEG[2] 2.03606e-05
7 N4BEG[11] *1481:A0 0.000109551
8 N4BEG[11] *1481:A1 0.000177432
9 N4BEG[11] *1528:A0 4.04634e-05
10 N4BEG[11] *1594:D 3.02488e-05
11 N4BEG[11] *1996:A 6.07332e-05
12 N4BEG[11] *529:32 5.69898e-06
13 N4BEG[11] *534:28 0.000160827
14 N4BEG[11] *559:48 0.000376319
15 N4BEG[11] *655:42 0.000132484
16 N4BEG[10] N4BEG[11] 8.3737e-05
*RES
1 *1974:X N4BEG[11] 18.255 
*END

*D_NET *131 0.00343423
*CONN
*P N4BEG[12] O
*I *1975:X O *D sky130_fd_sc_hd__buf_2
*CAP
1 N4BEG[12] 0.000791431
2 *1975:X 0.000791431
3 N4BEG[12] N4BEG[13] 0.000183505
4 N4BEG[12] N4BEG[14] 0.000470474
5 N4BEG[12] NN4BEG[0] 4.66108e-05
6 N4BEG[12] *1481:A0 0.000418861
7 N4BEG[12] *1481:S1 0.00011106
8 N4BEG[12] *1854:A 0.000133808
9 N4BEG[12] *1980:A 2.05641e-05
10 N4BEG[12] *527:36 7.96104e-06
11 N4BEG[12] *534:28 1.01152e-05
12 N4BEG[12] *580:65 0.000153435
13 N4BEG[12] *587:92 0.000189981
14 N4BEG[11] N4BEG[12] 0.000104992
*RES
1 *1975:X N4BEG[12] 20.76 
*END

*D_NET *132 0.00255843
*CONN
*P N4BEG[13] O
*I *1976:X O *D sky130_fd_sc_hd__buf_2
*CAP
1 N4BEG[13] 0.000506559
2 *1976:X 0.000506559
3 N4BEG[13] N4BEG[14] 0.000144187
4 N4BEG[13] N4BEG[15] 6.72196e-05
5 N4BEG[13] N4BEG[7] 0.000190446
6 N4BEG[13] N4BEG[8] 6.76938e-05
7 N4BEG[13] N4BEG[9] 6.71882e-05
8 N4BEG[13] NN4BEG[1] 3.91915e-05
9 N4BEG[13] *1854:A 4.41506e-05
10 N4BEG[13] *1967:A 3.74359e-05
11 N4BEG[13] *529:32 4.35432e-05
12 N4BEG[13] *582:18 6.07575e-06
13 N4BEG[13] *587:92 0.000269636
14 N4BEG[13] *655:42 0.000191232
15 N4BEG[10] N4BEG[13] 0.000193806
16 N4BEG[12] N4BEG[13] 0.000183505
*RES
1 *1976:X N4BEG[13] 19.555 
*END

*D_NET *133 0.00248245
*CONN
*P N4BEG[14] O
*I *1977:X O *D sky130_fd_sc_hd__buf_2
*CAP
1 N4BEG[14] 0.00058171
2 *1977:X 0.00058171
3 N4BEG[14] N4BEG[15] 0.000182874
4 N4BEG[14] NN4BEG[6] 0
5 N4BEG[14] *1481:S1 0.00011106
6 N4BEG[14] *1980:A 1.7635e-05
7 N4BEG[14] *568:52 0.000370975
8 N4BEG[14] *638:20 2.18287e-05
9 N4BEG[12] N4BEG[14] 0.000470474
10 N4BEG[13] N4BEG[14] 0.000144187
*RES
1 *1977:X N4BEG[14] 16.5 
*END

*D_NET *134 0.0025566
*CONN
*P N4BEG[15] O
*I *1978:X O *D sky130_fd_sc_hd__buf_2
*CAP
1 N4BEG[15] 0.000513431
2 *1978:X 0.000513431
3 N4BEG[15] N4BEG[7] 6.22198e-05
4 N4BEG[15] N4BEG[8] 1.16578e-05
5 N4BEG[15] N4BEG[9] 1.46744e-05
6 N4BEG[15] NN4BEG[0] 0.000137561
7 N4BEG[15] NN4BEG[1] 0.000556737
8 N4BEG[15] NN4BEG[2] 8.1871e-05
9 N4BEG[15] NN4BEG[6] 4.16006e-05
10 N4BEG[15] *1481:A1 3.86044e-05
11 N4BEG[15] *1995:A 4.41506e-05
12 N4BEG[15] *527:36 0.000196376
13 N4BEG[15] *592:48 8.40269e-05
14 N4BEG[11] N4BEG[15] 1.01643e-05
15 N4BEG[13] N4BEG[15] 6.72196e-05
16 N4BEG[14] N4BEG[15] 0.000182874
*RES
1 *1978:X N4BEG[15] 20.545 
*END

*D_NET *135 0.0030296
*CONN
*P N4BEG[1] O
*I *1979:X O *D sky130_fd_sc_hd__buf_2
*CAP
1 N4BEG[1] 0.000822578
2 *1979:X 0.000822578
3 N4BEG[1] N4BEG[2] 4.72867e-05
4 N4BEG[1] N4BEG[3] 0.000217071
5 N4BEG[1] N4BEG[9] 0.00018697
6 N4BEG[1] *1452:S 0.000223081
7 N4BEG[1] *1593:D 9.10606e-05
8 N4BEG[1] *1593:GATE 5.98926e-05
9 N4BEG[1] *1969:A 0.000263568
10 N4BEG[1] *1987:A 2.99967e-05
11 N4BEG[1] *551:30 3.90755e-05
12 N4BEG[1] *627:55 0.000112679
13 N4BEG[0] N4BEG[1] 8.52309e-05
14 N4BEG[10] N4BEG[1] 2.8531e-05
*RES
1 *1979:X N4BEG[1] 18.99 
*END

*D_NET *136 0.00380928
*CONN
*P N4BEG[2] O
*I *1980:X O *D sky130_fd_sc_hd__buf_2
*CAP
1 N4BEG[2] 0.000661901
2 *1980:X 0.000661901
3 N4BEG[2] N4BEG[3] 4.72867e-05
4 N4BEG[2] N4BEG[8] 0.000218913
5 N4BEG[2] *1972:A 3.00381e-05
6 N4BEG[2] *1980:A 0.000348292
7 N4BEG[2] *1986:A 3.62952e-05
8 N4BEG[2] *504:30 7.94912e-05
9 N4BEG[2] *515:24 0.000561764
10 N4BEG[2] *580:95 0.000377132
11 N4BEG[2] *658:18 0.00041614
12 N2BEGb[1] N4BEG[2] 2.97872e-06
13 N2BEGb[2] N4BEG[2] 0.000169018
14 N2BEGb[3] N4BEG[2] 0.000150837
15 N4BEG[1] N4BEG[2] 4.72867e-05
*RES
1 *1980:X N4BEG[2] 24.745 
*END

*D_NET *137 0.00332953
*CONN
*P N4BEG[3] O
*I *1981:X O *D sky130_fd_sc_hd__buf_2
*CAP
1 N4BEG[3] 0.000888905
2 *1981:X 0.000888905
3 N4BEG[3] N4BEG[4] 4.98824e-05
4 N4BEG[3] *1452:A0 4.12356e-05
5 N4BEG[3] *1954:A 3.92756e-05
6 N4BEG[3] *1966:A 0.000238962
7 N4BEG[3] *1979:A 2.30292e-05
8 N4BEG[3] *1997:A 1.81196e-05
9 N4BEG[3] *482:28 6.42458e-05
10 N4BEG[3] *551:30 4.81484e-06
11 N4BEG[3] *583:52 0.000236791
12 N4BEG[3] *587:75 0.000358468
13 N4BEG[3] *603:14 4.49305e-05
14 N4BEG[3] *627:55 1.88602e-05
15 N2BEGb[7] N4BEG[3] 0.000148746
16 N4BEG[1] N4BEG[3] 0.000217071
17 N4BEG[2] N4BEG[3] 4.72867e-05
*RES
1 *1981:X N4BEG[3] 13.9043 
*END

*D_NET *138 0.00337452
*CONN
*P N4BEG[4] O
*I *1982:X O *D sky130_fd_sc_hd__buf_2
*CAP
1 N4BEG[4] 0.000548722
2 *1982:X 0.000548722
3 N4BEG[4] N4BEG[5] 3.41895e-05
4 N4BEG[4] N4BEG[6] 6.72196e-05
5 N4BEG[4] *1967:A 0.000929776
6 N4BEG[4] *1974:A 1.91763e-05
7 N4BEG[4] *1980:A 3.23663e-05
8 N4BEG[4] *1982:A 4.99619e-05
9 N4BEG[4] *551:30 2.2142e-05
10 N4BEG[4] *580:95 0.000162554
11 N4BEG[4] *587:75 0.000120187
12 N2BEG[7] N4BEG[4] 0.00016928
13 N2BEGb[0] N4BEG[4] 8.53307e-05
14 N2BEGb[3] N4BEG[4] 0.00026459
15 N4BEG[10] N4BEG[4] 0.000270415
16 N4BEG[3] N4BEG[4] 4.98824e-05
*RES
1 *1982:X N4BEG[4] 23.005 
*END

*D_NET *139 0.00316555
*CONN
*P N4BEG[5] O
*I *1983:X O *D sky130_fd_sc_hd__buf_2
*CAP
1 N4BEG[5] 0.000971968
2 *1983:X 0.000971968
3 N4BEG[5] N4BEG[6] 3.41895e-05
4 N4BEG[5] *1962:A 2.98099e-05
5 N4BEG[5] *1966:A 7.54285e-05
6 N4BEG[5] *1974:A 8.80658e-06
7 N4BEG[5] *1986:A 2.21141e-05
8 N4BEG[5] *488:28 9.63588e-05
9 N4BEG[5] *587:75 0.000590253
10 N4BEG[5] *658:18 5.78621e-05
11 N2BEGb[4] N4BEG[5] 0.000272604
12 N4BEG[4] N4BEG[5] 3.41895e-05
*RES
1 *1983:X N4BEG[5] 9.2514 
*END

*D_NET *140 0.00353212
*CONN
*P N4BEG[6] O
*I *1984:X O *D sky130_fd_sc_hd__buf_2
*CAP
1 N4BEG[6] 0.00101826
2 *1984:X 0.00101826
3 N4BEG[6] N4BEG[7] 0.000181695
4 N4BEG[6] *1974:A 4.38541e-05
5 N4BEG[6] *1980:A 0.000950911
6 N4BEG[6] *551:30 0.000105534
7 N4BEG[6] *580:95 0.000107356
8 N2BEGb[0] N4BEG[6] 2.65814e-06
9 N2BEGb[1] N4BEG[6] 2.19562e-06
10 N4BEG[4] N4BEG[6] 6.72196e-05
11 N4BEG[5] N4BEG[6] 3.41895e-05
*RES
1 *1984:X N4BEG[6] 22.9 
*END

*D_NET *141 0.00228531
*CONN
*P N4BEG[7] O
*I *1985:X O *D sky130_fd_sc_hd__buf_2
*CAP
1 N4BEG[7] 0.000552068
2 *1985:X 0.000552068
3 N4BEG[7] N4BEG[8] 0.000131791
4 N4BEG[7] *1481:A0 5.07419e-05
5 N4BEG[7] *1481:A1 4.40773e-05
6 N4BEG[7] *1980:A 3.86814e-05
7 N4BEG[7] *1995:A 0.00039924
8 N4BEG[7] *580:95 2.87965e-05
9 N4BEG[7] *617:28 2.34475e-05
10 N4BEG[7] *625:103 3.00381e-05
11 N4BEG[13] N4BEG[7] 0.000190446
12 N4BEG[15] N4BEG[7] 6.22198e-05
13 N4BEG[6] N4BEG[7] 0.000181695
*RES
1 *1985:X N4BEG[7] 15.6 
*END

*D_NET *142 0.00353231
*CONN
*P N4BEG[8] O
*I *1986:X O *D sky130_fd_sc_hd__buf_2
*CAP
1 N4BEG[8] 0.000563675
2 *1986:X 0.000563675
3 N4BEG[8] N4BEG[9] 0.000601889
4 N4BEG[8] NN4BEG[1] 7.9642e-06
5 N4BEG[8] *1980:A 0.000248384
6 N4BEG[8] *1986:A 1.67131e-05
7 N4BEG[8] *551:30 0.000744172
8 N4BEG[8] *580:95 0.000355787
9 N4BEG[13] N4BEG[8] 6.76938e-05
10 N4BEG[15] N4BEG[8] 1.16578e-05
11 N4BEG[2] N4BEG[8] 0.000218913
12 N4BEG[7] N4BEG[8] 0.000131791
*RES
1 *1986:X N4BEG[8] 24.28 
*END

*D_NET *143 0.00289432
*CONN
*P N4BEG[9] O
*I *1987:X O *D sky130_fd_sc_hd__buf_2
*CAP
1 N4BEG[9] 0.000579412
2 *1987:X 0.000579412
3 N4BEG[9] NN4BEG[1] 4.82919e-05
4 N4BEG[9] *1452:A0 2.11651e-05
5 N4BEG[9] *1452:S 0.000127068
6 N4BEG[9] *1973:A 0
7 N4BEG[9] *529:32 7.76832e-05
8 N4BEG[9] *537:52 8.52845e-05
9 N4BEG[9] *580:95 0.000266164
10 N4BEG[9] *592:48 2.38791e-05
11 N4BEG[10] N4BEG[9] 0.000215237
12 N4BEG[13] N4BEG[9] 6.71882e-05
13 N4BEG[15] N4BEG[9] 1.46744e-05
14 N4BEG[1] N4BEG[9] 0.00018697
15 N4BEG[8] N4BEG[9] 0.000601889
*RES
1 *1987:X N4BEG[9] 22.06 
*END

*D_NET *144 0.00252757
*CONN
*P NN4BEG[0] O
*I *1988:X O *D sky130_fd_sc_hd__buf_2
*CAP
1 NN4BEG[0] 0.000538501
2 *1988:X 0.000538501
3 NN4BEG[0] NN4BEG[1] 0.000221389
4 NN4BEG[0] NN4BEG[6] 0.000260666
5 NN4BEG[0] *1520:S 7.23231e-06
6 NN4BEG[0] *1733:A 0.000225955
7 NN4BEG[0] *2000:A 2.64028e-05
8 NN4BEG[0] *537:52 1.7635e-05
9 NN4BEG[0] *587:147 6.17895e-06
10 NN4BEG[0] *592:48 0.000345532
11 NN4BEG[0] *655:42 8.37239e-05
12 NN4BEG[0] *682:50 7.16821e-05
13 N4BEG[12] NN4BEG[0] 4.66108e-05
14 N4BEG[15] NN4BEG[0] 0.000137561
*RES
1 *1988:X NN4BEG[0] 16.71 
*END

*D_NET *145 0.00158927
*CONN
*P NN4BEG[10] O
*I *1989:X O *D sky130_fd_sc_hd__buf_2
*CAP
1 NN4BEG[10] 0.000319974
2 *1989:X 0.000319974
3 NN4BEG[10] NN4BEG[11] 0.000124902
4 NN4BEG[10] NN4BEG[5] 6.10082e-05
5 NN4BEG[10] NN4BEG[9] 0.000167928
6 NN4BEG[10] *1853:A 1.39525e-05
7 NN4BEG[10] *1855:A 1.23015e-05
8 NN4BEG[10] *527:36 0.000287757
9 NN4BEG[10] *529:32 0.000167666
10 Co NN4BEG[10] 0.00011381
*RES
1 *1989:X NN4BEG[10] 16 
*END

*D_NET *146 0.00253149
*CONN
*P NN4BEG[11] O
*I *1990:X O *D sky130_fd_sc_hd__buf_2
*CAP
1 NN4BEG[11] 0.000411847
2 *1990:X 0.000411847
3 NN4BEG[11] NN4BEG[12] 0.0001261
4 NN4BEG[11] *1460:A1 2.0117e-05
5 NN4BEG[11] *1854:A 8.30032e-05
6 NN4BEG[11] *1855:A 0.0005566
7 NN4BEG[11] *1866:A 9.387e-06
8 NN4BEG[11] *478:26 0.000173303
9 NN4BEG[11] *529:32 6.06805e-05
10 NN4BEG[11] *583:118 0.000178178
11 Co NN4BEG[11] 0.000375528
12 NN4BEG[10] NN4BEG[11] 0.000124902
*RES
1 *1990:X NN4BEG[11] 19.45 
*END

*D_NET *147 0.00178181
*CONN
*P NN4BEG[12] O
*I *1991:X O *D sky130_fd_sc_hd__buf_2
*CAP
1 NN4BEG[12] 0.000428137
2 *1991:X 0.000428137
3 NN4BEG[12] NN4BEG[13] 5.91835e-05
4 NN4BEG[12] *1855:A 0.000171392
5 NN4BEG[12] *1989:A 0.000238198
6 NN4BEG[12] *658:18 0.000330658
7 NN4BEG[11] NN4BEG[12] 0.0001261
*RES
1 *1991:X NN4BEG[12] 11.895 
*END

*D_NET *148 0.00222203
*CONN
*P NN4BEG[13] O
*I *1992:X O *D sky130_fd_sc_hd__buf_2
*CAP
1 NN4BEG[13] 0.000381187
2 *1992:X 0.000381187
3 NN4BEG[13] NN4BEG[14] 0.000313721
4 NN4BEG[13] NN4BEG[15] 0
5 NN4BEG[13] *1460:A1 0.000207144
6 NN4BEG[13] *1853:A 3.96737e-05
7 NN4BEG[13] *1994:A 3.36916e-05
8 NN4BEG[13] *527:36 0.000307068
9 NN4BEG[13] *582:30 0.000251532
10 NN4BEG[13] *658:18 0.000247646
11 NN4BEG[12] NN4BEG[13] 5.91835e-05
*RES
1 *1992:X NN4BEG[13] 18.04 
*END

*D_NET *149 0.00176982
*CONN
*P NN4BEG[14] O
*I *1993:X O *D sky130_fd_sc_hd__buf_2
*CAP
1 NN4BEG[14] 0.000284473
2 *1993:X 0.000284473
3 NN4BEG[14] NN4BEG[15] 0.000165283
4 NN4BEG[14] *1460:A1 0.000299246
5 NN4BEG[14] *1853:A 0.000231783
6 NN4BEG[14] *527:36 3.83194e-05
7 NN4BEG[14] *529:32 3.93101e-05
8 NN4BEG[14] *582:30 0.00011321
9 NN4BEG[13] NN4BEG[14] 0.000313721
*RES
1 *1993:X NN4BEG[14] 16 
*END

*D_NET *150 0.00138646
*CONN
*P NN4BEG[15] O
*I *1994:X O *D sky130_fd_sc_hd__buf_2
*CAP
1 NN4BEG[15] 0.000444426
2 *1994:X 0.000444426
3 NN4BEG[15] *1460:A0 0.000161467
4 NN4BEG[15] *1460:A1 5.34582e-05
5 Co NN4BEG[15] 0.000117401
6 NN4BEG[13] NN4BEG[15] 0
7 NN4BEG[14] NN4BEG[15] 0.000165283
*RES
1 *1994:X NN4BEG[15] 11.07 
*END

*D_NET *151 0.0025437
*CONN
*P NN4BEG[1] O
*I *1995:X O *D sky130_fd_sc_hd__buf_2
*CAP
1 NN4BEG[1] 0.000363532
2 *1995:X 0.000363532
3 NN4BEG[1] NN4BEG[2] 0.000149323
4 NN4BEG[1] *527:36 8.33276e-05
5 NN4BEG[1] *529:32 0.000564007
6 NN4BEG[1] *655:42 4.66474e-05
7 N4BEG[11] NN4BEG[1] 9.97553e-05
8 N4BEG[13] NN4BEG[1] 3.91915e-05
9 N4BEG[15] NN4BEG[1] 0.000556737
10 N4BEG[8] NN4BEG[1] 7.9642e-06
11 N4BEG[9] NN4BEG[1] 4.82919e-05
12 NN4BEG[0] NN4BEG[1] 0.000221389
*RES
1 *1995:X NN4BEG[1] 19.105 
*END

*D_NET *152 0.00225655
*CONN
*P NN4BEG[2] O
*I *1996:X O *D sky130_fd_sc_hd__buf_2
*CAP
1 NN4BEG[2] 0.000620837
2 *1996:X 0.000620837
3 NN4BEG[2] NN4BEG[3] 0.000204932
4 NN4BEG[2] *527:36 0.000417802
5 NN4BEG[2] *534:28 3.14086e-05
6 NN4BEG[2] *655:42 0.00010918
7 N4BEG[11] NN4BEG[2] 2.03606e-05
8 N4BEG[15] NN4BEG[2] 8.1871e-05
9 NN4BEG[1] NN4BEG[2] 0.000149323
*RES
1 *1996:X NN4BEG[2] 18.415 
*END

*D_NET *153 0.00210062
*CONN
*P NN4BEG[3] O
*I *1997:X O *D sky130_fd_sc_hd__buf_2
*CAP
1 NN4BEG[3] 0.000453055
2 *1997:X 0.000453055
3 NN4BEG[3] NN4BEG[4] 0.000105971
4 NN4BEG[3] NN4BEG[5] 6.72196e-05
5 NN4BEG[3] *1520:A0 1.1071e-05
6 NN4BEG[3] *1520:A1 0.00023968
7 NN4BEG[3] *1520:S 0.000129366
8 NN4BEG[3] *1754:A 2.35892e-05
9 NN4BEG[3] *1997:A 4.77719e-05
10 NN4BEG[3] *2000:A 8.02282e-05
11 NN4BEG[3] *2001:A 5.83121e-06
12 NN4BEG[3] *2002:A 4.27883e-06
13 NN4BEG[3] *583:118 0.000239215
14 NN4BEG[3] *655:42 2.30515e-05
15 NN4BEG[3] *682:50 1.23015e-05
16 NN4BEG[2] NN4BEG[3] 0.000204932
*RES
1 *1997:X NN4BEG[3] 14.25 
*END

*D_NET *154 0.00197249
*CONN
*P NN4BEG[4] O
*I *1998:X O *D sky130_fd_sc_hd__buf_2
*CAP
1 NN4BEG[4] 0.000546987
2 *1998:X 0.000546987
3 NN4BEG[4] NN4BEG[5] 0.00023762
4 NN4BEG[4] NN4BEG[6] 1.1392e-05
5 NN4BEG[4] *1520:A1 1.7635e-05
6 NN4BEG[4] *2000:A 2.04432e-05
7 NN4BEG[4] *583:118 0.000245892
8 NN4BEG[4] *592:48 4.38278e-05
9 NN4BEG[4] *655:42 0.000195731
10 NN4BEG[3] NN4BEG[4] 0.000105971
*RES
1 *1998:X NN4BEG[4] 13.275 
*END

*D_NET *155 0.00285145
*CONN
*P NN4BEG[5] O
*I *1999:X O *D sky130_fd_sc_hd__buf_2
*CAP
1 NN4BEG[5] 0.000800608
2 *1999:X 0.000800608
3 NN4BEG[5] NN4BEG[6] 0.00014188
4 NN4BEG[5] *1520:A0 2.53191e-06
5 NN4BEG[5] *1520:A1 4.95617e-05
6 NN4BEG[5] *1520:S 1.19928e-05
7 NN4BEG[5] *1777:A 2.97032e-05
8 NN4BEG[5] *2001:A 0.000223248
9 NN4BEG[5] *2002:A 0.000178594
10 NN4BEG[5] *559:48 0.00018955
11 NN4BEG[5] *592:75 7.9642e-06
12 Co NN4BEG[5] 4.93647e-05
13 NN4BEG[10] NN4BEG[5] 6.10082e-05
14 NN4BEG[3] NN4BEG[5] 6.72196e-05
15 NN4BEG[4] NN4BEG[5] 0.00023762
*RES
1 *1999:X NN4BEG[5] 22.57 
*END

*D_NET *156 0.00216116
*CONN
*P NN4BEG[6] O
*I *2000:X O *D sky130_fd_sc_hd__buf_2
*CAP
1 NN4BEG[6] 0.000476067
2 *2000:X 0.000476067
3 NN4BEG[6] NN4BEG[7] 0.000126219
4 NN4BEG[6] *1854:A 0.000251259
5 NN4BEG[6] *529:32 0.000186595
6 NN4BEG[6] *568:52 9.06592e-06
7 NN4BEG[6] *592:48 3.2318e-05
8 NN4BEG[6] *655:42 0.000118081
9 Co NN4BEG[6] 2.99555e-05
10 N4BEG[14] NN4BEG[6] 0
11 N4BEG[15] NN4BEG[6] 4.16006e-05
12 NN4BEG[0] NN4BEG[6] 0.000260666
13 NN4BEG[4] NN4BEG[6] 1.1392e-05
14 NN4BEG[5] NN4BEG[6] 0.00014188
*RES
1 *2000:X NN4BEG[6] 19.405 
*END

*D_NET *157 0.00209571
*CONN
*P NN4BEG[7] O
*I *2001:X O *D sky130_fd_sc_hd__buf_2
*CAP
1 NN4BEG[7] 0.000548173
2 *2001:X 0.000548173
3 NN4BEG[7] NN4BEG[8] 0.000498883
4 NN4BEG[7] NN4BEG[9] 0
5 NN4BEG[7] *1754:A 8.53113e-06
6 NN4BEG[7] *2000:A 1.83756e-05
7 NN4BEG[7] *2001:A 2.39856e-05
8 NN4BEG[7] *655:42 6.07575e-06
9 Co NN4BEG[7] 0.000317293
10 NN4BEG[6] NN4BEG[7] 0.000126219
*RES
1 *2001:X NN4BEG[7] 13.86 
*END

*D_NET *158 0.0018602
*CONN
*P NN4BEG[8] O
*I *2002:X O *D sky130_fd_sc_hd__buf_2
*CAP
1 NN4BEG[8] 0.000391954
2 *2002:X 0.000391954
3 NN4BEG[8] NN4BEG[9] 0.000261606
4 NN4BEG[8] *1754:A 4.77757e-05
5 NN4BEG[8] *2001:A 0.000139815
6 NN4BEG[8] *655:42 0.000128208
7 NN4BEG[7] NN4BEG[8] 0.000498883
*RES
1 *2002:X NN4BEG[8] 12.915 
*END

*D_NET *159 0.0013198
*CONN
*P NN4BEG[9] O
*I *2003:X O *D sky130_fd_sc_hd__buf_2
*CAP
1 NN4BEG[9] 0.000424696
2 *2003:X 0.000424696
3 NN4BEG[9] *1754:A 3.23391e-05
4 NN4BEG[9] *1853:A 0
5 NN4BEG[9] *682:50 8.53113e-06
6 NN4BEG[10] NN4BEG[9] 0.000167928
7 NN4BEG[7] NN4BEG[9] 0
8 NN4BEG[8] NN4BEG[9] 0.000261606
*RES
1 *2003:X NN4BEG[9] 11.625 
*END

*D_NET *160 0.0010945
*CONN
*P RESET_top O
*I *2004:X O *D sky130_fd_sc_hd__buf_2
*CAP
1 RESET_top 0.000423993
2 *2004:X 0.000423993
3 RESET_top *1576:C 4.61256e-05
4 RESET_top *1667:D 0.000123955
5 RESET_top *462:44 7.64325e-05
6 RESET_top *471:20 0
*RES
1 *2004:X RESET_top 9.6 
*END

*D_NET *161 0.00369024
*CONN
*P S1END[0] I
*I *1853:A I *D sky130_fd_sc_hd__buf_1
*CAP
1 S1END[0] 0.000812425
2 *1853:A 0.000812425
3 *1853:A *1481:A0 8.64421e-05
4 *1853:A *1617:GATE 1.83182e-05
5 *1853:A *1649:D 3.5399e-05
6 *1853:A *1783:A 8.7152e-06
7 *1853:A *1854:A 8.52367e-05
8 *1853:A *1855:A 0.000635635
9 *1853:A *1975:A 0.000123955
10 *1853:A *2003:A 0
11 *1853:A *272:10 1.08814e-05
12 *1853:A *527:36 4.94378e-05
13 *1853:A *529:32 0.00044682
14 *1853:A *582:30 0.000146498
15 *1853:A *587:147 1.52352e-05
16 *1853:A *682:50 0
17 Co *1853:A 0.000117401
18 NN4BEG[10] *1853:A 1.39525e-05
19 NN4BEG[13] *1853:A 3.96737e-05
20 NN4BEG[14] *1853:A 0.000231783
21 NN4BEG[9] *1853:A 0
*RES
1 S1END[0] *1853:A 25.855 
*END

*D_NET *162 0.00463665
*CONN
*P S1END[1] I
*I *1854:A I *D sky130_fd_sc_hd__buf_1
*CAP
1 S1END[1] 0.000683963
2 *1854:A 0.000683963
3 *1854:A *1460:A1 7.11219e-05
4 *1854:A *1855:A 7.8986e-05
5 *1854:A *527:36 1.88602e-05
6 *1854:A *529:32 7.67415e-06
7 *1854:A *534:28 0.000270428
8 *1854:A *582:18 0.000306785
9 *1854:A *582:30 4.90071e-05
10 *1854:A *583:118 0.00106909
11 *1854:A *587:92 1.39456e-05
12 *1854:A *655:42 8.23535e-05
13 Co *1854:A 0.000703021
14 N4BEG[12] *1854:A 0.000133808
15 N4BEG[13] *1854:A 4.41506e-05
16 NN4BEG[11] *1854:A 8.30032e-05
17 NN4BEG[6] *1854:A 0.000251259
18 *1853:A *1854:A 8.52367e-05
*RES
1 S1END[1] *1854:A 28.93 
*END

*D_NET *163 0.00408103
*CONN
*P S1END[2] I
*I *1855:A I *D sky130_fd_sc_hd__clkbuf_1
*CAP
1 S1END[2] 0.000611513
2 *1855:A 0.000611513
3 *1855:A *1460:A1 0.000132732
4 *1855:A *1481:A0 1.67131e-05
5 *1855:A *1856:A 5.3385e-05
6 *1855:A *1866:A 0
7 *1855:A *1975:A 1.77595e-05
8 *1855:A *1989:A 0.000451301
9 *1855:A *272:10 1.47376e-05
10 *1855:A *529:32 0.000558281
11 *1855:A *583:118 8.9899e-05
12 *1855:A *587:147 5.14854e-05
13 *1855:A *658:18 1.67908e-05
14 NN4BEG[10] *1855:A 1.23015e-05
15 NN4BEG[11] *1855:A 0.0005566
16 NN4BEG[12] *1855:A 0.000171392
17 *1853:A *1855:A 0.000635635
18 *1854:A *1855:A 7.8986e-05
*RES
1 S1END[2] *1855:A 25.855 
*END

*D_NET *164 0.00468879
*CONN
*P S1END[3] I
*I *1856:A I *D sky130_fd_sc_hd__clkbuf_1
*CAP
1 S1END[3] 0.000863799
2 *1856:A 0.000863799
3 *1856:A *1464:A0 0
4 *1856:A *1465:A0 4.68773e-05
5 *1856:A *1465:S 0.000126944
6 *1856:A *1524:A1 0.000135639
7 *1856:A *1859:A 0
8 *1856:A *1860:A 0.000358058
9 *1856:A *1866:A 5.17404e-05
10 *1856:A *1869:A 0.000585135
11 *1856:A *1966:A 0.000290511
12 *1856:A *1971:A 5.46154e-05
13 *1856:A *1999:A 1.89738e-05
14 *1856:A *504:30 0.000130453
15 *1856:A *515:24 0.000787046
16 *1856:A *528:20 0.00029028
17 *1856:A *630:42 3.1529e-05
18 *1855:A *1856:A 5.3385e-05
*RES
1 S1END[3] *1856:A 29.71 
*END

*D_NET *165 0.00174278
*CONN
*P S2END[0] I
*I *1858:A I *D sky130_fd_sc_hd__clkbuf_1
*CAP
1 S2END[0] 0.000358414
2 *1858:A 0.000358414
3 *1858:A *1460:A0 1.39456e-05
4 *1858:A *1859:A 8.79166e-06
5 *1858:A *1870:A 3.47937e-05
6 *1858:A *1871:A 0.000327986
7 *1858:A *1872:A 0.000470594
8 *1858:A *1874:A 8.79166e-06
9 *1858:A *470:30 0.000161045
*RES
1 S2END[0] *1858:A 11.0909 
*END

*D_NET *166 0.00144053
*CONN
*P S2END[1] I
*I *1859:A I *D sky130_fd_sc_hd__clkbuf_1
*CAP
1 S2END[1] 0.000510765
2 *1859:A 0.000510765
3 *1859:A *1464:A0 4.66108e-05
4 *1859:A *1860:A 3.70028e-05
5 *1859:A *1866:A 9.60661e-05
6 *1859:A *1874:A 0.000206042
7 *1859:A *583:118 2.44872e-05
8 *1856:A *1859:A 0
9 *1858:A *1859:A 8.79166e-06
*RES
1 S2END[1] *1859:A 11.925 
*END

*D_NET *167 0.00149931
*CONN
*P S2END[2] I
*I *1860:A I *D sky130_fd_sc_hd__clkbuf_1
*CAP
1 S2END[2] 0.000288108
2 *1860:A 0.000288108
3 *1860:A *1464:A0 1.34594e-05
4 *1860:A *1861:A 0.000175863
5 *1860:A *1869:A 0.000338716
6 *1856:A *1860:A 0.000358058
7 *1859:A *1860:A 3.70028e-05
*RES
1 S2END[2] *1860:A 10.785 
*END

*D_NET *168 0.001442
*CONN
*P S2END[3] I
*I *1861:A I *D sky130_fd_sc_hd__buf_1
*CAP
1 S2END[3] 0.000292428
2 *1861:A 0.000292428
3 *1861:A *1464:A0 4.0843e-05
4 *1861:A *1524:A1 6.83025e-05
5 *1861:A *1862:A 0.000233418
6 *1861:A *1869:A 0.000338716
7 *1860:A *1861:A 0.000175863
*RES
1 S2END[3] *1861:A 11.34 
*END

*D_NET *169 0.00171978
*CONN
*P S2END[4] I
*I *1862:A I *D sky130_fd_sc_hd__clkbuf_1
*CAP
1 S2END[4] 0.000355957
2 *1862:A 0.000355957
3 *1862:A *1524:A1 1.16578e-05
4 *1862:A *1773:A 0.0001249
5 *1862:A *1863:A 0.000528792
6 *1862:A *1869:A 5.71093e-06
7 *1862:A *1981:A 6.57949e-06
8 *1862:A *1999:A 6.07575e-06
9 *1862:A *645:34 5.36281e-05
10 *1862:A *648:38 3.71063e-05
11 *1861:A *1862:A 0.000233418
*RES
1 S2END[4] *1862:A 13.275 
*END

*D_NET *170 0.00198194
*CONN
*P S2END[5] I
*I *1863:A I *D sky130_fd_sc_hd__buf_1
*CAP
1 S2END[5] 0.000518908
2 *1863:A 0.000518908
3 *1863:A *1864:A 8.20393e-05
4 *1863:A *1884:A 1.83847e-05
5 *1863:A *1981:A 0.000297735
6 *1863:A *648:38 1.71775e-05
7 *1862:A *1863:A 0.000528792
*RES
1 S2END[5] *1863:A 13.455 
*END

*D_NET *171 0.00237863
*CONN
*P S2END[6] I
*I *1864:A I *D sky130_fd_sc_hd__buf_1
*CAP
1 S2END[6] 0.000334223
2 *1864:A 0.000334223
3 *1864:A *1865:A 3.7954e-05
4 *1864:A *1875:A 0.000612672
5 *1864:A *1885:A 7.27402e-06
6 *1864:A *1886:A 0.00011618
7 *1864:A *1981:A 0.000113193
8 *1864:A *504:38 0.000530063
9 *1864:A *515:48 0.000195607
10 *1864:A *550:16 1.51976e-05
11 *1863:A *1864:A 8.20393e-05
*RES
1 S2END[6] *1864:A 18.58 
*END

*D_NET *172 0.00233527
*CONN
*P S2END[7] I
*I *1865:A I *D sky130_fd_sc_hd__buf_1
*CAP
1 S2END[7] 0.000609808
2 *1865:A 0.000609808
3 *1865:A *1452:A0 0.000134926
4 *1865:A *1530:A0 0.00013637
5 *1865:A *1531:A0 6.60257e-06
6 *1865:A *1875:A 0.000131133
7 *1865:A *1883:A 0.000214048
8 *1865:A *1885:A 4.28869e-05
9 *1865:A *515:48 0.000295844
10 *1865:A *646:8 0.000115887
11 *1865:A *648:38 0
12 *1864:A *1865:A 3.7954e-05
*RES
1 S2END[7] *1865:A 14.7428 
*END

*D_NET *173 0.00419593
*CONN
*P S2MID[0] I
*I *1866:A I *D sky130_fd_sc_hd__clkbuf_1
*CAP
1 S2MID[0] 0.0010767
2 *1866:A 0.0010767
3 *1866:A *1460:A0 0.00026705
4 *1866:A *1463:A1 5.13708e-05
5 *1866:A *1514:S 0.000268635
6 *1866:A *1867:A 0.000101293
7 *1866:A *1871:A 0.000110082
8 *1866:A *1874:A 4.65515e-05
9 *1866:A *1991:A 7.62186e-05
10 *1866:A *1993:A 6.07575e-06
11 *1866:A *1999:A 0.000261444
12 *1866:A *478:26 0.000172072
13 *1866:A *528:20 1.73785e-05
14 *1866:A *583:118 0.000294925
15 *1866:A *630:42 9.15852e-05
16 *1866:A *677:30 0.000120655
17 NN4BEG[11] *1866:A 9.387e-06
18 *1855:A *1866:A 0
19 *1856:A *1866:A 5.17404e-05
20 *1859:A *1866:A 9.60661e-05
*RES
1 S2MID[0] *1866:A 27.88 
*END

*D_NET *174 0.00357058
*CONN
*P S2MID[1] I
*I *1867:A I *D sky130_fd_sc_hd__buf_1
*CAP
1 S2MID[1] 0.000848261
2 *1867:A 0.000848261
3 *1867:A *697:DIODE 1.88602e-05
4 *1867:A *1476:A0 0.000129723
5 *1867:A *1477:A0 3.05422e-05
6 *1867:A *1489:A1 5.78621e-05
7 *1867:A *1489:A2 4.7878e-05
8 *1867:A *1494:A2 6.72196e-05
9 *1867:A *1494:B1 2.61944e-05
10 *1867:A *1522:A0 8.65905e-05
11 *1867:A *1612:GATE 0.000152668
12 *1867:A *1614:D 0
13 *1867:A *1703:A 6.69969e-05
14 *1867:A *1869:A 6.20907e-05
15 *1867:A *1870:A 0.000602346
16 *1867:A *1873:A 0.00027034
17 *1867:A *229:71 1.01276e-05
18 *1867:A *537:75 2.40793e-05
19 *1867:A *632:40 1.66925e-05
20 *1867:A *650:16 8.49205e-05
21 *1867:A *682:50 1.7635e-05
22 *1866:A *1867:A 0.000101293
*RES
1 S2MID[1] *1867:A 22.035 
*END

*D_NET *175 0.00417331
*CONN
*P S2MID[2] I
*I *1869:A I *D sky130_fd_sc_hd__clkbuf_1
*CAP
1 S2MID[2] 0.000732234
2 *1869:A 0.000732234
3 *1869:A *1464:A0 0.00047313
4 *1869:A *1524:A1 0.000212511
5 *1869:A *1751:A 4.82863e-05
6 *1869:A *1870:A 6.04719e-05
7 *1869:A *1966:A 0.000129847
8 *1869:A *229:101 2.81948e-05
9 *1869:A *504:30 0.000343566
10 *1869:A *504:38 0
11 *1869:A *515:24 3.83194e-05
12 *1869:A *686:28 4.41506e-05
13 *1856:A *1869:A 0.000585135
14 *1860:A *1869:A 0.000338716
15 *1861:A *1869:A 0.000338716
16 *1862:A *1869:A 5.71093e-06
17 *1867:A *1869:A 6.20907e-05
*RES
1 S2MID[2] *1869:A 26.89 
*END

*D_NET *176 0.00362821
*CONN
*P S2MID[3] I
*I *1870:A I *D sky130_fd_sc_hd__buf_1
*CAP
1 S2MID[3] 0.000578224
2 *1870:A 0.000578224
3 *1870:A *1460:A0 0.000150787
4 *1870:A *1476:A0 8.53307e-05
5 *1870:A *1612:D 0.000122337
6 *1870:A *1614:D 0.00026617
7 *1870:A *1871:A 0.00017038
8 *1870:A *1993:A 4.37408e-05
9 *1870:A *1999:A 0.00067896
10 *1870:A *559:48 0.000223961
11 *1870:A *682:50 3.24882e-05
12 *1858:A *1870:A 3.47937e-05
13 *1867:A *1870:A 0.000602346
14 *1869:A *1870:A 6.04719e-05
*RES
1 S2MID[3] *1870:A 20.04 
*END

*D_NET *177 0.00212957
*CONN
*P S2MID[4] I
*I *1871:A I *D sky130_fd_sc_hd__buf_1
*CAP
1 S2MID[4] 0.00041397
2 *1871:A 0.00041397
3 *1871:A *1477:A0 0.000131603
4 *1871:A *1872:A 5.13731e-06
5 *1871:A *1873:A 4.55665e-05
6 *1871:A *1990:A 0.000191332
7 *1871:A *478:26 1.59207e-05
8 *1871:A *527:36 0.000153073
9 *1871:A *529:32 0.000150549
10 *1858:A *1871:A 0.000327986
11 *1866:A *1871:A 0.000110082
12 *1870:A *1871:A 0.00017038
*RES
1 S2MID[4] *1871:A 18.46 
*END

*D_NET *178 0.00187378
*CONN
*P S2MID[5] I
*I *1872:A I *D sky130_fd_sc_hd__buf_1
*CAP
1 S2MID[5] 0.000342904
2 *1872:A 0.000342904
3 *1872:A *1460:A0 8.6777e-06
4 *1872:A *1463:A0 0.000128016
5 *1872:A *1873:A 0.000107333
6 *1872:A *1874:A 0.000253004
7 *1872:A *1969:A 4.82919e-05
8 *1872:A *1991:A 8.49205e-05
9 *1872:A *1993:A 7.1115e-05
10 *1872:A *583:118 1.08814e-05
11 *1858:A *1872:A 0.000470594
12 *1871:A *1872:A 5.13731e-06
*RES
1 S2MID[5] *1872:A 12.63 
*END

*D_NET *179 0.00155143
*CONN
*P S2MID[6] I
*I *1873:A I *D sky130_fd_sc_hd__buf_1
*CAP
1 S2MID[6] 0.000416293
2 *1873:A 0.000416293
3 *1873:A *1874:A 0.000107333
4 *1873:A *478:26 0.000106534
5 *1873:A *504:30 8.174e-05
6 *1867:A *1873:A 0.00027034
7 *1871:A *1873:A 4.55665e-05
8 *1872:A *1873:A 0.000107333
*RES
1 S2MID[6] *1873:A 16.51 
*END

*D_NET *180 0.0017681
*CONN
*P S2MID[7] I
*I *1874:A I *D sky130_fd_sc_hd__clkbuf_1
*CAP
1 S2MID[7] 0.000533042
2 *1874:A 0.000533042
3 *1874:A *1993:A 1.99109e-05
4 *1874:A *583:118 6.0383e-05
5 *1858:A *1874:A 8.79166e-06
6 *1859:A *1874:A 0.000206042
7 *1866:A *1874:A 4.65515e-05
8 *1872:A *1874:A 0.000253004
9 *1873:A *1874:A 0.000107333
*RES
1 S2MID[7] *1874:A 12.54 
*END

*D_NET *181 0.00209769
*CONN
*P S4END[0] I
*I *1875:A I *D sky130_fd_sc_hd__buf_1
*CAP
1 S4END[0] 0.000359203
2 *1875:A 0.000359203
3 *1875:A *1883:A 0.000129455
4 *1875:A *1884:A 8.64421e-05
5 *1875:A *1886:A 9.03521e-05
6 *1875:A *1887:A 4.77719e-05
7 *1875:A *1888:A 0.000152548
8 *1875:A *504:38 1.91597e-05
9 *1875:A *550:16 0.000109749
10 *1864:A *1875:A 0.000612672
11 *1865:A *1875:A 0.000131133
*RES
1 S4END[0] *1875:A 18.34 
*END

*D_NET *182 0.00208365
*CONN
*P S4END[10] I
*I *1876:A I *D sky130_fd_sc_hd__clkbuf_1
*CAP
1 S4END[10] 0.000356569
2 *1876:A 0.000356569
3 *1876:A *1877:A 0.00047695
4 *1876:A *1882:A 5.69898e-06
5 *1876:A *1892:A 7.81754e-05
6 *1876:A *1893:A 8.70354e-05
7 *1876:A *550:16 0.000492739
8 *1876:A *571:22 0.000229912
*RES
1 S4END[10] *1876:A 18.235 
*END

*D_NET *183 0.00194993
*CONN
*P S4END[11] I
*I *1877:A I *D sky130_fd_sc_hd__clkbuf_1
*CAP
1 S4END[11] 0.000493032
2 *1877:A 0.000493032
3 *1877:A *1460:A0 7.60965e-05
4 *1877:A *1878:A 0.000124926
5 *1877:A *1893:A 1.23015e-05
6 *1877:A *1900:A 4.82863e-05
7 *1877:A *1902:A 9.00845e-05
8 *1877:A *470:30 0
9 *1877:A *527:20 0.000107041
10 *1877:A *550:16 2.8185e-05
11 *1876:A *1877:A 0.00047695
*RES
1 S4END[11] *1877:A 19.375 
*END

*D_NET *184 0.00203244
*CONN
*P S4END[12] I
*I *1878:A I *D sky130_fd_sc_hd__clkbuf_1
*CAP
1 S4END[12] 0.000770839
2 *1878:A 0.000770839
3 *1878:A *1459:A0 1.85674e-05
4 *1878:A *1460:A0 4.59815e-05
5 *1878:A *1880:A 0.00015181
6 *1878:A *1891:A 5.85668e-05
7 *1878:A *1892:A 9.09106e-05
8 *1877:A *1878:A 0.000124926
*RES
1 S4END[12] *1878:A 15.24 
*END

*D_NET *185 0.00303878
*CONN
*P S4END[13] I
*I *1880:A I *D sky130_fd_sc_hd__clkbuf_1
*CAP
1 S4END[13] 0.000433104
2 *1880:A 0.000433104
3 *1880:A *1459:A0 7.45026e-05
4 *1880:A *1462:A0 3.02513e-05
5 *1880:A *1881:A 0.000138128
6 *1880:A *1882:A 0.000520559
7 *1880:A *1891:A 9.72473e-05
8 *1880:A *1906:A 0.000189374
9 *1880:A *1974:A 0.000299484
10 *1880:A *504:38 0.000671212
11 *1878:A *1880:A 0.00015181
*RES
1 S4END[13] *1880:A 21.475 
*END

*D_NET *186 0.00273321
*CONN
*P S4END[14] I
*I *1881:A I *D sky130_fd_sc_hd__clkbuf_1
*CAP
1 S4END[14] 0.000392451
2 *1881:A 0.000392451
3 *1881:A *1459:A0 3.09164e-05
4 *1881:A *1882:A 0.000146152
5 *1881:A *1891:A 5.83121e-06
6 *1881:A *1893:A 0.000552049
7 *1881:A *1902:A 0.000410785
8 *1881:A *1906:A 6.02856e-05
9 *1881:A *1907:A 0.000134245
10 *1881:A *1908:A 0.000303646
11 *1881:A *550:16 0.000166266
12 *1880:A *1881:A 0.000138128
*RES
1 S4END[14] *1881:A 20.305 
*END

*D_NET *187 0.00291263
*CONN
*P S4END[15] I
*I *1882:A I *D sky130_fd_sc_hd__clkbuf_1
*CAP
1 S4END[15] 0.000409428
2 *1882:A 0.000409428
3 *1882:A *1891:A 3.59531e-06
4 *1882:A *1893:A 0.000776464
5 *1882:A *1902:A 0.000263174
6 *1882:A *1909:A 0.000263174
7 *1882:A *504:38 0.000114958
8 *1876:A *1882:A 5.69898e-06
9 *1880:A *1882:A 0.000520559
10 *1881:A *1882:A 0.000146152
*RES
1 S4END[15] *1882:A 20.65 
*END

*D_NET *188 0.00210756
*CONN
*P S4END[1] I
*I *1883:A I *D sky130_fd_sc_hd__buf_1
*CAP
1 S4END[1] 0.000495659
2 *1883:A 0.000495659
3 *1883:A *1524:A0 0.000135782
4 *1883:A *1530:A0 2.70428e-05
5 *1883:A *1884:A 0.00034729
6 *1883:A *1885:A 0.000122699
7 *1883:A *466:44 3.40163e-05
8 *1883:A *646:8 0.000105903
9 *1883:A *648:38 0
10 *1865:A *1883:A 0.000214048
11 *1875:A *1883:A 0.000129455
*RES
1 S4END[1] *1883:A 15.12 
*END

*D_NET *189 0.00202085
*CONN
*P S4END[2] I
*I *1884:A I *D sky130_fd_sc_hd__clkbuf_1
*CAP
1 S4END[2] 0.000402927
2 *1884:A 0.000402927
3 *1884:A *1885:A 0.000231263
4 *1884:A *1886:A 0.000117909
5 *1884:A *647:22 0.00030822
6 *1884:A *648:38 8.6328e-05
7 *1884:A *668:16 1.91597e-05
8 *1863:A *1884:A 1.83847e-05
9 *1875:A *1884:A 8.64421e-05
10 *1883:A *1884:A 0.00034729
*RES
1 S4END[2] *1884:A 14.4 
*END

*D_NET *190 0.00185192
*CONN
*P S4END[3] I
*I *1885:A I *D sky130_fd_sc_hd__clkbuf_1
*CAP
1 S4END[3] 0.000453817
2 *1885:A 0.000453817
3 *1885:A *1524:A0 0.000158536
4 *1885:A *1530:A0 5.8678e-05
5 *1885:A *1531:A0 1.7635e-05
6 *1885:A *1886:A 0.00030168
7 *1885:A *1888:A 0
8 *1885:A *646:8 3.63701e-06
9 *1864:A *1885:A 7.27402e-06
10 *1865:A *1885:A 4.28869e-05
11 *1883:A *1885:A 0.000122699
12 *1884:A *1885:A 0.000231263
*RES
1 S4END[3] *1885:A 13.98 
*END

*D_NET *191 0.00167046
*CONN
*P S4END[4] I
*I *1886:A I *D sky130_fd_sc_hd__clkbuf_1
*CAP
1 S4END[4] 0.000410872
2 *1886:A 0.000410872
3 *1886:A *1530:A0 1.42697e-05
4 *1886:A *1887:A 0.000120062
5 *1886:A *1889:A 8.8266e-05
6 *1864:A *1886:A 0.00011618
7 *1875:A *1886:A 9.03521e-05
8 *1884:A *1886:A 0.000117909
9 *1885:A *1886:A 0.00030168
*RES
1 S4END[4] *1886:A 13.065 
*END

*D_NET *192 0.0018598
*CONN
*P S4END[5] I
*I *1887:A I *D sky130_fd_sc_hd__clkbuf_1
*CAP
1 S4END[5] 0.000402475
2 *1887:A 0.000402475
3 *1887:A *1452:A0 3.03775e-05
4 *1887:A *1460:A0 5.83121e-06
5 *1887:A *1888:A 0.00011534
6 *1887:A *1889:A 8.2076e-05
7 *1887:A *1891:A 9.72473e-05
8 *1887:A *1892:A 0.000377367
9 *1887:A *504:38 6.42766e-05
10 *1887:A *550:16 0.000114498
11 *1875:A *1887:A 4.77719e-05
12 *1886:A *1887:A 0.000120062
*RES
1 S4END[5] *1887:A 17.995 
*END

*D_NET *193 0.00179399
*CONN
*P S4END[6] I
*I *1888:A I *D sky130_fd_sc_hd__clkbuf_1
*CAP
1 S4END[6] 0.000492058
2 *1888:A 0.000492058
3 *1888:A *1524:A0 4.80285e-05
4 *1888:A *1530:A0 0
5 *1888:A *1889:A 0.000272673
6 *1888:A *647:22 0.000119035
7 *1888:A *668:16 1.61733e-05
8 *1888:A *669:28 8.6076e-05
9 *1875:A *1888:A 0.000152548
10 *1885:A *1888:A 0
11 *1887:A *1888:A 0.00011534
*RES
1 S4END[6] *1888:A 13.53 
*END

*D_NET *194 0.00188671
*CONN
*P S4END[7] I
*I *1889:A I *D sky130_fd_sc_hd__clkbuf_1
*CAP
1 S4END[7] 0.00055455
2 *1889:A 0.00055455
3 *1889:A *1891:A 0.000125691
4 *1889:A *1892:A 0.000208909
5 *1886:A *1889:A 8.8266e-05
6 *1887:A *1889:A 8.2076e-05
7 *1888:A *1889:A 0.000272673
*RES
1 S4END[7] *1889:A 13.755 
*END

*D_NET *195 0.00173324
*CONN
*P S4END[8] I
*I *1891:A I *D sky130_fd_sc_hd__buf_1
*CAP
1 S4END[8] 0.000414369
2 *1891:A 0.000414369
3 *1891:A *1892:A 0.000110706
4 *1891:A *1954:A 7.25485e-05
5 *1891:A *1972:A 1.2778e-05
6 *1891:A *504:38 0.000214591
7 *1891:A *550:16 0.000105701
8 *1878:A *1891:A 5.85668e-05
9 *1880:A *1891:A 9.72473e-05
10 *1881:A *1891:A 5.83121e-06
11 *1882:A *1891:A 3.59531e-06
12 *1887:A *1891:A 9.72473e-05
13 *1889:A *1891:A 0.000125691
*RES
1 S4END[8] *1891:A 17.89 
*END

*D_NET *196 0.00214072
*CONN
*P S4END[9] I
*I *1892:A I *D sky130_fd_sc_hd__clkbuf_1
*CAP
1 S4END[9] 0.000458449
2 *1892:A 0.000458449
3 *1892:A *1460:A0 0.000357755
4 *1876:A *1892:A 7.81754e-05
5 *1878:A *1892:A 9.09106e-05
6 *1887:A *1892:A 0.000377367
7 *1889:A *1892:A 0.000208909
8 *1891:A *1892:A 0.000110706
*RES
1 S4END[9] *1892:A 15.51 
*END

*D_NET *197 0.00301483
*CONN
*P SS4END[0] I
*I *1893:A I *D sky130_fd_sc_hd__buf_1
*CAP
1 SS4END[0] 0.000437381
2 *1893:A 0.000437381
3 *1893:A *1894:A 0.000137571
4 *1893:A *1895:A 3.09164e-05
5 *1893:A *1900:A 0.000286735
6 *1893:A *1902:A 3.83194e-05
7 *1893:A *1904:A 0.000113409
8 *1893:A *1909:A 1.71207e-05
9 *1893:A *504:38 3.59784e-05
10 *1893:A *550:16 5.21706e-05
11 *1876:A *1893:A 8.70354e-05
12 *1877:A *1893:A 1.23015e-05
13 *1881:A *1893:A 0.000552049
14 *1882:A *1893:A 0.000776464
*RES
1 SS4END[0] *1893:A 20.995 
*END

*D_NET *198 0.00350319
*CONN
*P SS4END[10] I
*I *1894:A I *D sky130_fd_sc_hd__clkbuf_1
*CAP
1 SS4END[10] 0.000551976
2 *1894:A 0.000551976
3 *1894:A *1526:A0 6.1357e-05
4 *1894:A *1895:A 0.000112551
5 *1894:A *1896:A 9.27495e-05
6 *1894:A *1898:A 0.000648972
7 *1894:A *1899:A 0.000347459
8 *1894:A *1907:A 0.000153816
9 *1894:A *1909:A 0.00026017
10 *1894:A *1916:A 0.000217888
11 *1894:A *478:26 4.82863e-05
12 *1894:A *504:38 4.99782e-05
13 *1894:A *679:38 4.66108e-05
14 FrameStrobe_O[2] *1894:A 0.000221832
15 *1893:A *1894:A 0.000137571
*RES
1 SS4END[10] *1894:A 24.745 
*END

*D_NET *199 0.00241958
*CONN
*P SS4END[11] I
*I *1895:A I *D sky130_fd_sc_hd__clkbuf_1
*CAP
1 SS4END[11] 0.000432884
2 *1895:A 0.000432884
3 *1895:A UserCLKo 1.08946e-05
4 *1895:A *1519:A0 0.000132114
5 *1895:A *1520:A0 8.41703e-06
6 *1895:A *1896:A 3.7954e-05
7 *1895:A *1899:A 7.73008e-05
8 *1895:A *1900:A 0.000177104
9 *1895:A *1906:A 2.04649e-05
10 *1895:A *504:38 0.000278166
11 *1895:A *550:16 0.000139226
12 FrameStrobe_O[0] *1895:A 0.000220452
13 FrameStrobe_O[1] *1895:A 0.000308254
14 *1893:A *1895:A 3.09164e-05
15 *1894:A *1895:A 0.000112551
*RES
1 SS4END[11] *1895:A 20.53 
*END

*D_NET *200 0.00293054
*CONN
*P SS4END[12] I
*I *1896:A I *D sky130_fd_sc_hd__buf_1
*CAP
1 SS4END[12] 0.000540209
2 *1896:A 0.000540209
3 *1896:A *1524:A0 6.07575e-06
4 *1896:A *1526:A0 4.57041e-05
5 *1896:A *1897:A 0.000327135
6 *1896:A *1900:A 0.0002184
7 *1896:A *1903:A 1.07797e-05
8 *1896:A *1907:A 0.000407401
9 *1896:A *1909:A 5.74791e-05
10 *1896:A *508:30 0.00022462
11 *1896:A *677:30 9.29751e-06
12 *1896:A *679:38 6.97498e-05
13 *1896:A *693:20 0.000342778
14 *1894:A *1896:A 9.27495e-05
15 *1895:A *1896:A 3.7954e-05
*RES
1 SS4END[12] *1896:A 18.285 
*END

*D_NET *201 0.00283906
*CONN
*P SS4END[13] I
*I *1897:A I *D sky130_fd_sc_hd__buf_1
*CAP
1 SS4END[13] 0.000643275
2 *1897:A 0.000643275
3 *1897:A UserCLKo 0.000489692
4 *1897:A *1526:A0 0.000365413
5 *1897:A *1898:A 0.000183389
6 *1897:A *1899:A 0
7 *1897:A *1974:A 4.27246e-05
8 *1897:A *2005:A 4.99619e-05
9 *1897:A *470:30 4.82919e-05
10 *1897:A *687:26 4.58993e-05
11 *1896:A *1897:A 0.000327135
*RES
1 SS4END[13] *1897:A 18.51 
*END

*D_NET *202 0.003137
*CONN
*P SS4END[14] I
*I *1898:A I *D sky130_fd_sc_hd__buf_1
*CAP
1 SS4END[14] 0.000591363
2 *1898:A 0.000591363
3 *1898:A *1519:A0 4.99619e-05
4 *1898:A *1899:A 0.000267429
5 *1898:A *1916:A 2.8185e-05
6 *1898:A *1942:A 0.000252381
7 *1898:A *504:38 0.000314213
8 *1898:A *628:162 1.01276e-05
9 FrameStrobe_O[2] *1898:A 7.21296e-06
10 FrameStrobe_O[4] *1898:A 0.000192406
11 *1894:A *1898:A 0.000648972
12 *1897:A *1898:A 0.000183389
*RES
1 SS4END[14] *1898:A 23.32 
*END

*D_NET *203 0.00285291
*CONN
*P SS4END[15] I
*I *1899:A I *D sky130_fd_sc_hd__buf_1
*CAP
1 SS4END[15] 0.000507309
2 *1899:A 0.000507309
3 *1899:A UserCLKo 0.000203081
4 *1899:A *1519:A0 0.000122158
5 *1899:A *1529:A0 0.000123225
6 *1899:A *1916:A 0.00026784
7 *1899:A *1942:A 4.99619e-05
8 FrameStrobe_O[1] *1899:A 0.000177547
9 FrameStrobe_O[2] *1899:A 0.000202293
10 *1894:A *1899:A 0.000347459
11 *1895:A *1899:A 7.73008e-05
12 *1897:A *1899:A 0
13 *1898:A *1899:A 0.000267429
*RES
1 SS4END[15] *1899:A 22.18 
*END

*D_NET *204 0.00251709
*CONN
*P SS4END[1] I
*I *1900:A I *D sky130_fd_sc_hd__clkbuf_1
*CAP
1 SS4END[1] 0.000576432
2 *1900:A 0.000576432
3 *1900:A *1902:A 4.23927e-05
4 *1900:A *1903:A 0.000198651
5 *1900:A *527:20 0.000377851
6 *1900:A *550:16 1.48096e-05
7 *1877:A *1900:A 4.82863e-05
8 *1893:A *1900:A 0.000286735
9 *1895:A *1900:A 0.000177104
10 *1896:A *1900:A 0.0002184
*RES
1 SS4END[1] *1900:A 21.55 
*END

*D_NET *205 0.0030923
*CONN
*P SS4END[2] I
*I *1902:A I *D sky130_fd_sc_hd__buf_1
*CAP
1 SS4END[2] 0.000443239
2 *1902:A 0.000443239
3 *1902:A *1518:A0 2.75229e-05
4 *1902:A *1524:A0 1.61831e-05
5 *1902:A *1903:A 5.98973e-05
6 *1902:A *1904:A 9.31547e-06
7 *1902:A *1908:A 0.000513502
8 *1902:A *1909:A 0.000182443
9 *1902:A *527:20 6.90435e-05
10 *1902:A *550:16 0.000483154
11 *1877:A *1902:A 9.00845e-05
12 *1881:A *1902:A 0.000410785
13 *1882:A *1902:A 0.000263174
14 *1893:A *1902:A 3.83194e-05
15 *1900:A *1902:A 4.23927e-05
*RES
1 SS4END[2] *1902:A 21.775 
*END

*D_NET *206 0.00298084
*CONN
*P SS4END[3] I
*I *1903:A I *D sky130_fd_sc_hd__clkbuf_1
*CAP
1 SS4END[3] 0.000436353
2 *1903:A 0.000436353
3 *1903:A *1904:A 6.85705e-05
4 *1903:A *1905:A 6.33103e-05
5 *1903:A *1907:A 0.000508763
6 *1903:A *1974:A 6.58339e-05
7 *1903:A *478:26 0.000157156
8 *1903:A *504:38 0.00061837
9 *1903:A *527:20 0.000189143
10 *1903:A *529:20 0.00016766
11 *1896:A *1903:A 1.07797e-05
12 *1900:A *1903:A 0.000198651
13 *1902:A *1903:A 5.98973e-05
*RES
1 SS4END[3] *1903:A 20.755 
*END

*D_NET *207 0.0029523
*CONN
*P SS4END[4] I
*I *1904:A I *D sky130_fd_sc_hd__clkbuf_1
*CAP
1 SS4END[4] 0.000742752
2 *1904:A 0.000742752
3 *1904:A *1518:A0 7.00889e-06
4 *1904:A *1905:A 5.43618e-05
5 *1904:A *1907:A 0
6 *1904:A *1909:A 0.000364003
7 *1904:A *470:30 0.000283371
8 *1904:A *478:26 0.000261245
9 *1904:A *527:20 7.21296e-06
10 *1904:A *529:20 0.000230953
11 *1904:A *677:30 6.73491e-05
12 *1893:A *1904:A 0.000113409
13 *1902:A *1904:A 9.31547e-06
14 *1903:A *1904:A 6.85705e-05
*RES
1 SS4END[4] *1904:A 21.43 
*END

*D_NET *208 0.00265213
*CONN
*P SS4END[5] I
*I *1905:A I *D sky130_fd_sc_hd__clkbuf_1
*CAP
1 SS4END[5] 0.000780016
2 *1905:A 0.000780016
3 *1905:A *1459:A0 0.000158066
4 *1905:A *1906:A 0.00011166
5 *1905:A *1974:A 0.00035751
6 *1905:A *470:30 0.000347193
7 *1903:A *1905:A 6.33103e-05
8 *1904:A *1905:A 5.43618e-05
*RES
1 SS4END[5] *1905:A 16.305 
*END

*D_NET *209 0.00280375
*CONN
*P SS4END[6] I
*I *1906:A I *D sky130_fd_sc_hd__clkbuf_1
*CAP
1 SS4END[6] 0.0007567
2 *1906:A 0.0007567
3 *1906:A UserCLKo 6.11912e-05
4 *1906:A *697:DIODE 0
5 *1906:A *1519:A0 1.19928e-05
6 *1906:A *1520:A0 0.000283403
7 *1906:A *1907:A 0.000219094
8 *1906:A *1974:A 1.80763e-05
9 *1906:A *508:30 0.00028894
10 FrameStrobe_O[0] *1906:A 2.58691e-05
11 *1880:A *1906:A 0.000189374
12 *1881:A *1906:A 6.02856e-05
13 *1895:A *1906:A 2.04649e-05
14 *1905:A *1906:A 0.00011166
*RES
1 SS4END[6] *1906:A 12.8533 
*END

*D_NET *210 0.00276851
*CONN
*P SS4END[7] I
*I *1907:A I *D sky130_fd_sc_hd__clkbuf_1
*CAP
1 SS4END[7] 0.000435931
2 *1907:A 0.000435931
3 *1907:A *1908:A 9.85631e-05
4 *1907:A *1909:A 8.23457e-05
5 *1907:A *478:26 0.000205909
6 *1907:A *504:38 1.91597e-05
7 *1907:A *677:30 6.73491e-05
8 *1881:A *1907:A 0.000134245
9 *1894:A *1907:A 0.000153816
10 *1896:A *1907:A 0.000407401
11 *1903:A *1907:A 0.000508763
12 *1904:A *1907:A 0
13 *1906:A *1907:A 0.000219094
*RES
1 SS4END[7] *1907:A 20.29 
*END

*D_NET *211 0.00277131
*CONN
*P SS4END[8] I
*I *1908:A I *D sky130_fd_sc_hd__clkbuf_1
*CAP
1 SS4END[8] 0.00040112
2 *1908:A 0.00040112
3 *1908:A *1451:A0 0.000307049
4 *1908:A *1459:A0 0.000318717
5 *1908:A *1529:A0 0.000286598
6 *1908:A *1909:A 8.98316e-05
7 *1908:A *677:30 0
8 *1908:A *686:28 5.11597e-05
9 *1881:A *1908:A 0.000303646
10 *1902:A *1908:A 0.000513502
11 *1907:A *1908:A 9.85631e-05
*RES
1 SS4END[8] *1908:A 16.485 
*END

*D_NET *212 0.00243932
*CONN
*P SS4END[9] I
*I *1909:A I *D sky130_fd_sc_hd__clkbuf_1
*CAP
1 SS4END[9] 0.000451217
2 *1909:A 0.000451217
3 *1909:A *1518:A0 1.12578e-05
4 *1909:A *1524:A0 0.000209062
5 *1882:A *1909:A 0.000263174
6 *1893:A *1909:A 1.71207e-05
7 *1894:A *1909:A 0.00026017
8 *1896:A *1909:A 5.74791e-05
9 *1902:A *1909:A 0.000182443
10 *1904:A *1909:A 0.000364003
11 *1907:A *1909:A 8.23457e-05
12 *1908:A *1909:A 8.98316e-05
*RES
1 SS4END[9] *1909:A 16.05 
*END

*D_NET *213 0.0127335
*CONN
*P UserCLK I
*I *1785:A I *D sky130_fd_sc_hd__clkbuf_16
*I *1792:A I *D sky130_fd_sc_hd__clkbuf_16
*CAP
1 UserCLK 0.00176097
2 *1785:A 0.00130871
3 *1792:A 0
4 *213:13 0.00306968
5 *1785:A *1497:C 9.58678e-06
6 *1785:A *459:26 0.00032228
7 *1785:A *471:20 0.000760754
8 *1785:A *538:40 0.000172898
9 *1785:A *586:12 0.000583489
10 *1785:A *586:51 0.00187847
11 *1785:A *617:28 0.000313565
12 *213:13 VALUE_top9 7.23533e-05
13 *213:13 *1577:B 0.000314745
14 *213:13 *1951:A 0.000104892
15 *213:13 *2007:A 0.000221132
16 *213:13 *449:57 0.00045888
17 *213:13 *459:26 0.000647216
18 *213:13 *471:20 0
19 *213:13 *472:14 0.000185091
20 *213:13 *494:28 2.62641e-05
21 *213:13 *617:28 0.000522528
*RES
1 UserCLK *213:13 31.975 
2 *213:13 *1792:A 3.6 
3 *213:13 *1785:A 12.6571 
*END

*D_NET *214 0.00236683
*CONN
*P UserCLKo O
*I *2005:X O *D sky130_fd_sc_hd__buf_1
*CAP
1 UserCLKo 0.000457031
2 *2005:X 0.000457031
3 UserCLKo *1459:A0 4.82863e-05
4 UserCLKo *1519:A0 4.36573e-06
5 UserCLKo *1520:A0 1.79536e-05
6 UserCLKo *687:26 0.000382546
7 FrameStrobe_O[0] UserCLKo 0.000234759
8 *1895:A UserCLKo 1.08946e-05
9 *1897:A UserCLKo 0.000489692
10 *1899:A UserCLKo 0.000203081
11 *1906:A UserCLKo 6.11912e-05
*RES
1 *2005:X UserCLKo 15.6 
*END

*D_NET *215 0.00106015
*CONN
*P VALUE_top0 O
*I *2006:X O *D sky130_fd_sc_hd__buf_2
*CAP
1 VALUE_top0 0.000338832
2 *2006:X 0.000338832
3 VALUE_top0 VALUE_top1 0
4 VALUE_top0 *526:32 0
5 VALUE_top0 *548:44 0.000185813
6 *1824:A VALUE_top0 0.000196669
*RES
1 *2006:X VALUE_top0 9.84 
*END

*D_NET *216 0.000796742
*CONN
*P VALUE_top1 O
*I *2007:X O *D sky130_fd_sc_hd__buf_2
*CAP
1 VALUE_top1 0.000312153
2 *2007:X 0.000312153
3 VALUE_top1 VALUE_top2 0
4 VALUE_top1 *2007:A 0
5 VALUE_top1 *459:24 0.000106153
6 VALUE_top1 *518:24 0
7 VALUE_top1 *526:32 0
8 VALUE_top1 *570:10 0
9 VALUE_top0 VALUE_top1 0
10 *1835:A VALUE_top1 6.62837e-05
*RES
1 *2007:X VALUE_top1 8.91 
*END

*D_NET *217 0.00113611
*CONN
*P VALUE_top10 O
*I *2008:X O *D sky130_fd_sc_hd__buf_2
*CAP
1 VALUE_top10 0.000428753
2 *2008:X 0.000428753
3 VALUE_top10 VALUE_top9 0
4 VALUE_top10 *1544:B1 0.000122331
5 VALUE_top10 *2007:A 0.000111547
6 VALUE_top10 *472:14 4.47295e-05
*RES
1 *2008:X VALUE_top10 10.56 
*END

*D_NET *218 0.000662125
*CONN
*P VALUE_top11 O
*I *2009:X O *D sky130_fd_sc_hd__buf_2
*CAP
1 VALUE_top11 0.000322529
2 *2009:X 0.000322529
3 VALUE_top11 *1951:A 0
4 VALUE_top11 *2007:A 0
5 VALUE_top11 *548:44 1.70668e-05
*RES
1 *2009:X VALUE_top11 8.01 
*END

*D_NET *219 0.000815868
*CONN
*P VALUE_top2 O
*I *2010:X O *D sky130_fd_sc_hd__buf_2
*CAP
1 VALUE_top2 0.000265099
2 *2010:X 0.000265099
3 VALUE_top2 VALUE_top3 0
4 VALUE_top2 *1961:A 2.24708e-05
5 VALUE_top2 *463:20 0.000101941
6 VALUE_top2 *493:26 9.18292e-06
7 VALUE_top2 *518:24 0.000152075
8 VALUE_top1 VALUE_top2 0
*RES
1 *2010:X VALUE_top2 8.805 
*END

*D_NET *220 0.000770602
*CONN
*P VALUE_top3 O
*I *2011:X O *D sky130_fd_sc_hd__buf_2
*CAP
1 VALUE_top3 0.000371437
2 *2011:X 0.000371437
3 VALUE_top3 VALUE_top4 0
4 VALUE_top3 *1961:A 0
5 VALUE_top3 *2010:A 0
6 VALUE_top3 *462:20 2.77283e-05
7 VALUE_top2 VALUE_top3 0
*RES
1 *2011:X VALUE_top3 8.805 
*END

*D_NET *221 0.000629053
*CONN
*P VALUE_top4 O
*I *2012:X O *D sky130_fd_sc_hd__buf_2
*CAP
1 VALUE_top4 0.000282806
2 *2012:X 0.000282806
3 VALUE_top4 VALUE_top5 0
4 VALUE_top4 *2011:A 8.53113e-06
5 VALUE_top4 *462:20 5.49093e-05
6 VALUE_top3 VALUE_top4 0
*RES
1 *2012:X VALUE_top4 8.01 
*END

*D_NET *222 0.00101165
*CONN
*P VALUE_top5 O
*I *2013:X O *D sky130_fd_sc_hd__buf_2
*CAP
1 VALUE_top5 0.000454994
2 *2013:X 0.000454994
3 VALUE_top5 VALUE_top6 0
4 VALUE_top5 *2014:A 9.66021e-05
5 VALUE_top5 *461:24 0
6 VALUE_top5 *462:20 0
7 VALUE_top5 *493:26 5.062e-06
8 VALUE_top4 VALUE_top5 0
*RES
1 *2013:X VALUE_top5 9.84 
*END

*D_NET *223 0.00125375
*CONN
*P VALUE_top6 O
*I *2014:X O *D sky130_fd_sc_hd__buf_2
*CAP
1 VALUE_top6 0.000527605
2 *2014:X 0.000527605
3 VALUE_top6 VALUE_top7 0
4 VALUE_top6 VALUE_top8 2.66935e-05
5 VALUE_top6 *1540:B 0
6 VALUE_top6 *1542:B 2.30292e-05
7 VALUE_top6 *2006:A 0
8 VALUE_top6 *2016:A 8.8266e-05
9 VALUE_top6 *455:75 6.05513e-05
10 VALUE_top6 *461:24 0
11 VALUE_top5 VALUE_top6 0
*RES
1 *2014:X VALUE_top6 11.595 
*END

*D_NET *224 0.00199189
*CONN
*P VALUE_top7 O
*I *2015:X O *D sky130_fd_sc_hd__buf_2
*CAP
1 VALUE_top7 0.000358679
2 *2015:X 0.000358679
3 VALUE_top7 VALUE_top8 0
4 VALUE_top7 *459:24 0.000538842
5 VALUE_top7 *461:24 0.000195173
6 VALUE_top7 *570:12 0.000540512
7 VALUE_top6 VALUE_top7 0
*RES
1 *2015:X VALUE_top7 17.05 
*END

*D_NET *225 0.0022887
*CONN
*P VALUE_top8 O
*I *2016:X O *D sky130_fd_sc_hd__buf_2
*CAP
1 VALUE_top8 0.000832891
2 *2016:X 0.000832891
3 VALUE_top8 *1540:B 6.57653e-06
4 VALUE_top8 *1542:B 0.00010005
5 VALUE_top8 *2006:A 0.00019913
6 VALUE_top8 *2007:A 0.000268335
7 VALUE_top8 *2010:A 2.21286e-05
8 VALUE_top6 VALUE_top8 2.66935e-05
9 VALUE_top7 VALUE_top8 0
*RES
1 *2016:X VALUE_top8 19.225 
*END

*D_NET *226 0.0010427
*CONN
*P VALUE_top9 O
*I *2017:X O *D sky130_fd_sc_hd__buf_2
*CAP
1 VALUE_top9 0.000327582
2 *2017:X 0.000327582
3 VALUE_top9 *1544:B1 4.66108e-05
4 VALUE_top9 *459:26 4.21322e-05
5 VALUE_top9 *494:28 0.000226438
6 VALUE_top10 VALUE_top9 0
7 *213:13 VALUE_top9 7.23533e-05
*RES
1 *2017:X VALUE_top9 9.87 
*END

*D_NET *229 0.0272427
*CONN
*I *1514:A1 I *D sky130_fd_sc_hd__mux2_1
*I *1459:A1 I *D sky130_fd_sc_hd__mux2_1
*I *1517:A1 I *D sky130_fd_sc_hd__mux2_1
*I *1515:A1 I *D sky130_fd_sc_hd__mux2_1
*I *1461:A1 I *D sky130_fd_sc_hd__mux2_1
*I *1462:A1 I *D sky130_fd_sc_hd__mux2_1
*I *1516:A1 I *D sky130_fd_sc_hd__mux2_1
*I *1460:A1 I *D sky130_fd_sc_hd__mux2_1
*I *1814:A I *D sky130_fd_sc_hd__dlygate4sd3_1
*I *1585:Q O *D sky130_fd_sc_hd__dfxtp_2
*CAP
1 *1514:A1 0
2 *1459:A1 0.000110195
3 *1517:A1 0.00049034
4 *1515:A1 0.000174604
5 *1461:A1 0.000238662
6 *1462:A1 0
7 *1516:A1 0
8 *1460:A1 0.00100457
9 *1814:A 0
10 *1585:Q 0.000244231
11 *229:150 0.00154133
12 *229:131 0.00136928
13 *229:109 0.000386622
14 *229:101 0.00138228
15 *229:71 0.00143013
16 *229:54 0.000500439
17 *229:33 0.00186657
18 *229:14 0.00105547
19 *1459:A1 *696:DIODE 0.00015639
20 *1460:A1 *1471:A0 5.90239e-06
21 *1460:A1 *1489:S1 4.48904e-05
22 *1460:A1 *1516:A0 0.000207963
23 *1460:A1 *1516:S 4.71049e-05
24 *1460:A1 *1522:A0 8.67465e-06
25 *1460:A1 *1705:A 0.000146127
26 *1460:A1 *1979:A 9.09643e-05
27 *1460:A1 *1990:A 0
28 *1460:A1 *1992:A 3.04717e-05
29 *1460:A1 *478:26 3.10719e-05
30 *1460:A1 *504:30 0.000376155
31 *1460:A1 *582:18 0.00030211
32 *1460:A1 *582:30 0.000159255
33 *1460:A1 *583:118 9.58062e-05
34 *1460:A1 *658:18 6.79319e-05
35 *1460:A1 *682:50 6.17211e-05
36 *1460:A1 *686:32 0.000209782
37 *1461:A1 *1458:A0 4.0062e-05
38 *1461:A1 *1954:A 0.000107291
39 *1461:A1 *1972:A 7.9642e-06
40 *1461:A1 *466:44 0.000108339
41 *1461:A1 *660:36 0.000229706
42 *1461:A1 *677:30 8.23457e-05
43 *1515:A1 *1451:A1 3.59272e-05
44 *1515:A1 *1468:A1 4.66108e-05
45 *1515:A1 *1487:A2 4.82863e-05
46 *1515:A1 *1526:A0 0.000215926
47 *1515:A1 *1645:D 5.53549e-06
48 *1515:A1 *548:76 3.75738e-05
49 *1515:A1 *685:20 0.000223713
50 *1515:A1 *687:26 7.83485e-05
51 *1517:A1 *701:DIODE 6.45236e-05
52 *1517:A1 *1487:B1 4.79946e-05
53 *1517:A1 *1517:S 4.89295e-05
54 *1517:A1 *1934:A 0.000650704
55 *1517:A1 *1939:A 3.23018e-05
56 *1517:A1 *1949:A 0.000610807
57 *1517:A1 *654:34 4.18203e-05
58 *1517:A1 *684:42 0.000235238
59 *229:14 *1536:A2 7.59573e-06
60 *229:14 *1539:A 0.00015817
61 *229:14 *1743:A 0.00015291
62 *229:14 *1791:A 3.17137e-05
63 *229:14 *2002:A 8.53307e-05
64 *229:14 *458:61 3.08009e-05
65 *229:14 *531:50 1.71485e-05
66 *229:14 *589:120 1.33285e-05
67 *229:33 *1450:A 2.20471e-05
68 *229:33 *1479:A1 4.66474e-05
69 *229:33 *1490:A_N 1.85659e-05
70 *229:33 *1490:B 1.88656e-05
71 *229:33 *1491:A1 0.000421317
72 *229:33 *1494:A1 0.000118435
73 *229:33 *1516:A0 4.77719e-05
74 *229:33 *1527:A0 1.53034e-05
75 *229:33 *1539:A 4.01811e-05
76 *229:33 *1581:CLK 2.0851e-06
77 *229:33 *1781:A 1.2321e-06
78 *229:33 *2000:A 0
79 *229:33 *585:128 5.24846e-05
80 *229:33 *589:120 8.23457e-05
81 *229:33 *673:28 0
82 *229:54 *1494:A1 2.30292e-05
83 *229:54 *1516:A0 4.82919e-05
84 *229:71 *1476:A0 0
85 *229:71 *1489:A2 0.000276141
86 *229:71 *1494:A1 2.16833e-05
87 *229:71 *1494:B1 0.000125239
88 *229:71 *1522:A0 0.00015639
89 *229:71 *1990:A 9.46449e-05
90 *229:71 *421:10 4.43871e-06
91 *229:71 *632:40 6.38722e-05
92 *229:71 *677:30 1.91597e-05
93 *229:101 *1453:A0 8.73147e-06
94 *229:101 *1463:A0 0.000157172
95 *229:101 *1463:A1 8.49205e-05
96 *229:101 *1464:A0 0.000441014
97 *229:101 *1527:A0 0.000128016
98 *229:101 *1642:GATE 0.000108216
99 *229:101 *1751:A 0.000124895
100 *229:101 *1801:A 0.000118081
101 *229:101 *1989:A 0.000571199
102 *229:101 *1991:A 0.000129721
103 *229:101 *466:44 0.000151008
104 *229:101 *625:34 3.21182e-05
105 *229:101 *630:16 0.000128783
106 *229:101 *632:40 0.000450179
107 *229:101 *653:8 0.000163549
108 *229:101 *669:28 0.000139037
109 *229:101 *677:30 0.000411078
110 *229:101 *686:28 0.000240832
111 *229:109 *1458:A0 0.000221768
112 *229:109 *632:93 0.000110257
113 *229:109 *677:30 4.66108e-05
114 *229:131 *1464:A0 0.00104515
115 *229:131 *1989:A 0.00102525
116 *229:150 *696:DIODE 0.000939632
117 *229:150 *1526:A0 9.97934e-05
118 *229:150 *1527:A0 8.7152e-06
119 *229:150 *2005:A 0.000160641
120 *229:150 *470:30 1.12578e-05
121 *229:150 *687:26 0.000108799
122 NN4BEG[11] *1460:A1 2.0117e-05
123 NN4BEG[13] *1460:A1 0.000207144
124 NN4BEG[14] *1460:A1 0.000299246
125 NN4BEG[15] *1460:A1 5.34582e-05
126 *1854:A *1460:A1 7.11219e-05
127 *1855:A *1460:A1 0.000132732
128 *1867:A *229:71 1.01276e-05
129 *1869:A *229:101 2.81948e-05
*RES
1 *1585:Q *229:14 10.61 
2 *229:14 *1814:A 1.6 
3 *229:14 *229:33 15.685 
4 *229:33 *1460:A1 32.49 
5 *229:33 *229:54 0.795 
6 *229:54 *1516:A1 1.6 
7 *229:54 *229:71 11.8 
8 *229:71 *229:101 32.7714 
9 *229:101 *229:109 5.7325 
10 *229:109 *1462:A1 1.6 
11 *229:109 *1461:A1 10.58 
12 *229:101 *229:131 2.1112 
13 *229:131 *1515:A1 8.8725 
14 *229:131 *229:150 15.6875 
15 *229:150 *1517:A1 20.165 
16 *229:150 *1459:A1 3.085 
17 *229:71 *1514:A1 1.6 
*END

*D_NET *230 0.000999958
*CONN
*I *1808:A I *D sky130_fd_sc_hd__dlygate4sd3_1
*I *1820:A I *D sky130_fd_sc_hd__dlygate4sd3_1
*I *1581:Q O *D sky130_fd_sc_hd__dfxtp_1
*CAP
1 *1808:A 8.63365e-05
2 *1820:A 0.000103209
3 *1581:Q 8.186e-05
4 *230:8 0.000271406
5 *1808:A *1471:A0 0
6 *1808:A *1495:B 0
7 *1808:A *1697:A 0.000170353
8 *1808:A *543:24 0.000163204
9 *1820:A *1584:D 0
10 *230:8 *589:120 0.000123589
*RES
1 *1581:Q *230:8 4.74 
2 *230:8 *1820:A 4.98 
3 *230:8 *1808:A 5.955 
*END

*D_NET *231 0.00232043
*CONN
*I *1805:A I *D sky130_fd_sc_hd__dlygate4sd3_1
*I *1796:A I *D sky130_fd_sc_hd__clkbuf_2
*I *1582:Q O *D sky130_fd_sc_hd__dfxtp_1
*CAP
1 *1805:A 0.000128755
2 *1796:A 7.66497e-05
3 *1582:Q 8.05016e-05
4 *231:10 0.000285906
5 *1796:A *1546:B 8.01929e-05
6 *1796:A *1786:A 4.77719e-05
7 *1796:A *395:12 0.000158072
8 *1796:A *624:6 0.000234354
9 *1796:A *624:140 0.00010978
10 *1805:A *1561:A 1.33285e-05
11 *1805:A *395:12 0.000469182
12 *1805:A *453:37 4.77757e-05
13 *1805:A *624:140 0.000406535
14 *231:10 *1669:CLK 0.000124014
15 *231:10 *551:30 5.76099e-05
*RES
1 *1582:Q *231:10 7.235 
2 *231:10 *1796:A 4.81 
3 *231:10 *1805:A 6.19 
*END

*D_NET *232 0.0112763
*CONN
*I *1513:A_N I *D sky130_fd_sc_hd__nand2b_1
*I *1507:B I *D sky130_fd_sc_hd__and2b_1
*I *1572:B1_N I *D sky130_fd_sc_hd__a21boi_1
*I *1536:A1 I *D sky130_fd_sc_hd__o21a_1
*I *1539:B I *D sky130_fd_sc_hd__nor2_1
*I *1512:A I *D sky130_fd_sc_hd__or2_1
*I *1506:A I *D sky130_fd_sc_hd__and3_1
*I *1571:B I *D sky130_fd_sc_hd__and2b_1
*I *1576:A I *D sky130_fd_sc_hd__and3_1
*I *1579:A I *D sky130_fd_sc_hd__and3_1
*I *1583:Q O *D sky130_fd_sc_hd__dfxtp_1
*CAP
1 *1513:A_N 0.000185893
2 *1507:B 1.31338e-05
3 *1572:B1_N 0.000185824
4 *1536:A1 2.44714e-05
5 *1539:B 0.000300213
6 *1512:A 0
7 *1506:A 0.000109974
8 *1571:B 0
9 *1576:A 0.000135622
10 *1579:A 1.95224e-05
11 *1583:Q 0
12 *232:83 0.000489382
13 *232:67 0.000109974
14 *232:65 0.000372409
15 *232:34 0.000327125
16 *232:26 0.000291961
17 *232:24 0.000443572
18 *232:20 0.000717615
19 *232:10 0.000618042
20 *232:4 0.000374889
21 *1506:A *1447:A 4.82863e-05
22 *1506:A *1506:C 7.31612e-05
23 *1506:A *1512:B 2.0514e-05
24 *1506:A *1586:D 0.000120655
25 *1506:A *453:37 6.58339e-05
26 *1507:B *1506:C 8.65961e-05
27 *1507:B *1508:A1 2.30292e-05
28 *1507:B *1508:A2 4.99619e-05
29 *1513:A_N *1508:A1 2.75229e-05
30 *1513:A_N *1513:B 7.92693e-05
31 *1513:A_N *1951:A 2.0514e-05
32 *1513:A_N *581:108 0.0003119
33 *1536:A1 *578:18 2.49909e-05
34 *1539:B *1447:A 0.000118836
35 *1539:B *1510:B 0.000333368
36 *1539:B *425:18 4.77719e-05
37 *1539:B *436:24 0.000319316
38 *1539:B *578:18 7.10578e-05
39 *1539:B *589:120 4.77719e-05
40 *1539:B *622:14 2.2142e-05
41 *1572:B1_N *1572:A1 4.21933e-05
42 *1572:B1_N *246:37 3.3255e-05
43 *1572:B1_N *471:20 0.000377748
44 *1572:B1_N *552:56 4.96965e-05
45 *1572:B1_N *619:50 4.79849e-05
46 *1576:A *1577:A 2.40305e-05
47 *1576:A *1579:C 0.000104068
48 *1576:A *1667:D 0
49 *1579:A *1577:A 4.82863e-05
50 *232:10 *1495:B 2.23404e-05
51 *232:10 *581:108 6.50535e-05
52 *232:10 *615:22 3.72071e-05
53 *232:20 *1495:B 4.61701e-06
54 *232:20 *1576:B 0.000158072
55 *232:20 *407:16 0.000732312
56 *232:20 *457:8 9.80943e-06
57 *232:20 *552:56 6.1357e-05
58 *232:20 *577:30 0.000339793
59 *232:20 *615:22 0.000320768
60 *232:24 *1455:A1 0.00015896
61 *232:24 *1455:S 4.82863e-05
62 *232:24 *1790:A 8.0687e-05
63 *232:24 *457:8 5.23434e-05
64 *232:24 *577:30 0.000490267
65 *232:26 *1455:A1 0.000201293
66 *232:26 *1668:CLK 6.43774e-05
67 *232:26 *1668:D 1.4548e-05
68 *232:26 *578:18 1.34361e-05
69 *232:26 *675:42 1.52662e-05
70 *232:34 *1455:A1 0.000113846
71 *232:34 *1577:B 5.53249e-06
72 *232:34 *1668:D 3.48268e-05
73 *232:34 *2004:A 0
74 *232:34 *548:68 0
75 *232:65 *1500:B 9.4678e-05
76 *232:65 *2004:A 5.73286e-05
77 *232:65 *578:18 3.76781e-05
78 *232:65 *586:51 3.86439e-05
79 *232:83 *1447:A 0.000288576
80 *232:83 *1500:B 5.79857e-06
81 *232:83 *1816:A 5.53549e-06
82 *232:83 *406:18 4.27883e-06
83 *232:83 *458:61 0.000150881
84 *232:83 *578:18 1.23015e-05
85 *232:83 *586:51 0.000176215
*RES
1 *1583:Q *232:4 1.6 
2 *232:4 *232:10 4.61 
3 *232:10 *232:20 12.71 
4 *232:20 *232:24 6.59 
5 *232:24 *232:26 2.91 
6 *232:26 *232:34 4.7 
7 *232:34 *1579:A 2.05 
8 *232:34 *1576:A 3.805 
9 *232:26 *1571:B 3.6 
10 *232:24 *232:65 3.975 
11 *232:65 *232:67 2 
12 *232:67 *1506:A 4.12 
13 *232:67 *1512:A 1.6 
14 *232:65 *232:83 6.44 
15 *232:83 *1539:B 13.1 
16 *232:83 *1536:A1 2.05 
17 *232:20 *1572:B1_N 10.295 
18 *232:10 *1507:B 4.395 
19 *232:4 *1513:A_N 6.13 
*END

*D_NET *233 0.00151804
*CONN
*I *1513:B I *D sky130_fd_sc_hd__nand2b_1
*I *1817:A I *D sky130_fd_sc_hd__dlygate4sd3_1
*I *1584:Q O *D sky130_fd_sc_hd__dfxtp_1
*CAP
1 *1513:B 0.000124143
2 *1817:A 0
3 *1584:Q 0.000316406
4 *233:10 0.000440549
5 *1513:B *1951:A 8.67208e-05
6 *1513:B *581:108 2.10646e-05
7 *1513:B *675:42 2.2684e-05
8 *233:10 *538:40 6.59891e-05
9 *233:10 *615:22 0.000352544
10 *233:10 *675:42 8.6712e-06
11 *1513:A_N *1513:B 7.92693e-05
*RES
1 *1584:Q *233:10 8.19 
2 *233:10 *1817:A 3.6 
3 *233:10 *1513:B 6.18375 
*END

*D_NET *234 0.00138244
*CONN
*I *1816:A I *D sky130_fd_sc_hd__dlygate4sd3_1
*I *1512:B I *D sky130_fd_sc_hd__or2_1
*I *1586:Q O *D sky130_fd_sc_hd__dfxtp_1
*CAP
1 *1816:A 8.67488e-05
2 *1512:B 6.42658e-05
3 *1586:Q 7.79983e-05
4 *234:10 0.000229013
5 *1512:B *1447:A 0.000119762
6 *1512:B *1506:C 0.000153816
7 *1816:A *406:18 0.00014641
8 *1816:A *586:51 0.000137532
9 *234:10 *1447:A 3.83041e-05
10 *234:10 *1506:C 0.000228315
11 *234:10 *1586:D 7.42225e-05
12 *1506:A *1512:B 2.0514e-05
13 *232:83 *1816:A 5.53549e-06
*RES
1 *1586:Q *234:10 4.24 
2 *234:10 *1512:B 3.445 
3 *234:10 *1816:A 7.49 
*END

*D_NET *235 0.00332186
*CONN
*I *1823:A I *D sky130_fd_sc_hd__dlygate4sd3_1
*I *1498:A I *D sky130_fd_sc_hd__or4b_1
*I *1670:Q O *D sky130_fd_sc_hd__dfxtp_1
*CAP
1 *1823:A 0.000323974
2 *1498:A 0.00022147
3 *1670:Q 0.000106079
4 *235:8 0.000651523
5 *1498:A *1498:B 0.000120655
6 *1498:A *1499:A 0.000419997
7 *1498:A *1544:C1 7.57459e-05
8 *1498:A *1547:A1 4.66108e-05
9 *1498:A *1656:D 3.64998e-06
10 *1498:A *623:113 4.29535e-05
11 *1823:A *1543:B 0.000518985
12 *1823:A *1669:CLK 0.000130252
13 *1823:A *395:12 2.28376e-05
14 *1823:A *600:14 0.00011975
15 *1823:A *624:140 7.05418e-05
16 *235:8 *1543:B 2.90245e-05
17 *235:8 *1654:CLK 0.000148583
18 *235:8 *1669:CLK 4.09813e-05
19 *235:8 *600:14 0.000228247
*RES
1 *1670:Q *235:8 6.51 
2 *235:8 *1498:A 9.36 
3 *235:8 *1823:A 10.86 
*END

*D_NET *236 0.00434735
*CONN
*I *1818:A I *D sky130_fd_sc_hd__dlygate4sd3_1
*I *1496:D I *D sky130_fd_sc_hd__or4_1
*I *1653:Q O *D sky130_fd_sc_hd__dfxtp_1
*CAP
1 *1818:A 0.000237569
2 *1496:D 0.000824606
3 *1653:Q 0
4 *236:4 0.00106217
5 *1496:D *1496:A 2.93678e-05
6 *1496:D *1496:B 0.000109049
7 *1496:D *1496:C 1.91597e-05
8 *1496:D *1499:A 4.20878e-05
9 *1496:D *1499:C 1.77665e-05
10 *1496:D *1678:D 4.38278e-05
11 *1496:D *1813:A 0.000107028
12 *1496:D *1986:A 0.000105788
13 *1496:D *243:12 0
14 *1496:D *425:18 8.64421e-05
15 *1496:D *552:56 0.000213835
16 *1496:D *555:32 5.05521e-05
17 *1496:D *581:53 4.00099e-05
18 *1496:D *589:18 8.53113e-06
19 *1496:D *622:46 0.000319397
20 *1496:D *624:106 0.000196086
21 *1818:A *1499:A 8.52845e-05
22 *1818:A *1653:CLK 0.000119246
23 *1818:A *1653:D 0.000216984
24 *1818:A *425:18 0.000204836
25 *1818:A *581:53 0.000207725
*RES
1 *1653:Q *236:4 1.6 
2 *236:4 *1496:D 25.38 
3 *236:4 *1818:A 8.53 
*END

*D_NET *237 0.00522663
*CONN
*I *1812:A I *D sky130_fd_sc_hd__dlygate4sd3_1
*I *1498:B I *D sky130_fd_sc_hd__or4b_1
*I *1671:Q O *D sky130_fd_sc_hd__dfxtp_1
*CAP
1 *1812:A 0.000706595
2 *1498:B 0.000791837
3 *1671:Q 0
4 *237:4 0.00149843
5 *1498:B *1455:A1 0.000118081
6 *1498:B *1498:D_N 6.81971e-05
7 *1498:B *1499:A 4.66108e-05
8 *1498:B *1544:B1 1.29825e-05
9 *1498:B *1654:D 2.43383e-05
10 *1498:B *1669:D 0.000122347
11 *1498:B *1670:CLK 0
12 *1498:B *1671:CLK 6.69608e-06
13 *1498:B *1671:D 0
14 *1498:B *394:14 0.000130707
15 *1498:B *600:14 0.000110053
16 *1498:B *617:22 2.0514e-05
17 *1498:B *623:113 6.71882e-05
18 *1812:A *1455:A1 0.000702214
19 *1812:A *2008:A 0.000449369
20 *1812:A *2009:A 0.000229813
21 *1498:A *1498:B 0.000120655
*RES
1 *1671:Q *237:4 1.6 
2 *237:4 *1498:B 21.315 
3 *237:4 *1812:A 17.72 
*END

*D_NET *238 0.00232246
*CONN
*I *1498:C I *D sky130_fd_sc_hd__or4b_1
*I *1813:A I *D sky130_fd_sc_hd__dlygate4sd3_1
*I *1672:Q O *D sky130_fd_sc_hd__dfxtp_1
*CAP
1 *1498:C 0.000264616
2 *1813:A 0.000126873
3 *1672:Q 0
4 *238:4 0.000391489
5 *1498:C *1496:A 0.000219246
6 *1498:C *1498:D_N 0.000179105
7 *1498:C *250:8 4.01403e-05
8 *1498:C *624:14 0.000269814
9 *1498:C *624:22 1.16578e-05
10 *1813:A *1496:B 0.000108695
11 *1813:A *1499:B 0.000301899
12 *1813:A *400:22 0.000301899
13 *1496:D *1813:A 0.000107028
*RES
1 *1672:Q *238:4 1.6 
2 *238:4 *1813:A 9.845 
3 *238:4 *1498:C 10.775 
*END

*D_NET *239 0.00228014
*CONN
*I *1497:A I *D sky130_fd_sc_hd__or4_1
*I *1811:A I *D sky130_fd_sc_hd__dlygate4sd3_1
*I *1673:Q O *D sky130_fd_sc_hd__dfxtp_1
*CAP
1 *1497:A 6.77896e-05
2 *1811:A 0.000225207
3 *1673:Q 0.000429653
4 *239:8 0.000722649
5 *1497:A *1497:C 3.59531e-06
6 *1497:A *1497:D 3.54652e-05
7 *1497:A *1676:D 0.000132201
8 *1811:A *1497:D 3.3314e-05
9 *1811:A *1549:B 0.000203178
10 *1811:A *1560:B 0
11 *1811:A *1676:D 8.88593e-05
12 *1811:A *1810:A 4.70256e-05
13 *1811:A *462:20 0
14 *239:8 *1673:CLK 0.00017055
15 *239:8 *621:22 0.000120655
*RES
1 *1673:Q *239:8 8.88 
2 *239:8 *1811:A 8.34 
3 *239:8 *1497:A 5.235 
*END

*D_NET *240 0.00304599
*CONN
*I *1806:A I *D sky130_fd_sc_hd__dlygate4sd3_1
*I *1497:B I *D sky130_fd_sc_hd__or4_1
*I *1674:Q O *D sky130_fd_sc_hd__dfxtp_1
*CAP
1 *1806:A 7.87413e-05
2 *1497:B 0.000728653
3 *1674:Q 0.000141617
4 *240:8 0.000949011
5 *1497:B *1553:B1 0.000378519
6 *1497:B *1784:A 1.56428e-05
7 *1497:B *397:10 9.08473e-05
8 *1497:B *577:30 9.50342e-06
9 *1497:B *616:26 0.000178441
10 *1806:A *1558:B 3.09416e-05
11 *1806:A *397:10 1.07797e-05
12 *1806:A *526:32 1.14559e-05
13 *1806:A *616:26 0.00017151
14 *1806:A *624:61 8.71079e-05
15 *240:8 *1674:D 4.21973e-05
16 *240:8 *397:10 0.000121019
*RES
1 *1674:Q *240:8 5.43 
2 *240:8 *1497:B 13.44 
3 *240:8 *1806:A 6.255 
*END

*D_NET *241 0.00211797
*CONN
*I *1497:C I *D sky130_fd_sc_hd__or4_1
*I *1809:A I *D sky130_fd_sc_hd__dlygate4sd3_1
*I *1675:Q O *D sky130_fd_sc_hd__dfxtp_1
*CAP
1 *1497:C 0.00059781
2 *1809:A 8.49235e-05
3 *1675:Q 0
4 *241:4 0.000682734
5 *1497:C *1497:D 8.7152e-06
6 *1497:C *1553:B1 3.00381e-05
7 *1497:C *1556:C1 0.000333871
8 *1497:C *1661:D 3.18735e-05
9 *1497:C *1676:D 8.04103e-05
10 *1497:C *1787:A 0.000139379
11 *1497:C *456:60 0
12 *1497:C *585:26 2.75229e-05
13 *1497:C *586:12 4.33599e-05
14 *1497:C *622:119 0
15 *1809:A *1556:C1 4.41506e-05
16 *1497:A *1497:C 3.59531e-06
17 *1785:A *1497:C 9.58678e-06
*RES
1 *1675:Q *241:4 1.6 
2 *241:4 *1809:A 3.01 
3 *241:4 *1497:C 15.41 
*END

*D_NET *242 0.00151191
*CONN
*I *1497:D I *D sky130_fd_sc_hd__or4_1
*I *1810:A I *D sky130_fd_sc_hd__dlygate4sd3_1
*I *1676:Q O *D sky130_fd_sc_hd__dfxtp_1
*CAP
1 *1497:D 0.000167716
2 *1810:A 5.8888e-05
3 *1676:Q 0.000279767
4 *242:8 0.00050637
5 *1497:D *1551:B 5.70461e-06
6 *1497:D *622:119 6.51848e-05
7 *1810:A *1551:B 3.47837e-05
8 *1810:A *462:20 0
9 *242:8 *1673:CLK 0.000145752
10 *242:8 *622:102 0.000123225
11 *1497:A *1497:D 3.54652e-05
12 *1497:C *1497:D 8.7152e-06
13 *1811:A *1497:D 3.3314e-05
14 *1811:A *1810:A 4.70256e-05
*RES
1 *1676:Q *242:8 7.155 
2 *242:8 *1810:A 4.98 
3 *242:8 *1497:D 6.51 
*END

*D_NET *243 0.00185065
*CONN
*I *1821:A I *D sky130_fd_sc_hd__dlygate4sd3_1
*I *1496:A I *D sky130_fd_sc_hd__or4_1
*I *1677:Q O *D sky130_fd_sc_hd__dfxtp_1
*CAP
1 *1821:A 0
2 *1496:A 0.000504539
3 *1677:Q 0.000120002
4 *243:12 0.000624541
5 *1496:A *1496:C 1.83756e-05
6 *1496:A *1498:D_N 0.000143262
7 *1496:A *1499:A 1.58131e-05
8 *1496:A *1541:C1 1.10085e-05
9 *1496:A *1669:D 0
10 *1496:A *250:8 5.6673e-05
11 *1496:A *623:113 2.97004e-06
12 *1496:A *624:106 0
13 *243:12 *250:8 0.000104852
14 *1496:D *1496:A 2.93678e-05
15 *1496:D *243:12 0
16 *1498:C *1496:A 0.000219246
*RES
1 *1677:Q *243:12 5.535 
2 *243:12 *1496:A 11.685 
3 *243:12 *1821:A 3.6 
*END

*D_NET *244 0.00192484
*CONN
*I *1496:B I *D sky130_fd_sc_hd__or4_1
*I *1822:A I *D sky130_fd_sc_hd__dlygate4sd3_1
*I *1678:Q O *D sky130_fd_sc_hd__dfxtp_1
*CAP
1 *1496:B 0.000378036
2 *1822:A 8.29936e-05
3 *1678:Q 0
4 *244:4 0.00046103
5 *1496:B *1496:C 0.000501399
6 *1496:B *589:18 1.74053e-05
7 *1496:B *616:26 3.23391e-05
8 *1496:B *622:46 3.60738e-06
9 *1496:B *624:106 0.000135725
10 *1496:B *634:26 9.0444e-05
11 *1822:A *589:18 4.11678e-06
12 *1496:D *1496:B 0.000109049
13 *1813:A *1496:B 0.000108695
*RES
1 *1678:Q *244:4 1.6 
2 *244:4 *1822:A 2.665 
3 *244:4 *1496:B 14.075 
*END

*D_NET *245 0.00555137
*CONN
*I *1496:C I *D sky130_fd_sc_hd__or4_1
*I *1807:A I *D sky130_fd_sc_hd__dlygate4sd3_1
*I *1679:Q O *D sky130_fd_sc_hd__dfxtp_1
*CAP
1 *1496:C 0.00108446
2 *1807:A 0.00019867
3 *1679:Q 0
4 *245:6 0.00128313
5 *1496:C *1499:A 8.49205e-05
6 *1496:C *1541:C1 5.83121e-06
7 *1496:C *1548:A 0.000279059
8 *1496:C *1788:A 2.74798e-05
9 *1496:C *1789:A 1.63344e-05
10 *1496:C *538:40 8.11195e-05
11 *1496:C *551:30 0.000229542
12 *1496:C *616:26 0.000120678
13 *1496:C *622:46 0.000833024
14 *1496:C *624:106 1.88605e-05
15 *1496:C *634:26 8.23457e-05
16 *1807:A *1527:A1 0.000193511
17 *1807:A *1530:A0 0.000266295
18 *1807:A *1568:A1 0.000132613
19 *1807:A *1987:A 1.31064e-05
20 *1807:A *538:40 7.9642e-06
21 *1807:A *551:30 5.34796e-05
22 *1496:A *1496:C 1.83756e-05
23 *1496:B *1496:C 0.000501399
24 *1496:D *1496:C 1.91597e-05
*RES
1 *1679:Q *245:6 3.6 
2 *245:6 *1807:A 8.745 
3 *245:6 *1496:C 27.115 
*END

*D_NET *246 0.00834515
*CONN
*I *1575:A I *D sky130_fd_sc_hd__nand3_1
*I *1573:A1 I *D sky130_fd_sc_hd__o21a_1
*I *1574:A1 I *D sky130_fd_sc_hd__a21o_1
*I *1571:A_N I *D sky130_fd_sc_hd__and2b_1
*I *1572:A1 I *D sky130_fd_sc_hd__a21boi_1
*I *1501:A I *D sky130_fd_sc_hd__xnor2_1
*I *1665:Q O *D sky130_fd_sc_hd__dfxtp_1
*CAP
1 *1575:A 1.88922e-05
2 *1573:A1 0
3 *1574:A1 0
4 *1571:A_N 0.00022246
5 *1572:A1 0.000111372
6 *1501:A 0
7 *1665:Q 0
8 *246:66 0.000200055
9 *246:37 0.000791171
10 *246:25 0.000531147
11 *246:14 0.000635937
12 *246:4 0.000743292
13 *1571:A_N *1665:D 0.000141465
14 *1571:A_N *1668:D 7.56999e-05
15 *1571:A_N *578:18 2.77183e-05
16 *1571:A_N *579:72 0.000751578
17 *1572:A1 *1572:A2 2.12235e-05
18 *1572:A1 *1577:A 0.000198344
19 *1572:A1 *1667:D 4.99619e-05
20 *1572:A1 *619:50 9.06831e-05
21 *1575:A *579:72 4.82919e-05
22 *246:14 *1454:A1 0.000126944
23 *246:14 *1501:B 0.000267834
24 *246:14 *1505:C 0.000116751
25 *246:14 *1573:A2 0.000451174
26 *246:14 *1951:A 0
27 *246:14 *449:34 8.73147e-06
28 *246:14 *570:24 1.73524e-05
29 *246:14 *570:35 0
30 *246:14 *577:30 2.0514e-05
31 *246:14 *579:72 0.000132645
32 *246:14 *612:20 3.80227e-05
33 *246:14 *675:42 0.000156749
34 *246:25 *1448:A 0.000101226
35 *246:25 *1505:C 0.000198934
36 *246:25 *577:30 9.80032e-06
37 *246:37 *1574:A2 7.68904e-05
38 *246:37 *1574:B1 7.56599e-05
39 *246:37 *1577:A 0.000147358
40 *246:37 *1578:A 9.02831e-05
41 *246:37 *552:56 6.04799e-05
42 *246:37 *584:90 0.000501872
43 *246:37 *614:40 0.00067742
44 *246:37 *675:42 9.23767e-05
45 *246:66 *1573:A2 0.000231592
46 *246:66 *579:72 9.80032e-06
47 *1572:B1_N *1572:A1 4.21933e-05
48 *1572:B1_N *246:37 3.3255e-05
*RES
1 *1665:Q *246:4 1.6 
2 *246:4 *246:14 15.685 
3 *246:14 *1501:A 1.6 
4 *246:14 *246:25 2.55 
5 *246:25 *246:37 8.1218 
6 *246:37 *1572:A1 6.705 
7 *246:37 *1571:A_N 10.605 
8 *246:25 *1574:A1 1.6 
9 *246:4 *246:66 2.79 
10 *246:66 *1573:A1 1.6 
11 *246:66 *1575:A 2.05 
*END

*D_NET *247 0.00569361
*CONN
*I *1574:A2 I *D sky130_fd_sc_hd__a21o_1
*I *1575:B I *D sky130_fd_sc_hd__nand3_1
*I *1815:A I *D sky130_fd_sc_hd__dlygate4sd3_1
*I *1504:A I *D sky130_fd_sc_hd__xnor2_1
*I *1572:A2 I *D sky130_fd_sc_hd__a21boi_1
*I *1666:Q O *D sky130_fd_sc_hd__dfxtp_1
*CAP
1 *1574:A2 0.00024406
2 *1575:B 0.000485529
3 *1815:A 0
4 *1504:A 2.88199e-05
5 *1572:A2 0.000106196
6 *1666:Q 0
7 *247:48 0.000607191
8 *247:42 0.000503195
9 *247:29 0.000461817
10 *247:4 0.00040172
11 *1504:A *1574:B1 1.81501e-05
12 *1504:A *615:22 6.63219e-06
13 *1572:A2 *1576:B 0
14 *1572:A2 *1577:A 0.000108674
15 *1572:A2 *457:65 0
16 *1574:A2 *1448:A 8.69417e-06
17 *1574:A2 *1504:B 3.69766e-05
18 *1574:A2 *1574:B1 3.59531e-06
19 *1574:A2 *449:34 0
20 *1574:A2 *568:52 0
21 *1575:B *1502:B 8.65905e-05
22 *1575:B *1504:B 0
23 *1575:B *1575:C 4.55864e-06
24 *1575:B *1665:D 0
25 *1575:B *1951:A 0.000181792
26 *1575:B *492:30 0.000301828
27 *1575:B *555:32 0.000718239
28 *1575:B *579:72 0.000113237
29 *1575:B *613:44 3.63701e-06
30 *247:29 *1665:D 0.000216535
31 *247:29 *1666:D 7.82635e-05
32 *247:29 *248:37 8.93641e-05
33 *247:29 *249:18 2.46374e-05
34 *247:29 *579:72 0.000448328
35 *247:29 *615:22 0
36 *247:42 *1574:B1 4.23502e-06
37 *247:48 *1504:B 0.000163512
38 *247:48 *248:37 4.42016e-05
39 *247:48 *579:72 8.57024e-05
40 *1572:A1 *1572:A2 2.12235e-05
41 *1851:A *1575:B 9.5799e-06
42 *246:37 *1574:A2 7.68904e-05
*RES
1 *1666:Q *247:4 1.6 
2 *247:4 *1572:A2 7.49 
3 *247:4 *247:29 9.9725 
4 *247:29 *1504:A 4.2825 
5 *247:29 *247:42 1.485 
6 *247:42 *247:48 4.8125 
7 *247:48 *1815:A 1.6 
8 *247:48 *1575:B 11.3318 
9 *247:42 *1574:A2 7.0275 
*END

*D_NET *248 0.00571267
*CONN
*I *1574:B1 I *D sky130_fd_sc_hd__a21o_1
*I *1502:A I *D sky130_fd_sc_hd__xnor2_1
*I *1575:C I *D sky130_fd_sc_hd__nand3_1
*I *1667:Q O *D sky130_fd_sc_hd__dfxtp_1
*CAP
1 *1574:B1 0.000318514
2 *1502:A 0
3 *1575:C 0.000472543
4 *1667:Q 1.65033e-05
5 *248:37 0.000591754
6 *248:8 0.000762286
7 *1574:B1 *1448:A 4.82863e-05
8 *1574:B1 *1504:B 0.000198934
9 *1574:B1 *1505:C 2.75145e-05
10 *1574:B1 *407:16 8.96745e-05
11 *1575:C *1665:D 9.08248e-05
12 *1575:C *1666:CLK 5.07376e-05
13 *1575:C *1951:A 0
14 *1575:C *461:36 0
15 *1575:C *472:14 0.00107057
16 *1575:C *528:24 0
17 *1575:C *551:16 0.00107391
18 *1575:C *613:44 9.50342e-06
19 *1575:C *694:18 1.47446e-05
20 *248:8 *1665:CLK 2.49909e-05
21 *248:8 *1666:D 4.66108e-05
22 *248:37 *1504:B 0.000145355
23 *248:37 *1505:D 0.000143095
24 *248:37 *1665:D 9.0444e-05
25 *248:37 *1666:CLK 0.000125217
26 *248:37 *1666:D 9.387e-06
27 *1504:A *1574:B1 1.81501e-05
28 *1574:A2 *1574:B1 3.59531e-06
29 *1575:B *1575:C 4.55864e-06
30 *1851:A *1575:C 1.88218e-05
31 *1852:A *1575:C 3.26822e-05
32 *246:37 *1574:B1 7.56599e-05
33 *247:29 *248:37 8.93641e-05
34 *247:42 *1574:B1 4.23502e-06
35 *247:48 *248:37 4.42016e-05
*RES
1 *1667:Q *248:8 4.05 
2 *248:8 *1575:C 22.42 
3 *248:8 *248:37 7.82 
4 *248:37 *1502:A 1.6 
5 *248:37 *1574:B1 11.63 
*END

*D_NET *249 0.00316911
*CONN
*I *1448:A I *D sky130_fd_sc_hd__inv_2
*I *1503:A I *D sky130_fd_sc_hd__xnor2_1
*I *1668:Q O *D sky130_fd_sc_hd__dfxtp_1
*CAP
1 *1448:A 0.000325996
2 *1503:A 1.99064e-05
3 *1668:Q 0.000559698
4 *249:18 0.0009056
5 *1448:A *1505:C 0.000100498
6 *1448:A *1508:A1 3.59531e-06
7 *1448:A *1576:B 6.33103e-05
8 *1448:A *568:52 0.000165632
9 *1448:A *577:30 0.000300343
10 *1503:A *577:30 1.30364e-05
11 *249:18 *1503:B 3.78264e-05
12 *249:18 *1576:B 0
13 *249:18 *1577:A 0.000167174
14 *249:18 *1578:A 0.000217851
15 *249:18 *1578:B 2.68464e-05
16 *249:18 *1586:CLK 0
17 *249:18 *1665:D 1.19928e-05
18 *249:18 *577:30 7.68414e-06
19 *249:18 *579:72 2.49909e-05
20 *249:18 *584:90 3.22025e-05
21 *249:18 *631:71 2.0851e-06
22 *1574:A2 *1448:A 8.69417e-06
23 *1574:B1 *1448:A 4.82863e-05
24 *246:25 *1448:A 0.000101226
25 *247:29 *249:18 2.46374e-05
*RES
1 *1668:Q *249:18 14.3337 
2 *249:18 *1503:A 2.26375 
3 *249:18 *1448:A 12.9613 
*END

*D_NET *250 0.00166871
*CONN
*I *1819:A I *D sky130_fd_sc_hd__dlygate4sd3_1
*I *1498:D_N I *D sky130_fd_sc_hd__or4b_1
*I *1669:Q O *D sky130_fd_sc_hd__dfxtp_1
*CAP
1 *1819:A 2.11983e-05
2 *1498:D_N 0.000169006
3 *1669:Q 0.00016083
4 *250:8 0.000351035
5 *1498:D_N *1499:A 6.29646e-05
6 *1498:D_N *1669:D 7.75176e-05
7 *1498:D_N *623:113 1.99498e-05
8 *1819:A *624:14 4.82919e-05
9 *250:8 *1669:D 0.000106473
10 *250:8 *552:56 5.9216e-05
11 *1496:A *1498:D_N 0.000143262
12 *1496:A *250:8 5.6673e-05
13 *1498:B *1498:D_N 6.81971e-05
14 *1498:C *1498:D_N 0.000179105
15 *1498:C *250:8 4.01403e-05
16 *243:12 *250:8 0.000104852
*RES
1 *1669:Q *250:8 7.02 
2 *250:8 *1498:D_N 8.19 
3 *250:8 *1819:A 4.05 
*END

*D_NET *251 0.000768475
*CONN
*I *1456:S I *D sky130_fd_sc_hd__mux2_1
*I *1621:Q O *D sky130_fd_sc_hd__dlxtp_1
*CAP
1 *1456:S 6.25347e-05
2 *1621:Q 6.25347e-05
3 *1456:S *1454:A1 0.000344829
4 *1456:S *1456:A1 0.000275548
5 *1456:S *1501:B 2.30292e-05
*RES
1 *1621:Q *1456:S 6.425 
*END

*D_NET *252 0.000335599
*CONN
*I *1455:S I *D sky130_fd_sc_hd__mux2_1
*I *1622:Q O *D sky130_fd_sc_hd__dlxtp_1
*CAP
1 *1455:S 9.05634e-05
2 *1622:Q 9.05634e-05
3 *1455:S *1579:C 0
4 *1455:S *1790:A 4.94457e-05
5 *1455:S *2004:A 5.67399e-05
6 *232:24 *1455:S 4.82863e-05
*RES
1 *1622:Q *1455:S 9.03 
*END

*D_NET *253 0.000987054
*CONN
*I *1529:S I *D sky130_fd_sc_hd__mux2_1
*I *1631:Q O *D sky130_fd_sc_hd__dlxtp_1
*CAP
1 *1529:S 0.00032177
2 *1631:Q 0.00032177
3 *1529:S *1478:A1 1.31821e-05
4 *1529:S *1599:D 3.87203e-05
5 *1529:S *1953:A 4.82748e-05
6 *1529:S *461:24 8.73147e-06
7 *1529:S *504:26 0.000136389
8 *1529:S *585:89 3.00381e-05
9 *1529:S *618:33 3.64998e-06
10 *1529:S *630:142 6.4528e-05
*RES
1 *1631:Q *1529:S 11.895 
*END

*D_NET *254 0.000546137
*CONN
*I *1528:S I *D sky130_fd_sc_hd__mux2_1
*I *1632:Q O *D sky130_fd_sc_hd__dlxtp_1
*CAP
1 *1528:S 0.000114566
2 *1632:Q 0.000114566
3 *1528:S *1528:A1 2.75229e-05
4 *1528:S *1769:A 1.7386e-05
5 *1528:S *537:26 0.000272096
*RES
1 *1632:Q *1528:S 6.08 
*END

*D_NET *255 0.000346533
*CONN
*I *1527:S I *D sky130_fd_sc_hd__mux2_1
*I *1633:Q O *D sky130_fd_sc_hd__dlxtp_1
*CAP
1 *1527:S 9.51289e-05
2 *1633:Q 9.51289e-05
3 *1527:S *1527:A0 7.4027e-05
4 *1527:S *1527:A1 3.01435e-05
5 *1527:S *1770:A 0
6 *1527:S *462:20 0
7 *1527:S *587:46 5.21046e-05
*RES
1 *1633:Q *1527:S 9.39 
*END

*D_NET *256 0.00102285
*CONN
*I *1526:S I *D sky130_fd_sc_hd__mux2_1
*I *1634:Q O *D sky130_fd_sc_hd__dlxtp_1
*CAP
1 *1526:S 0.000145214
2 *1634:Q 0.000145214
3 *1526:S *1527:A0 9.82856e-06
4 *1526:S *1771:A 6.95753e-05
5 *1526:S *462:20 4.19603e-05
6 *1526:S *504:26 0.000385338
7 *1526:S *585:89 0.000225718
*RES
1 *1634:Q *1526:S 12.135 
*END

*D_NET *257 0.000385332
*CONN
*I *1525:S I *D sky130_fd_sc_hd__mux2_1
*I *1635:Q O *D sky130_fd_sc_hd__dlxtp_1
*CAP
1 *1525:S 0.000115173
2 *1635:Q 0.000115173
3 *1525:S *1934:A 4.40812e-05
4 *1525:S *2021:A 4.80285e-05
5 *1525:S *679:38 6.28765e-05
*RES
1 *1635:Q *1525:S 9.375 
*END

*D_NET *258 0.00138891
*CONN
*I *1524:S I *D sky130_fd_sc_hd__mux2_1
*I *1636:Q O *D sky130_fd_sc_hd__dlxtp_1
*CAP
1 *1524:S 0.000337535
2 *1636:Q 0.000337535
3 *1524:S *1464:A0 0.000272177
4 *1524:S *1524:A0 4.69904e-05
5 *1524:S *625:71 2.32745e-05
6 *1524:S *630:26 0.000262696
7 *1524:S *673:43 0.000108706
*RES
1 *1636:Q *1524:S 13.14 
*END

*D_NET *259 0.00119981
*CONN
*I *1523:S I *D sky130_fd_sc_hd__mux2_1
*I *1637:Q O *D sky130_fd_sc_hd__dlxtp_1
*CAP
1 *1523:S 0.000271124
2 *1637:Q 0.000271124
3 *1523:S *1472:A1 9.47454e-05
4 *1523:S *1472:S 1.83756e-05
5 *1523:S *1523:A0 0.000417203
6 *1523:S *1774:A 3.41598e-05
7 *1523:S *511:22 9.30787e-05
*RES
1 *1637:Q *1523:S 13.53 
*END

*D_NET *260 0.000212794
*CONN
*I *1522:S I *D sky130_fd_sc_hd__mux2_1
*I *1638:Q O *D sky130_fd_sc_hd__dlxtp_1
*CAP
1 *1522:S 7.01437e-05
2 *1638:Q 7.01437e-05
3 *1522:S *1697:A 4.66108e-05
4 *1522:S *585:128 2.58961e-05
*RES
1 *1638:Q *1522:S 4.355 
*END

*D_NET *261 0.000616407
*CONN
*I *1521:S I *D sky130_fd_sc_hd__mux2_1
*I *1639:Q O *D sky130_fd_sc_hd__dlxtp_1
*CAP
1 *1521:S 0.000144459
2 *1639:Q 0.000144459
3 *1521:S *1936:A 0.000135531
4 *1521:S *1939:A 7.38766e-05
5 *1521:S *492:30 0.000118081
*RES
1 *1639:Q *1521:S 9.975 
*END

*D_NET *262 0.000944445
*CONN
*I *1520:S I *D sky130_fd_sc_hd__mux2_1
*I *1640:Q O *D sky130_fd_sc_hd__dlxtp_1
*CAP
1 *1520:S 0.000209751
2 *1640:Q 0.000209751
3 *1520:S *1520:A1 8.23457e-05
4 *1520:S *1777:A 6.72196e-05
5 *1520:S *1997:A 8.35106e-05
6 *1520:S *587:147 3.91137e-05
7 *1520:S *682:50 0.000104162
8 NN4BEG[0] *1520:S 7.23231e-06
9 NN4BEG[3] *1520:S 0.000129366
10 NN4BEG[5] *1520:S 1.19928e-05
*RES
1 *1640:Q *1520:S 11.46 
*END

*D_NET *263 0.000709092
*CONN
*I *1454:S I *D sky130_fd_sc_hd__mux2_1
*I *1623:Q O *D sky130_fd_sc_hd__dlxtp_1
*CAP
1 *1454:S 0.000200007
2 *1623:Q 0.000200007
3 *1454:S *484:12 7.06865e-05
4 *1454:S *518:24 0.000111011
5 *1454:S *619:50 1.88605e-05
6 *1454:S *631:26 0.000108519
*RES
1 *1623:Q *1454:S 10.41 
*END

*D_NET *264 0.00144236
*CONN
*I *1519:S I *D sky130_fd_sc_hd__mux2_1
*I *1641:Q O *D sky130_fd_sc_hd__dlxtp_1
*CAP
1 *1519:S 0.000332853
2 *1641:Q 0.000332853
3 *1519:S *696:DIODE 4.25356e-05
4 *1519:S *1472:A1 2.75229e-05
5 *1519:S *1519:A1 0.000272984
6 *1519:S *1938:A 0.000203168
7 *1519:S *486:26 1.5963e-05
8 *1519:S *497:16 1.47347e-05
9 *1519:S *625:222 0.000199746
*RES
1 *1641:Q *1519:S 14.43 
*END

*D_NET *265 0.000835665
*CONN
*I *1518:S I *D sky130_fd_sc_hd__mux2_1
*I *1642:Q O *D sky130_fd_sc_hd__dlxtp_1
*CAP
1 *1518:S 0.000237202
2 *1642:Q 0.000237202
3 *1518:S *491:38 0.000135889
4 *1518:S *652:28 0.000225372
5 *67:15 *1518:S 0
*RES
1 *1642:Q *1518:S 11.01 
*END

*D_NET *266 0.00059329
*CONN
*I *1517:S I *D sky130_fd_sc_hd__mux2_1
*I *1643:Q O *D sky130_fd_sc_hd__dlxtp_1
*CAP
1 *1517:S 0.000107946
2 *1643:Q 0.000107946
3 *1517:S *1517:A0 4.66108e-05
4 *1517:S *1922:A 0.000133151
5 *1517:S *628:120 0.000134382
6 *1517:S *684:42 1.43253e-05
7 *1517:A1 *1517:S 4.89295e-05
*RES
1 *1643:Q *1517:S 9.975 
*END

*D_NET *267 0.000730335
*CONN
*I *1516:S I *D sky130_fd_sc_hd__mux2_1
*I *1644:Q O *D sky130_fd_sc_hd__dlxtp_1
*CAP
1 *1516:S 0.000150225
2 *1644:Q 0.000150225
3 *1516:S *1489:S1 0.000107721
4 *1516:S *1493:B1 0.000267094
5 *1516:S *271:28 7.9642e-06
6 *1460:A1 *1516:S 4.71049e-05
*RES
1 *1644:Q *1516:S 10.62 
*END

*D_NET *268 0.000972696
*CONN
*I *1515:S I *D sky130_fd_sc_hd__mux2_1
*I *1645:Q O *D sky130_fd_sc_hd__dlxtp_1
*CAP
1 *1515:S 0.000259795
2 *1645:Q 0.000259795
3 *1515:S *1519:A1 0
4 *1515:S *1650:GATE 0.000161529
5 *1515:S *1750:A 0
6 *1515:S *538:40 0
7 *1515:S *632:112 0
8 *1515:S *687:26 0.000291577
*RES
1 *1645:Q *1515:S 12.105 
*END

*D_NET *269 0.00169972
*CONN
*I *1514:S I *D sky130_fd_sc_hd__mux2_1
*I *1646:Q O *D sky130_fd_sc_hd__dlxtp_1
*CAP
1 *1514:S 0.000450551
2 *1646:Q 0.000450551
3 *1514:S *1463:A1 7.27402e-06
4 *1514:S *1612:D 8.55525e-05
5 *1514:S *1991:A 0.000287977
6 *1514:S *1999:A 1.51935e-05
7 *1514:S *537:75 4.82863e-05
8 *1514:S *682:50 8.57024e-05
9 *1866:A *1514:S 0.000268635
*RES
1 *1646:Q *1514:S 15.24 
*END

*D_NET *270 0.00986772
*CONN
*I *1492:S I *D sky130_fd_sc_hd__mux2_1
*I *1489:S0 I *D sky130_fd_sc_hd__mux4_1
*I *1491:A2 I *D sky130_fd_sc_hd__o21ba_1
*I *1490:B I *D sky130_fd_sc_hd__nand2b_1
*I *1647:Q O *D sky130_fd_sc_hd__dlxtp_1
*CAP
1 *1492:S 0
2 *1489:S0 0.000152816
3 *1491:A2 0
4 *1490:B 0.000243927
5 *1647:Q 0.000488171
6 *270:49 0.000204284
7 *270:30 0.00122761
8 *270:16 0.00142038
9 *1489:S0 *1450:A 6.60257e-06
10 *1489:S0 *1489:A1 2.08217e-05
11 *1489:S0 *1490:A_N 2.5424e-05
12 *1489:S0 *1494:B1 0.000159697
13 *1489:S0 *543:24 0.000142678
14 *1489:S0 *648:38 0.000159697
15 *1490:B *1491:A1 1.12643e-05
16 *1490:B *1526:A0 1.17533e-05
17 *1490:B *1529:A0 0.00041352
18 *1490:B *1976:A 0.000406499
19 *1490:B *585:128 6.15773e-05
20 *1490:B *638:20 6.03947e-06
21 *270:16 *1453:A0 3.49093e-05
22 *270:16 *1467:S 6.81971e-05
23 *270:16 *1492:A1 9.50342e-06
24 *270:16 *1522:A0 1.7309e-05
25 *270:16 *1595:GATE 0.000112143
26 *270:16 *563:34 9.40887e-05
27 *270:16 *633:16 7.1242e-05
28 *270:16 *638:34 0.0004462
29 *270:16 *668:16 6.83447e-05
30 *270:16 *675:42 1.52507e-05
31 *270:30 *1467:S 5.92535e-05
32 *270:30 *1471:A0 5.62392e-05
33 *270:30 *1471:S 9.22294e-06
34 *270:30 *1526:A0 4.76516e-05
35 *270:30 *1527:A0 0.00076542
36 *270:30 *1765:A 0.0002588
37 *270:30 *2026:A 5.31149e-05
38 *270:30 *515:48 1.7635e-05
39 *270:30 *538:40 0.00091953
40 *270:30 *543:24 5.63183e-05
41 *270:30 *585:128 7.60096e-05
42 *270:30 *673:28 0.00128296
43 *270:30 *675:42 7.27402e-06
44 *270:30 *684:26 8.68997e-05
45 *270:49 *1450:A 2.99518e-06
46 *270:49 *543:24 4.95846e-05
47 *229:33 *1490:B 1.88656e-05
*RES
1 *1647:Q *270:16 15.625 
2 *270:16 *270:30 8.25403 
3 *270:30 *1490:B 6.13018 
4 *270:30 *270:49 0.7425 
5 *270:49 *1491:A2 3.6 
6 *270:49 *1489:S0 7.425 
7 *270:16 *1492:S 3.6 
*END

*D_NET *271 0.0079771
*CONN
*I *1493:B2 I *D sky130_fd_sc_hd__a221o_1
*I *1491:B1_N I *D sky130_fd_sc_hd__o21ba_1
*I *1489:S1 I *D sky130_fd_sc_hd__mux4_1
*I *1648:Q O *D sky130_fd_sc_hd__dlxtp_1
*CAP
1 *1493:B2 2.48794e-06
2 *1491:B1_N 0.000228537
3 *1489:S1 5.76605e-05
4 *1648:Q 0.000905473
5 *271:45 0.000717096
6 *271:28 0.0014492
7 *1489:S1 *1979:A 1.7635e-05
8 *1491:B1_N *1450:A 1.27537e-05
9 *1491:B1_N *1490:A_N 0.000122231
10 *1491:B1_N *1491:A1 0.000122537
11 *1491:B1_N *1493:A1 0
12 *1491:B1_N *1493:A2 0.000110785
13 *1491:B1_N *534:28 0
14 *1491:B1_N *585:128 0
15 *1491:B1_N *638:20 2.10582e-05
16 *1493:B2 *1469:A0 1.18246e-05
17 *1493:B2 *1493:B1 1.12643e-05
18 *271:28 *1473:S 1.7635e-05
19 *271:28 *1741:A 0.000122435
20 *271:28 *1979:A 4.38791e-05
21 *271:28 *1990:A 0.000254766
22 *271:28 *582:30 0.00121796
23 *271:28 *617:53 0.00122364
24 *271:28 *630:26 0.000383423
25 *271:28 *648:38 1.7635e-05
26 *271:28 *682:50 3.82581e-05
27 *271:45 *1450:A 7.9642e-06
28 *271:45 *1493:B1 0.000410301
29 *271:45 *1783:A 6.72196e-05
30 *271:45 *1975:A 0.000118081
31 *271:45 *272:10 9.67081e-05
32 *271:45 *587:147 6.07575e-06
33 *1460:A1 *1489:S1 4.48904e-05
34 *1516:S *1489:S1 0.000107721
35 *1516:S *271:28 7.9642e-06
*RES
1 *1648:Q *271:28 16.5975 
2 *271:28 *1489:S1 4.98 
3 *271:28 *271:45 10.66 
4 *271:45 *1491:B1_N 8.38875 
5 *271:45 *1493:B2 3.70875 
*END

*D_NET *272 0.00196497
*CONN
*I *1493:C1 I *D sky130_fd_sc_hd__a221o_1
*I *1450:A I *D sky130_fd_sc_hd__inv_1
*I *1649:Q O *D sky130_fd_sc_hd__dlxtp_1
*CAP
1 *1493:C1 0
2 *1450:A 0.000186804
3 *1649:Q 0.000224603
4 *272:10 0.000411407
5 *1450:A *1471:A0 8.69417e-06
6 *1450:A *1490:A_N 0.00023085
7 *1450:A *1491:A1 4.87465e-06
8 *1450:A *1493:A2 4.79946e-05
9 *1450:A *1781:A 0.000331502
10 *1450:A *543:24 1.0129e-05
11 *1450:A *638:20 7.9642e-06
12 *272:10 *1781:A 0.000145811
13 *272:10 *1783:A 1.97442e-05
14 *272:10 *1989:A 5.8678e-05
15 *272:10 *1994:A 3.32976e-05
16 *272:10 *537:52 4.77719e-05
17 *272:10 *559:48 2.01565e-05
18 *1489:S0 *1450:A 6.60257e-06
19 *1491:B1_N *1450:A 1.27537e-05
20 *1853:A *272:10 1.08814e-05
21 *1855:A *272:10 1.47376e-05
22 *229:33 *1450:A 2.20471e-05
23 *270:49 *1450:A 2.99518e-06
24 *271:45 *1450:A 7.9642e-06
25 *271:45 *272:10 9.67081e-05
*RES
1 *1649:Q *272:10 7.815 
2 *272:10 *1450:A 12.625 
3 *272:10 *1493:C1 3.6 
*END

*D_NET *273 0.00579088
*CONN
*I *1486:S I *D sky130_fd_sc_hd__mux2_1
*I *1484:B I *D sky130_fd_sc_hd__nand2b_1
*I *1483:S0 I *D sky130_fd_sc_hd__mux4_1
*I *1485:A2 I *D sky130_fd_sc_hd__o21ba_1
*I *1650:Q O *D sky130_fd_sc_hd__dlxtp_1
*CAP
1 *1486:S 0.000251369
2 *1484:B 5.20372e-05
3 *1483:S0 0
4 *1485:A2 0.000232879
5 *1650:Q 0.00033734
6 *273:24 0.000528599
7 *273:14 0.000662427
8 *273:12 0.00090338
9 *1484:B *1913:A 1.39062e-05
10 *1484:B *645:34 1.23247e-05
11 *1484:B *652:36 6.00081e-05
12 *1485:A2 *1483:A1 0.000238736
13 *1485:A2 *1518:A0 4.66474e-05
14 *1485:A2 *275:27 0.000243325
15 *1485:A2 *474:20 0.000193801
16 *1485:A2 *490:36 4.78726e-05
17 *1485:A2 *649:30 4.66108e-05
18 *1486:S *1472:A0 2.75145e-05
19 *1486:S *1521:A0 1.79483e-05
20 *1486:S *1936:A 1.92979e-05
21 *1486:S *2000:A 8.54866e-05
22 *1486:S *2026:A 0.000113153
23 *1486:S *509:32 2.49909e-05
24 *1486:S *654:34 4.36398e-05
25 *273:12 *1922:A 0
26 *273:12 *1949:A 0.000467591
27 *273:12 *632:150 2.07726e-05
28 *273:14 *1991:A 5.82798e-05
29 *273:14 *2026:A 8.29567e-05
30 *273:14 *654:34 0.000162357
31 *273:24 *1488:B1 1.7635e-05
32 *273:24 *1991:A 0.000550602
33 *273:24 *275:27 4.82863e-05
34 *273:24 *654:34 0.000171143
35 *273:24 *662:22 7.96104e-06
*RES
1 *1650:Q *273:12 10.3925 
2 *273:12 *273:14 0.795467 
3 *273:14 *273:24 4.03623 
4 *273:24 *1485:A2 10.91 
5 *273:24 *1483:S0 1.6 
6 *273:14 *1484:B 5.15 
7 *273:12 *1486:S 5.40317 
*END

*D_NET *274 0.000684851
*CONN
*I *1453:S I *D sky130_fd_sc_hd__mux2_1
*I *1624:Q O *D sky130_fd_sc_hd__dlxtp_1
*CAP
1 *1453:S 0.000141962
2 *1624:Q 0.000141962
3 *1453:S *1453:A1 4.66108e-05
4 *1453:S *1591:GATE 0.000151847
5 *1453:S *578:55 1.08758e-05
6 *1453:S *581:108 2.81948e-05
7 *1453:S *586:51 2.8531e-05
8 *1453:S *586:76 0.000134867
*RES
1 *1624:Q *1453:S 10.245 
*END

*D_NET *275 0.00412233
*CONN
*I *1487:B2 I *D sky130_fd_sc_hd__a221o_1
*I *1483:S1 I *D sky130_fd_sc_hd__mux4_1
*I *1485:B1_N I *D sky130_fd_sc_hd__o21ba_1
*I *1651:Q O *D sky130_fd_sc_hd__dlxtp_1
*CAP
1 *1487:B2 0.000149272
2 *1483:S1 0
3 *1485:B1_N 0
4 *1651:Q 0.000525175
5 *275:27 0.000380746
6 *275:16 0.000756649
7 *1487:B2 *1487:B1 2.49764e-05
8 *1487:B2 *1487:C1 0.000198015
9 *1487:B2 *1488:A2 8.05167e-05
10 *1487:B2 *1913:A 8.63081e-05
11 *1487:B2 *652:36 5.4354e-05
12 *275:16 *1518:A0 0.00029832
13 *275:16 *1652:D 1.7345e-05
14 *275:16 *2005:A 0
15 *275:16 *490:36 1.95531e-05
16 *275:16 *548:68 0.000537841
17 *275:16 *628:108 0.000203178
18 *275:27 *1483:A1 0.000120655
19 *275:27 *1483:A2 2.20665e-05
20 *275:27 *1488:A2 5.05521e-05
21 *275:27 *649:30 0.000187612
22 *275:27 *652:36 0.000117584
23 *1485:A2 *275:27 0.000243325
24 *273:24 *275:27 4.82863e-05
*RES
1 *1651:Q *275:16 15.74 
2 *275:16 *1485:B1_N 1.6 
3 *275:16 *275:27 6.09 
4 *275:27 *1483:S1 1.6 
5 *275:27 *1487:B2 9.47 
*END

*D_NET *276 0.00337877
*CONN
*I *1487:C1 I *D sky130_fd_sc_hd__a221o_1
*I *1449:A I *D sky130_fd_sc_hd__inv_2
*I *1652:Q O *D sky130_fd_sc_hd__dlxtp_1
*CAP
1 *1487:C1 0.000295892
2 *1449:A 0
3 *1652:Q 0.00042537
4 *276:10 0.000721263
5 *1487:C1 *1468:A1 0.000123225
6 *1487:C1 *1487:B1 5.36831e-05
7 *1487:C1 *1517:A0 0.000146942
8 *1487:C1 *1643:D 8.7152e-06
9 *1487:C1 *1913:A 5.63082e-05
10 *1487:C1 *632:112 0.000493601
11 *276:10 *1639:GATE 0.000112123
12 *276:10 *1643:D 0.000135533
13 *276:10 *491:38 0.000578523
14 *276:10 *632:112 2.95721e-05
15 *1487:B2 *1487:C1 0.000198015
*RES
1 *1652:Q *276:10 10.515 
2 *276:10 *1449:A 3.6 
3 *276:10 *1487:C1 11.325 
*END

*D_NET *277 0.00083257
*CONN
*I *1452:S I *D sky130_fd_sc_hd__mux2_1
*I *1625:Q O *D sky130_fd_sc_hd__dlxtp_1
*CAP
1 *1452:S 0.000166544
2 *1625:Q 0.000166544
3 *1452:S *1987:A 0.000113573
4 *1452:S *559:48 3.57596e-05
5 N4BEG[1] *1452:S 0.000223081
6 N4BEG[9] *1452:S 0.000127068
*RES
1 *1625:Q *1452:S 11.07 
*END

*D_NET *278 0.000456829
*CONN
*I *1451:S I *D sky130_fd_sc_hd__mux2_1
*I *1626:Q O *D sky130_fd_sc_hd__dlxtp_1
*CAP
1 *1451:S 0.000109628
2 *1626:Q 0.000109628
3 *1451:S *1522:A0 4.82863e-05
4 *1451:S *1529:A0 0.000189288
*RES
1 *1626:Q *1451:S 5.39 
*END

*D_NET *279 0.00205408
*CONN
*I *1533:S I *D sky130_fd_sc_hd__mux2_1
*I *1627:Q O *D sky130_fd_sc_hd__dlxtp_1
*CAP
1 *1533:S 0.000691909
2 *1627:Q 0.000691909
3 *1533:S *1456:A0 3.79776e-05
4 *1533:S *1533:A1 8.43255e-05
5 *1533:S *1627:GATE 2.3192e-05
6 *1533:S *1686:A 7.61562e-05
7 *1533:S *1687:A 0
8 *1533:S *1954:A 4.82863e-05
9 *1533:S *563:34 9.44888e-05
10 *1533:S *590:118 1.85001e-05
11 *1533:S *620:57 0
12 *1533:S *626:43 0.00017433
13 *1533:S *638:34 9.53682e-05
14 *1533:S *649:30 1.7635e-05
*RES
1 *1627:Q *1533:S 17.37 
*END

*D_NET *280 0.000715393
*CONN
*I *1532:S I *D sky130_fd_sc_hd__mux2_1
*I *1628:Q O *D sky130_fd_sc_hd__dlxtp_1
*CAP
1 *1532:S 0.000187518
2 *1628:Q 0.000187518
3 *1532:S *1453:A0 0.000128349
4 *1532:S *1522:A0 4.77757e-05
5 *1532:S *1642:GATE 0.000127124
6 *1532:S *563:34 3.71082e-05
*RES
1 *1628:Q *1532:S 10.32 
*END

*D_NET *281 0.00129359
*CONN
*I *1531:S I *D sky130_fd_sc_hd__mux2_1
*I *1629:Q O *D sky130_fd_sc_hd__dlxtp_1
*CAP
1 *1531:S 0.000392904
2 *1629:Q 0.000392904
3 *1531:S *1478:A1 5.43551e-05
4 *1531:S *1531:A0 1.39456e-05
5 *1531:S *1736:A 2.18287e-05
6 *1531:S *1977:A 0.000192369
7 *1531:S *1984:A 1.9006e-05
8 *1531:S *592:48 8.05381e-05
9 *1531:S *616:26 0.000117213
10 *1531:S *630:113 8.53113e-06
*RES
1 *1629:Q *1531:S 13.395 
*END

*D_NET *282 0.000525595
*CONN
*I *1530:S I *D sky130_fd_sc_hd__mux2_1
*I *1630:Q O *D sky130_fd_sc_hd__dlxtp_1
*CAP
1 *1530:S 0.000119212
2 *1630:Q 0.000119212
3 *1530:S *1983:A 6.78637e-05
4 *1530:S *1986:A 0.000134387
5 *1530:S *585:89 8.49205e-05
*RES
1 *1630:Q *1530:S 9.63 
*END

*D_NET *283 0.000947822
*CONN
*I *1502:B I *D sky130_fd_sc_hd__xnor2_1
*I *1589:Q O *D sky130_fd_sc_hd__dlxtp_1
*CAP
1 *1502:B 0.000226369
2 *1589:Q 0.000226369
3 *1502:B *1504:B 8.65194e-05
4 *1502:B *1951:A 1.2973e-05
5 *1502:B *449:34 0.000252408
6 *1502:B *579:72 5.65935e-05
7 *1575:B *1502:B 8.65905e-05
*RES
1 *1589:Q *1502:B 12.585 
*END

*D_NET *284 0.000501139
*CONN
*I *1503:B I *D sky130_fd_sc_hd__xnor2_1
*I *1590:Q O *D sky130_fd_sc_hd__dlxtp_1
*CAP
1 *1503:B 8.85257e-05
2 *1590:Q 8.85257e-05
3 *1503:B *1578:A 8.52883e-05
4 *1503:B *1578:B 4.77719e-05
5 *1503:B *1579:C 7.08554e-05
6 *1503:B *577:30 8.23457e-05
7 *249:18 *1503:B 3.78264e-05
*RES
1 *1590:Q *1503:B 5.735 
*END

*D_NET *285 0.00066351
*CONN
*I *1478:S I *D sky130_fd_sc_hd__mux2_1
*I *1599:Q O *D sky130_fd_sc_hd__dlxtp_1
*CAP
1 *1478:S 7.84356e-05
2 *1599:Q 7.84356e-05
3 *1478:S *1478:A1 0.000196048
4 *1478:S *521:38 0.000268757
5 *1478:S *625:140 4.18337e-05
*RES
1 *1599:Q *1478:S 6.08 
*END

*D_NET *286 0.000566559
*CONN
*I *1477:S I *D sky130_fd_sc_hd__mux2_1
*I *1600:Q O *D sky130_fd_sc_hd__dlxtp_1
*CAP
1 *1477:S 9.18443e-05
2 *1600:Q 9.18443e-05
3 *1477:S *1957:A 0.000102922
4 *1477:S *625:154 0.000279949
*RES
1 *1600:Q *1477:S 6.08 
*END

*D_NET *287 0.000825792
*CONN
*I *1476:S I *D sky130_fd_sc_hd__mux2_1
*I *1601:Q O *D sky130_fd_sc_hd__dlxtp_1
*CAP
1 *1476:S 0.000257734
2 *1601:Q 0.000257734
3 *1476:S *1476:A0 2.52797e-05
4 *1476:S *1601:D 0.000116115
5 *1476:S *1952:A 0.000110859
6 *1476:S *629:22 5.8069e-05
*RES
1 *1601:Q *1476:S 11.1 
*END

*D_NET *288 0.000519649
*CONN
*I *1475:S I *D sky130_fd_sc_hd__mux2_1
*I *1602:Q O *D sky130_fd_sc_hd__dlxtp_1
*CAP
1 *1475:S 0.000190938
2 *1602:Q 0.000190938
3 *1475:S *1475:A1 9.09788e-06
4 *1475:S *1601:GATE 6.28765e-05
5 *1475:S *625:160 4.43871e-06
6 *1475:S *651:21 6.13596e-05
*RES
1 *1602:Q *1475:S 10.065 
*END

*D_NET *289 0.000834302
*CONN
*I *1474:S I *D sky130_fd_sc_hd__mux2_1
*I *1603:Q O *D sky130_fd_sc_hd__dlxtp_1
*CAP
1 *1474:S 0.000259048
2 *1603:Q 0.000259048
3 *1474:S *1474:A0 4.66742e-05
4 *1474:S *684:42 0.000269532
*RES
1 *1603:Q *1474:S 7.46 
*END

*D_NET *290 0.000475887
*CONN
*I *1473:S I *D sky130_fd_sc_hd__mux2_1
*I *1604:Q O *D sky130_fd_sc_hd__dlxtp_1
*CAP
1 *1473:S 8.34763e-05
2 *1604:Q 8.34763e-05
3 *1473:S *1473:A1 4.66108e-05
4 *1473:S *1530:A0 0.000125244
5 *1473:S *645:34 4.82863e-05
6 *1473:S *648:38 7.11581e-05
7 *271:28 *1473:S 1.7635e-05
*RES
1 *1604:Q *1473:S 9.285 
*END

*D_NET *291 0.000563269
*CONN
*I *1472:S I *D sky130_fd_sc_hd__mux2_1
*I *1605:Q O *D sky130_fd_sc_hd__dlxtp_1
*CAP
1 *1472:S 0.000167996
2 *1605:Q 0.000167996
3 *1472:S *1472:A0 0.000199629
4 *1472:S *1523:A0 9.27255e-06
5 *1523:S *1472:S 1.83756e-05
*RES
1 *1605:Q *1472:S 6.08 
*END

*D_NET *292 0.00168137
*CONN
*I *1471:S I *D sky130_fd_sc_hd__mux2_1
*I *1606:Q O *D sky130_fd_sc_hd__dlxtp_1
*CAP
1 *1471:S 0.000608339
2 *1606:Q 0.000608339
3 *1471:S *1471:A0 2.99518e-06
4 *1471:S *1539:A 1.88218e-05
5 *1471:S *1581:D 0
6 *1471:S *1638:GATE 2.68464e-05
7 *1471:S *1697:A 5.58094e-05
8 *1471:S *458:28 3.59531e-06
9 *1471:S *460:27 4.61552e-05
10 *1471:S *531:50 0.000123955
11 *1471:S *543:24 3.22351e-05
12 *1471:S *585:128 1.7635e-05
13 *1471:S *627:34 0.000122801
14 *1471:S *673:28 4.61701e-06
15 *270:30 *1471:S 9.22294e-06
*RES
1 *1606:Q *1471:S 16.335 
*END

*D_NET *293 0.000664759
*CONN
*I *1470:S I *D sky130_fd_sc_hd__mux2_1
*I *1607:Q O *D sky130_fd_sc_hd__dlxtp_1
*CAP
1 *1470:S 7.05966e-05
2 *1607:Q 7.05966e-05
3 *1470:S *1470:A0 0.000195068
4 *1470:S *1517:A0 0.000234358
5 *1470:S *1607:D 5.01371e-05
6 *1470:S *684:42 4.40028e-05
*RES
1 *1607:Q *1470:S 6.08 
*END

*D_NET *294 0.000606893
*CONN
*I *1469:S I *D sky130_fd_sc_hd__mux2_1
*I *1608:Q O *D sky130_fd_sc_hd__dlxtp_1
*CAP
1 *1469:S 0.000185504
2 *1608:Q 0.000185504
3 *1469:S *1481:A0 9.80032e-06
4 *1469:S *1977:A 8.8266e-05
5 *1469:S *630:86 1.08758e-05
6 *1469:S *638:20 0.000126944
*RES
1 *1608:Q *1469:S 9.975 
*END

*D_NET *295 0.000344384
*CONN
*I *1482:S0 I *D sky130_fd_sc_hd__mux4_1
*I *1591:Q O *D sky130_fd_sc_hd__dlxtp_1
*CAP
1 *1482:S0 8.07179e-05
2 *1591:Q 8.07179e-05
3 *1482:S0 *1624:GATE 0
4 *1482:S0 *578:55 4.66108e-05
5 *1482:S0 *581:108 4.66108e-05
6 *1482:S0 *619:50 8.97264e-05
*RES
1 *1591:Q *1482:S0 8.775 
*END

*D_NET *296 0.000598431
*CONN
*I *1468:S I *D sky130_fd_sc_hd__mux2_1
*I *1609:Q O *D sky130_fd_sc_hd__dlxtp_1
*CAP
1 *1468:S 0.000176781
2 *1609:Q 0.000176781
3 *1468:S *1519:A1 6.58339e-05
4 *1468:S *1936:A 6.28765e-05
5 *1468:S *1939:A 0.000116158
*RES
1 *1609:Q *1468:S 10.17 
*END

*D_NET *297 0.00182499
*CONN
*I *1467:S I *D sky130_fd_sc_hd__mux2_1
*I *1610:Q O *D sky130_fd_sc_hd__dlxtp_1
*CAP
1 *1467:S 0.000409384
2 *1610:Q 0.000409384
3 *1467:S *1482:A0 0.000458425
4 *1467:S *1492:A1 0.000102789
5 *1467:S *1747:A 4.78726e-05
6 *1467:S *1989:A 9.51146e-06
7 *1467:S *515:48 3.43923e-05
8 *1467:S *543:24 4.66108e-05
9 *1467:S *620:42 4.08514e-05
10 *1467:S *625:34 0.000119212
11 *1467:S *677:30 1.91051e-05
12 *270:16 *1467:S 6.81971e-05
13 *270:30 *1467:S 5.92535e-05
*RES
1 *1610:Q *1467:S 15.6 
*END

*D_NET *298 0.000603996
*CONN
*I *1466:S I *D sky130_fd_sc_hd__mux2_1
*I *1611:Q O *D sky130_fd_sc_hd__dlxtp_1
*CAP
1 *1466:S 0.000217949
2 *1611:Q 0.000217949
3 *1466:S *1639:D 4.75959e-05
4 *1466:S *1922:A 1.7532e-05
5 *1466:S *1949:A 0.00010297
*RES
1 *1611:Q *1466:S 10.185 
*END

*D_NET *299 0.000444548
*CONN
*I *1465:S I *D sky130_fd_sc_hd__mux2_1
*I *1612:Q O *D sky130_fd_sc_hd__dlxtp_1
*CAP
1 *1465:S 9.37955e-05
2 *1612:Q 9.37955e-05
3 *1465:S *1460:A0 2.49909e-05
4 *1465:S *1465:A0 2.98807e-05
5 *1465:S *1524:A1 2.49909e-05
6 *1465:S *1999:A 4.43197e-05
7 *1465:S *587:147 5.83121e-06
8 *1856:A *1465:S 0.000126944
*RES
1 *1612:Q *1465:S 9.285 
*END

*D_NET *300 0.000537769
*CONN
*I *1464:S I *D sky130_fd_sc_hd__mux2_1
*I *1613:Q O *D sky130_fd_sc_hd__dlxtp_1
*CAP
1 *1464:S 9.7421e-05
2 *1613:Q 9.7421e-05
3 *1464:S *1519:A1 0.00023371
4 *1464:S *1523:A1 1.55649e-05
5 *1464:S *586:93 9.36526e-05
*RES
1 *1613:Q *1464:S 6.08 
*END

*D_NET *301 0.000219698
*CONN
*I *1463:S I *D sky130_fd_sc_hd__mux2_1
*I *1614:Q O *D sky130_fd_sc_hd__dlxtp_1
*CAP
1 *1463:S 5.53431e-05
2 *1614:Q 5.53431e-05
3 *1463:S *1463:A0 2.49909e-05
4 *1463:S *1614:GATE 0
5 *1463:S *686:28 8.40213e-05
*RES
1 *1614:Q *1463:S 4.355 
*END

*D_NET *302 0.000769181
*CONN
*I *1462:S I *D sky130_fd_sc_hd__mux2_1
*I *1615:Q O *D sky130_fd_sc_hd__dlxtp_1
*CAP
1 *1462:S 0.000252616
2 *1615:Q 0.000252616
3 *1462:S *1451:A0 3.95409e-05
4 *1462:S *1458:A0 0.000108669
5 *1462:S *660:36 2.76356e-05
6 *1462:S *686:28 8.81023e-05
*RES
1 *1615:Q *1462:S 10.755 
*END

*D_NET *303 0.000207554
*CONN
*I *1461:S I *D sky130_fd_sc_hd__mux2_1
*I *1616:Q O *D sky130_fd_sc_hd__dlxtp_1
*CAP
1 *1461:S 4.34469e-05
2 *1616:Q 4.34469e-05
3 *1461:S *1524:A0 9.5929e-05
4 *1461:S *1972:A 2.47313e-05
*RES
1 *1616:Q *1461:S 4.355 
*END

*D_NET *304 0.000477372
*CONN
*I *1460:S I *D sky130_fd_sc_hd__mux2_1
*I *1617:Q O *D sky130_fd_sc_hd__dlxtp_1
*CAP
1 *1460:S 0.000129515
2 *1617:Q 0.000129515
3 *1460:S *1991:A 0.000126054
4 *1460:S *1994:A 4.45127e-05
5 *1460:S *587:147 4.77757e-05
*RES
1 *1617:Q *1460:S 9.375 
*END

*D_NET *305 0.00051498
*CONN
*I *1459:S I *D sky130_fd_sc_hd__mux2_1
*I *1618:Q O *D sky130_fd_sc_hd__dlxtp_1
*CAP
1 *1459:S 0.000164723
2 *1618:Q 0.000164723
3 *1459:S *696:DIODE 2.39856e-05
4 *1459:S *1459:A0 0.000113255
5 *1459:S *1755:A 4.82919e-05
*RES
1 *1618:Q *1459:S 6.08 
*END

*D_NET *306 0.00149102
*CONN
*I *1482:S1 I *D sky130_fd_sc_hd__mux4_1
*I *1592:Q O *D sky130_fd_sc_hd__dlxtp_1
*CAP
1 *1482:S1 0.000379429
2 *1592:Q 0.000379429
3 *1482:S1 *1456:A0 0
4 *1482:S1 *1642:D 0.000153811
5 *1482:S1 *474:20 0.00022707
6 *1482:S1 *547:24 0.000338992
7 *1482:S1 *619:50 0
8 *1482:S1 *627:124 1.22885e-05
*RES
1 *1592:Q *1482:S1 14.535 
*END

*D_NET *307 0.0012384
*CONN
*I *1458:S I *D sky130_fd_sc_hd__mux2_1
*I *1619:Q O *D sky130_fd_sc_hd__dlxtp_1
*CAP
1 *1458:S 0.000271223
2 *1619:Q 0.000271223
3 *1458:S *1458:A1 0.000281771
4 *1458:S *1480:A1 0.000228455
5 *1458:S *579:84 5.33085e-05
6 *1458:S *613:44 4.66826e-05
7 *1458:S *613:51 8.57321e-05
*RES
1 *1619:Q *1458:S 12.795 
*END

*D_NET *308 0.000357143
*CONN
*I *1457:S I *D sky130_fd_sc_hd__mux2_1
*I *1620:Q O *D sky130_fd_sc_hd__dlxtp_1
*CAP
1 *1457:S 4.86709e-05
2 *1620:Q 4.86709e-05
3 *1457:S *1711:A 9.66021e-05
4 *1457:S *489:46 0.000163199
*RES
1 *1620:Q *1457:S 5.045 
*END

*D_NET *309 0.000738785
*CONN
*I *1481:S0 I *D sky130_fd_sc_hd__mux4_1
*I *1593:Q O *D sky130_fd_sc_hd__dlxtp_1
*CAP
1 *1481:S0 6.23448e-05
2 *1593:Q 6.23448e-05
3 *1481:S0 *537:52 0.000306155
4 *1481:S0 *580:95 0.00030794
*RES
1 *1593:Q *1481:S0 6.065 
*END

*D_NET *310 0.000876072
*CONN
*I *1481:S1 I *D sky130_fd_sc_hd__mux4_1
*I *1594:Q O *D sky130_fd_sc_hd__dlxtp_1
*CAP
1 *1481:S1 0.000210338
2 *1594:Q 0.000210338
3 *1481:S1 *559:48 0.000233276
4 N4BEG[12] *1481:S1 0.00011106
5 N4BEG[14] *1481:S1 0.00011106
*RES
1 *1594:Q *1481:S1 10.755 
*END

*D_NET *311 0.00125157
*CONN
*I *1480:S0 I *D sky130_fd_sc_hd__mux4_1
*I *1595:Q O *D sky130_fd_sc_hd__dlxtp_1
*CAP
1 *1480:S0 0.000317148
2 *1595:Q 0.000317148
3 *1480:S0 *1650:GATE 2.49909e-05
4 *1480:S0 *547:24 0.000256882
5 *1480:S0 *631:18 0.000255058
6 *1480:S0 *632:93 8.03466e-05
*RES
1 *1595:Q *1480:S0 12.885 
*END

*D_NET *312 0.00186522
*CONN
*I *1480:S1 I *D sky130_fd_sc_hd__mux4_1
*I *1596:Q O *D sky130_fd_sc_hd__dlxtp_1
*CAP
1 *1480:S1 0.000636495
2 *1596:Q 0.000636495
3 *1480:S1 *1468:A1 6.33103e-05
4 *1480:S1 *1480:A2 2.05864e-05
5 *1480:S1 *626:43 0.000421062
6 *1480:S1 *669:28 1.88218e-05
7 *1804:A *1480:S1 6.84448e-05
*RES
1 *1596:Q *1480:S1 16.14 
*END

*D_NET *313 0.00122343
*CONN
*I *1479:S0 I *D sky130_fd_sc_hd__mux4_1
*I *1597:Q O *D sky130_fd_sc_hd__dlxtp_1
*CAP
1 *1479:S0 0.000226082
2 *1597:Q 0.000226082
3 *1479:S0 *1479:A0 6.34018e-05
4 *1479:S0 *1479:A1 3.86479e-05
5 *1479:S0 *1978:A 0.000152504
6 *1479:S0 *1979:A 0.000113821
7 *1479:S0 *1988:A 0.000307411
8 *1479:S0 *551:30 6.6883e-05
9 *1479:S0 *617:28 2.85992e-05
*RES
1 *1597:Q *1479:S0 13.23 
*END

*D_NET *314 0.00266006
*CONN
*I *1479:S1 I *D sky130_fd_sc_hd__mux4_1
*I *1598:Q O *D sky130_fd_sc_hd__dlxtp_1
*CAP
1 *1479:S1 0.000547483
2 *1598:Q 0.000547483
3 *1479:S1 *1469:A1 0
4 *1479:S1 *1476:A0 0.000608298
5 *1479:S1 *1510:A 7.85951e-05
6 *1479:S1 *1545:A 1.75833e-05
7 *1479:S1 *1547:B1 0.000247237
8 *1479:S1 *1570:C1 2.05641e-05
9 *1479:S1 *1640:GATE 0.000119478
10 *1479:S1 *551:30 8.53109e-05
11 *1479:S1 *589:77 0.000172849
12 *1479:S1 *617:28 6.71803e-06
13 *1479:S1 *684:26 0.00020846
*RES
1 *1598:Q *1479:S1 15.2303 
*END

*D_NET *315 0.00445938
*CONN
*I *1501:B I *D sky130_fd_sc_hd__xnor2_1
*I *1587:Q O *D sky130_fd_sc_hd__dlxtp_1
*CAP
1 *1501:B 0.00117813
2 *1587:Q 0.00117813
3 *1501:B *1454:A0 4.66108e-05
4 *1501:B *1454:A1 0.000259255
5 *1501:B *1456:A0 0.000277291
6 *1501:B *1456:A1 0.000351262
7 *1501:B *1589:GATE 0.000151284
8 *1501:B *1760:A 2.20014e-05
9 *1501:B *1924:A 7.30969e-05
10 *1501:B *484:18 2.34083e-05
11 *1501:B *577:30 0.000375039
12 *1501:B *631:38 0.000233004
13 *1456:S *1501:B 2.30292e-05
14 *246:14 *1501:B 0.000267834
*RES
1 *1587:Q *1501:B 29.115 
*END

*D_NET *316 0.00539973
*CONN
*I *1504:B I *D sky130_fd_sc_hd__xnor2_1
*I *1588:Q O *D sky130_fd_sc_hd__dlxtp_1
*CAP
1 *1504:B 0.00111898
2 *1588:Q 0.00111898
3 *1504:B *1665:D 2.97004e-06
4 *1504:B *1758:A 8.65961e-05
5 *1504:B *449:34 1.91597e-05
6 *1504:B *570:24 5.34747e-05
7 *1504:B *570:35 1.61831e-05
8 *1504:B *579:72 0.000381082
9 *1504:B *614:46 0.000661289
10 *1504:B *619:50 0.000104325
11 *1504:B *635:12 0.00120539
12 *1502:B *1504:B 8.65194e-05
13 *1574:A2 *1504:B 3.69766e-05
14 *1574:B1 *1504:B 0.000198934
15 *1575:B *1504:B 0
16 *247:48 *1504:B 0.000163512
17 *248:37 *1504:B 0.000145355
*RES
1 *1588:Q *1504:B 32.79 
*END

*D_NET *317 0.000619869
*CONN
*I *1732:A I *D sky130_fd_sc_hd__buf_1
*I *1482:X O *D sky130_fd_sc_hd__mux4_1
*CAP
1 *1732:A 0.00014323
2 *1482:X 0.00014323
3 *1732:A *1456:A0 0.000150918
4 *1732:A *578:55 2.28686e-05
5 *1732:A *584:125 9.03508e-06
6 *67:15 *1732:A 0.000150588
*RES
1 *1482:X *1732:A 9.96 
*END

*D_NET *318 0.00120844
*CONN
*I *1733:A I *D sky130_fd_sc_hd__clkbuf_1
*I *1481:X O *D sky130_fd_sc_hd__mux4_1
*CAP
1 *1733:A 0.000216905
2 *1481:X 0.000216905
3 *1733:A *1777:A 0.00042718
4 *1733:A *1988:A 6.29831e-05
5 *1733:A *592:48 1.01643e-05
6 *1733:A *592:58 4.83522e-05
7 NN4BEG[0] *1733:A 0.000225955
*RES
1 *1481:X *1733:A 12.66 
*END

*D_NET *319 0.000676048
*CONN
*I *1734:A I *D sky130_fd_sc_hd__buf_1
*I *1480:X O *D sky130_fd_sc_hd__mux4_1
*CAP
1 *1734:A 0.000143209
2 *1480:X 0.000143209
3 *1734:A *1468:A1 0.000119762
4 *1734:A *1518:A0 9.39554e-05
5 *1734:A *1704:A 6.21165e-05
6 *1734:A *548:68 0.000113797
*RES
1 *1480:X *1734:A 10.485 
*END

*D_NET *320 0.00028258
*CONN
*I *1735:A I *D sky130_fd_sc_hd__clkbuf_1
*I *1479:X O *D sky130_fd_sc_hd__mux4_1
*CAP
1 *1735:A 1.47197e-05
2 *1479:X 1.47197e-05
3 *1735:A *1479:A0 0.00012657
4 *1735:A *585:128 0.00012657
*RES
1 *1479:X *1735:A 4.34 
*END

*D_NET *321 0.000557847
*CONN
*I *1736:A I *D sky130_fd_sc_hd__clkbuf_1
*I *1478:X O *D sky130_fd_sc_hd__mux2_1
*CAP
1 *1736:A 8.85891e-05
2 *1478:X 8.85891e-05
3 *1736:A *1984:A 0.000110431
4 *1736:A *592:48 0.000180396
5 *1736:A *616:26 6.80137e-05
6 *1531:S *1736:A 2.18287e-05
*RES
1 *1478:X *1736:A 9.72 
*END

*D_NET *322 0.00118181
*CONN
*I *1737:A I *D sky130_fd_sc_hd__clkbuf_1
*I *1477:X O *D sky130_fd_sc_hd__mux2_1
*CAP
1 *1737:A 0.000283761
2 *1477:X 0.000283761
3 *1737:A *1632:D 3.02686e-05
4 *1737:A *1632:GATE 0.000109786
5 *1737:A *1952:A 5.11729e-05
6 *1737:A *1957:A 0.000231127
7 *1737:A *462:20 4.82863e-05
8 *1737:A *559:48 1.88602e-05
9 *1737:A *592:48 0.00012479
*RES
1 *1477:X *1737:A 12.93 
*END

*D_NET *323 0.000567576
*CONN
*I *1738:A I *D sky130_fd_sc_hd__clkbuf_1
*I *1476:X O *D sky130_fd_sc_hd__mux2_1
*CAP
1 *1738:A 0.000171753
2 *1476:X 0.000171753
3 *1738:A *1476:A0 0
4 *1738:A *1601:D 0.000100139
5 *1738:A *1958:A 2.0514e-05
6 *1738:A *463:20 4.82863e-05
7 *1738:A *629:22 1.88602e-05
8 *1738:A *651:14 3.62718e-05
*RES
1 *1476:X *1738:A 10.32 
*END

*D_NET *324 0.00104221
*CONN
*I *1739:A I *D sky130_fd_sc_hd__clkbuf_1
*I *1475:X O *D sky130_fd_sc_hd__mux2_1
*CAP
1 *1739:A 0.000249306
2 *1475:X 0.000249306
3 *1739:A *1632:GATE 7.00914e-05
4 *1739:A *1952:A 0.000289683
5 *1739:A *464:56 2.49909e-05
6 *1739:A *618:18 0.000158838
*RES
1 *1475:X *1739:A 12.795 
*END

*D_NET *325 0.000331165
*CONN
*I *1740:A I *D sky130_fd_sc_hd__buf_1
*I *1474:X O *D sky130_fd_sc_hd__mux2_1
*CAP
1 *1740:A 6.34873e-05
2 *1474:X 6.34873e-05
3 *1740:A *527:12 4.92062e-05
4 *1740:A *684:42 0.000154984
*RES
1 *1474:X *1740:A 4.955 
*END

*D_NET *326 0.000387595
*CONN
*I *1741:A I *D sky130_fd_sc_hd__buf_1
*I *1473:X O *D sky130_fd_sc_hd__mux2_1
*CAP
1 *1741:A 0.000124938
2 *1473:X 0.000124938
3 *1741:A *1453:A0 0
4 *1741:A *649:30 1.52835e-05
5 *271:28 *1741:A 0.000122435
*RES
1 *1473:X *1741:A 8.955 
*END

*D_NET *327 0.00107517
*CONN
*I *1742:A I *D sky130_fd_sc_hd__buf_1
*I *1472:X O *D sky130_fd_sc_hd__mux2_1
*CAP
1 *1742:A 0.000213101
2 *1472:X 0.000213101
3 *1742:A *1472:A0 0.000149341
4 *1742:A *1605:D 0.000122325
5 *1742:A *1605:GATE 2.49909e-05
6 *1742:A *509:32 0.000352312
*RES
1 *1472:X *1742:A 8.51 
*END

*D_NET *328 0.00217576
*CONN
*I *1743:A I *D sky130_fd_sc_hd__clkbuf_1
*I *1471:X O *D sky130_fd_sc_hd__mux2_1
*CAP
1 *1743:A 0.000314386
2 *1471:X 0.000314386
3 *1743:A *1476:A0 7.96104e-06
4 *1743:A *1539:A 9.90437e-05
5 *1743:A *2000:A 0.000126786
6 *1743:A *2002:A 0.000412863
7 *1743:A *578:32 4.82919e-05
8 *1743:A *589:120 0.000233015
9 *1743:A *627:34 0.000466115
10 *229:14 *1743:A 0.00015291
*RES
1 *1471:X *1743:A 16.41 
*END

*D_NET *329 0.00181513
*CONN
*I *1744:A I *D sky130_fd_sc_hd__buf_1
*I *1470:X O *D sky130_fd_sc_hd__mux2_1
*CAP
1 *1744:A 0.000338553
2 *1470:X 0.000338553
3 *1744:A *1451:A1 1.48335e-05
4 *1744:A *1517:A0 1.7635e-05
5 *1744:A *1607:GATE 7.9642e-06
6 *1744:A *1913:A 1.7635e-05
7 *1744:A *2000:A 0.000621474
8 *1744:A *415:32 3.56986e-05
9 *1744:A *531:50 4.48373e-06
10 *1744:A *652:28 4.82863e-05
11 *1744:A *662:22 0.000269386
12 *1744:A *684:26 2.65028e-05
13 *1744:A *684:42 7.41253e-05
*RES
1 *1470:X *1744:A 11.0453 
*END

*D_NET *330 0.000277816
*CONN
*I *1745:A I *D sky130_fd_sc_hd__clkbuf_1
*I *1469:X O *D sky130_fd_sc_hd__mux2_1
*CAP
1 *1745:A 7.12751e-05
2 *1469:X 7.12751e-05
3 *1745:A *1953:A 0.000135265
*RES
1 *1469:X *1745:A 4.61 
*END

*D_NET *331 0.000455714
*CONN
*I *1746:A I *D sky130_fd_sc_hd__buf_1
*I *1468:X O *D sky130_fd_sc_hd__mux2_1
*CAP
1 *1746:A 5.83366e-05
2 *1468:X 5.83366e-05
3 *1746:A *1519:A1 4.66108e-05
4 *1746:A *1521:A0 3.42142e-05
5 *1746:A *1523:A1 4.66108e-05
6 *1746:A *1933:A 7.47284e-05
7 *1746:A *1935:A 0.000136877
*RES
1 *1468:X *1746:A 9.285 
*END

*D_NET *332 0.000982486
*CONN
*I *1747:A I *D sky130_fd_sc_hd__buf_1
*I *1467:X O *D sky130_fd_sc_hd__mux2_1
*CAP
1 *1747:A 0.00016763
2 *1467:X 0.00016763
3 *1747:A *1489:A1 0.000153816
4 *1747:A *1492:A1 4.78726e-05
5 *1747:A *1530:A0 9.33998e-05
6 *1747:A *563:34 0.000131476
7 *1747:A *625:34 8.23457e-05
8 *1747:A *675:42 9.0444e-05
9 *1467:S *1747:A 4.78726e-05
*RES
1 *1467:X *1747:A 15.22 
*END

*D_NET *333 0.000885365
*CONN
*I *1748:A I *D sky130_fd_sc_hd__buf_1
*I *1466:X O *D sky130_fd_sc_hd__mux2_1
*CAP
1 *1748:A 0.000147756
2 *1466:X 0.000147756
3 *1748:A *1939:A 0.00016993
4 *1748:A *1949:A 4.25982e-05
5 *1748:A *2022:A 0.000123225
6 *1748:A *490:36 7.10578e-05
7 *1748:A *491:38 0.000183043
*RES
1 *1466:X *1748:A 12.015 
*END

*D_NET *334 0.000192211
*CONN
*I *1749:A I *D sky130_fd_sc_hd__clkbuf_1
*I *1465:X O *D sky130_fd_sc_hd__mux2_1
*CAP
1 *1749:A 5.1807e-05
2 *1465:X 5.1807e-05
3 *1749:A *1969:A 1.10085e-05
4 *1749:A *1991:A 4.66108e-05
5 *1749:A *587:147 3.09774e-05
*RES
1 *1465:X *1749:A 4.265 
*END

*D_NET *335 0.000471457
*CONN
*I *1750:A I *D sky130_fd_sc_hd__buf_1
*I *1464:X O *D sky130_fd_sc_hd__mux2_1
*CAP
1 *1750:A 0.000112527
2 *1464:X 0.000112527
3 *1750:A *1650:GATE 0.000120655
4 *1750:A *538:40 7.23533e-05
5 *1750:A *632:106 5.33945e-05
6 *1750:A *687:26 0
7 *1515:S *1750:A 0
*RES
1 *1464:X *1750:A 9.72 
*END

*D_NET *336 0.000324683
*CONN
*I *1751:A I *D sky130_fd_sc_hd__clkbuf_1
*I *1463:X O *D sky130_fd_sc_hd__mux2_1
*CAP
1 *1751:A 5.95681e-05
2 *1463:X 5.95681e-05
3 *1751:A *686:28 3.23663e-05
4 *1869:A *1751:A 4.82863e-05
5 *229:101 *1751:A 0.000124895
*RES
1 *1463:X *1751:A 4.955 
*END

*D_NET *337 0.00120846
*CONN
*I *1752:A I *D sky130_fd_sc_hd__buf_1
*I *1462:X O *D sky130_fd_sc_hd__mux2_1
*CAP
1 *1752:A 0.000276861
2 *1462:X 0.000276861
3 *1752:A *1459:A0 0.000272852
4 *1752:A *1462:A0 1.95873e-05
5 *1752:A *1529:A0 6.83447e-05
6 *1752:A *1626:D 4.78726e-05
7 *1752:A *547:24 5.48487e-05
8 *1752:A *686:28 0.000191232
*RES
1 *1462:X *1752:A 12.45 
*END

*D_NET *338 0.000499773
*CONN
*I *1753:A I *D sky130_fd_sc_hd__buf_1
*I *1461:X O *D sky130_fd_sc_hd__mux2_1
*CAP
1 *1753:A 0.000153931
2 *1461:X 0.000153931
3 *1753:A *1524:A0 5.28702e-05
4 *1753:A *1972:A 1.83847e-05
5 *1753:A *547:24 0.000120655
*RES
1 *1461:X *1753:A 6.095 
*END

*D_NET *339 0.000515134
*CONN
*I *1762:A I *D sky130_fd_sc_hd__clkbuf_1
*I *1452:X O *D sky130_fd_sc_hd__mux2_1
*CAP
1 *1762:A 0.000161883
2 *1452:X 0.000161883
3 *1762:A *1973:A 3.37834e-05
4 *1762:A *592:48 0.000106377
5 N2BEGb[6] *1762:A 2.44572e-05
6 N4BEG[10] *1762:A 2.67503e-05
*RES
1 *1452:X *1762:A 9.63 
*END

*D_NET *340 0.000295889
*CONN
*I *1763:A I *D sky130_fd_sc_hd__buf_1
*I *1451:X O *D sky130_fd_sc_hd__mux2_1
*CAP
1 *1763:A 6.8275e-05
2 *1451:X 6.8275e-05
3 *1763:A *1519:A0 4.99619e-05
4 *1763:A *1529:A0 7.29226e-05
5 *1763:A *1974:A 3.64549e-05
*RES
1 *1451:X *1763:A 4.955 
*END

*D_NET *341 0.000358144
*CONN
*I *1764:A I *D sky130_fd_sc_hd__buf_1
*I *1533:X O *D sky130_fd_sc_hd__mux2_1
*CAP
1 *1764:A 9.71966e-05
2 *1533:X 9.71966e-05
3 *1764:A *1458:A0 0.000113372
4 *1764:A *1483:A1 3.53918e-05
5 *1764:A *491:38 3.59531e-06
6 *1764:A *626:43 1.1392e-05
*RES
1 *1533:X *1764:A 9.03 
*END

*D_NET *342 0.00161252
*CONN
*I *1765:A I *D sky130_fd_sc_hd__clkbuf_1
*I *1532:X O *D sky130_fd_sc_hd__mux2_1
*CAP
1 *1765:A 0.000331137
2 *1532:X 0.000331137
3 *1765:A *1456:A1 0.000116361
4 *1765:A *1493:B1 3.3755e-05
5 *1765:A *1979:A 0
6 *1765:A *2026:A 0.000141437
7 *1765:A *515:48 0.000102929
8 *1765:A *590:95 0.00017036
9 *1765:A *638:34 4.97182e-05
10 *1765:A *675:42 7.68904e-05
11 *270:30 *1765:A 0.0002588
*RES
1 *1532:X *1765:A 13.4026 
*END

*D_NET *343 0.000959611
*CONN
*I *1766:A I *D sky130_fd_sc_hd__clkbuf_1
*I *1531:X O *D sky130_fd_sc_hd__mux2_1
*CAP
1 *1766:A 0.000197361
2 *1531:X 0.000197361
3 *1766:A *1599:GATE 4.52133e-05
4 *1766:A *1956:A 0.000106377
5 *1766:A *1965:A 8.73147e-06
6 *1766:A *1967:A 2.49909e-05
7 *1766:A *521:38 3.09179e-05
8 *1766:A *530:30 0.000244048
9 *1766:A *537:26 3.1562e-06
10 *1766:A *625:140 2.05056e-05
11 *1766:A *625:154 8.09482e-05
*RES
1 *1531:X *1766:A 11.655 
*END

*D_NET *344 0.000753865
*CONN
*I *1767:A I *D sky130_fd_sc_hd__clkbuf_1
*I *1530:X O *D sky130_fd_sc_hd__mux2_1
*CAP
1 *1767:A 0.000208452
2 *1530:X 0.000208452
3 *1767:A *1527:A1 4.82919e-05
4 *1767:A *1965:A 7.73914e-05
5 *1767:A *1984:A 9.9136e-05
6 *1767:A *1986:A 0
7 *1767:A *634:26 0.000112143
*RES
1 *1530:X *1767:A 11.325 
*END

*D_NET *345 0.00219621
*CONN
*I *1754:A I *D sky130_fd_sc_hd__clkbuf_1
*I *1460:X O *D sky130_fd_sc_hd__mux2_1
*CAP
1 *1754:A 0.000464034
2 *1460:X 0.000464034
3 *1754:A *1649:GATE 7.9642e-06
4 *1754:A *1969:A 5.17372e-05
5 *1754:A *1997:A 3.58815e-05
6 *1754:A *1999:A 4.77719e-05
7 *1754:A *2001:A 0.000119246
8 *1754:A *537:52 0.000183322
9 *1754:A *559:48 0.000340164
10 *1754:A *655:42 0.000203552
11 *1754:A *682:50 0.000113832
12 Co *1754:A 5.24337e-05
13 NN4BEG[3] *1754:A 2.35892e-05
14 NN4BEG[7] *1754:A 8.53113e-06
15 NN4BEG[8] *1754:A 4.77757e-05
16 NN4BEG[9] *1754:A 3.23391e-05
*RES
1 *1460:X *1754:A 16.965 
*END

*D_NET *346 0.000596721
*CONN
*I *1755:A I *D sky130_fd_sc_hd__buf_1
*I *1459:X O *D sky130_fd_sc_hd__mux2_1
*CAP
1 *1755:A 0.000213088
2 *1459:X 0.000213088
3 *1755:A *1459:A0 4.13375e-05
4 *1755:A *1920:A 5.67403e-05
5 *1755:A *1922:A 1.7195e-05
6 *1755:A *1944:A 0
7 *1755:A *1949:A 6.98011e-06
8 *1459:S *1755:A 4.82919e-05
*RES
1 *1459:X *1755:A 10.32 
*END

*D_NET *347 0.000790621
*CONN
*I *1756:A I *D sky130_fd_sc_hd__buf_1
*I *1458:X O *D sky130_fd_sc_hd__mux2_1
*CAP
1 *1756:A 0.000228519
2 *1458:X 0.000228519
3 *1756:A *1714:A 3.14002e-05
4 *1756:A *518:24 0
5 *1756:A *636:10 0.000104132
6 *1717:A *1756:A 0.000198051
*RES
1 *1458:X *1756:A 10.665 
*END

*D_NET *348 0.000283244
*CONN
*I *1757:A I *D sky130_fd_sc_hd__buf_1
*I *1457:X O *D sky130_fd_sc_hd__mux2_1
*CAP
1 *1757:A 9.02352e-05
2 *1457:X 9.02352e-05
3 *1757:A *1519:A1 8.65905e-05
4 *1757:A *489:46 1.61831e-05
*RES
1 *1457:X *1757:A 4.955 
*END

*D_NET *349 0.000430527
*CONN
*I *1758:A I *D sky130_fd_sc_hd__buf_1
*I *1456:X O *D sky130_fd_sc_hd__mux2_1
*CAP
1 *1758:A 9.58858e-05
2 *1456:X 9.58858e-05
3 *1758:A *1760:A 0
4 *1758:A *613:44 9.39388e-06
5 *1758:A *614:40 9.44791e-05
6 *1758:A *614:46 4.82863e-05
7 *1504:B *1758:A 8.65961e-05
*RES
1 *1456:X *1758:A 9.375 
*END

*D_NET *350 0.000704295
*CONN
*I *1759:A I *D sky130_fd_sc_hd__clkbuf_1
*I *1455:X O *D sky130_fd_sc_hd__mux2_1
*CAP
1 *1759:A 0.000214008
2 *1455:X 0.000214008
3 *1759:A *457:12 0.000122325
4 *1759:A *457:14 4.35432e-05
5 *1759:A *548:68 0.00011041
6 *1759:A *578:18 0
*RES
1 *1455:X *1759:A 10.41 
*END

*D_NET *351 0.000470195
*CONN
*I *1760:A I *D sky130_fd_sc_hd__buf_1
*I *1454:X O *D sky130_fd_sc_hd__mux2_1
*CAP
1 *1760:A 0.000181452
2 *1454:X 0.000181452
3 *1760:A *1456:A0 8.52883e-05
4 *1760:A *619:50 0
5 *1501:B *1760:A 2.20014e-05
6 *1758:A *1760:A 0
*RES
1 *1454:X *1760:A 9.72 
*END

*D_NET *352 0.000472787
*CONN
*I *1761:A I *D sky130_fd_sc_hd__buf_1
*I *1453:X O *D sky130_fd_sc_hd__mux2_1
*CAP
1 *1761:A 0.00011237
2 *1453:X 0.00011237
3 *1761:A *1799:A 5.0651e-05
4 *1761:A *1924:A 0.000113373
5 *1761:A *581:108 8.40213e-05
*RES
1 *1453:X *1761:A 9.375 
*END

*D_NET *353 0.000427452
*CONN
*I *1768:A I *D sky130_fd_sc_hd__clkbuf_1
*I *1529:X O *D sky130_fd_sc_hd__mux2_1
*CAP
1 *1768:A 7.70484e-05
2 *1529:X 7.70484e-05
3 *1768:A *1529:A1 0.000113372
4 *1768:A *585:89 4.66108e-05
5 *1768:A *616:26 0.000113372
*RES
1 *1529:X *1768:A 9.03 
*END

*D_NET *354 0.000779894
*CONN
*I *1769:A I *D sky130_fd_sc_hd__clkbuf_1
*I *1528:X O *D sky130_fd_sc_hd__mux2_1
*CAP
1 *1769:A 0.000332102
2 *1528:X 0.000332102
3 *1769:A *1477:A0 3.85204e-05
4 *1769:A *1995:A 3.32631e-05
5 *1769:A *462:20 0
6 *1769:A *537:26 8.88523e-06
7 *1769:A *587:46 0
8 *1769:A *592:48 1.7635e-05
9 *1528:S *1769:A 1.7386e-05
*RES
1 *1528:X *1769:A 12.015 
*END

*D_NET *355 0.000582547
*CONN
*I *1778:A I *D sky130_fd_sc_hd__buf_1
*I *1519:X O *D sky130_fd_sc_hd__mux2_1
*CAP
1 *1778:A 7.99183e-05
2 *1519:X 7.99183e-05
3 *1778:A *696:DIODE 0.000122337
4 *1778:A *1911:A 0.000122337
5 *1778:A *527:12 6.02123e-05
6 *1778:A *625:222 0.000117825
*RES
1 *1519:X *1778:A 9.72 
*END

*D_NET *356 0.000369808
*CONN
*I *1779:A I *D sky130_fd_sc_hd__buf_1
*I *1518:X O *D sky130_fd_sc_hd__mux2_1
*CAP
1 *1779:A 0.000139796
2 *1518:X 0.000139796
3 *1779:A *1470:A1 4.02544e-05
4 *1779:A *560:24 4.99619e-05
*RES
1 *1518:X *1779:A 5.21 
*END

*D_NET *357 0.000525459
*CONN
*I *1780:A I *D sky130_fd_sc_hd__buf_1
*I *1517:X O *D sky130_fd_sc_hd__mux2_1
*CAP
1 *1780:A 0.000110579
2 *1517:X 0.000110579
3 *1780:A *1472:A0 4.91952e-05
4 *1780:A *1607:D 8.53113e-06
5 *1780:A *1991:A 5.83121e-06
6 *1780:A *486:26 0.000134134
7 *1780:A *645:34 0.00010661
*RES
1 *1517:X *1780:A 9.63 
*END

*D_NET *358 0.0015292
*CONN
*I *1781:A I *D sky130_fd_sc_hd__clkbuf_1
*I *1516:X O *D sky130_fd_sc_hd__mux2_1
*CAP
1 *1781:A 0.000353508
2 *1516:X 0.000353508
3 *1781:A *1490:A_N 8.52883e-05
4 *1781:A *543:24 0.000246935
5 *1781:A *650:16 1.14169e-05
6 *1450:A *1781:A 0.000331502
7 *229:33 *1781:A 1.2321e-06
8 *272:10 *1781:A 0.000145811
*RES
1 *1516:X *1781:A 13.485 
*END

*D_NET *359 0.00057122
*CONN
*I *1782:A I *D sky130_fd_sc_hd__buf_1
*I *1515:X O *D sky130_fd_sc_hd__mux2_1
*CAP
1 *1782:A 0.00010981
2 *1515:X 0.00010981
3 *1782:A *1468:A1 8.57024e-05
4 *1782:A *1607:GATE 0.000111543
5 *1782:A *1797:A 2.05722e-05
6 *1782:A *474:20 0.000133782
*RES
1 *1515:X *1782:A 9.63 
*END

*D_NET *360 0.00222135
*CONN
*I *1783:A I *D sky130_fd_sc_hd__clkbuf_1
*I *1514:X O *D sky130_fd_sc_hd__mux2_1
*CAP
1 *1783:A 0.000798962
2 *1514:X 0.000798962
3 *1783:A *1489:A1 4.25093e-05
4 *1783:A *1489:A2 0.000101877
5 *1783:A *1493:B1 0.000190712
6 *1783:A *1494:B1 1.04898e-05
7 *1783:A *2003:A 0
8 *1783:A *632:40 0.000122337
9 *1783:A *648:38 5.98222e-05
10 *1853:A *1783:A 8.7152e-06
11 *271:45 *1783:A 6.72196e-05
12 *272:10 *1783:A 1.97442e-05
*RES
1 *1514:X *1783:A 17.31 
*END

*D_NET *361 0.00024123
*CONN
*I *1770:A I *D sky130_fd_sc_hd__clkbuf_1
*I *1527:X O *D sky130_fd_sc_hd__mux2_1
*CAP
1 *1770:A 0.000107918
2 *1527:X 0.000107918
3 *1770:A *1958:A 7.00889e-06
4 *1770:A *1996:A 1.83847e-05
5 *1527:S *1770:A 0
*RES
1 *1527:X *1770:A 4.955 
*END

*D_NET *362 0.000559639
*CONN
*I *1771:A I *D sky130_fd_sc_hd__clkbuf_1
*I *1526:X O *D sky130_fd_sc_hd__mux2_1
*CAP
1 *1771:A 0.000161817
2 *1526:X 0.000161817
3 *1771:A *1997:A 3.98602e-05
4 *1771:A *462:20 0
5 *1771:A *504:26 0.00012657
6 *1771:A *587:46 0
7 *1526:S *1771:A 6.95753e-05
*RES
1 *1526:X *1771:A 9.975 
*END

*D_NET *363 0.000302842
*CONN
*I *1772:A I *D sky130_fd_sc_hd__buf_1
*I *1525:X O *D sky130_fd_sc_hd__mux2_1
*CAP
1 *1772:A 8.8971e-05
2 *1525:X 8.8971e-05
3 *1772:A *699:DIODE 0.0001249
*RES
1 *1525:X *1772:A 4.955 
*END

*D_NET *364 0.000312138
*CONN
*I *1773:A I *D sky130_fd_sc_hd__clkbuf_1
*I *1524:X O *D sky130_fd_sc_hd__mux2_1
*CAP
1 *1773:A 8.2293e-05
2 *1524:X 8.2293e-05
3 *1773:A *1999:A 1.56428e-05
4 *1773:A *648:38 7.00889e-06
5 *1862:A *1773:A 0.0001249
*RES
1 *1524:X *1773:A 4.955 
*END

*D_NET *365 0.000537602
*CONN
*I *1774:A I *D sky130_fd_sc_hd__buf_1
*I *1523:X O *D sky130_fd_sc_hd__mux2_1
*CAP
1 *1774:A 0.000178674
2 *1523:X 0.000178674
3 *1774:A *1937:A 0.000140912
4 *1774:A *2022:A 5.18317e-06
5 *1523:S *1774:A 3.41598e-05
*RES
1 *1523:X *1774:A 9.975 
*END

*D_NET *366 0.000434204
*CONN
*I *1775:A I *D sky130_fd_sc_hd__clkbuf_1
*I *1522:X O *D sky130_fd_sc_hd__mux2_1
*CAP
1 *1775:A 8.16098e-05
2 *1522:X 8.16098e-05
3 *1775:A *2001:A 8.7152e-06
4 *1775:A *421:10 1.58201e-05
5 *1775:A *585:137 0.000123225
6 *1775:A *638:34 0.000123225
*RES
1 *1522:X *1775:A 9.21 
*END

*D_NET *367 0.000321802
*CONN
*I *1776:A I *D sky130_fd_sc_hd__buf_1
*I *1521:X O *D sky130_fd_sc_hd__mux2_1
*CAP
1 *1776:A 9.40392e-05
2 *1521:X 9.40392e-05
3 *1776:A *1928:A 0.000118081
4 *1776:A *574:28 1.56428e-05
*RES
1 *1521:X *1776:A 4.955 
*END

*D_NET *368 0.00108748
*CONN
*I *1777:A I *D sky130_fd_sc_hd__clkbuf_1
*I *1520:X O *D sky130_fd_sc_hd__mux2_1
*CAP
1 *1777:A 0.00028169
2 *1520:X 0.00028169
3 NN4BEG[5] *1777:A 2.97032e-05
4 *1520:S *1777:A 6.72196e-05
5 *1733:A *1777:A 0.00042718
*RES
1 *1520:X *1777:A 12.66 
*END

*D_NET *369 0.000530796
*CONN
*I *1786:A I *D sky130_fd_sc_hd__clkbuf_16
*I *1792:X O *D sky130_fd_sc_hd__clkbuf_16
*CAP
1 *1786:A 0.000129237
2 *1792:X 0.000129237
3 *1786:A *1499:A 9.044e-05
4 *1786:A *1499:C 0
5 *1786:A *1546:B 4.76682e-05
6 *1786:A *624:14 8.64421e-05
7 *1796:A *1786:A 4.77719e-05
*RES
1 *1792:X *1786:A 9.57 
*END

*D_NET *370 0.00146792
*CONN
*I *1584:D I *D sky130_fd_sc_hd__dfxtp_1
*I *1495:X O *D sky130_fd_sc_hd__and3_1
*CAP
1 *1584:D 0.000319924
2 *1495:X 0.000319924
3 *1584:D *1495:B 0.000291803
4 *1584:D *1509:A2 0.000171771
5 *1584:D *2000:A 0.000201297
6 *1584:D *528:24 0
7 *1584:D *615:22 0.000163204
8 *1820:A *1584:D 0
*RES
1 *1495:X *1584:D 14.8088 
*END

*D_NET *371 0.00119099
*CONN
*I *1585:D I *D sky130_fd_sc_hd__dfxtp_2
*I *1500:X O *D sky130_fd_sc_hd__and3_1
*CAP
1 *1585:D 0.000278308
2 *1500:X 0.000278308
3 *1585:D *1447:A 5.01066e-05
4 *1585:D *1500:C 4.98968e-05
5 *1585:D *1511:A2 1.88218e-05
6 *1585:D *1664:D 1.08994e-05
7 *1585:D *2008:A 0.000292518
8 *1585:D *406:18 8.76863e-05
9 *1585:D *425:18 2.02106e-05
10 *1585:D *436:24 6.75047e-05
11 *1585:D *538:40 1.90973e-05
12 *1585:D *580:18 1.7635e-05
*RES
1 *1500:X *1585:D 12.8888 
*END

*D_NET *372 0.00191393
*CONN
*I *1586:D I *D sky130_fd_sc_hd__dfxtp_1
*I *1506:X O *D sky130_fd_sc_hd__and3_1
*CAP
1 *1586:D 0.000350492
2 *1506:X 0.000350492
3 *1586:D *1447:A 9.99245e-05
4 *1586:D *1506:C 1.98144e-05
5 *1586:D *1590:GATE 0.000230626
6 *1586:D *2004:A 4.82863e-05
7 *1586:D *415:44 0.000384698
8 *1586:D *631:71 0.000234722
9 *1506:A *1586:D 0.000120655
10 *234:10 *1586:D 7.42225e-05
*RES
1 *1506:X *1586:D 11.7388 
*END

*D_NET *373 0.000641857
*CONN
*I *1581:D I *D sky130_fd_sc_hd__dfxtp_1
*I *1509:Y O *D sky130_fd_sc_hd__o211ai_1
*CAP
1 *1581:D 0.000184341
2 *1509:Y 0.000184341
3 *1581:D *1539:A 1.43717e-05
4 *1581:D *1581:CLK 5.15745e-05
5 *1581:D *1617:GATE 0.000183177
6 *1581:D *589:120 1.43717e-05
7 *1581:D *673:28 9.68083e-06
8 *1471:S *1581:D 0
*RES
1 *1509:Y *1581:D 10.5037 
*END

*D_NET *374 0.00119976
*CONN
*I *1582:D I *D sky130_fd_sc_hd__dfxtp_1
*I *1511:X O *D sky130_fd_sc_hd__o21a_1
*CAP
1 *1582:D 0.000313544
2 *1511:X 0.000313544
3 *1582:D *1545:A 6.76938e-05
4 *1582:D *1570:A1 3.96653e-05
5 *1582:D *1570:C1 0.00015297
6 *1582:D *1582:CLK 0.000253738
7 *1582:D *1664:D 4.66108e-05
8 *1582:D *376:12 0
9 *1582:D *436:24 1.19928e-05
*RES
1 *1511:X *1582:D 13.155 
*END

*D_NET *375 0.000498131
*CONN
*I *1583:D I *D sky130_fd_sc_hd__dfxtp_1
*I *1508:X O *D sky130_fd_sc_hd__o21a_1
*CAP
1 *1583:D 0.000136551
2 *1508:X 0.000136551
3 *1583:D *528:24 6.37091e-05
4 *1583:D *538:40 2.37118e-05
5 *1583:D *568:52 8.59924e-05
6 *1583:D *581:108 5.16161e-05
*RES
1 *1508:X *1583:D 10.0087 
*END

*D_NET *376 0.00751439
*CONN
*I *1510:A I *D sky130_fd_sc_hd__nor2_1
*I *1534:A I *D sky130_fd_sc_hd__nor2_1
*I *1537:A I *D sky130_fd_sc_hd__nor2_1
*I *1535:A1 I *D sky130_fd_sc_hd__o31a_1
*I *1653:D I *D sky130_fd_sc_hd__dfxtp_1
*I *1444:Y O *D sky130_fd_sc_hd__inv_2
*CAP
1 *1510:A 0.000170389
2 *1534:A 0.000152927
3 *1537:A 0.000376089
4 *1535:A1 7.76463e-06
5 *1653:D 6.35301e-05
6 *1444:Y 0.000610575
7 *376:40 0.000529016
8 *376:38 0.000253889
9 *376:27 0.000350018
10 *376:12 0.000932858
11 *1510:A *1545:A 3.23239e-05
12 *1510:A *1545:B 0.00011232
13 *1510:A *1547:B1 1.74629e-05
14 *1510:A *1664:CLK 2.10582e-05
15 *1510:A *460:20 4.82919e-05
16 *1510:A *589:120 1.07628e-05
17 *1534:A *1539:A 0
18 *1534:A *1664:D 0.000120655
19 *1534:A *589:120 1.19928e-05
20 *1535:A1 *1535:A3 4.99619e-05
21 *1535:A1 *403:12 4.82919e-05
22 *1537:A *1537:B 4.82863e-05
23 *1537:A *1545:A 0.000210142
24 *1537:A *1569:B 3.4026e-05
25 *1537:A *1664:D 7.36836e-05
26 *1537:A *1996:A 0.000377723
27 *1537:A *460:20 0.00015054
28 *1537:A *521:38 3.0145e-05
29 *1537:A *580:18 7.9642e-06
30 *1537:A *580:48 0.000210142
31 *1537:A *622:46 4.74336e-05
32 *1653:D *1653:CLK 2.01504e-05
33 *1653:D *581:53 0.000253339
34 *376:12 *1444:A 0.000219007
35 *376:12 *1544:B1 8.8266e-05
36 *376:12 *1544:C1 0.000104672
37 *376:12 *1545:A 0
38 *376:12 *1984:A 0.000262385
39 *376:12 *2017:A 6.16356e-05
40 *376:12 *493:26 4.55864e-06
41 *376:12 *493:43 8.65961e-05
42 *376:12 *580:18 1.14274e-05
43 *376:12 *583:12 9.58678e-06
44 *376:12 *622:46 8.76863e-05
45 *376:12 *624:140 0.000151242
46 *376:27 *1447:A 4.99619e-05
47 *376:27 *1511:A2 2.69648e-05
48 *376:27 *1535:A2 4.0031e-05
49 *376:27 *1545:A 2.75123e-05
50 *376:27 *1570:A2 6.76938e-05
51 *376:27 *1653:CLK 0.000116313
52 *376:27 *1664:CLK 9.30637e-06
53 *376:27 *1679:CLK 0.00014641
54 *376:27 *458:80 4.82863e-05
55 *376:27 *581:53 0.00014294
56 *376:38 *1545:A 2.53191e-05
57 *376:38 *1664:CLK 4.72526e-05
58 *1479:S1 *1510:A 7.85951e-05
59 *1582:D *376:12 0
60 *1818:A *1653:D 0.000216984
*RES
1 *1444:Y *376:12 18.485 
2 *376:12 *1653:D 4.00375 
3 *376:12 *376:27 7.625 
4 *376:27 *1535:A1 4.05 
5 *376:27 *376:38 1.38 
6 *376:38 *376:40 2 
7 *376:40 *1537:A 14.345 
8 *376:40 *1534:A 3.7 
9 *376:38 *1510:A 6.96 
*END

*D_NET *377 0.000257318
*CONN
*I *1580:D I *D sky130_fd_sc_hd__dfxtp_1
*I *1536:X O *D sky130_fd_sc_hd__o21a_1
*CAP
1 *1580:D 0.000112458
2 *1536:X 0.000112458
3 *1580:D *406:18 1.22127e-05
4 *1580:D *458:49 1.43717e-05
5 *1580:D *581:16 5.81774e-06
*RES
1 *1536:X *1580:D 8.71875 
*END

*D_NET *378 0.00172778
*CONN
*I *1654:D I *D sky130_fd_sc_hd__dfxtp_2
*I *1541:X O *D sky130_fd_sc_hd__o211a_1
*CAP
1 *1654:D 0.000312228
2 *1541:X 0.000312228
3 *1654:D *1540:B 0
4 *1654:D *1544:A2 0.000392666
5 *1654:D *1670:D 8.35068e-05
6 *1654:D *2006:A 0
7 *1654:D *394:14 0
8 *1654:D *578:119 0.000510594
9 *1654:D *623:113 9.22203e-05
10 *1498:B *1654:D 2.43383e-05
*RES
1 *1541:X *1654:D 14.6587 
*END

*D_NET *379 0.000637612
*CONN
*I *1655:D I *D sky130_fd_sc_hd__dfxtp_2
*I *1544:X O *D sky130_fd_sc_hd__o211a_1
*CAP
1 *1655:D 8.72795e-05
2 *1544:X 8.72795e-05
3 *1655:D *2008:A 9.06149e-05
4 *1655:D *457:14 0.000162455
5 *1655:D *493:43 8.93275e-05
6 *1655:D *579:72 0.000120655
*RES
1 *1544:X *1655:D 9.84375 
*END

*D_NET *380 0.000341505
*CONN
*I *1656:D I *D sky130_fd_sc_hd__dfxtp_2
*I *1547:X O *D sky130_fd_sc_hd__o211a_1
*CAP
1 *1656:D 4.24458e-05
2 *1547:X 4.24458e-05
3 *1656:D *1544:C1 0.000144349
4 *1656:D *457:14 0.000108614
5 *1498:A *1656:D 3.64998e-06
*RES
1 *1547:X *1656:D 4.56875 
*END

*D_NET *381 0.00132352
*CONN
*I *1657:D I *D sky130_fd_sc_hd__dfxtp_2
*I *1550:X O *D sky130_fd_sc_hd__o211a_1
*CAP
1 *1657:D 0.000230833
2 *1550:X 0.000230833
3 *1657:D *1499:B 1.43717e-05
4 *1657:D *1549:B 0.000423747
5 *1657:D *1562:B1 0.000419264
6 *1657:D *1676:D 3.51254e-06
7 *1657:D *2011:A 9.60582e-07
*RES
1 *1550:X *1657:D 12.9937 
*END

*D_NET *382 0.000594529
*CONN
*I *1658:D I *D sky130_fd_sc_hd__dfxtp_2
*I *1553:X O *D sky130_fd_sc_hd__o211a_1
*CAP
1 *1658:D 0.000119036
2 *1553:X 0.000119036
3 *1658:D *1499:B 0.000118964
4 *1658:D *1674:CLK 0.000109424
5 *1658:D *1676:D 1.01152e-05
6 *1658:D *455:34 9.044e-05
7 *1658:D *585:26 2.75145e-05
*RES
1 *1553:X *1658:D 9.79875 
*END

*D_NET *383 0.000852577
*CONN
*I *1659:D I *D sky130_fd_sc_hd__dfxtp_2
*I *1556:X O *D sky130_fd_sc_hd__o211a_1
*CAP
1 *1659:D 0.000199158
2 *1556:X 0.000199158
3 *1659:D *1556:A1 7.85862e-05
4 *1659:D *1556:C1 8.52883e-05
5 *1659:D *1659:CLK 2.8531e-05
6 *1659:D *1952:A 0
7 *1659:D *399:10 0.000145896
8 *1659:D *624:53 0.00011596
*RES
1 *1556:X *1659:D 11.2537 
*END

*D_NET *384 0.000804292
*CONN
*I *1660:D I *D sky130_fd_sc_hd__dfxtp_2
*I *1559:X O *D sky130_fd_sc_hd__o211a_1
*CAP
1 *1660:D 0.000125091
2 *1559:X 0.000125091
3 *1660:D *456:6 0.000279295
4 *1660:D *462:20 0
5 *1660:D *586:125 0.000239464
6 *1660:D *587:10 3.53512e-05
*RES
1 *1559:X *1660:D 10.8787 
*END

*D_NET *385 0.000547293
*CONN
*I *1661:D I *D sky130_fd_sc_hd__dfxtp_2
*I *1562:X O *D sky130_fd_sc_hd__o211a_1
*CAP
1 *1661:D 0.000118443
2 *1562:X 0.000118443
3 *1661:D *1556:C1 8.23457e-05
4 *1661:D *1961:A 5.37091e-05
5 *1661:D *2014:A 9.0444e-05
6 *1661:D *634:26 5.20335e-05
7 *1497:C *1661:D 3.18735e-05
*RES
1 *1562:X *1661:D 9.60375 
*END

*D_NET *386 0.000340738
*CONN
*I *1662:D I *D sky130_fd_sc_hd__dfxtp_1
*I *1565:X O *D sky130_fd_sc_hd__o211a_1
*CAP
1 *1662:D 5.72699e-05
2 *1565:X 5.72699e-05
3 *1662:D *1565:A1 0
4 *1662:D *1568:B1 7.54283e-05
5 *1662:D *456:95 4.82919e-05
6 *1662:D *456:106 0.000102478
*RES
1 *1565:X *1662:D 5.075 
*END

*D_NET *387 0.000514108
*CONN
*I *1663:D I *D sky130_fd_sc_hd__dfxtp_2
*I *1568:X O *D sky130_fd_sc_hd__o211a_1
*CAP
1 *1663:D 0.000100241
2 *1568:X 0.000100241
3 *1663:D *1987:A 9.44681e-05
4 *1663:D *494:28 9.44681e-05
5 *1663:D *530:30 0.000124689
*RES
1 *1568:X *1663:D 9.49875 
*END

*D_NET *388 0.00204874
*CONN
*I *1664:D I *D sky130_fd_sc_hd__dfxtp_1
*I *1570:X O *D sky130_fd_sc_hd__o211a_1
*CAP
1 *1664:D 0.000329697
2 *1570:X 0.000329697
3 *1664:D *1511:A2 1.90818e-05
4 *1664:D *1534:B 0.000137096
5 *1664:D *1582:CLK 0.000169535
6 *1664:D *1664:CLK 0.000243405
7 *1664:D *2008:A 6.76938e-05
8 *1664:D *406:18 0.000270604
9 *1664:D *458:63 0.000117872
10 *1664:D *580:18 9.67081e-06
11 *1664:D *589:120 5.83121e-06
12 *1664:D *622:14 8.34281e-06
13 *1664:D *622:46 8.83665e-05
14 *1534:A *1664:D 0.000120655
15 *1537:A *1664:D 7.36836e-05
16 *1582:D *1664:D 4.66108e-05
17 *1585:D *1664:D 1.08994e-05
*RES
1 *1570:X *1664:D 15.8438 
*END

*D_NET *389 0.00337054
*CONN
*I *1665:D I *D sky130_fd_sc_hd__dfxtp_1
*I *1571:X O *D sky130_fd_sc_hd__and2b_1
*CAP
1 *1665:D 0.00125846
2 *1571:X 0.00125846
3 *1665:D *1573:B1 0.00019209
4 *1665:D *1666:D 2.94416e-05
5 *1665:D *1668:D 2.68594e-05
6 *1665:D *579:72 5.1002e-05
7 *1504:B *1665:D 2.97004e-06
8 *1571:A_N *1665:D 0.000141465
9 *1575:B *1665:D 0
10 *1575:C *1665:D 9.08248e-05
11 *247:29 *1665:D 0.000216535
12 *248:37 *1665:D 9.0444e-05
13 *249:18 *1665:D 1.19928e-05
*RES
1 *1571:X *1665:D 23.4 
*END

*D_NET *390 0.00206247
*CONN
*I *1666:D I *D sky130_fd_sc_hd__dfxtp_1
*I *1573:X O *D sky130_fd_sc_hd__o21a_1
*CAP
1 *1666:D 0.000687588
2 *1573:X 0.000687588
3 *1666:D *1573:B1 0.000154361
4 *1666:D *1665:CLK 4.29107e-05
5 *1666:D *1666:CLK 0.000112893
6 *1666:D *449:34 0.000160635
7 *1666:D *457:74 1.83756e-05
8 *1666:D *528:24 0
9 *1666:D *579:72 2.0514e-05
10 *1666:D *615:22 1.39062e-05
11 *1665:D *1666:D 2.94416e-05
12 *247:29 *1666:D 7.82635e-05
13 *248:8 *1666:D 4.66108e-05
14 *248:37 *1666:D 9.387e-06
*RES
1 *1573:X *1666:D 16.905 
*END

*D_NET *391 0.0011796
*CONN
*I *1667:D I *D sky130_fd_sc_hd__dfxtp_1
*I *1576:X O *D sky130_fd_sc_hd__and3_1
*CAP
1 *1667:D 0.000199377
2 *1576:X 0.000199377
3 *1667:D *1573:B1 0.000261617
4 *1667:D *1576:B 3.20715e-05
5 *1667:D *1577:A 7.14815e-05
6 *1667:D *1579:C 4.40028e-05
7 *1667:D *1667:CLK 0.000111315
8 *1667:D *2004:A 8.64421e-05
9 RESET_top *1667:D 0.000123955
10 *1572:A1 *1667:D 4.99619e-05
11 *1576:A *1667:D 0
*RES
1 *1576:X *1667:D 9.06875 
*END

*D_NET *392 0.000579611
*CONN
*I *1668:D I *D sky130_fd_sc_hd__dfxtp_1
*I *1579:X O *D sky130_fd_sc_hd__and3_1
*CAP
1 *1668:D 0.000118146
2 *1579:X 0.000118146
3 *1668:D *1577:A 4.99619e-05
4 *1668:D *1668:CLK 8.7152e-06
5 *1668:D *2004:A 0.000132709
6 *1571:A_N *1668:D 7.56999e-05
7 *1665:D *1668:D 2.68594e-05
8 *232:26 *1668:D 1.4548e-05
9 *232:34 *1668:D 3.48268e-05
*RES
1 *1579:X *1668:D 10.005 
*END

*D_NET *393 0.00355868
*CONN
*I *1669:D I *D sky130_fd_sc_hd__dfxtp_1
*I *1541:A2 I *D sky130_fd_sc_hd__o211a_1
*I *1540:X O *D sky130_fd_sc_hd__and2_1
*CAP
1 *1669:D 0.000656038
2 *1541:A2 0
3 *1540:X 0.000182967
4 *393:12 0.000839005
5 *1669:D *1499:B 0.000210142
6 *1669:D *1499:C 0.000132889
7 *1669:D *1541:A1 7.05395e-05
8 *1669:D *1547:B1 0
9 *1669:D *552:56 0.000119102
10 *1669:D *555:32 0.000170789
11 *1669:D *578:119 0.000149599
12 *1669:D *622:46 0.000384327
13 *1669:D *623:113 9.23811e-05
14 *1669:D *624:106 2.38184e-05
15 *393:12 *1543:A 0
16 *393:12 *2006:A 0
17 *393:12 *455:75 8.69583e-05
18 *393:12 *624:106 0.000133782
19 *1496:A *1669:D 0
20 *1498:B *1669:D 0.000122347
21 *1498:D_N *1669:D 7.75176e-05
22 *250:8 *1669:D 0.000106473
*RES
1 *1540:X *393:12 6.48 
2 *393:12 *1541:A2 3.6 
3 *393:12 *1669:D 22.4237 
*END

*D_NET *394 0.00365837
*CONN
*I *1544:A2 I *D sky130_fd_sc_hd__o211a_1
*I *1670:D I *D sky130_fd_sc_hd__dfxtp_1
*I *1543:X O *D sky130_fd_sc_hd__and2_1
*CAP
1 *1544:A2 0.000485617
2 *1670:D 4.16174e-05
3 *1543:X 0.000396269
4 *394:14 0.000923503
5 *1544:A2 *1455:A1 0.000176451
6 *1544:A2 *1544:A1 0.000228247
7 *1544:A2 *1544:B1 4.82919e-05
8 *1544:A2 *1544:C1 0.000271576
9 *1544:A2 *1985:A 0.000135672
10 *1544:A2 *578:18 4.0843e-05
11 *1544:A2 *578:119 0.000116937
12 *1670:D *1455:A1 6.33719e-05
13 *1670:D *578:119 6.93719e-05
14 *394:14 *1540:B 1.57462e-05
15 *394:14 *1542:B 2.81676e-05
16 *394:14 *1671:CLK 9.80943e-06
17 *394:14 *1671:D 0
18 *394:14 *2006:A 0
19 *1498:B *394:14 0.000130707
20 *1654:D *1544:A2 0.000392666
21 *1654:D *1670:D 8.35068e-05
22 *1654:D *394:14 0
*RES
1 *1543:X *394:14 10.79 
2 *394:14 *1670:D 3.11875 
3 *394:14 *1544:A2 14.155 
*END

*D_NET *395 0.00440705
*CONN
*I *1671:D I *D sky130_fd_sc_hd__dfxtp_1
*I *1547:A2 I *D sky130_fd_sc_hd__o211a_1
*I *1546:X O *D sky130_fd_sc_hd__and2_1
*CAP
1 *1671:D 0.000267213
2 *1547:A2 4.10608e-05
3 *1546:X 0.00038421
4 *395:12 0.000692484
5 *1547:A2 *1547:B1 3.82018e-05
6 *1671:D *1544:B1 0.000127224
7 *1671:D *1547:A1 5.1216e-05
8 *1671:D *2010:A 0.000305539
9 *1671:D *600:14 0.000135969
10 *395:12 *1499:A 0.000261005
11 *395:12 *1546:B 0.00100233
12 *395:12 *1547:B1 6.14579e-06
13 *395:12 *1669:CLK 1.08814e-05
14 *395:12 *453:37 0.000218354
15 *395:12 *600:14 0.000102564
16 *395:12 *624:14 0.000112559
17 *1498:B *1671:D 0
18 *1796:A *395:12 0.000158072
19 *1805:A *395:12 0.000469182
20 *1823:A *395:12 2.28376e-05
21 *394:14 *1671:D 0
*RES
1 *1546:X *395:12 17.0175 
2 *395:12 *1547:A2 4.5375 
3 *395:12 *1671:D 9.59625 
*END

*D_NET *396 0.0021979
*CONN
*I *1672:D I *D sky130_fd_sc_hd__dfxtp_1
*I *1550:A2 I *D sky130_fd_sc_hd__o211a_1
*I *1549:X O *D sky130_fd_sc_hd__and2_1
*CAP
1 *1672:D 0
2 *1550:A2 0.000337407
3 *1549:X 0.000205552
4 *396:14 0.000542959
5 *1550:A2 *1538:A 6.11607e-05
6 *1550:A2 *1550:A1 1.31843e-05
7 *1550:A2 *1550:B1 0.000154126
8 *1550:A2 *1672:CLK 0.000208355
9 *1550:A2 *2014:A 0.000300206
10 *1550:A2 *455:65 7.06865e-05
11 *1550:A2 *584:12 2.86265e-06
12 *396:14 *1478:A1 7.9642e-06
13 *396:14 *1538:A 1.58313e-06
14 *396:14 *1968:A 5.12871e-05
15 *396:14 *2014:A 0
16 *396:14 *584:10 0.000115582
17 *396:14 *588:29 4.82863e-05
18 *396:14 *588:52 7.66959e-05
*RES
1 *1549:X *396:14 9.60875 
2 *396:14 *1550:A2 12.8263 
3 *396:14 *1672:D 1.6 
*END

*D_NET *397 0.00514645
*CONN
*I *1553:A2 I *D sky130_fd_sc_hd__o211a_1
*I *1673:D I *D sky130_fd_sc_hd__dfxtp_1
*I *1552:X O *D sky130_fd_sc_hd__and2_1
*CAP
1 *1553:A2 0.000652486
2 *1673:D 4.40704e-05
3 *1552:X 0.000136513
4 *397:10 0.00083307
5 *1553:A2 *1538:A 5.26865e-05
6 *1553:A2 *1553:A1 1.09712e-05
7 *1553:A2 *1553:B1 7.75976e-05
8 *1553:A2 *1553:C1 5.83121e-06
9 *1553:A2 *2012:A 7.56521e-05
10 *1553:A2 *2013:A 7.87447e-05
11 *1553:A2 *577:30 0.00142202
12 *1553:A2 *612:20 2.02872e-05
13 *1553:A2 *614:40 0.000799444
14 *1553:A2 *623:88 7.87447e-05
15 *1673:D *1673:CLK 1.43717e-05
16 *1673:D *526:32 0.000105374
17 *1673:D *577:30 5.11552e-05
18 *1673:D *616:26 3.21313e-05
19 *397:10 *1674:D 8.35068e-05
20 *397:10 *526:32 0.000244785
21 *397:10 *577:30 6.03517e-05
22 *397:10 *624:61 4.40028e-05
23 *1497:B *397:10 9.08473e-05
24 *1806:A *397:10 1.07797e-05
25 *240:8 *397:10 0.000121019
*RES
1 *1552:X *397:10 8.1225 
2 *397:10 *1673:D 4.99125 
3 *397:10 *1553:A2 10.3246 
*END

*D_NET *398 0.00201911
*CONN
*I *1556:A2 I *D sky130_fd_sc_hd__o211a_1
*I *1674:D I *D sky130_fd_sc_hd__dfxtp_1
*I *1555:X O *D sky130_fd_sc_hd__and2_1
*CAP
1 *1556:A2 0.000162782
2 *1674:D 0.000261226
3 *1555:X 8.75863e-05
4 *398:8 0.000511595
5 *1556:A2 *1552:B 0
6 *1556:A2 *1556:A1 4.87465e-06
7 *1556:A2 *1556:B1 3.6558e-05
8 *1556:A2 *1556:C1 9.08494e-05
9 *1556:A2 *471:20 4.0368e-05
10 *1556:A2 *526:32 0.000151085
11 *1556:A2 *624:61 7.8984e-05
12 *1674:D *526:32 0.000131168
13 *1674:D *618:18 0.000130167
14 *1674:D *624:61 8.40269e-05
15 *398:8 *634:26 0.00012214
16 *240:8 *1674:D 4.21973e-05
17 *397:10 *1674:D 8.35068e-05
*RES
1 *1555:X *398:8 4.74 
2 *398:8 *1674:D 9.16875 
3 *398:8 *1556:A2 7.665 
*END

*D_NET *399 0.00251541
*CONN
*I *1559:A2 I *D sky130_fd_sc_hd__o211a_1
*I *1675:D I *D sky130_fd_sc_hd__dfxtp_1
*I *1558:X O *D sky130_fd_sc_hd__and2_1
*CAP
1 *1559:A2 6.82184e-05
2 *1675:D 0.000152111
3 *1558:X 0.000614969
4 *399:10 0.000835298
5 *1559:A2 *624:53 4.76456e-05
6 *1675:D *1556:C1 1.54049e-05
7 *1675:D *2014:A 0.000199763
8 *1675:D *586:12 0
9 *1675:D *586:125 0
10 *1675:D *587:10 1.93416e-05
11 *399:10 *624:53 0.000416763
12 *1659:D *399:10 0.000145896
*RES
1 *1558:X *399:10 9.76 
2 *399:10 *1675:D 8.39375 
3 *399:10 *1559:A2 2.755 
*END

*D_NET *400 0.00503363
*CONN
*I *1562:A2 I *D sky130_fd_sc_hd__o211a_1
*I *1676:D I *D sky130_fd_sc_hd__dfxtp_1
*I *1561:X O *D sky130_fd_sc_hd__and2_1
*CAP
1 *1562:A2 0.000118809
2 *1676:D 0.000475248
3 *1561:X 0.00045753
4 *400:22 0.00105159
5 *1562:A2 *1549:B 0.000131722
6 *1562:A2 *1562:A1 4.88568e-05
7 *1562:A2 *1562:B1 0.000273869
8 *1562:A2 *1961:A 4.76121e-05
9 *1676:D *1499:B 8.56256e-05
10 *1676:D *1673:CLK 7.11145e-05
11 *1676:D *1674:CLK 3.45679e-05
12 *1676:D *455:34 7.84405e-05
13 *1676:D *456:60 3.05295e-05
14 *1676:D *622:102 7.27956e-05
15 *400:22 *1499:B 0.000555498
16 *400:22 *1561:B 0.000202242
17 *400:22 *1563:A 0.000553166
18 *400:22 *2014:A 5.16899e-05
19 *400:22 *623:82 7.57302e-05
20 *1497:A *1676:D 0.000132201
21 *1497:C *1676:D 8.04103e-05
22 *1657:D *1676:D 3.51254e-06
23 *1658:D *1676:D 1.01152e-05
24 *1811:A *1676:D 8.88593e-05
25 *1813:A *400:22 0.000301899
*RES
1 *1561:X *400:22 17.96 
2 *400:22 *1676:D 13.6587 
3 *400:22 *1562:A2 9.02 
*END

*D_NET *401 0.00151648
*CONN
*I *1565:A2 I *D sky130_fd_sc_hd__o211a_1
*I *1677:D I *D sky130_fd_sc_hd__dfxtp_1
*I *1564:X O *D sky130_fd_sc_hd__and2_1
*CAP
1 *1565:A2 0.000101877
2 *1677:D 9.9511e-05
3 *1564:X 0.00016027
4 *401:8 0.000361658
5 *1565:A2 *1478:A1 0.00012252
6 *1565:A2 *461:24 0.00024317
7 *1677:D *1478:A1 4.77701e-05
8 *1677:D *1677:CLK 4.66108e-05
9 *1677:D *461:24 9.0444e-05
10 *1677:D *622:46 8.44909e-06
11 *1677:D *624:28 5.83121e-06
12 *1677:D *634:26 0.000141774
13 *401:8 *623:37 8.65961e-05
*RES
1 *1564:X *401:8 5.43 
2 *401:8 *1677:D 6.09375 
3 *401:8 *1565:A2 6.51 
*END

*D_NET *402 0.00164602
*CONN
*I *1568:A2 I *D sky130_fd_sc_hd__o211a_1
*I *1678:D I *D sky130_fd_sc_hd__dfxtp_1
*I *1567:X O *D sky130_fd_sc_hd__and2_1
*CAP
1 *1568:A2 0.000219628
2 *1678:D 0.000102908
3 *1567:X 0.000121261
4 *402:8 0.000443797
5 *1568:A2 *1970:A 2.96938e-05
6 *1568:A2 *1987:A 0
7 *1568:A2 *494:28 1.02692e-05
8 *1568:A2 *623:12 4.97019e-05
9 *1678:D *1499:C 7.9642e-06
10 *1678:D *1678:CLK 6.10955e-05
11 *1678:D *1987:A 0
12 *1678:D *552:56 9.39388e-06
13 *1678:D *581:53 0.000151415
14 *1678:D *589:18 1.40723e-06
15 *402:8 *1663:CLK 9.21178e-05
16 *402:8 *1678:CLK 0.000130349
17 *402:8 *1970:A 0.000171189
18 *1496:D *1678:D 4.38278e-05
*RES
1 *1567:X *402:8 6.3825 
2 *402:8 *1678:D 6.0075 
3 *402:8 *1568:A2 6.5925 
*END

*D_NET *403 0.00331104
*CONN
*I *1679:D I *D sky130_fd_sc_hd__dfxtp_1
*I *1570:A2 I *D sky130_fd_sc_hd__o211a_1
*I *1534:Y O *D sky130_fd_sc_hd__nor2_1
*CAP
1 *1679:D 0
2 *1570:A2 0.000286416
3 *1534:Y 0.000178515
4 *403:12 0.000464932
5 *1570:A2 *1511:A2 0.000188378
6 *1570:A2 *1545:A 1.78122e-05
7 *1570:A2 *1653:CLK 0.000263959
8 *1570:A2 *1794:A 5.86519e-05
9 *1570:A2 *1795:A 5.86519e-05
10 *1570:A2 *1984:A 0.000159923
11 *1570:A2 *2009:A 5.75434e-05
12 *1570:A2 *2017:A 5.53549e-06
13 *1570:A2 *425:18 0.000334275
14 *1570:A2 *458:80 3.83194e-05
15 *1570:A2 *531:50 0.000131095
16 *1570:A2 *622:46 1.84871e-05
17 *403:12 *1511:A2 8.65612e-05
18 *403:12 *1534:B 8.53307e-05
19 *403:12 *1535:A3 7.35078e-05
20 *403:12 *1535:B1 8.40269e-05
21 *403:12 *1679:CLK 1.91597e-05
22 *403:12 *1794:A 0.000524549
23 *403:12 *1795:A 5.94287e-05
24 *1535:A1 *403:12 4.82919e-05
25 *376:27 *1570:A2 6.76938e-05
*RES
1 *1534:Y *403:12 11.1987 
2 *403:12 *1570:A2 17.9212 
3 *403:12 *1679:D 1.6 
*END

*D_NET *404 0.00146758
*CONN
*I *1509:C1 I *D sky130_fd_sc_hd__o211ai_1
*I *1445:Y O *D sky130_fd_sc_hd__inv_1
*CAP
1 *1509:C1 0.000400186
2 *1445:Y 0.000400186
3 *1509:C1 *1536:A2 0.000290961
4 *1509:C1 *1536:B1 9.47017e-05
5 *1509:C1 *1581:CLK 2.56752e-06
6 *1509:C1 *1617:GATE 0
7 *1509:C1 *2000:A 9.28568e-05
8 *1509:C1 *531:50 9.56742e-05
9 *1509:C1 *578:18 9.0444e-05
*RES
1 *1445:Y *1509:C1 13.7925 
*END

*D_NET *405 0.000751779
*CONN
*I *1509:A1 I *D sky130_fd_sc_hd__o211ai_1
*I *1536:B1 I *D sky130_fd_sc_hd__o21a_1
*I *1446:Y O *D sky130_fd_sc_hd__inv_2
*CAP
1 *1509:A1 2.08101e-05
2 *1536:B1 0.000219431
3 *1446:Y 3.81002e-05
4 *405:6 0.000278342
5 *1509:A1 *2000:A 0
6 *1536:B1 *2000:A 5.8177e-05
7 *1536:B1 *578:18 4.9253e-06
8 *405:6 *2000:A 3.72916e-05
9 *1509:C1 *1536:B1 9.47017e-05
*RES
1 *1446:Y *405:6 2.395 
2 *405:6 *1536:B1 5.17 
3 *405:6 *1509:A1 1.96 
*END

*D_NET *406 0.00400516
*CONN
*I *1535:A3 I *D sky130_fd_sc_hd__o31a_1
*I *1534:B I *D sky130_fd_sc_hd__nor2_1
*I *1447:Y O *D sky130_fd_sc_hd__inv_2
*CAP
1 *1535:A3 0.000122957
2 *1534:B 0.000177491
3 *1447:Y 0.000818457
4 *406:18 0.00111891
5 *1534:B *1511:A2 3.88911e-05
6 *1534:B *1664:CLK 8.73147e-06
7 *1534:B *589:120 4.82863e-05
8 *1535:A3 *1511:A2 4.5378e-05
9 *1535:A3 *1536:A2 8.40269e-05
10 *1535:A3 *1794:A 4.82919e-05
11 *406:18 *1511:A2 2.10582e-05
12 *406:18 *1511:B1 3.10394e-05
13 *406:18 *425:18 4.18862e-05
14 *406:18 *436:24 8.23457e-05
15 *406:18 *458:61 2.10582e-05
16 *406:18 *538:40 0.00040821
17 *406:18 *552:56 2.10582e-05
18 *1535:A1 *1535:A3 4.99619e-05
19 *1580:D *406:18 1.22127e-05
20 *1585:D *406:18 8.76863e-05
21 *1664:D *1534:B 0.000137096
22 *1664:D *406:18 0.000270604
23 *1816:A *406:18 0.00014641
24 *232:83 *406:18 4.27883e-06
25 *403:12 *1534:B 8.53307e-05
26 *403:12 *1535:A3 7.35078e-05
*RES
1 *1447:Y *406:18 19.75 
2 *406:18 *1534:B 6.645 
3 *406:18 *1535:A3 6.225 
*END

*D_NET *407 0.00600579
*CONN
*I *1578:A I *D sky130_fd_sc_hd__nand2_1
*I *1577:A I *D sky130_fd_sc_hd__or2_1
*I *1448:Y O *D sky130_fd_sc_hd__inv_2
*CAP
1 *1578:A 0.000123249
2 *1577:A 0.000439283
3 *1448:Y 0.000562595
4 *407:16 0.00112513
5 *1577:A *1455:A1 9.66021e-05
6 *1577:A *1576:B 0.000455405
7 *1577:A *1579:B 1.19928e-05
8 *1577:A *1579:C 0.00042793
9 *1578:A *1579:C 1.19928e-05
10 *1578:A *552:56 2.38377e-05
11 *407:16 *415:32 0.000187276
12 *407:16 *415:34 0.0001249
13 *407:16 *552:56 0.000376148
14 *407:16 *615:22 8.73147e-06
15 *1503:B *1578:A 8.52883e-05
16 *1572:A1 *1577:A 0.000198344
17 *1572:A2 *1577:A 0.000108674
18 *1574:B1 *407:16 8.96745e-05
19 *1576:A *1577:A 2.40305e-05
20 *1579:A *1577:A 4.82863e-05
21 *1667:D *1577:A 7.14815e-05
22 *1668:D *1577:A 4.99619e-05
23 *232:20 *407:16 0.000732312
24 *246:37 *1577:A 0.000147358
25 *246:37 *1578:A 9.02831e-05
26 *249:18 *1577:A 0.000167174
27 *249:18 *1578:A 0.000217851
*RES
1 *1448:Y *407:16 18.82 
2 *407:16 *1577:A 15.945 
3 *407:16 *1578:A 6.885 
*END

*D_NET *408 0.000283783
*CONN
*I *1488:A1 I *D sky130_fd_sc_hd__o21ai_2
*I *1449:Y O *D sky130_fd_sc_hd__inv_2
*CAP
1 *1488:A1 9.01119e-05
2 *1449:Y 9.01119e-05
3 *1488:A1 *490:36 0.00010356
*RES
1 *1449:Y *1488:A1 4.61 
*END

*D_NET *409 0.000862201
*CONN
*I *1494:A1 I *D sky130_fd_sc_hd__o21a_1
*I *1450:Y O *D sky130_fd_sc_hd__inv_1
*CAP
1 *1494:A1 0.000123975
2 *1450:Y 0.000123975
3 *1494:A1 *1490:A_N 2.53771e-05
4 *1494:A1 *1516:A0 8.40269e-05
5 *1494:A1 *1522:A0 0.000119762
6 *1494:A1 *650:16 0.000221937
7 *229:33 *1494:A1 0.000118435
8 *229:54 *1494:A1 2.30292e-05
9 *229:71 *1494:A1 2.16833e-05
*RES
1 *1450:Y *1494:A1 7.3925 
*END

*D_NET *410 0.0013724
*CONN
*I *1488:A2 I *D sky130_fd_sc_hd__o21ai_2
*I *1483:X O *D sky130_fd_sc_hd__mux4_1
*CAP
1 *1488:A2 0.00043034
2 *1483:X 0.00043034
3 *1488:A2 *1470:A0 3.35563e-05
4 *1488:A2 *1488:B1 1.88605e-05
5 *1488:A2 *1517:A0 0.000235155
6 *1488:A2 *1519:A1 6.51203e-05
7 *1488:A2 *652:36 2.79551e-05
8 *1487:B2 *1488:A2 8.05167e-05
9 *275:27 *1488:A2 5.05521e-05
*RES
1 *1483:X *1488:A2 13.83 
*END

*D_NET *411 0.000728156
*CONN
*I *1487:A1 I *D sky130_fd_sc_hd__a221o_1
*I *1484:Y O *D sky130_fd_sc_hd__nand2b_1
*CAP
1 *1487:A1 0.000240838
2 *1484:Y 0.000240838
3 *1487:A1 *1468:A1 8.73389e-06
4 *1487:A1 *1487:B1 0.00019391
5 *1487:A1 *1913:A 3.86529e-05
6 *1487:A1 *1991:A 5.18317e-06
*RES
1 *1484:Y *1487:A1 10.605 
*END

*D_NET *412 0.00135405
*CONN
*I *1487:A2 I *D sky130_fd_sc_hd__a221o_1
*I *1485:X O *D sky130_fd_sc_hd__o21ba_1
*CAP
1 *1487:A2 0.000296911
2 *1485:X 0.000296911
3 *1487:A2 *1468:A1 0.000221896
4 *1487:A2 *1483:A2 0.000120655
5 *1487:A2 *1488:B1 2.16917e-05
6 *1487:A2 *1515:A0 4.82863e-05
7 *1487:A2 *1607:GATE 0.000113905
8 *1487:A2 *474:20 6.14983e-05
9 *1487:A2 *649:30 0.000124007
10 *1515:A1 *1487:A2 4.82863e-05
*RES
1 *1485:X *1487:A2 13.7925 
*END

*D_NET *413 0.00194433
*CONN
*I *1487:B1 I *D sky130_fd_sc_hd__a221o_1
*I *1486:X O *D sky130_fd_sc_hd__mux2_1
*CAP
1 *1487:B1 0.000344432
2 *1486:X 0.000344432
3 *1487:B1 *1468:A1 0.000272024
4 *1487:B1 *1934:A 4.82863e-05
5 *1487:B1 *1939:A 9.21068e-05
6 *1487:B1 *510:20 0.000522481
7 *1487:A1 *1487:B1 0.00019391
8 *1487:B2 *1487:B1 2.49764e-05
9 *1487:C1 *1487:B1 5.36831e-05
10 *1517:A1 *1487:B1 4.79946e-05
*RES
1 *1486:X *1487:B1 16.71 
*END

*D_NET *414 0.00149832
*CONN
*I *1488:B1 I *D sky130_fd_sc_hd__o21ai_2
*I *1487:X O *D sky130_fd_sc_hd__a221o_1
*CAP
1 *1488:B1 0.000341891
2 *1487:X 0.000341891
3 *1488:B1 *1451:A1 0
4 *1488:B1 *1470:A1 8.65905e-05
5 *1488:B1 *1483:A2 8.23457e-05
6 *1488:B1 *1517:A0 0.000298938
7 *1488:B1 *490:36 8.8266e-05
8 *1488:B1 *662:22 9.60294e-05
9 *1488:B1 *687:26 0.000104176
10 *1487:A2 *1488:B1 2.16917e-05
11 *1488:A2 *1488:B1 1.88605e-05
12 *273:24 *1488:B1 1.7635e-05
*RES
1 *1487:X *1488:B1 14.595 
*END

*D_NET *415 0.0156787
*CONN
*I *1495:B I *D sky130_fd_sc_hd__and3_1
*I *1508:B1 I *D sky130_fd_sc_hd__o21a_1
*I *1509:B1 I *D sky130_fd_sc_hd__o211ai_1
*I *1511:B1 I *D sky130_fd_sc_hd__o21a_1
*I *1506:B I *D sky130_fd_sc_hd__and3_1
*I *1500:B I *D sky130_fd_sc_hd__and3_1
*I *1488:Y O *D sky130_fd_sc_hd__o21ai_2
*CAP
1 *1495:B 0.000610667
2 *1508:B1 1.65753e-05
3 *1509:B1 9.98916e-05
4 *1511:B1 9.881e-05
5 *1506:B 9.36289e-05
6 *1500:B 0.000381962
7 *1488:Y 0.00185531
8 *415:52 0.000538015
9 *415:50 0.000381353
10 *415:44 0.000654407
11 *415:34 0.000438948
12 *415:32 0.00255395
13 *1495:B *1508:A1 5.82654e-05
14 *1495:B *1509:A2 0.000248998
15 *1495:B *2001:A 7.9642e-06
16 *1495:B *421:10 7.90712e-05
17 *1495:B *528:24 0
18 *1495:B *538:40 0
19 *1495:B *543:24 4.66108e-05
20 *1495:B *615:22 0
21 *1500:B *1447:A 6.72143e-05
22 *1500:B *1590:D 1.19928e-05
23 *1500:B *493:43 0.000107103
24 *1500:B *578:18 0.000271975
25 *1506:B *1506:C 0.000118081
26 *1509:B1 *1617:GATE 5.53549e-06
27 *1509:B1 *471:20 0.000126351
28 *1511:B1 *1511:A1 8.23457e-05
29 *1511:B1 *1511:A2 1.56428e-05
30 *1511:B1 *538:40 0.000226961
31 *1511:B1 *581:16 3.59784e-05
32 *415:32 *1451:A1 2.05191e-05
33 *415:32 *1470:A1 3.86814e-05
34 *415:32 *1506:C 2.30292e-05
35 *415:32 *1508:A1 8.65961e-05
36 *415:32 *1519:A1 0
37 *415:32 *1591:D 8.73389e-06
38 *415:32 *1968:A 0.00178988
39 *415:32 *2000:A 0
40 *415:32 *430:14 0.000170118
41 *415:32 *484:12 2.60185e-06
42 *415:32 *531:50 0.000467694
43 *415:32 *574:28 0.000116831
44 *415:32 *584:125 0.000130469
45 *415:32 *588:83 0.000126891
46 *415:32 *612:20 0.000266729
47 *415:32 *612:24 9.80943e-06
48 *415:32 *619:50 2.18326e-05
49 *415:32 *662:22 4.62771e-05
50 *415:34 *1506:C 2.39856e-05
51 *415:34 *1508:A1 0.000124895
52 *415:34 *1508:A2 2.0514e-05
53 *415:44 *1506:C 0.00023425
54 *415:44 *471:20 0.000204069
55 *415:44 *552:56 1.34298e-05
56 *415:44 *631:71 0.000209245
57 *415:50 *464:56 0.000335837
58 *415:50 *568:52 6.8597e-05
59 *415:50 *586:51 0.000133592
60 *415:50 *588:83 0.000298926
61 *415:52 *1447:A 0.000137213
62 *415:52 *578:18 0.000130977
63 *1584:D *1495:B 0.000291803
64 *1586:D *415:44 0.000384698
65 *1744:A *415:32 3.56986e-05
66 *1808:A *1495:B 0
67 *232:10 *1495:B 2.23404e-05
68 *232:20 *1495:B 4.61701e-06
69 *232:65 *1500:B 9.4678e-05
70 *232:83 *1500:B 5.79857e-06
71 *406:18 *1511:B1 3.10394e-05
72 *407:16 *415:32 0.000187276
73 *407:16 *415:34 0.0001249
*RES
1 *1488:Y *415:32 28.4283 
2 *415:32 *415:34 2.175 
3 *415:34 *415:44 10.9625 
4 *415:44 *415:50 1.7372 
5 *415:50 *415:52 1.7625 
6 *415:52 *1500:B 9.885 
7 *415:52 *1506:B 4.74 
8 *415:50 *1511:B1 6.24 
9 *415:44 *1509:B1 5.3625 
10 *415:34 *1508:B1 1.96 
11 *415:32 *1495:B 15.335 
*END

*D_NET *416 0.000414878
*CONN
*I *1494:A2 I *D sky130_fd_sc_hd__o21a_1
*I *1489:X O *D sky130_fd_sc_hd__mux4_1
*CAP
1 *1494:A2 9.88214e-05
2 *1489:X 9.88214e-05
3 *1494:A2 *1494:B1 6.59891e-05
4 *1494:A2 *648:38 8.40269e-05
5 *1867:A *1494:A2 6.72196e-05
*RES
1 *1489:X *1494:A2 8.865 
*END

*D_NET *417 0.000772499
*CONN
*I *1493:A1 I *D sky130_fd_sc_hd__a221o_1
*I *1490:Y O *D sky130_fd_sc_hd__nand2b_1
*CAP
1 *1493:A1 0.000166835
2 *1490:Y 0.000166835
3 *1493:A1 *1469:A0 5.63007e-05
4 *1493:A1 *1493:A2 1.2818e-05
5 *1493:A1 *2003:A 4.77757e-05
6 *1493:A1 *534:28 7.23533e-05
7 *1493:A1 *625:71 9.64575e-05
8 *1493:A1 *637:12 0.000153124
9 *1491:B1_N *1493:A1 0
*RES
1 *1490:Y *1493:A1 10.92 
*END

*D_NET *418 0.000656748
*CONN
*I *1493:A2 I *D sky130_fd_sc_hd__a221o_1
*I *1491:X O *D sky130_fd_sc_hd__o21ba_1
*CAP
1 *1493:A2 0.00011415
2 *1491:X 0.00011415
3 *1493:A2 *1469:A0 0.000132684
4 *1493:A2 *1494:B1 0.000120573
5 *1493:A2 *625:71 3.59531e-06
6 *1450:A *1493:A2 4.79946e-05
7 *1491:B1_N *1493:A2 0.000110785
8 *1493:A1 *1493:A2 1.2818e-05
*RES
1 *1491:X *1493:A2 14.2037 
*END

*D_NET *419 0.00587877
*CONN
*I *1493:B1 I *D sky130_fd_sc_hd__a221o_1
*I *1492:X O *D sky130_fd_sc_hd__mux2_1
*CAP
1 *1493:B1 0.00104144
2 *1492:X 0.00104144
3 *1493:B1 *1456:A1 9.30637e-06
4 *1493:B1 *1469:A0 7.53976e-05
5 *1493:B1 *1489:A1 8.40269e-05
6 *1493:B1 *1522:A0 8.00808e-05
7 *1493:B1 *1526:A0 0.00110134
8 *1493:B1 *1529:A0 0.000623467
9 *1493:B1 *1614:GATE 2.04029e-05
10 *1493:B1 *1644:GATE 8.52845e-05
11 *1493:B1 *1976:A 1.88602e-05
12 *1493:B1 *1979:A 3.80329e-05
13 *1493:B1 *1990:A 0.000375333
14 *1493:B1 *1992:A 3.40395e-05
15 *1493:B1 *543:24 0.000107444
16 *1493:B1 *587:147 1.31297e-05
17 *1493:B1 *590:95 0.000158072
18 *1493:B1 *632:40 8.67465e-06
19 *1493:B1 *686:28 4.98732e-05
20 *1493:B2 *1493:B1 1.12643e-05
21 *1516:S *1493:B1 0.000267094
22 *1765:A *1493:B1 3.3755e-05
23 *1783:A *1493:B1 0.000190712
24 *271:45 *1493:B1 0.000410301
*RES
1 *1492:X *1493:B1 30.1895 
*END

*D_NET *420 0.00266717
*CONN
*I *1494:B1 I *D sky130_fd_sc_hd__o21a_1
*I *1493:X O *D sky130_fd_sc_hd__a221o_1
*CAP
1 *1494:B1 0.000850088
2 *1493:X 0.000850088
3 *1494:B1 *1469:A0 0.000141452
4 *1494:B1 *1489:A2 0.000182774
5 *1494:B1 *1522:A0 4.99619e-05
6 *1494:B1 *648:38 3.63267e-05
7 *1494:B1 *650:16 4.82919e-05
8 *1489:S0 *1494:B1 0.000159697
9 *1493:A2 *1494:B1 0.000120573
10 *1494:A2 *1494:B1 6.59891e-05
11 *1783:A *1494:B1 1.04898e-05
12 *1867:A *1494:B1 2.61944e-05
13 *229:71 *1494:B1 0.000125239
*RES
1 *1493:X *1494:B1 18.705 
*END

*D_NET *421 0.00321145
*CONN
*I *1495:C I *D sky130_fd_sc_hd__and3_1
*I *1509:A2 I *D sky130_fd_sc_hd__o211ai_1
*I *1494:X O *D sky130_fd_sc_hd__o21a_1
*CAP
1 *1495:C 5.00625e-06
2 *1509:A2 0.000759316
3 *1494:X 0.000291971
4 *421:10 0.00105629
5 *1495:C *1697:A 1.70906e-05
6 *1495:C *589:120 1.70906e-05
7 *1509:A2 *1495:A 4.61196e-05
8 *1509:A2 *2000:A 0.000274836
9 *1509:A2 *615:22 2.20732e-05
10 *1509:A2 *626:10 0
11 *421:10 *1476:A0 8.35395e-05
12 *421:10 *1495:A 3.59531e-06
13 *421:10 *1522:A0 8.65961e-05
14 *421:10 *1990:A 0
15 *421:10 *2001:A 2.78201e-05
16 *421:10 *590:95 0
17 *1495:B *1509:A2 0.000248998
18 *1495:B *421:10 7.90712e-05
19 *1584:D *1509:A2 0.000171771
20 *1775:A *421:10 1.58201e-05
21 *229:71 *421:10 4.43871e-06
*RES
1 *1494:X *421:10 8.325 
2 *421:10 *1509:A2 14.46 
3 *421:10 *1495:C 3.765 
*END

*D_NET *422 0.00318237
*CONN
*I *1499:A I *D sky130_fd_sc_hd__nor3_1
*I *1496:X O *D sky130_fd_sc_hd__or4_1
*CAP
1 *1499:A 0.000906388
2 *1496:X 0.000906388
3 *1499:A *1499:C 8.60799e-05
4 *1499:A *1541:C1 1.19928e-05
5 *1499:A *1547:B1 9.5799e-06
6 *1499:A *538:40 1.22811e-05
7 *1499:A *551:30 0
8 *1499:A *581:53 0.000122423
9 *1499:A *624:14 1.81185e-05
10 *1496:A *1499:A 1.58131e-05
11 *1496:C *1499:A 8.49205e-05
12 *1496:D *1499:A 4.20878e-05
13 *1498:A *1499:A 0.000419997
14 *1498:B *1499:A 4.66108e-05
15 *1498:D_N *1499:A 6.29646e-05
16 *1786:A *1499:A 9.044e-05
17 *1818:A *1499:A 8.52845e-05
18 *395:12 *1499:A 0.000261005
*RES
1 *1496:X *1499:A 23.64 
*END

*D_NET *423 0.00454189
*CONN
*I *1499:B I *D sky130_fd_sc_hd__nor3_1
*I *1497:X O *D sky130_fd_sc_hd__or4_1
*CAP
1 *1499:B 0.00106828
2 *1497:X 0.00106828
3 *1499:B *1499:C 0.000332185
4 *1499:B *1546:B 0.000488589
5 *1499:B *1548:A 4.66108e-05
6 *1499:B *1561:A 3.64998e-06
7 *1499:B *1561:B 5.77646e-05
8 *1499:B *453:8 1.6408e-05
9 *1499:B *552:56 5.38001e-05
10 *1499:B *581:53 0.000119821
11 *1657:D *1499:B 1.43717e-05
12 *1658:D *1499:B 0.000118964
13 *1669:D *1499:B 0.000210142
14 *1676:D *1499:B 8.56256e-05
15 *1813:A *1499:B 0.000301899
16 *400:22 *1499:B 0.000555498
*RES
1 *1497:X *1499:B 35.78 
*END

*D_NET *424 0.00166011
*CONN
*I *1499:C I *D sky130_fd_sc_hd__nor3_1
*I *1498:X O *D sky130_fd_sc_hd__or4b_1
*CAP
1 *1499:C 0.000512951
2 *1498:X 0.000512951
3 *1499:C *552:56 9.5432e-06
4 *1499:C *581:53 4.77757e-05
5 *1496:D *1499:C 1.77665e-05
6 *1499:A *1499:C 8.60799e-05
7 *1499:B *1499:C 0.000332185
8 *1669:D *1499:C 0.000132889
9 *1678:D *1499:C 7.9642e-06
10 *1786:A *1499:C 0
*RES
1 *1498:X *1499:C 15.945 
*END

*D_NET *425 0.00647091
*CONN
*I *1510:B I *D sky130_fd_sc_hd__nor2_1
*I *1500:C I *D sky130_fd_sc_hd__and3_1
*I *1499:Y O *D sky130_fd_sc_hd__nor3_1
*CAP
1 *1510:B 0.000333082
2 *1500:C 0.000337974
3 *1499:Y 0.00111833
4 *425:18 0.00178939
5 *1500:C *1506:C 1.50974e-05
6 *1500:C *1511:A2 6.51085e-05
7 *1500:C *1546:A 0.000111567
8 *1500:C *436:24 3.41554e-05
9 *1500:C *538:40 1.49171e-05
10 *1500:C *581:16 0.000190613
11 *1500:C *624:140 5.61178e-05
12 *1500:C *631:90 2.11311e-05
13 *1510:B *1479:A1 1.23015e-05
14 *1510:B *1511:A2 0
15 *1510:B *1640:GATE 0.000161121
16 *1510:B *436:24 5.79857e-06
17 *1510:B *460:20 0.00027486
18 *1510:B *581:16 0.000100354
19 *1510:B *589:120 0
20 *1510:B *622:14 1.07563e-05
21 *1510:B *631:90 0.000382249
22 *425:18 *1447:A 0.000162319
23 *425:18 *1511:A2 2.16999e-05
24 *425:18 *1653:CLK 5.84759e-05
25 *425:18 *436:24 4.71654e-05
26 *425:18 *458:78 1.56428e-05
27 *425:18 *458:80 1.19928e-05
28 *1496:D *425:18 8.64421e-05
29 *1539:B *1510:B 0.000333368
30 *1539:B *425:18 4.77719e-05
31 *1570:A2 *425:18 0.000334275
32 *1585:D *1500:C 4.98968e-05
33 *1585:D *425:18 2.02106e-05
34 *1818:A *425:18 0.000204836
35 *406:18 *425:18 4.18862e-05
*RES
1 *1499:Y *425:18 22.495 
2 *425:18 *1500:C 10.635 
3 *425:18 *1510:B 12.855 
*END

*D_NET *426 0.000399903
*CONN
*I *1505:A I *D sky130_fd_sc_hd__and4_1
*I *1501:Y O *D sky130_fd_sc_hd__xnor2_1
*CAP
1 *1505:A 9.46207e-05
2 *1501:Y 9.46207e-05
3 *1505:A *1505:C 5.83121e-06
4 *1505:A *1505:D 2.8185e-05
5 *1505:A *1951:A 8.8266e-05
6 *1505:A *449:34 8.83797e-05
*RES
1 *1501:Y *1505:A 9.12 
*END

*D_NET *427 0.000287057
*CONN
*I *1505:B I *D sky130_fd_sc_hd__and4_1
*I *1502:Y O *D sky130_fd_sc_hd__xnor2_1
*CAP
1 *1505:B 8.10783e-05
2 *1502:Y 8.10783e-05
3 *1505:B *1505:D 0.0001249
*RES
1 *1502:Y *1505:B 4.34 
*END

*D_NET *428 0.0021434
*CONN
*I *1505:C I *D sky130_fd_sc_hd__and4_1
*I *1503:Y O *D sky130_fd_sc_hd__xnor2_1
*CAP
1 *1505:C 0.000548788
2 *1503:Y 0.000548788
3 *1505:C *1505:D 0.000124895
4 *1505:C *1951:A 0.000228885
5 *1505:C *430:14 0.000237697
6 *1505:C *675:42 4.81484e-06
7 *1448:A *1505:C 0.000100498
8 *1505:A *1505:C 5.83121e-06
9 *1574:B1 *1505:C 2.75145e-05
10 *246:14 *1505:C 0.000116751
11 *246:25 *1505:C 0.000198934
*RES
1 *1503:Y *1505:C 16.53 
*END

*D_NET *429 0.000924241
*CONN
*I *1505:D I *D sky130_fd_sc_hd__and4_1
*I *1504:Y O *D sky130_fd_sc_hd__xnor2_1
*CAP
1 *1505:D 0.000244216
2 *1504:Y 0.000244216
3 *1505:D *430:14 1.47347e-05
4 *1505:A *1505:D 2.8185e-05
5 *1505:B *1505:D 0.0001249
6 *1505:C *1505:D 0.000124895
7 *248:37 *1505:D 0.000143095
*RES
1 *1504:Y *1505:D 7.805 
*END

*D_NET *430 0.00539027
*CONN
*I *1507:A_N I *D sky130_fd_sc_hd__and2b_1
*I *1506:C I *D sky130_fd_sc_hd__and3_1
*I *1505:X O *D sky130_fd_sc_hd__and4_1
*CAP
1 *1507:A_N 0
2 *1506:C 0.00121568
3 *1505:X 0.000395895
4 *430:14 0.00161158
5 *1506:C *1508:A1 9.47208e-05
6 *1506:C *1508:A2 2.55587e-05
7 *1506:C *1546:A 2.66861e-05
8 *1506:C *453:37 8.23457e-05
9 *1506:C *631:90 8.80142e-05
10 *430:14 *1454:A1 8.57024e-05
11 *430:14 *1951:A 5.69513e-05
12 *430:14 *675:42 0.000308436
13 *1500:C *1506:C 1.50974e-05
14 *1505:C *430:14 0.000237697
15 *1505:D *430:14 1.47347e-05
16 *1506:A *1506:C 7.31612e-05
17 *1506:B *1506:C 0.000118081
18 *1507:B *1506:C 8.65961e-05
19 *1512:B *1506:C 0.000153816
20 *1586:D *1506:C 1.98144e-05
21 *234:10 *1506:C 0.000228315
22 *415:32 *1506:C 2.30292e-05
23 *415:32 *430:14 0.000170118
24 *415:34 *1506:C 2.39856e-05
25 *415:44 *1506:C 0.00023425
*RES
1 *1505:X *430:14 14.225 
2 *430:14 *1506:C 23.945 
3 *430:14 *1507:A_N 1.6 
*END

*D_NET *431 0.000179975
*CONN
*I *1508:A2 I *D sky130_fd_sc_hd__o21a_1
*I *1507:X O *D sky130_fd_sc_hd__and2b_1
*CAP
1 *1508:A2 1.69891e-05
2 *1507:X 1.69891e-05
3 *1508:A2 *1508:A1 4.99619e-05
4 *1506:C *1508:A2 2.55587e-05
5 *1507:B *1508:A2 4.99619e-05
6 *415:34 *1508:A2 2.0514e-05
*RES
1 *1507:X *1508:A2 3.995 
*END

*D_NET *432 0.00348907
*CONN
*I *1511:A2 I *D sky130_fd_sc_hd__o21a_1
*I *1510:Y O *D sky130_fd_sc_hd__nor2_1
*CAP
1 *1511:A2 0.000956643
2 *1510:Y 0.000956643
3 *1511:A2 *1535:A2 1.88656e-05
4 *1511:A2 *1536:A2 8.40269e-05
5 *1511:A2 *1582:CLK 0.000169535
6 *1511:A2 *1640:GATE 0.000123225
7 *1511:A2 *1664:CLK 1.03592e-05
8 *1511:A2 *2008:A 1.58266e-05
9 *1511:A2 *2009:A 5.69513e-05
10 *1511:A2 *453:37 0.000155444
11 *1511:A2 *458:63 0.000111579
12 *1511:A2 *589:120 3.53837e-05
13 *1511:A2 *622:14 0.000247002
14 *1500:C *1511:A2 6.51085e-05
15 *1510:B *1511:A2 0
16 *1511:B1 *1511:A2 1.56428e-05
17 *1534:B *1511:A2 3.88911e-05
18 *1535:A3 *1511:A2 4.5378e-05
19 *1570:A2 *1511:A2 0.000188378
20 *1585:D *1511:A2 1.88218e-05
21 *1664:D *1511:A2 1.90818e-05
22 *376:27 *1511:A2 2.69648e-05
23 *403:12 *1511:A2 8.65612e-05
24 *406:18 *1511:A2 2.10582e-05
25 *425:18 *1511:A2 2.16999e-05
*RES
1 *1510:Y *1511:A2 31.25 
*END

*D_NET *433 0.00149404
*CONN
*I *1536:A2 I *D sky130_fd_sc_hd__o21a_1
*I *1535:X O *D sky130_fd_sc_hd__o31a_1
*CAP
1 *1536:A2 0.000284699
2 *1535:X 0.000284699
3 *1536:A2 *1445:A 3.27294e-05
4 *1536:A2 *1794:A 2.05056e-05
5 *1536:A2 *2000:A 8.93531e-05
6 *1536:A2 *458:61 6.03407e-05
7 *1536:A2 *531:50 0.000198149
8 *1536:A2 *622:14 4.66108e-05
9 *1536:A2 *627:34 1.03423e-05
10 *1509:C1 *1536:A2 0.000290961
11 *1511:A2 *1536:A2 8.40269e-05
12 *1535:A3 *1536:A2 8.40269e-05
13 *229:14 *1536:A2 7.59573e-06
*RES
1 *1535:X *1536:A2 13.95 
*END

*D_NET *434 0.00286523
*CONN
*I *1794:A I *D sky130_fd_sc_hd__buf_2
*I *1569:B I *D sky130_fd_sc_hd__nand2_1
*I *1537:Y O *D sky130_fd_sc_hd__nor2_1
*CAP
1 *1794:A 0.000713019
2 *1569:B 5.04791e-05
3 *1537:Y 0.000763498
4 *1569:B *1996:A 1.19928e-05
5 *1569:B *521:38 8.23457e-05
6 *1794:A *1537:B 0.00022831
7 *1794:A *1795:A 9.83221e-05
8 *1794:A *617:28 0.00023124
9 *1535:A3 *1794:A 4.82919e-05
10 *1536:A2 *1794:A 2.05056e-05
11 *1537:A *1569:B 3.4026e-05
12 *1570:A2 *1794:A 5.86519e-05
13 *403:12 *1794:A 0.000524549
*RES
1 *1537:Y *1569:B 4.355 
2 *1537:Y *1794:A 18.525 
*END

*D_NET *435 0.00207519
*CONN
*I *1541:C1 I *D sky130_fd_sc_hd__o211a_1
*I *1538:Y O *D sky130_fd_sc_hd__nand2_1
*CAP
1 *1541:C1 0.000750721
2 *1538:Y 0.000750721
3 *1541:C1 *1541:B1 4.87465e-06
4 *1541:C1 *1548:A 0.000106126
5 *1541:C1 *1550:B1 3.26889e-05
6 *1541:C1 *455:6 8.23457e-05
7 *1541:C1 *455:8 1.08758e-05
8 *1541:C1 *622:90 0.000236849
9 *1541:C1 *623:92 2.05056e-05
10 *1541:C1 *624:106 5.0651e-05
11 *1496:A *1541:C1 1.10085e-05
12 *1496:C *1541:C1 5.83121e-06
13 *1499:A *1541:C1 1.19928e-05
*RES
1 *1538:Y *1541:C1 19.215 
*END

*D_NET *436 0.00441719
*CONN
*I *1795:A I *D sky130_fd_sc_hd__buf_2
*I *1570:B1 I *D sky130_fd_sc_hd__o211a_1
*I *1539:Y O *D sky130_fd_sc_hd__nor2_1
*CAP
1 *1795:A 0.000604311
2 *1570:B1 1.07756e-05
3 *1539:Y 0.000468203
4 *436:24 0.00108329
5 *1570:B1 *1570:C1 1.67131e-05
6 *1795:A *1570:C1 0.000122331
7 *1795:A *1582:CLK 2.45351e-05
8 *1795:A *494:28 0.00015639
9 *1795:A *580:18 0.000290931
10 *1795:A *622:46 0.000290931
11 *436:24 *1570:A1 0.000118081
12 *436:24 *1582:CLK 4.21973e-05
13 *436:24 *471:20 1.92585e-05
14 *436:24 *538:40 0.000145037
15 *436:24 *568:52 6.07809e-06
16 *436:24 *586:51 6.23438e-05
17 *436:24 *622:14 0.000171104
18 *1500:C *436:24 3.41554e-05
19 *1510:B *436:24 5.79857e-06
20 *1539:B *436:24 0.000319316
21 *1570:A2 *1795:A 5.86519e-05
22 *1582:D *436:24 1.19928e-05
23 *1585:D *436:24 6.75047e-05
24 *1794:A *1795:A 9.83221e-05
25 *403:12 *1795:A 5.94287e-05
26 *406:18 *436:24 8.23457e-05
27 *425:18 *436:24 4.71654e-05
*RES
1 *1539:Y *436:24 15.6495 
2 *436:24 *1570:B1 1.96 
3 *436:24 *1795:A 16.745 
*END

*D_NET *437 0.00293974
*CONN
*I *1544:B1 I *D sky130_fd_sc_hd__o211a_1
*I *1542:Y O *D sky130_fd_sc_hd__nand2_1
*CAP
1 *1544:B1 0.000897587
2 *1542:Y 0.000897587
3 *1544:B1 *1455:A1 4.61807e-05
4 *1544:B1 *1540:B 7.00889e-06
5 *1544:B1 *1985:A 4.82919e-05
6 *1544:B1 *2007:A 5.78439e-05
7 *1544:B1 *2008:A 0
8 *1544:B1 *2009:A 9.3714e-05
9 *1544:B1 *2017:A 4.99619e-05
10 *1544:B1 *493:43 0.000153124
11 *1544:B1 *579:10 1.22127e-05
12 *1544:B1 *600:14 0.000139675
13 *1544:B1 *617:22 9.08507e-05
14 VALUE_top10 *1544:B1 0.000122331
15 VALUE_top9 *1544:B1 4.66108e-05
16 *1498:B *1544:B1 1.29825e-05
17 *1544:A2 *1544:B1 4.82919e-05
18 *1671:D *1544:B1 0.000127224
19 *376:12 *1544:B1 8.8266e-05
*RES
1 *1542:Y *1544:B1 21.915 
*END

*D_NET *438 0.00510283
*CONN
*I *1547:B1 I *D sky130_fd_sc_hd__o211a_1
*I *1545:Y O *D sky130_fd_sc_hd__nand2_1
*CAP
1 *1547:B1 0.00126719
2 *1545:Y 0.00126719
3 *1547:B1 *1545:A 5.75488e-05
4 *1547:B1 *488:28 0.00105918
5 *1547:B1 *577:30 0.000315608
6 *1547:B1 *612:20 0.000215232
7 *1547:B1 *614:40 0.000371098
8 *1547:B1 *684:26 0.000231157
9 *1479:S1 *1547:B1 0.000247237
10 *1499:A *1547:B1 9.5799e-06
11 *1510:A *1547:B1 1.74629e-05
12 *1547:A2 *1547:B1 3.82018e-05
13 *1669:D *1547:B1 0
14 *395:12 *1547:B1 6.14579e-06
*RES
1 *1545:Y *1547:B1 14.5779 
*END

*D_NET *439 0.00123744
*CONN
*I *1550:B1 I *D sky130_fd_sc_hd__o211a_1
*I *1548:Y O *D sky130_fd_sc_hd__nand2_1
*CAP
1 *1550:B1 0.000323737
2 *1548:Y 0.000323737
3 *1550:B1 *1548:A 1.08758e-05
4 *1550:B1 *1548:B 8.65961e-05
5 *1550:B1 *584:12 1.33293e-05
6 *1550:B1 *623:88 4.66108e-05
7 *1550:B1 *623:92 0.000245734
8 *1541:C1 *1550:B1 3.26889e-05
9 *1550:A2 *1550:B1 0.000154126
*RES
1 *1548:Y *1550:B1 9.545 
*END

*D_NET *440 0.00220949
*CONN
*I *1553:B1 I *D sky130_fd_sc_hd__o211a_1
*I *1551:Y O *D sky130_fd_sc_hd__nand2_1
*CAP
1 *1553:B1 0.000497849
2 *1551:Y 0.000497849
3 *1553:B1 *1538:A 0.000153816
4 *1553:B1 *1952:A 1.38413e-05
5 *1553:B1 *2012:A 6.07575e-06
6 *1553:B1 *463:20 7.51819e-05
7 *1553:B1 *518:24 0.000107382
8 *1553:B1 *585:26 0.0002639
9 *1553:B1 *621:22 0.000107444
10 *1497:B *1553:B1 0.000378519
11 *1497:C *1553:B1 3.00381e-05
12 *1553:A2 *1553:B1 7.75976e-05
*RES
1 *1551:Y *1553:B1 18.675 
*END

*D_NET *441 0.000313292
*CONN
*I *1556:B1 I *D sky130_fd_sc_hd__o211a_1
*I *1554:Y O *D sky130_fd_sc_hd__nand2_1
*CAP
1 *1556:B1 0.000107869
2 *1554:Y 0.000107869
3 *1556:B1 *1554:B 2.68464e-05
4 *1556:B1 *1556:A1 7.79767e-06
5 *1556:B1 *1556:C1 1.92392e-05
6 *1556:B1 *629:22 7.11235e-06
7 *1556:A2 *1556:B1 3.6558e-05
*RES
1 *1554:Y *1556:B1 5.045 
*END

*D_NET *442 0.00264724
*CONN
*I *1559:B1 I *D sky130_fd_sc_hd__o211a_1
*I *1557:Y O *D sky130_fd_sc_hd__nand2_1
*CAP
1 *1559:B1 0.000945439
2 *1557:Y 0.000945439
3 *1559:B1 *1557:A 1.19928e-05
4 *1559:B1 *1559:C1 4.66474e-05
5 *1559:B1 *1964:A 4.66474e-05
6 *1559:B1 *624:53 0.00064792
7 *1559:B1 *651:14 3.1562e-06
*RES
1 *1557:Y *1559:B1 19.875 
*END

*D_NET *443 0.00290099
*CONN
*I *1562:B1 I *D sky130_fd_sc_hd__o211a_1
*I *1560:Y O *D sky130_fd_sc_hd__nand2_1
*CAP
1 *1562:B1 0.00052083
2 *1560:Y 0.00052083
3 *1562:B1 *1549:B 9.1635e-05
4 *1562:B1 *1560:B 4.47938e-06
5 *1562:B1 *2011:A 0.000236569
6 *1562:B1 *2012:A 0.000573996
7 *1562:B1 *2013:A 0.000136868
8 *1562:B1 *462:20 7.43126e-05
9 *1562:B1 *623:82 4.83327e-05
10 *1562:A2 *1562:B1 0.000273869
11 *1657:D *1562:B1 0.000419264
*RES
1 *1560:Y *1562:B1 21.285 
*END

*D_NET *444 0.000616122
*CONN
*I *1565:B1 I *D sky130_fd_sc_hd__o211a_1
*I *1563:Y O *D sky130_fd_sc_hd__nand2_1
*CAP
1 *1565:B1 0.000139863
2 *1563:Y 0.000139863
3 *1565:B1 *1563:A 4.66108e-05
4 *1565:B1 *1565:A1 1.76441e-05
5 *1565:B1 *1568:B1 8.5002e-05
6 *1565:B1 *456:80 0.000140528
7 *1565:B1 *624:53 4.66108e-05
*RES
1 *1563:Y *1565:B1 6.425 
*END

*D_NET *445 0.00243835
*CONN
*I *1568:B1 I *D sky130_fd_sc_hd__o211a_1
*I *1566:Y O *D sky130_fd_sc_hd__nand2_1
*CAP
1 *1568:B1 0.000905177
2 *1566:Y 0.000905177
3 *1568:B1 *1565:A1 4.41506e-05
4 *1568:B1 *1568:C1 5.74866e-05
5 *1568:B1 *1970:A 8.12896e-06
6 *1568:B1 *456:80 1.6408e-05
7 *1568:B1 *456:95 8.34281e-06
8 *1568:B1 *456:106 7.97898e-05
9 *1568:B1 *589:10 0.000167266
10 *1568:B1 *623:12 3.64998e-06
11 *1568:B1 *623:31 8.23457e-05
12 *1565:B1 *1568:B1 8.5002e-05
13 *1662:D *1568:B1 7.54283e-05
*RES
1 *1566:Y *1568:B1 15.455 
*END

*D_NET *446 0.00285785
*CONN
*I *1570:C1 I *D sky130_fd_sc_hd__o211a_1
*I *1569:Y O *D sky130_fd_sc_hd__nand2_1
*CAP
1 *1570:C1 0.000526344
2 *1569:Y 0.000526344
3 *1570:C1 *1582:CLK 1.91597e-05
4 *1570:C1 *494:28 0.000311983
5 *1570:C1 *551:30 0.000599597
6 *1570:C1 *555:32 2.49909e-05
7 *1570:C1 *589:77 0.000131565
8 *1570:C1 *622:46 0.000405287
9 *1479:S1 *1570:C1 2.05641e-05
10 *1570:B1 *1570:C1 1.67131e-05
11 *1582:D *1570:C1 0.00015297
12 *1795:A *1570:C1 0.000122331
*RES
1 *1569:Y *1570:C1 20.805 
*END

*D_NET *447 0.00305181
*CONN
*I *1573:B1 I *D sky130_fd_sc_hd__o21a_1
*I *1572:Y O *D sky130_fd_sc_hd__a21boi_1
*CAP
1 *1573:B1 0.000725148
2 *1572:Y 0.000725148
3 *1573:B1 *1573:A2 0.000349592
4 *1573:B1 *1665:CLK 0.000137005
5 *1573:B1 *1667:CLK 3.00875e-05
6 *1573:B1 *457:74 0.000199541
7 *1573:B1 *579:72 0.000277223
8 *1665:D *1573:B1 0.00019209
9 *1666:D *1573:B1 0.000154361
10 *1667:D *1573:B1 0.000261617
*RES
1 *1572:Y *1573:B1 17.69 
*END

*D_NET *448 0.0033179
*CONN
*I *1576:B I *D sky130_fd_sc_hd__and3_1
*I *1574:X O *D sky130_fd_sc_hd__a21o_1
*CAP
1 *1576:B 0.000939418
2 *1574:X 0.000939418
3 *1576:B *1586:CLK 8.74941e-05
4 *1576:B *1667:CLK 5.03424e-05
5 *1576:B *449:57 6.59891e-05
6 *1576:B *457:65 0.000252005
7 *1576:B *528:24 0.000104672
8 *1576:B *577:30 0.000126045
9 *1576:B *584:90 4.36573e-05
10 *1448:A *1576:B 6.33103e-05
11 *1572:A2 *1576:B 0
12 *1577:A *1576:B 0.000455405
13 *1667:D *1576:B 3.20715e-05
14 *232:20 *1576:B 0.000158072
15 *249:18 *1576:B 0
*RES
1 *1574:X *1576:B 25.705 
*END

*D_NET *449 0.00863127
*CONN
*I *1576:C I *D sky130_fd_sc_hd__and3_1
*I *1577:B I *D sky130_fd_sc_hd__or2_1
*I *1578:B I *D sky130_fd_sc_hd__nand2_1
*I *1575:Y O *D sky130_fd_sc_hd__nand3_1
*CAP
1 *1576:C 5.86207e-05
2 *1577:B 0.000104727
3 *1578:B 0.000145791
4 *1575:Y 0.000979233
5 *449:57 0.000728993
6 *449:34 0.00169067
7 *1576:C *2004:A 9.16333e-06
8 *1577:B *1951:A 0.000318091
9 *1578:B *1586:CLK 6.59891e-05
10 *1578:B *577:30 0.000149186
11 *449:34 *1573:A2 6.00029e-05
12 *449:34 *1951:A 0.000126634
13 *449:34 *568:52 7.96104e-06
14 *449:34 *570:24 0.000125996
15 *449:34 *577:30 0.000559763
16 *449:34 *579:72 0.000618244
17 *449:57 *1586:CLK 6.47156e-05
18 *449:57 *1951:A 0.000787994
19 *449:57 *457:65 0.000175614
20 *449:57 *528:24 0.000213079
21 *449:57 *552:56 0.000103545
22 HOLD_top *1577:B 4.20483e-05
23 RESET_top *1576:C 4.61256e-05
24 *1502:B *449:34 0.000252408
25 *1503:B *1578:B 4.77719e-05
26 *1504:B *449:34 1.91597e-05
27 *1505:A *449:34 8.83797e-05
28 *1574:A2 *449:34 0
29 *1576:B *449:57 6.59891e-05
30 *1666:D *449:34 0.000160635
31 *213:13 *1577:B 0.000314745
32 *213:13 *449:57 0.00045888
33 *232:34 *1577:B 5.53249e-06
34 *246:14 *449:34 8.73147e-06
35 *249:18 *1578:B 2.68464e-05
*RES
1 *1575:Y *449:34 31.03 
2 *449:34 *1578:B 8.06 
3 *449:34 *449:57 18.595 
4 *449:57 *1577:B 9.845 
5 *449:57 *1576:C 6.89 
*END

*D_NET *450 0.000623893
*CONN
*I *1579:B I *D sky130_fd_sc_hd__and3_1
*I *1577:X O *D sky130_fd_sc_hd__or2_1
*CAP
1 *1579:B 0.000186882
2 *1577:X 0.000186882
3 *1579:B *1455:A1 0.000238137
4 *1577:A *1579:B 1.19928e-05
*RES
1 *1577:X *1579:B 5.72 
*END

*D_NET *451 0.00275967
*CONN
*I *1579:C I *D sky130_fd_sc_hd__and3_1
*I *1578:Y O *D sky130_fd_sc_hd__nand2_1
*CAP
1 *1579:C 0.000711362
2 *1578:Y 0.000711362
3 *1579:C *2004:A 0.000198618
4 *1579:C *471:20 0.000431243
5 *1579:C *552:56 4.38278e-05
6 *1579:C *631:71 4.40325e-06
7 *1455:S *1579:C 0
8 *1503:B *1579:C 7.08554e-05
9 *1576:A *1579:C 0.000104068
10 *1577:A *1579:C 0.00042793
11 *1578:A *1579:C 1.19928e-05
12 *1667:D *1579:C 4.40028e-05
*RES
1 *1578:Y *1579:C 20.715 
*END

*D_NET *452 0.00167779
*CONN
*I *1787:A I *D sky130_fd_sc_hd__clkbuf_16
*I *1785:X O *D sky130_fd_sc_hd__clkbuf_16
*CAP
1 *1787:A 0.000520398
2 *1785:X 0.000520398
3 *1787:A *1961:A 8.82051e-05
4 *1787:A *622:119 0.000139379
5 *1787:A *634:26 0.000270035
6 *1497:C *1787:A 0.000139379
*RES
1 *1785:X *1787:A 15.3 
*END

*D_NET *453 0.010439
*CONN
*I *1791:A I *D sky130_fd_sc_hd__clkbuf_16
*I *1790:A I *D sky130_fd_sc_hd__clkbuf_16
*I *1789:A I *D sky130_fd_sc_hd__clkbuf_16
*I *1788:A I *D sky130_fd_sc_hd__clkbuf_16
*I *1786:X O *D sky130_fd_sc_hd__clkbuf_16
*CAP
1 *1791:A 0.000234336
2 *1790:A 0.000282106
3 *1789:A 0.000286978
4 *1788:A 0.00019007
5 *1786:X 0.00120334
6 *453:37 0.000761927
7 *453:8 0.00143491
8 *1788:A *1548:A 0.000156051
9 *1788:A *622:46 0.000401287
10 *1789:A *1526:A1 0.000157651
11 *1789:A *1567:A 4.82919e-05
12 *1789:A *2016:A 0.0002602
13 *1789:A *589:35 0.000111543
14 *1789:A *616:26 0.000278927
15 *1789:A *622:46 6.05081e-05
16 *1790:A *1455:A1 0.000194694
17 *1790:A *1622:GATE 6.8919e-05
18 *1790:A *457:8 0.000270088
19 *1790:A *457:12 0.000193801
20 *1790:A *548:68 2.10902e-05
21 *1790:A *577:30 2.39856e-05
22 *1790:A *578:18 0.000361901
23 *1790:A *631:90 0.00012849
24 *1791:A *1445:A 7.9642e-06
25 *1791:A *458:61 0
26 *1791:A *531:50 2.98807e-05
27 *1791:A *578:18 0.000350642
28 *1791:A *631:90 0.000445228
29 *453:8 *1561:A 0.000746536
30 *453:8 *1561:B 0.000356918
31 *453:8 *1563:A 0.00015896
32 *453:37 *1546:A 8.40213e-05
33 *453:37 *1546:B 2.54431e-05
34 *453:37 *1561:A 0.000122435
35 *453:37 *591:6 0.000188069
36 *1455:S *1790:A 4.94457e-05
37 *1496:C *1788:A 2.74798e-05
38 *1496:C *1789:A 1.63344e-05
39 *1499:B *453:8 1.6408e-05
40 *1506:A *453:37 6.58339e-05
41 *1506:C *453:37 8.23457e-05
42 *1511:A2 *453:37 0.000155444
43 *1805:A *453:37 4.77757e-05
44 *229:14 *1791:A 3.17137e-05
45 *232:24 *1790:A 8.0687e-05
46 *395:12 *453:37 0.000218354
*RES
1 *1786:X *453:8 16.125 
2 *453:8 *1788:A 8.55 
3 *453:8 *1789:A 11.295 
4 *1786:X *453:37 10.95 
5 *453:37 *1790:A 12.285 
6 *453:37 *1791:A 9.825 
*END

*D_NET *454 7.71901e-05
*CONN
*I *1784:A I *D sky130_fd_sc_hd__buf_2
*I *1787:X O *D sky130_fd_sc_hd__clkbuf_16
*CAP
1 *1784:A 3.07736e-05
2 *1787:X 3.07736e-05
3 *1497:B *1784:A 1.56428e-05
*RES
1 *1787:X *1784:A 3.65 
*END

*D_NET *455 0.00778433
*CONN
*I *1672:CLK I *D sky130_fd_sc_hd__dfxtp_1
*I *1793:A I *D sky130_fd_sc_hd__clkbuf_8
*I *1671:CLK I *D sky130_fd_sc_hd__dfxtp_1
*I *1670:CLK I *D sky130_fd_sc_hd__dfxtp_1
*I *1661:CLK I *D sky130_fd_sc_hd__dfxtp_2
*I *1657:CLK I *D sky130_fd_sc_hd__dfxtp_2
*I *1676:CLK I *D sky130_fd_sc_hd__dfxtp_1
*I *1673:CLK I *D sky130_fd_sc_hd__dfxtp_1
*I *1788:X O *D sky130_fd_sc_hd__clkbuf_16
*CAP
1 *1672:CLK 0.00013275
2 *1793:A 0
3 *1671:CLK 0.000139769
4 *1670:CLK 7.9345e-05
5 *1661:CLK 0.000286018
6 *1657:CLK 0
7 *1676:CLK 0
8 *1673:CLK 0.000553723
9 *1788:X 0.000140014
10 *455:75 0.000673595
11 *455:65 0.000522756
12 *455:63 0.000319904
13 *455:34 0.00048263
14 *455:8 0.000587371
15 *455:6 0.000251393
16 *1661:CLK *1549:B 5.93824e-05
17 *1661:CLK *1961:A 0.000107103
18 *1661:CLK *456:60 0.000104306
19 *1670:CLK *2006:A 9.17274e-05
20 *1670:CLK *623:113 3.59531e-06
21 *1671:CLK *1540:B 4.82919e-05
22 *1671:CLK *1542:B 5.77541e-05
23 *1671:CLK *600:14 8.69583e-05
24 *1672:CLK *584:10 0
25 *1673:CLK *1538:B 9.03508e-06
26 *1673:CLK *616:26 0.000127842
27 *1673:CLK *621:22 0.000265431
28 *1673:CLK *622:94 1.16578e-05
29 *1673:CLK *622:102 0.000200441
30 *455:6 *622:90 4.35348e-05
31 *455:8 *622:90 3.00381e-05
32 *455:8 *622:94 2.30292e-05
33 *455:34 *1538:A 0.00011041
34 *455:34 *1549:B 0.00011824
35 *455:34 *456:60 9.50342e-06
36 *455:63 *622:90 0.000155491
37 *455:65 *2014:A 1.71207e-05
38 *455:65 *584:10 0
39 *455:75 *1540:B 4.66742e-05
40 *455:75 *1542:B 0.000220313
41 *455:75 *1543:A 2.72392e-05
42 *455:75 *2014:A 0.000131409
43 *455:75 *2015:A 0
44 *455:75 *2016:A 2.0514e-05
45 *455:75 *493:26 0.000381077
46 *455:75 *584:10 0
47 VALUE_top6 *455:75 6.05513e-05
48 *1498:B *1670:CLK 0
49 *1498:B *1671:CLK 6.69608e-06
50 *1541:C1 *455:6 8.23457e-05
51 *1541:C1 *455:8 1.08758e-05
52 *1550:A2 *1672:CLK 0.000208355
53 *1550:A2 *455:65 7.06865e-05
54 *1658:D *455:34 9.044e-05
55 *1673:D *1673:CLK 1.43717e-05
56 *1676:D *1673:CLK 7.11145e-05
57 *1676:D *455:34 7.84405e-05
58 *239:8 *1673:CLK 0.00017055
59 *242:8 *1673:CLK 0.000145752
60 *393:12 *455:75 8.69583e-05
61 *394:14 *1671:CLK 9.80943e-06
*RES
1 *1788:X *455:6 2.395 
2 *455:6 *455:8 0.795 
3 *455:8 *1673:CLK 14.545 
4 *455:8 *1676:CLK 1.6 
5 *455:6 *455:34 6.185 
6 *455:34 *1657:CLK 3.6 
7 *455:34 *1661:CLK 8.115 
8 *1788:X *455:63 5.085 
9 *455:63 *455:65 1.38 
10 *455:65 *455:75 12.05 
11 *455:75 *1670:CLK 6.98 
12 *455:75 *1671:CLK 4.495 
13 *455:65 *1793:A 3.6 
14 *455:63 *1672:CLK 6.255 
*END

*D_NET *456 0.0095839
*CONN
*I *1663:CLK I *D sky130_fd_sc_hd__dfxtp_2
*I *1678:CLK I *D sky130_fd_sc_hd__dfxtp_1
*I *1662:CLK I *D sky130_fd_sc_hd__dfxtp_1
*I *1677:CLK I *D sky130_fd_sc_hd__dfxtp_1
*I *1658:CLK I *D sky130_fd_sc_hd__dfxtp_2
*I *1674:CLK I *D sky130_fd_sc_hd__dfxtp_1
*I *1675:CLK I *D sky130_fd_sc_hd__dfxtp_1
*I *1660:CLK I *D sky130_fd_sc_hd__dfxtp_2
*I *1659:CLK I *D sky130_fd_sc_hd__dfxtp_2
*I *1789:X O *D sky130_fd_sc_hd__clkbuf_16
*CAP
1 *1663:CLK 0.000116525
2 *1678:CLK 8.80419e-05
3 *1662:CLK 0
4 *1677:CLK 0.00014755
5 *1658:CLK 0
6 *1674:CLK 0.000439272
7 *1675:CLK 2.70895e-05
8 *1660:CLK 0
9 *1659:CLK 0.000330226
10 *1789:X 0.000321936
11 *456:106 0.000359776
12 *456:95 0.000192991
13 *456:80 0.000389589
14 *456:60 0.000629568
15 *456:47 0.000513033
16 *456:41 0.000547578
17 *456:6 0.000604489
18 *1659:CLK *1476:A0 8.7152e-06
19 *1659:CLK *1556:A1 7.23943e-06
20 *1659:CLK *1952:A 8.05818e-05
21 *1659:CLK *460:16 0.00010836
22 *1659:CLK *586:125 3.83194e-05
23 *1659:CLK *613:24 0.000119866
24 *1659:CLK *629:22 0
25 *1663:CLK *1567:B 8.7152e-06
26 *1663:CLK *1970:A 2.11536e-05
27 *1663:CLK *530:30 0.00012182
28 *1663:CLK *552:56 6.26921e-05
29 *1674:CLK *585:8 1.56428e-05
30 *1674:CLK *618:18 1.83847e-05
31 *1675:CLK *1556:C1 2.49909e-05
32 *1677:CLK *1526:A1 2.03245e-05
33 *1677:CLK *2016:A 0.000219207
34 *1677:CLK *461:24 0.000344905
35 *1677:CLK *589:35 0.000103707
36 *1678:CLK *552:56 0.000144791
37 *456:6 *460:16 0.000272553
38 *456:6 *586:125 5.07494e-05
39 *456:6 *587:8 4.80285e-05
40 *456:41 *1567:A 9.44791e-05
41 *456:41 *1961:A 0
42 *456:47 *1556:C1 1.91597e-05
43 *456:47 *1563:B 1.92979e-05
44 *456:47 *1567:A 5.97296e-05
45 *456:47 *1961:A 0
46 *456:47 *623:37 2.75229e-05
47 *456:47 *623:39 2.75145e-05
48 *456:47 *623:41 0.000127191
49 *456:47 *624:37 0.000136023
50 *456:60 *1549:B 1.74905e-05
51 *456:60 *1559:C1 4.83522e-05
52 *456:60 *1961:A 6.06034e-05
53 *456:60 *2014:A 0.000133148
54 *456:80 *1563:A 4.66108e-05
55 *456:80 *1565:A1 2.8694e-05
56 *456:80 *623:31 0.000196376
57 *456:95 *1565:A1 4.66108e-05
58 *456:95 *623:31 5.30022e-05
59 *456:106 *589:10 4.38278e-05
60 *456:106 *623:31 0.000527683
61 *1497:C *456:60 0
62 *1565:B1 *456:80 0.000140528
63 *1568:B1 *456:80 1.6408e-05
64 *1568:B1 *456:95 8.34281e-06
65 *1568:B1 *456:106 7.97898e-05
66 *1658:D *1674:CLK 0.000109424
67 *1659:D *1659:CLK 2.8531e-05
68 *1660:D *456:6 0.000279295
69 *1661:CLK *456:60 0.000104306
70 *1662:D *456:95 4.82919e-05
71 *1662:D *456:106 0.000102478
72 *1676:D *1674:CLK 3.45679e-05
73 *1676:D *456:60 3.05295e-05
74 *1677:D *1677:CLK 4.66108e-05
75 *1678:D *1678:CLK 6.10955e-05
76 *402:8 *1663:CLK 9.21178e-05
77 *402:8 *1678:CLK 0.000130349
78 *455:34 *456:60 9.50342e-06
*RES
1 *1789:X *456:6 8.605 
2 *456:6 *1659:CLK 11.12 
3 *456:6 *1660:CLK 1.6 
4 *1789:X *456:41 4.725 
5 *456:41 *456:47 7.61 
6 *456:47 *1675:CLK 2.05 
7 *456:47 *456:60 8.185 
8 *456:60 *1674:CLK 8.275 
9 *456:60 *1658:CLK 1.6 
10 *456:41 *456:80 6.26 
11 *456:80 *1677:CLK 10.235 
12 *456:80 *456:95 1.14 
13 *456:95 *1662:CLK 1.6 
14 *456:95 *456:106 7.295 
15 *456:106 *1678:CLK 6 
16 *456:106 *1663:CLK 6.375 
*END

*D_NET *457 0.00971376
*CONN
*I *1586:CLK I *D sky130_fd_sc_hd__dfxtp_1
*I *1665:CLK I *D sky130_fd_sc_hd__dfxtp_1
*I *1666:CLK I *D sky130_fd_sc_hd__dfxtp_1
*I *1667:CLK I *D sky130_fd_sc_hd__dfxtp_1
*I *1668:CLK I *D sky130_fd_sc_hd__dfxtp_1
*I *1655:CLK I *D sky130_fd_sc_hd__dfxtp_2
*I *1656:CLK I *D sky130_fd_sc_hd__dfxtp_2
*I *1669:CLK I *D sky130_fd_sc_hd__dfxtp_1
*I *1654:CLK I *D sky130_fd_sc_hd__dfxtp_2
*I *1790:X O *D sky130_fd_sc_hd__clkbuf_16
*CAP
1 *1586:CLK 0.000283861
2 *1665:CLK 4.38186e-05
3 *1666:CLK 7.67905e-05
4 *1667:CLK 4.04413e-05
5 *1668:CLK 7.44376e-05
6 *1655:CLK 0
7 *1656:CLK 0
8 *1669:CLK 0.000306965
9 *1654:CLK 6.98357e-05
10 *1790:X 2.15402e-05
11 *457:74 0.000261703
12 *457:65 0.000401822
13 *457:59 0.000527974
14 *457:16 0.000376801
15 *457:14 0.000453568
16 *457:12 0.000563113
17 *457:8 0.000404202
18 *457:6 0.000265584
19 *1586:CLK *528:24 0
20 *1586:CLK *577:30 2.32615e-05
21 *1586:CLK *628:41 0.000100653
22 *1654:CLK *1543:B 0.000147352
23 *1666:CLK *528:24 0
24 *1668:CLK *2004:A 4.41712e-05
25 *1668:CLK *675:42 2.99445e-05
26 *1669:CLK *1543:B 0.000152767
27 *1669:CLK *551:30 7.51877e-05
28 *1669:CLK *624:14 7.55866e-05
29 *457:8 *552:56 0.000342083
30 *457:8 *584:90 0.000638014
31 *457:12 *577:30 9.27255e-06
32 *457:14 *1544:C1 0.000178893
33 *457:14 *577:30 0.000438675
34 *457:14 *579:10 2.75229e-05
35 *457:14 *579:72 0.000171288
36 *457:59 *552:56 4.66108e-05
37 *1572:A2 *457:65 0
38 *1573:B1 *1665:CLK 0.000137005
39 *1573:B1 *1667:CLK 3.00875e-05
40 *1573:B1 *457:74 0.000199541
41 *1575:C *1666:CLK 5.07376e-05
42 *1576:B *1586:CLK 8.74941e-05
43 *1576:B *1667:CLK 5.03424e-05
44 *1576:B *457:65 0.000252005
45 *1578:B *1586:CLK 6.59891e-05
46 *1655:D *457:14 0.000162455
47 *1656:D *457:14 0.000108614
48 *1666:D *1665:CLK 4.29107e-05
49 *1666:D *1666:CLK 0.000112893
50 *1666:D *457:74 1.83756e-05
51 *1667:D *1667:CLK 0.000111315
52 *1668:D *1668:CLK 8.7152e-06
53 *1759:A *457:12 0.000122325
54 *1759:A *457:14 4.35432e-05
55 *1790:A *457:8 0.000270088
56 *1790:A *457:12 0.000193801
57 *1823:A *1669:CLK 0.000130252
58 *231:10 *1669:CLK 0.000124014
59 *232:20 *457:8 9.80943e-06
60 *232:24 *457:8 5.23434e-05
61 *232:26 *1668:CLK 6.43774e-05
62 *235:8 *1654:CLK 0.000148583
63 *235:8 *1669:CLK 4.09813e-05
64 *248:8 *1665:CLK 2.49909e-05
65 *248:37 *1666:CLK 0.000125217
66 *249:18 *1586:CLK 0
67 *395:12 *1669:CLK 1.08814e-05
68 *449:57 *1586:CLK 6.47156e-05
69 *449:57 *457:65 0.000175614
*RES
1 *1790:X *457:6 1.96 
2 *457:6 *457:8 7.35 
3 *457:8 *457:12 2.535 
4 *457:12 *457:14 11.49 
5 *457:14 *457:16 2 
6 *457:16 *1654:CLK 5.49 
7 *457:16 *1669:CLK 9.825 
8 *457:14 *1656:CLK 1.6 
9 *457:12 *1655:CLK 1.6 
10 *457:8 *1668:CLK 7.235 
11 *457:6 *457:59 2.45 
12 *457:59 *457:65 6.545 
13 *457:65 *1667:CLK 3.085 
14 *457:65 *457:74 3.21 
15 *457:74 *1666:CLK 7.745 
16 *457:74 *1665:CLK 3.085 
17 *457:59 *1586:CLK 8.04 
*END

*D_NET *458 0.00945785
*CONN
*I *1584:CLK I *D sky130_fd_sc_hd__dfxtp_1
*I *1580:CLK I *D sky130_fd_sc_hd__dfxtp_1
*I *1664:CLK I *D sky130_fd_sc_hd__dfxtp_1
*I *1585:CLK I *D sky130_fd_sc_hd__dfxtp_2
*I *1653:CLK I *D sky130_fd_sc_hd__dfxtp_1
*I *1679:CLK I *D sky130_fd_sc_hd__dfxtp_1
*I *1582:CLK I *D sky130_fd_sc_hd__dfxtp_1
*I *1583:CLK I *D sky130_fd_sc_hd__dfxtp_1
*I *1581:CLK I *D sky130_fd_sc_hd__dfxtp_1
*I *1791:X O *D sky130_fd_sc_hd__clkbuf_16
*CAP
1 *1584:CLK 1.45366e-05
2 *1580:CLK 0
3 *1664:CLK 0.000143184
4 *1585:CLK 0
5 *1653:CLK 0.000142577
6 *1679:CLK 0.000169883
7 *1582:CLK 0.000156468
8 *1583:CLK 7.4802e-05
9 *1581:CLK 0.00025411
10 *1791:X 0.000418131
11 *458:80 0.000355108
12 *458:78 6.1543e-05
13 *458:63 0.000226926
14 *458:61 0.00068071
15 *458:49 0.000631267
16 *458:30 0.000340183
17 *458:28 0.000298634
18 *1581:CLK *1479:A1 0
19 *1581:CLK *531:50 8.4961e-05
20 *1581:CLK *578:18 0
21 *1582:CLK *1570:A1 4.66108e-05
22 *1583:CLK *538:40 1.31227e-05
23 *1583:CLK *581:16 2.86975e-05
24 *1583:CLK *581:108 2.68464e-05
25 *1583:CLK *628:41 6.01025e-05
26 *1584:CLK *2000:A 3.15734e-05
27 *1584:CLK *568:52 2.64891e-05
28 *1664:CLK *1535:A2 1.1071e-05
29 *1664:CLK *622:46 4.82863e-05
30 *1679:CLK *1535:B1 8.40269e-05
31 *1679:CLK *1545:A 0.000147635
32 *458:28 *1446:A 0.000121682
33 *458:28 *531:50 8.65905e-05
34 *458:28 *578:32 3.59531e-06
35 *458:28 *627:34 8.49205e-05
36 *458:30 *1446:A 9.50342e-06
37 *458:30 *1617:GATE 0
38 *458:30 *531:50 0
39 *458:30 *568:52 1.7635e-05
40 *458:49 *538:40 0.000529761
41 *458:49 *581:16 9.3038e-05
42 *458:49 *628:41 0.000199833
43 *458:61 *1987:A 0.000145726
44 *458:61 *538:40 8.49205e-05
45 *458:61 *578:18 6.57949e-06
46 *458:61 *581:16 0.000382472
47 *458:61 *662:22 0.000611788
48 *458:78 *1447:A 1.91597e-05
49 *458:80 *1447:A 3.96653e-05
50 *1471:S *458:28 3.59531e-06
51 *1509:C1 *1581:CLK 2.56752e-06
52 *1510:A *1664:CLK 2.10582e-05
53 *1511:A2 *1582:CLK 0.000169535
54 *1511:A2 *1664:CLK 1.03592e-05
55 *1511:A2 *458:63 0.000111579
56 *1534:B *1664:CLK 8.73147e-06
57 *1536:A2 *458:61 6.03407e-05
58 *1570:A2 *1653:CLK 0.000263959
59 *1570:A2 *458:80 3.83194e-05
60 *1570:C1 *1582:CLK 1.91597e-05
61 *1580:D *458:49 1.43717e-05
62 *1581:D *1581:CLK 5.15745e-05
63 *1582:D *1582:CLK 0.000253738
64 *1653:D *1653:CLK 2.01504e-05
65 *1664:D *1582:CLK 0.000169535
66 *1664:D *1664:CLK 0.000243405
67 *1664:D *458:63 0.000117872
68 *1791:A *458:61 0
69 *1795:A *1582:CLK 2.45351e-05
70 *1818:A *1653:CLK 0.000119246
71 *229:14 *458:61 3.08009e-05
72 *229:33 *1581:CLK 2.0851e-06
73 *232:83 *458:61 0.000150881
74 *376:27 *1653:CLK 0.000116313
75 *376:27 *1664:CLK 9.30637e-06
76 *376:27 *1679:CLK 0.00014641
77 *376:27 *458:80 4.82863e-05
78 *376:38 *1664:CLK 4.72526e-05
79 *403:12 *1679:CLK 1.91597e-05
80 *406:18 *458:61 2.10582e-05
81 *425:18 *1653:CLK 5.84759e-05
82 *425:18 *458:78 1.56428e-05
83 *425:18 *458:80 1.19928e-05
84 *436:24 *1582:CLK 4.21973e-05
*RES
1 *1791:X *1581:CLK 10.65 
2 *1791:X *458:28 6.54 
3 *458:28 *458:30 1.635 
4 *458:30 *1583:CLK 5.01 
5 *458:30 *458:49 7.4 
6 *458:49 *458:61 8.05777 
7 *458:61 *458:63 1.5075 
8 *458:63 *1582:CLK 8.265 
9 *458:63 *458:78 2.45 
10 *458:78 *458:80 1.14 
11 *458:80 *1679:CLK 8.99 
12 *458:80 *1653:CLK 5.515 
13 *458:78 *1585:CLK 1.6 
14 *458:61 *1664:CLK 6.8325 
15 *458:49 *1580:CLK 1.6 
16 *458:28 *1584:CLK 4.05 
*END

*D_NET *459 0.0132857
*CONN
*I *1537:B I *D sky130_fd_sc_hd__nor2_1
*I *1535:A2 I *D sky130_fd_sc_hd__o31a_1
*I *1824:X O *D sky130_fd_sc_hd__buf_1
*CAP
1 *1537:B 0.000200819
2 *1535:A2 0.000213419
3 *1824:X 0.000803278
4 *459:26 0.00104248
5 *459:24 0.00143152
6 *1535:A2 *1987:A 6.16297e-05
7 *1535:A2 *531:50 0.000199718
8 *1535:A2 *581:16 0.000172956
9 *1535:A2 *662:22 0.000489437
10 *1537:B *1985:A 0.000400245
11 *1537:B *521:38 2.75145e-05
12 *1537:B *617:28 8.24097e-05
13 *459:24 *2006:A 9.26619e-05
14 *459:24 *462:44 0.000248131
15 *459:24 *463:20 0.000160538
16 *459:24 *493:26 2.19562e-06
17 *459:24 *526:32 2.48159e-05
18 *459:24 *526:34 0
19 *459:24 *551:16 0.000196376
20 *459:24 *570:12 0.00128404
21 *459:24 *617:22 0.00295249
22 *459:26 *1985:A 0.000891146
23 *459:26 *2007:A 0
24 *459:26 *2017:A 0.000107453
25 *459:26 *472:14 0
26 *459:26 *493:26 3.16707e-06
27 *459:26 *617:28 0.00011891
28 VALUE_top1 *459:24 0.000106153
29 VALUE_top7 *459:24 0.000538842
30 VALUE_top9 *459:26 4.21322e-05
31 *1511:A2 *1535:A2 1.88656e-05
32 *1537:A *1537:B 4.82863e-05
33 *1664:CLK *1535:A2 1.1071e-05
34 *1785:A *459:26 0.00032228
35 *1794:A *1537:B 0.00022831
36 *1824:A *459:24 1.08758e-05
37 *1835:A *459:24 6.42458e-05
38 *213:13 *459:26 0.000647216
39 *376:27 *1535:A2 4.0031e-05
*RES
1 *1824:X *459:24 40.99 
2 *459:24 *459:26 16.0425 
3 *459:26 *1535:A2 5.88297 
4 *459:26 *1537:B 9.1275 
*END

*D_NET *460 0.0128642
*CONN
*I *1697:A I *D sky130_fd_sc_hd__buf_1
*I *1638:D I *D sky130_fd_sc_hd__dlxtp_1
*I *1606:D I *D sky130_fd_sc_hd__dlxtp_1
*I *1825:X O *D sky130_fd_sc_hd__buf_1
*CAP
1 *1697:A 0.000371657
2 *1638:D 0
3 *1606:D 0
4 *1825:X 0.00264885
5 *460:27 0.000470462
6 *460:20 0.000421246
7 *460:16 0.00297129
8 *1697:A *1471:A0 0.000165627
9 *1697:A *1539:A 4.77757e-05
10 *1697:A *543:24 0.000188299
11 *1697:A *585:128 0.000155601
12 *1697:A *589:120 0.000467688
13 *1697:A *590:95 1.23268e-05
14 *1697:A *638:34 0.000175322
15 *460:16 *1985:A 0.00015047
16 *460:16 *530:30 0.000914203
17 *460:16 *587:8 8.49205e-05
18 *460:16 *590:95 0.000149121
19 *460:16 *613:24 9.89283e-05
20 *460:16 *684:26 0.000305824
21 *460:20 *1545:B 3.96653e-05
22 *460:20 *1638:GATE 9.98519e-05
23 *460:20 *1640:GATE 3.50612e-05
24 *460:20 *521:38 0.000606666
25 *460:20 *590:95 0.000493514
26 *460:27 *1638:GATE 0.000187872
27 *460:27 *585:128 0.000271592
28 *460:27 *590:95 5.20373e-05
29 *460:27 *638:34 8.77516e-05
30 *1471:S *1697:A 5.58094e-05
31 *1471:S *460:27 4.61552e-05
32 *1495:C *1697:A 1.70906e-05
33 *1510:A *460:20 4.82919e-05
34 *1510:B *460:20 0.00027486
35 *1522:S *1697:A 4.66108e-05
36 *1537:A *460:20 0.00015054
37 *1659:CLK *460:16 0.00010836
38 *1808:A *1697:A 0.000170353
39 *456:6 *460:16 0.000272553
*RES
1 *1825:X *460:16 41.18 
2 *460:16 *460:20 10.815 
3 *460:20 *1606:D 1.6 
4 *460:20 *460:27 4.245 
5 *460:27 *1638:D 1.6 
6 *460:27 *1697:A 16.355 
*END

*D_NET *461 0.0301794
*CONN
*I *2019:A I *D sky130_fd_sc_hd__buf_2
*I *695:DIODE I *D sky130_fd_sc_hd__diode_2
*I *1690:X O *D sky130_fd_sc_hd__clkbuf_2
*CAP
1 *2019:A 8.30169e-06
2 *695:DIODE 0.00216762
3 *1690:X 0.00355958
4 *461:36 0.0031328
5 *461:24 0.00453307
6 *695:DIODE *1639:GATE 8.75811e-06
7 *695:DIODE *1922:A 0.000262148
8 *695:DIODE *1941:A 0
9 *695:DIODE *1949:A 0
10 *695:DIODE *1968:A 7.93268e-05
11 *695:DIODE *2000:A 0.000202241
12 *695:DIODE *2021:A 0
13 *695:DIODE *471:46 0
14 *695:DIODE *486:26 0.000460508
15 *695:DIODE *489:46 3.83368e-05
16 *695:DIODE *509:32 6.16226e-06
17 *695:DIODE *568:52 0
18 *695:DIODE *628:120 0.000185502
19 *695:DIODE *662:22 0.00142126
20 *2019:A *2021:A 4.89295e-05
21 *2019:A *2023:A 2.86975e-05
22 *461:24 *1478:A1 0.000134072
23 *461:24 *1526:A1 0.000256663
24 *461:24 *1529:A0 1.88904e-05
25 *461:24 *1529:A1 3.39527e-05
26 *461:24 *1599:D 0.000125719
27 *461:24 *1956:A 3.00381e-05
28 *461:24 *1977:A 3.74359e-05
29 *461:24 *2015:A 0.000502126
30 *461:24 *2016:A 0.000843104
31 *461:24 *462:44 0.00180387
32 *461:24 *493:26 4.48373e-06
33 *461:24 *504:26 0.000271369
34 *461:24 *518:24 0.000320986
35 *461:24 *548:44 0.00227046
36 *461:24 *570:24 0.000105903
37 *461:24 *616:26 0.000101661
38 *461:24 *624:22 0.000295951
39 *461:36 *1458:A0 4.99619e-05
40 *461:36 *1458:A1 4.82863e-05
41 *461:36 *471:46 0.000468152
42 *461:36 *472:14 0.000653467
43 *461:36 *551:12 6.82931e-05
44 *461:36 *579:84 0.000117291
45 *461:36 *613:44 0.00106177
46 *461:36 *636:10 0.000795896
47 *461:36 *694:18 0.000350486
48 FrameData_O[11] *695:DIODE 2.22315e-05
49 N2BEG[3] *461:24 8.65905e-05
50 VALUE_top5 *461:24 0
51 VALUE_top6 *461:24 0
52 VALUE_top7 *461:24 0.000195173
53 *1529:S *461:24 8.73147e-06
54 *1565:A2 *461:24 0.00024317
55 *1575:C *461:36 0
56 *1677:CLK *461:24 0.000344905
57 *1677:D *461:24 9.0444e-05
58 *1717:A *461:36 7.45329e-05
59 *1718:A *461:36 0.00114391
60 *1722:A *461:36 0.000731154
61 *1731:A *695:DIODE 0
62 *1851:A *461:36 0.000275553
63 *1852:A *461:36 4.94581e-05
*RES
1 *1690:X *461:24 48.0417 
2 *461:24 *461:36 40.62 
3 *461:36 *695:DIODE 18.7407 
4 *695:DIODE *2019:A 3.65 
*END

*D_NET *462 0.0341635
*CONN
*I *2020:A I *D sky130_fd_sc_hd__buf_2
*I *1691:X O *D sky130_fd_sc_hd__clkbuf_2
*CAP
1 *2020:A 0.000973368
2 *1691:X 0.00172753
3 *462:44 0.00574806
4 *462:20 0.00650222
5 *2020:A *1934:A 0
6 *2020:A *2025:A 8.88799e-05
7 *2020:A *497:16 0.00109604
8 *2020:A *509:32 0.000214785
9 *2020:A *679:38 0.00036686
10 *462:20 *1477:A0 1.44493e-05
11 *462:20 *1527:A0 0
12 *462:20 *1551:B 6.12148e-05
13 *462:20 *1556:C1 3.82609e-05
14 *462:20 *1632:D 4.66108e-05
15 *462:20 *1957:A 1.19928e-05
16 *462:20 *1958:A 3.23391e-05
17 *462:20 *1961:A 0.000432183
18 *462:20 *1997:A 0
19 *462:20 *2011:A 3.99879e-05
20 *462:20 *2012:A 5.10477e-05
21 *462:20 *2013:A 5.52191e-05
22 *462:20 *463:20 0.000222313
23 *462:20 *493:26 0.000684952
24 *462:20 *585:89 1.00941e-05
25 *462:20 *586:125 3.25153e-05
26 *462:20 *587:46 0
27 *462:20 *592:48 0.000269272
28 *462:20 *622:119 0.000468903
29 *462:20 *655:52 0.00070798
30 *462:44 *1540:B 0.000102516
31 *462:44 *2007:A 0.000606163
32 *462:44 *2010:A 0.000168502
33 *462:44 *463:20 0.00161044
34 *462:44 *472:14 0.00111054
35 *462:44 *492:30 0.000125903
36 *462:44 *493:26 0.000155345
37 *462:44 *494:28 0.00199188
38 *462:44 *518:24 0.00293514
39 *462:44 *526:34 0.000194339
40 *462:44 *551:16 0.00127978
41 *462:44 *617:22 0.000129512
42 *462:44 *619:50 0.000136095
43 RESET_top *462:44 7.64325e-05
44 VALUE_top3 *462:20 2.77283e-05
45 VALUE_top4 *462:20 5.49093e-05
46 VALUE_top5 *462:20 0
47 *1526:S *462:20 4.19603e-05
48 *1527:S *462:20 0
49 *1562:B1 *462:20 7.43126e-05
50 *1660:D *462:20 0
51 *1724:A *2020:A 2.25161e-05
52 *1728:A *2020:A 0
53 *1729:A *2020:A 0
54 *1737:A *462:20 4.82863e-05
55 *1769:A *462:20 0
56 *1771:A *462:20 0
57 *1810:A *462:20 0
58 *1811:A *462:20 0
59 *81:13 *462:44 0.00132208
60 *459:24 *462:44 0.000248131
61 *461:24 *462:44 0.00180387
*RES
1 *1691:X *462:20 47.6175 
2 *462:20 *462:44 36.8608 
3 *462:44 *2020:A 24.6675 
*END

*D_NET *463 0.0376281
*CONN
*I *2021:A I *D sky130_fd_sc_hd__buf_2
*I *1692:X O *D sky130_fd_sc_hd__clkbuf_2
*CAP
1 *2021:A 0.00260744
2 *1692:X 0.00453794
3 *463:20 0.00714538
4 *2021:A *1474:A1 5.71093e-06
5 *2021:A *1521:A0 0.000245886
6 *2021:A *1525:A1 2.15594e-05
7 *2021:A *1694:A 0.000259485
8 *2021:A *1924:A 0
9 *2021:A *1930:A 0
10 *2021:A *1935:A 0
11 *2021:A *1936:A 0.000579987
12 *2021:A *2022:A 0.000437717
13 *2021:A *2023:A 0.000443982
14 *2021:A *2027:A 0.000138624
15 *2021:A *471:46 1.7635e-05
16 *2021:A *490:36 0.00033764
17 *2021:A *492:30 0.000124897
18 *2021:A *494:28 0
19 *463:20 *1556:C1 7.3816e-05
20 *463:20 *1601:D 0.000361673
21 *463:20 *1601:GATE 8.23457e-05
22 *463:20 *1958:A 0.000486895
23 *463:20 *1961:A 0.00109505
24 *463:20 *488:28 0.00581981
25 *463:20 *492:30 0.000688735
26 *463:20 *494:28 0.00677534
27 *463:20 *518:24 0.00155108
28 *463:20 *617:22 0.000175147
29 *463:20 *619:50 0
30 *463:20 *621:22 0.00118878
31 *463:20 *629:22 0
32 VALUE_top2 *463:20 0.000101941
33 *695:DIODE *2021:A 0
34 *1525:S *2021:A 4.80285e-05
35 *1553:B1 *463:20 7.51819e-05
36 *1720:A *463:20 0.000109836
37 *1724:A *2021:A 0
38 *1725:A *2021:A 0
39 *1726:A *2021:A 0
40 *1738:A *463:20 4.82863e-05
41 *2019:A *2021:A 4.89295e-05
42 *459:24 *463:20 0.000160538
43 *462:20 *463:20 0.000222313
44 *462:44 *463:20 0.00161044
*RES
1 *1692:X *463:20 49.861 
2 *463:20 *2021:A 37.7774 
*END

*D_NET *464 0.0323964
*CONN
*I *2022:A I *D sky130_fd_sc_hd__buf_2
*I *1693:X O *D sky130_fd_sc_hd__clkbuf_2
*CAP
1 *2022:A 0.000780009
2 *1693:X 0.00591199
3 *464:56 0.006692
4 *2022:A *1694:A 0.000347917
5 *2022:A *1937:A 1.32017e-05
6 *2022:A *2027:A 0.00197564
7 *2022:A *471:50 0.000192125
8 *2022:A *490:36 0.000268457
9 *2022:A *509:32 4.63425e-05
10 *464:56 *1607:D 2.85364e-05
11 *464:56 *1639:GATE 0.000169746
12 *464:56 *1919:A 7.33639e-05
13 *464:56 *1956:A 8.57024e-05
14 *464:56 *1959:A 0.000286564
15 *464:56 *1968:A 0.000354977
16 *464:56 *1969:A 0.000434911
17 *464:56 *1976:A 2.54661e-05
18 *464:56 *1979:A 0.00138404
19 *464:56 *1980:A 4.49305e-05
20 *464:56 *1987:A 7.28812e-05
21 *464:56 *1995:A 0.00126391
22 *464:56 *1997:A 0.000925632
23 *464:56 *2000:A 0.00114798
24 *464:56 *470:30 0.000150934
25 *464:56 *471:46 0.000333994
26 *464:56 *486:26 0.000353336
27 *464:56 *530:30 1.88904e-05
28 *464:56 *531:50 0.000985631
29 *464:56 *548:68 0.000629409
30 *464:56 *560:24 0.000132895
31 *464:56 *568:52 0.00355534
32 *464:56 *586:51 0.000488556
33 *464:56 *587:147 4.32417e-05
34 *464:56 *588:83 0.00123839
35 *464:56 *620:42 6.75652e-05
36 *464:56 *625:140 0.000572569
37 FrameData_O[11] *2022:A 9.03138e-05
38 N1BEG[1] *464:56 0.000121437
39 N2BEG[0] *464:56 0.00016063
40 *1739:A *464:56 2.49909e-05
41 *1748:A *2022:A 0.000123225
42 *1774:A *2022:A 5.18317e-06
43 *2021:A *2022:A 0.000437717
44 *415:50 *464:56 0.000335837
*RES
1 *1693:X *464:56 40.6266 
2 *464:56 *2022:A 29.18 
*END

*D_NET *465 0.00149254
*CONN
*I *2023:A I *D sky130_fd_sc_hd__buf_2
*I *1694:X O *D sky130_fd_sc_hd__clkbuf_1
*CAP
1 *2023:A 0.000486411
2 *1694:X 0.000486411
3 *2023:A *2027:A 4.70343e-05
4 *2023:A *509:32 0
5 FrameData_O[11] *2023:A 0
6 FrameData_O[12] *2023:A 0
7 *2019:A *2023:A 2.86975e-05
8 *2021:A *2023:A 0.000443982
*RES
1 *1694:X *2023:A 15.57 
*END

*D_NET *466 0.0145534
*CONN
*I *2024:A I *D sky130_fd_sc_hd__buf_2
*I *1695:X O *D sky130_fd_sc_hd__buf_1
*CAP
1 *2024:A 0.000894128
2 *1695:X 0.00253431
3 *466:44 0.00342844
4 *2024:A *1523:A1 5.5949e-05
5 *2024:A *1637:D 0.000117815
6 *2024:A *1637:GATE 8.34281e-06
7 *2024:A *1934:A 0.000107415
8 *2024:A *2025:A 0.000240406
9 *2024:A *510:20 0.00033764
10 *466:44 *1527:A0 0.00088269
11 *466:44 *1706:A 8.05167e-05
12 *466:44 *1912:A 0.00040821
13 *466:44 *1917:A 0
14 *466:44 *1922:A 0.000185383
15 *466:44 *1936:A 0.000123509
16 *466:44 *1947:A 0.000603368
17 *466:44 *1954:A 0.000118735
18 *466:44 *1989:A 0
19 *466:44 *504:40 0.000122815
20 *466:44 *529:12 0.000601
21 *466:44 *603:14 0.000961742
22 *466:44 *603:31 5.88095e-05
23 *466:44 *632:8 6.32176e-05
24 *466:44 *632:40 1.19928e-05
25 *466:44 *632:166 0.000406535
26 *466:44 *645:34 0.000361888
27 *466:44 *646:8 0.000122849
28 *466:44 *649:30 0.000247312
29 *466:44 *660:36 5.38986e-06
30 *466:44 *677:30 4.16388e-05
31 *466:44 *686:28 0.000821551
32 *1461:A1 *466:44 0.000108339
33 *1804:A *466:44 0.000306443
34 *1883:A *466:44 3.40163e-05
35 *229:101 *466:44 0.000151008
*RES
1 *1695:X *466:44 48.3129 
2 *466:44 *2024:A 14.605 
*END

*D_NET *467 0.00206489
*CONN
*I *2025:A I *D sky130_fd_sc_hd__buf_2
*I *1696:X O *D sky130_fd_sc_hd__clkbuf_1
*CAP
1 *2025:A 0.000443406
2 *1696:X 0.000443406
3 *2025:A *1472:A1 0.000201114
4 *2025:A *1523:A1 0.000299912
5 *2025:A *496:20 0.000308741
6 *2025:A *511:22 3.90266e-05
7 *2020:A *2025:A 8.88799e-05
8 *2024:A *2025:A 0.000240406
*RES
1 *1696:X *2025:A 18 
*END

*D_NET *468 0.0143673
*CONN
*I *2026:A I *D sky130_fd_sc_hd__buf_2
*I *1697:X O *D sky130_fd_sc_hd__buf_1
*CAP
1 *2026:A 0.00493291
2 *1697:X 0.00493291
3 *2026:A *1476:A0 3.59531e-06
4 *2026:A *1495:A 1.02348e-05
5 *2026:A *1530:A0 4.84095e-05
6 *2026:A *1603:GATE 0
7 *2026:A *1937:A 0
8 *2026:A *1989:A 0
9 *2026:A *1991:A 0.00142864
10 *2026:A *2000:A 0
11 *2026:A *2027:A 0.0002096
12 *2026:A *515:48 0.00024631
13 *2026:A *538:40 0.000324068
14 *2026:A *586:76 0.000751933
15 *2026:A *619:50 0.000112854
16 *2026:A *626:10 3.99339e-05
17 *2026:A *649:30 0.000226038
18 *2026:A *684:26 0.00070922
19 *1486:S *2026:A 0.000113153
20 *1765:A *2026:A 0.000141437
21 *270:30 *2026:A 5.31149e-05
22 *273:14 *2026:A 8.29567e-05
*RES
1 *1697:X *2026:A 20.9835 
*END

*D_NET *469 0.00649107
*CONN
*I *2027:A I *D sky130_fd_sc_hd__buf_2
*I *1698:X O *D sky130_fd_sc_hd__clkbuf_1
*CAP
1 *2027:A 0.0019135
2 *1698:X 0.0019135
3 *2027:A *1523:A1 3.93842e-05
4 *2027:A *1937:A 0
5 FrameData_O[11] *2027:A 2.30258e-05
6 FrameData_O[13] *2027:A 2.10433e-05
7 FrameData_O[14] *2027:A 0
8 FrameData_O[15] *2027:A 0.000103924
9 FrameData_O[17] *2027:A 0.000105806
10 *2021:A *2027:A 0.000138624
11 *2022:A *2027:A 0.00197564
12 *2023:A *2027:A 4.70343e-05
13 *2026:A *2027:A 0.0002096
*RES
1 *1698:X *2027:A 35.865 
*END

*D_NET *470 0.0244127
*CONN
*I *2028:A I *D sky130_fd_sc_hd__buf_2
*I *696:DIODE I *D sky130_fd_sc_hd__diode_2
*I *1699:X O *D sky130_fd_sc_hd__buf_1
*CAP
1 *2028:A 1.78463e-05
2 *696:DIODE 0.00127339
3 *1699:X 0.00406288
4 *470:30 0.00531843
5 *696:DIODE *1459:A0 0.000573498
6 *696:DIODE *1618:GATE 8.23457e-05
7 *696:DIODE *1641:D 6.18914e-06
8 *696:DIODE *1911:A 0.000850889
9 *696:DIODE *1935:A 0.000322583
10 *696:DIODE *1948:A 0.000322583
11 *696:DIODE *486:26 0.000154566
12 *2028:A *1911:A 4.89295e-05
13 *470:30 *1459:A0 0.000462917
14 *470:30 *1461:A0 4.36573e-06
15 *470:30 *1462:A0 0.000203974
16 *470:30 *1626:GATE 0.000149182
17 *470:30 *1797:A 4.66108e-05
18 *470:30 *1919:A 0.00454316
19 *470:30 *1954:A 0.00042996
20 *470:30 *1974:A 3.59971e-05
21 *470:30 *1979:A 6.768e-05
22 *470:30 *1981:A 0.00108918
23 *470:30 *1997:A 0.000507171
24 *470:30 *2000:A 1.40633e-05
25 *470:30 *2005:A 0.000249978
26 *470:30 *482:41 5.78621e-05
27 *470:30 *592:58 0.000349587
28 *470:30 *625:92 5.97078e-05
29 *470:30 *630:42 7.48593e-05
30 *470:30 *677:30 0.000400895
31 *470:30 *686:28 0.000344448
32 *1459:A1 *696:DIODE 0.00015639
33 *1459:S *696:DIODE 2.39856e-05
34 *1519:S *696:DIODE 4.25356e-05
35 *1778:A *696:DIODE 0.000122337
36 *1858:A *470:30 0.000161045
37 *1877:A *470:30 0
38 *1897:A *470:30 4.82919e-05
39 *1904:A *470:30 0.000283371
40 *1905:A *470:30 0.000347193
41 *229:150 *696:DIODE 0.000939632
42 *229:150 *470:30 1.12578e-05
43 *464:56 *470:30 0.000150934
*RES
1 *1699:X *470:30 38.8732 
2 *470:30 *696:DIODE 36.77 
3 *696:DIODE *2028:A 3.65 
*END

*D_NET *471 0.0321139
*CONN
*I *1607:D I *D sky130_fd_sc_hd__dlxtp_1
*I *1698:A I *D sky130_fd_sc_hd__clkbuf_1
*I *1639:D I *D sky130_fd_sc_hd__dlxtp_1
*I *1826:X O *D sky130_fd_sc_hd__dlymetal6s2s_1
*CAP
1 *1607:D 0.000519035
2 *1698:A 0
3 *1639:D 0.000282023
4 *1826:X 0.00355251
5 *471:50 0.000377035
6 *471:46 0.00138392
7 *471:36 0.00163518
8 *471:20 0.00441782
9 *1607:D *1470:A0 0.000177428
10 *1607:D *1517:A0 0.000282706
11 *1607:D *486:26 9.44591e-05
12 *1607:D *645:34 0.000208707
13 *1607:D *684:42 9.18265e-05
14 *1639:D *1922:A 0.000215084
15 *1639:D *1949:A 0
16 *1639:D *1968:A 3.18878e-05
17 *1639:D *491:38 8.7324e-05
18 *1639:D *492:30 4.66108e-05
19 *471:20 *1557:A 9.387e-06
20 *471:20 *1590:GATE 0.000236125
21 *471:20 *1617:GATE 0.000130227
22 *471:20 *1987:A 0.00194088
23 *471:20 *2004:A 0
24 *471:20 *526:32 0.000112361
25 *471:20 *531:50 0.0017717
26 *471:20 *538:40 0.00108205
27 *471:20 *552:56 7.39814e-05
28 *471:20 *568:52 0.000727
29 *471:20 *586:12 1.03191e-05
30 *471:20 *613:24 0.000195758
31 *471:20 *616:26 0.000100646
32 *471:20 *622:127 8.41703e-06
33 *471:20 *624:61 0.00018552
34 *471:20 *629:22 0
35 *471:20 *631:71 1.51915e-05
36 *471:20 *651:14 0.000153448
37 *471:20 *662:22 0.000318585
38 *471:20 *673:28 1.21441e-05
39 *471:36 *2029:A 0.000412176
40 *471:36 *472:14 0.000538875
41 *471:36 *494:28 0.000157617
42 *471:36 *551:16 0.00192082
43 *471:36 *570:12 0.00145054
44 *471:36 *579:84 0
45 *471:46 *1519:A1 0
46 *471:46 *486:26 6.63989e-05
47 *471:46 *489:46 0.000112147
48 *471:46 *645:34 0.000343191
49 *471:50 *490:36 7.56067e-05
50 RESET_top *471:20 0
51 *695:DIODE *471:46 0
52 *1466:S *1639:D 4.75959e-05
53 *1470:S *1607:D 5.01371e-05
54 *1509:B1 *471:20 0.000126351
55 *1556:A2 *471:20 4.0368e-05
56 *1572:B1_N *471:20 0.000377748
57 *1579:C *471:20 0.000431243
58 *1717:A *471:46 0.00137462
59 *1718:A *471:36 0
60 *1720:A *471:36 7.9642e-06
61 *1722:A *471:46 0.000579613
62 *1780:A *1607:D 8.53113e-06
63 *1785:A *471:20 0.000760754
64 *1901:A *471:20 0
65 *2021:A *471:46 1.7635e-05
66 *2022:A *471:50 0.000192125
67 *67:15 *471:36 0.000144114
68 *80:19 *471:36 0.0013364
69 *213:13 *471:20 0
70 *415:44 *471:20 0.000204069
71 *436:24 *471:20 1.92585e-05
72 *461:36 *471:46 0.000468152
73 *464:56 *1607:D 2.85364e-05
74 *464:56 *471:46 0.000333994
*RES
1 *1826:X *471:20 38.4527 
2 *471:20 *471:36 40.63 
3 *471:36 *471:46 25.385 
4 *471:46 *471:50 4.175 
5 *471:50 *1639:D 11.24 
6 *471:50 *1698:A 1.6 
7 *471:46 *1607:D 13.41 
*END

*D_NET *472 0.0182101
*CONN
*I *2029:A I *D sky130_fd_sc_hd__buf_2
*I *1681:X O *D sky130_fd_sc_hd__buf_1
*CAP
1 *2029:A 0.00113515
2 *1681:X 0.000898619
3 *472:14 0.00203376
4 *2029:A *694:22 0.00128155
5 *472:14 *1951:A 0.00193595
6 *472:14 *2007:A 0.000160641
7 *472:14 *488:28 0.000101386
8 *472:14 *551:16 0.000814467
9 *472:14 *694:18 3.77036e-05
10 *472:14 *694:22 0.000969363
11 FrameData_O[0] *2029:A 0
12 FrameData_O[1] *2029:A 2.97561e-05
13 VALUE_top10 *472:14 4.47295e-05
14 *1575:C *472:14 0.00107057
15 *1719:A *2029:A 2.36616e-05
16 *1720:A *2029:A 0.00231722
17 *1723:A *2029:A 0
18 *1730:A *2029:A 8.11477e-05
19 *1731:A *2029:A 0.00219637
20 *1851:A *472:14 0.000168148
21 *80:19 *2029:A 9.80032e-06
22 *213:13 *472:14 0.000185091
23 *459:26 *472:14 0
24 *461:36 *472:14 0.000653467
25 *462:44 *472:14 0.00111054
26 *471:36 *2029:A 0.000412176
27 *471:36 *472:14 0.000538875
*RES
1 *1681:X *472:14 48.9275 
2 *472:14 *2029:A 47.9525 
*END

*D_NET *473 0.0035049
*CONN
*I *1911:A I *D sky130_fd_sc_hd__buf_2
*I *1700:X O *D sky130_fd_sc_hd__clkbuf_1
*CAP
1 *1911:A 0.00119715
2 *1700:X 0.00119715
3 *1911:A *1641:D 8.5134e-05
4 *1911:A *486:26 3.30863e-06
5 *696:DIODE *1911:A 0.000850889
6 *1778:A *1911:A 0.000122337
7 *2028:A *1911:A 4.89295e-05
*RES
1 *1700:X *1911:A 21.62 
*END

*D_NET *474 0.0124749
*CONN
*I *1912:A I *D sky130_fd_sc_hd__buf_2
*I *1701:X O *D sky130_fd_sc_hd__buf_1
*CAP
1 *1912:A 0.00103235
2 *1701:X 0.00242366
3 *474:20 0.00345601
4 *1912:A *1913:A 3.04704e-05
5 *1912:A *1915:A 0.00139567
6 *1912:A *1920:A 5.06989e-05
7 *1912:A *632:166 0.000423247
8 *1912:A *632:179 0.000120655
9 *474:20 *1470:A0 3.12433e-05
10 *474:20 *1483:A1 0.000119575
11 *474:20 *1518:A0 0
12 *474:20 *1607:GATE 3.35242e-05
13 *474:20 *1650:D 8.7152e-06
14 *474:20 *1704:A 0.000217735
15 *474:20 *1797:A 0.000124527
16 *474:20 *1915:A 0.000541398
17 *474:20 *1920:A 2.0851e-06
18 *474:20 *1922:A 1.5939e-05
19 *474:20 *1949:A 0
20 *474:20 *508:30 7.48995e-05
21 *474:20 *547:24 0.000883569
22 *474:20 *548:68 0.000245902
23 *474:20 *603:14 0.00012905
24 *474:20 *603:31 1.92979e-05
25 *474:20 *625:12 7.03434e-05
26 *1482:S1 *474:20 0.00022707
27 *1485:A2 *474:20 0.000193801
28 *1487:A2 *474:20 6.14983e-05
29 *1782:A *474:20 0.000133782
30 *466:44 *1912:A 0.00040821
*RES
1 *1701:X *474:20 45.15 
2 *474:20 *1912:A 23.575 
*END

*D_NET *475 0.00895921
*CONN
*I *1913:A I *D sky130_fd_sc_hd__buf_2
*I *1702:X O *D sky130_fd_sc_hd__clkbuf_1
*CAP
1 *1913:A 0.0017631
2 *1702:X 0.0017631
3 *1913:A *1464:A0 0.000229356
4 *1913:A *1470:A1 3.53662e-05
5 *1913:A *1517:A0 6.02564e-05
6 *1913:A *1611:D 5.06989e-05
7 *1913:A *1643:D 7.96909e-05
8 *1913:A *1915:A 0.00258963
9 *1913:A *1966:A 1.30972e-05
10 *1913:A *1991:A 0
11 *1913:A *491:38 0.000122801
12 *1913:A *526:61 2.93678e-05
13 *1913:A *625:222 0.00161191
14 *1913:A *632:106 0.00011303
15 *1913:A *632:112 0.00025454
16 *1913:A *645:34 0
17 *1913:A *687:26 0
18 *1484:B *1913:A 1.39062e-05
19 *1487:A1 *1913:A 3.86529e-05
20 *1487:B2 *1913:A 8.63081e-05
21 *1487:C1 *1913:A 5.63082e-05
22 *1744:A *1913:A 1.7635e-05
23 *1912:A *1913:A 3.04704e-05
*RES
1 *1702:X *1913:A 48.42 
*END

*D_NET *476 0.0172332
*CONN
*I *1914:A I *D sky130_fd_sc_hd__buf_2
*I *697:DIODE I *D sky130_fd_sc_hd__diode_2
*I *1703:X O *D sky130_fd_sc_hd__buf_1
*CAP
1 *1914:A 1.96262e-05
2 *697:DIODE 0.00455064
3 *1703:X 0.00453102
4 *697:DIODE *1477:A0 1.17036e-05
5 *697:DIODE *1519:A0 4.53578e-05
6 *697:DIODE *1520:A0 0
7 *697:DIODE *1531:A0 4.60198e-05
8 *697:DIODE *1916:A 0
9 *697:DIODE *1919:A 0.005147
10 *697:DIODE *1974:A 0.0027052
11 *697:DIODE *508:30 0
12 *697:DIODE *527:12 0
13 *697:DIODE *625:71 3.99991e-05
14 *697:DIODE *679:38 0
15 FrameData_O[24] *697:DIODE 8.77516e-05
16 FrameData_O[24] *1914:A 3.00381e-05
17 FrameStrobe_O[5] *697:DIODE 0
18 *1867:A *697:DIODE 1.88602e-05
19 *1906:A *697:DIODE 0
*RES
1 *1703:X *697:DIODE 36.7169 
2 *697:DIODE *1914:A 3.65 
*END

*D_NET *477 0.00737595
*CONN
*I *1915:A I *D sky130_fd_sc_hd__buf_2
*I *1704:X O *D sky130_fd_sc_hd__clkbuf_1
*CAP
1 *1915:A 0.000973931
2 *1704:X 0.000973931
3 *1915:A *1797:A 0.000107602
4 *1915:A *1937:A 0
5 *1915:A *508:30 5.83121e-06
6 *1915:A *625:222 0.000553276
7 *1915:A *632:166 0.000124895
8 *1915:A *632:179 0.00010978
9 *1912:A *1915:A 0.00139567
10 *1913:A *1915:A 0.00258963
11 *474:20 *1915:A 0.000541398
*RES
1 *1704:X *1915:A 44.5 
*END

*D_NET *478 0.0147822
*CONN
*I *1916:A I *D sky130_fd_sc_hd__buf_2
*I *1705:X O *D sky130_fd_sc_hd__buf_1
*CAP
1 *1916:A 0.00309787
2 *1705:X 0.00126324
3 *478:26 0.00436112
4 *1916:A *1920:A 0.000189498
5 *1916:A *1922:A 0
6 *1916:A *1937:A 0
7 *1916:A *504:38 0.00024242
8 *1916:A *511:22 0.000163199
9 *1916:A *679:38 0
10 *1916:A *693:20 7.9642e-06
11 *478:26 *1990:A 4.77091e-05
12 *478:26 *504:30 9.03508e-06
13 *478:26 *504:38 0.000786994
14 *478:26 *529:32 0.00269976
15 *478:26 *655:42 7.00115e-05
16 FrameData_O[31] *1916:A 0
17 FrameStrobe_O[18] *1916:A 0.000157959
18 NN4BEG[11] *478:26 0.000173303
19 *697:DIODE *1916:A 0
20 *1460:A1 *478:26 3.10719e-05
21 *1866:A *478:26 0.000172072
22 *1871:A *478:26 1.59207e-05
23 *1873:A *478:26 0.000106534
24 *1894:A *1916:A 0.000217888
25 *1894:A *478:26 4.82863e-05
26 *1898:A *1916:A 2.8185e-05
27 *1899:A *1916:A 0.00026784
28 *1903:A *478:26 0.000157156
29 *1904:A *478:26 0.000261245
30 *1907:A *478:26 0.000205909
*RES
1 *1705:X *478:26 41.915 
2 *478:26 *1916:A 44.15 
*END

*D_NET *479 0.0109246
*CONN
*I *1917:A I *D sky130_fd_sc_hd__buf_2
*I *1706:X O *D sky130_fd_sc_hd__buf_1
*CAP
1 *1917:A 0.00295055
2 *1706:X 0.00295055
3 *1917:A *1456:A0 6.65895e-05
4 *1917:A *1615:GATE 9.5799e-06
5 *1917:A *1918:A 2.28271e-05
6 *1917:A *1920:A 1.88602e-05
7 *1917:A *1922:A 0.00106926
8 *1917:A *489:28 8.93531e-05
9 *1917:A *571:26 1.08879e-05
10 *1917:A *628:162 0.00172297
11 *1917:A *645:34 9.4556e-05
12 *1917:A *647:22 0.000284948
13 *1917:A *679:38 5.49337e-05
14 *1917:A *682:50 0.0015787
15 *466:44 *1917:A 0
*RES
1 *1706:X *1917:A 16.9919 
*END

*D_NET *480 0.0107013
*CONN
*I *1918:A I *D sky130_fd_sc_hd__buf_2
*I *1707:X O *D sky130_fd_sc_hd__buf_1
*CAP
1 *1918:A 0.00209391
2 *1707:X 0.00209391
3 *1918:A *1456:A0 1.88904e-05
4 *1918:A *1521:A0 0.00135128
5 *1918:A *1524:A0 0.000272542
6 *1918:A *1616:GATE 1.7635e-05
7 *1918:A *1919:A 0.000456496
8 *1918:A *1938:A 2.32597e-05
9 *1918:A *1939:A 0.000272984
10 *1918:A *1942:A 2.78201e-05
11 *1918:A *628:162 0.00172511
12 *1918:A *647:22 0.000644173
13 *1918:A *679:38 0.000868776
14 FrameData_O[28] *1918:A 8.8266e-05
15 FrameStrobe_O[10] *1918:A 0.000121023
16 FrameStrobe_O[12] *1918:A 8.6076e-05
17 FrameStrobe_O[14] *1918:A 8.8266e-05
18 FrameStrobe_O[16] *1918:A 8.8266e-05
19 FrameStrobe_O[17] *1918:A 0.000158066
20 FrameStrobe_O[4] *1918:A 4.77757e-05
21 FrameStrobe_O[6] *1918:A 4.99619e-05
22 FrameStrobe_O[8] *1918:A 8.40213e-05
23 *1917:A *1918:A 2.28271e-05
*RES
1 *1707:X *1918:A 41.0383 
*END

*D_NET *481 0.0217219
*CONN
*I *1919:A I *D sky130_fd_sc_hd__buf_2
*I *1708:X O *D sky130_fd_sc_hd__buf_1
*CAP
1 *1919:A 0.00430218
2 *1708:X 0.00430218
3 *1919:A *1931:A 6.52265e-05
4 *1919:A *1938:A 0.00022953
5 *1919:A *1940:A 9.50342e-06
6 *1919:A *1948:A 9.23473e-05
7 *1919:A *1969:A 7.33639e-05
8 *1919:A *1974:A 0.000743181
9 *1919:A *2000:A 0.000365348
10 *1919:A *529:12 0.000151901
11 *1919:A *592:75 5.92147e-05
12 *1919:A *679:38 0.000758996
13 Co *1919:A 5.75434e-05
14 FrameStrobe_O[17] *1919:A 0
15 FrameStrobe_O[18] *1919:A 0.000291358
16 FrameStrobe_O[19] *1919:A 0
17 *697:DIODE *1919:A 0.005147
18 *1918:A *1919:A 0.000456496
19 *464:56 *1919:A 7.33639e-05
20 *470:30 *1919:A 0.00454316
*RES
1 *1708:X *1919:A 40.6447 
*END

*D_NET *482 0.0105251
*CONN
*I *1640:D I *D sky130_fd_sc_hd__dlxtp_1
*I *1608:D I *D sky130_fd_sc_hd__dlxtp_1
*I *1699:A I *D sky130_fd_sc_hd__buf_1
*I *1827:X O *D sky130_fd_sc_hd__buf_1
*CAP
1 *1640:D 0.000206721
2 *1608:D 1.3091e-05
3 *1699:A 2.21004e-05
4 *1827:X 0.00254903
5 *482:41 0.000351472
6 *482:28 0.00270279
7 *1608:D *1481:A0 1.83756e-05
8 *1608:D *1977:A 4.82863e-05
9 *1640:D *1481:A0 0.00011651
10 *1640:D *1594:D 7.9642e-06
11 *1640:D *1996:A 0.000192405
12 *1640:D *559:48 0.000268745
13 *1640:D *630:86 4.41506e-05
14 *482:28 *1602:GATE 2.87826e-05
15 *482:28 *1953:A 0.00122895
16 *482:28 *1977:A 0.00052079
17 *482:28 *1979:A 8.40213e-05
18 *482:28 *1981:A 0.000230429
19 *482:28 *492:30 7.23602e-05
20 *482:28 *515:20 0.000123492
21 *482:28 *551:30 9.0444e-05
22 *482:28 *618:18 0.000806851
23 *482:28 *627:55 3.64076e-05
24 *482:28 *651:14 4.82919e-05
25 *482:28 *651:21 0.000243655
26 *482:41 *1953:A 6.48713e-05
27 *482:41 *1996:A 0.000127423
28 *482:41 *625:92 3.49585e-05
29 N2BEGb[5] *482:28 7.06865e-05
30 N4BEG[3] *482:28 6.42458e-05
31 *1830:A *482:28 4.89295e-05
32 *470:30 *482:41 5.78621e-05
*RES
1 *1827:X *482:28 46.2 
2 *482:28 *1699:A 1.96 
3 *482:28 *482:41 4.775 
4 *482:41 *1608:D 4.05 
5 *482:41 *1640:D 8.52 
*END

*D_NET *483 0.00602413
*CONN
*I *1920:A I *D sky130_fd_sc_hd__buf_2
*I *1709:X O *D sky130_fd_sc_hd__clkbuf_1
*CAP
1 *1920:A 0.0011612
2 *1709:X 0.0011612
3 *1920:A *1519:A0 0.0011444
4 *1920:A *1922:A 0
5 *1920:A *1949:A 0.000269738
6 *1920:A *496:20 0.000237869
7 *1920:A *511:22 0.00171127
8 FrameData_O[27] *1920:A 0
9 FrameData_O[29] *1920:A 0
10 FrameData_O[30] *1920:A 2.05641e-05
11 FrameData_O[31] *1920:A 0
12 *1755:A *1920:A 5.67403e-05
13 *1912:A *1920:A 5.06989e-05
14 *1916:A *1920:A 0.000189498
15 *1917:A *1920:A 1.88602e-05
16 *474:20 *1920:A 2.0851e-06
*RES
1 *1709:X *1920:A 40.075 
*END

*D_NET *484 0.0124998
*CONN
*I *1921:A I *D sky130_fd_sc_hd__buf_2
*I *1682:X O *D sky130_fd_sc_hd__buf_1
*CAP
1 *1921:A 0
2 *1682:X 0.000532059
3 *484:18 0.00359843
4 *484:12 0.00413049
5 *484:12 *1591:D 7.14699e-05
6 *484:12 *518:24 8.03733e-05
7 *484:12 *584:125 0.000344325
8 *484:12 *612:24 0.000160145
9 *484:12 *619:50 0.000234373
10 *484:18 *698:DIODE 0.000979084
11 *484:18 *1456:A0 0.000384726
12 *484:18 *1587:GATE 6.58339e-05
13 *484:18 *1619:D 1.83847e-05
14 *484:18 *1619:GATE 4.65641e-05
15 *484:18 *1710:A 2.0248e-05
16 *484:18 *1924:A 0.00010189
17 *484:18 *1925:A 1.77595e-05
18 *484:18 *486:26 0.000726906
19 *484:18 *489:46 5.56602e-05
20 *484:18 *510:20 0.000648334
21 *484:18 *613:44 7.32882e-05
22 *484:18 *613:51 0.000112722
23 *1454:S *484:12 7.06865e-05
24 *1501:B *484:18 2.34083e-05
25 *1727:A *484:18 0
26 *415:32 *484:12 2.60185e-06
*RES
1 *1682:X *484:12 14.135 
2 *484:12 *484:18 48.92 
3 *484:18 *1921:A 3.6 
*END

*D_NET *485 0.0111794
*CONN
*I *1922:A I *D sky130_fd_sc_hd__buf_2
*I *1710:X O *D sky130_fd_sc_hd__buf_1
*CAP
1 *1922:A 0.00341418
2 *1710:X 0.00341418
3 *1922:A *698:DIODE 2.39856e-05
4 *1922:A *1650:D 0.000192604
5 *1922:A *1937:A 0.000386799
6 *1922:A *1941:A 0
7 *1922:A *1944:A 0.000929673
8 *1922:A *1949:A 0
9 *1922:A *1989:A 0
10 *1922:A *603:31 1.05827e-05
11 *1922:A *628:120 0.000333767
12 *1922:A *632:150 1.49348e-05
13 FrameData_O[26] *1922:A 0
14 FrameData_O[31] *1922:A 5.39961e-05
15 *695:DIODE *1922:A 0.000262148
16 *1466:S *1922:A 1.7532e-05
17 *1517:S *1922:A 0.000133151
18 *1639:D *1922:A 0.000215084
19 *1715:A *1922:A 0.000489051
20 *1755:A *1922:A 1.7195e-05
21 *1916:A *1922:A 0
22 *1917:A *1922:A 0.00106926
23 *1920:A *1922:A 0
24 *273:12 *1922:A 0
25 *466:44 *1922:A 0.000185383
26 *474:20 *1922:A 1.5939e-05
*RES
1 *1710:X *1922:A 49.9361 
*END

*D_NET *486 0.0116508
*CONN
*I *1923:A I *D sky130_fd_sc_hd__buf_2
*I *1711:X O *D sky130_fd_sc_hd__buf_1
*CAP
1 *1923:A 0.000634508
2 *1711:X 0.00154407
3 *486:26 0.00217858
4 *1923:A *1937:A 0.000955656
5 *1923:A *1941:A 0.000904637
6 *1923:A *1950:A 0.00086038
7 *486:26 *698:DIODE 0.000728581
8 *486:26 *1641:D 3.80881e-05
9 *486:26 *1641:GATE 0.000124667
10 *486:26 *1650:D 5.16211e-05
11 *486:26 *1945:A 0.000459406
12 *486:26 *628:120 0.000675485
13 *486:26 *628:135 0.000234234
14 *486:26 *632:150 0.00015589
15 *486:26 *645:34 5.10302e-05
16 FrameStrobe_O[19] *1923:A 4.43591e-05
17 *695:DIODE *486:26 0.000460508
18 *696:DIODE *486:26 0.000154566
19 *1519:S *486:26 1.5963e-05
20 *1607:D *486:26 9.44591e-05
21 *1780:A *486:26 0.000134134
22 *1911:A *486:26 3.30863e-06
23 *464:56 *486:26 0.000353336
24 *471:46 *486:26 6.63989e-05
25 *484:18 *486:26 0.000726906
*RES
1 *1711:X *486:26 42.715 
2 *486:26 *1923:A 22.995 
*END

*D_NET *487 0.0149768
*CONN
*I *1924:A I *D sky130_fd_sc_hd__buf_2
*I *1683:X O *D sky130_fd_sc_hd__buf_1
*CAP
1 *1924:A 0.00466773
2 *1683:X 0.00466773
3 *1924:A *1454:A0 7.67805e-05
4 *1924:A *1456:A1 0.000684345
5 *1924:A *1589:GATE 3.00441e-05
6 *1924:A *1799:A 0.000102621
7 *1924:A *1987:A 4.61701e-06
8 *1924:A *2005:A 0.00196944
9 *1924:A *489:46 0.000149699
10 *1924:A *552:56 0.00104838
11 *1924:A *568:52 0.000947179
12 *1924:A *613:44 8.66454e-06
13 *1924:A *652:28 0.000161815
14 *1924:A *684:26 8.53919e-05
15 FrameData_O[2] *1924:A 1.92445e-05
16 FrameData_O[3] *1924:A 2.56866e-05
17 FrameData_O[6] *1924:A 3.90726e-05
18 *1501:B *1924:A 7.30969e-05
19 *1761:A *1924:A 0.000113373
20 *2021:A *1924:A 0
21 *484:18 *1924:A 0.00010189
*RES
1 *1683:X *1924:A 29.1863 
*END

*D_NET *488 0.031933
*CONN
*I *1925:A I *D sky130_fd_sc_hd__buf_2
*I *698:DIODE I *D sky130_fd_sc_hd__diode_2
*I *1684:X O *D sky130_fd_sc_hd__clkbuf_2
*CAP
1 *1925:A 2.62535e-05
2 *698:DIODE 0.000683689
3 *1684:X 0.00507385
4 *488:28 0.00573129
5 *698:DIODE *510:20 0.000650004
6 *488:28 *1452:A0 1.38851e-05
7 *488:28 *1531:A0 0.000991943
8 *488:28 *1651:D 0
9 *488:28 *1710:A 0
10 *488:28 *1711:A 0.000153754
11 *488:28 *1966:A 0.000454466
12 *488:28 *1976:A 0.000335625
13 *488:28 *1980:A 0
14 *488:28 *1986:A 1.88904e-05
15 *488:28 *492:30 0.00580498
16 *488:28 *526:46 0
17 *488:28 *537:26 8.40269e-05
18 *488:28 *568:52 0
19 *488:28 *583:52 0.000261196
20 *488:28 *694:22 0.00012905
21 N4BEG[5] *488:28 9.63588e-05
22 *1547:B1 *488:28 0.00105918
23 *1715:A *698:DIODE 0.00250218
24 *1718:A *488:28 0
25 *1922:A *698:DIODE 2.39856e-05
26 *80:19 *488:28 0.000191756
27 *463:20 *488:28 0.00581981
28 *472:14 *488:28 0.000101386
29 *484:18 *698:DIODE 0.000979084
30 *484:18 *1925:A 1.77595e-05
31 *486:26 *698:DIODE 0.000728581
*RES
1 *1684:X *488:28 30.8859 
2 *488:28 *698:DIODE 29.995 
3 *698:DIODE *1925:A 3.65 
*END

*D_NET *489 0.0152491
*CONN
*I *1926:A I *D sky130_fd_sc_hd__buf_2
*I *1685:X O *D sky130_fd_sc_hd__buf_1
*CAP
1 *1926:A 0
2 *1685:X 0.00151851
3 *489:46 0.00179103
4 *489:28 0.00330953
5 *489:28 *1451:A0 1.56428e-05
6 *489:28 *1456:A0 8.6777e-06
7 *489:28 *1480:A1 0
8 *489:28 *1480:A3 7.16255e-05
9 *489:28 *1529:A0 7.64325e-05
10 *489:28 *1587:GATE 0.000201671
11 *489:28 *1647:D 0.000145937
12 *489:28 *1652:D 5.85449e-05
13 *489:28 *1800:A 5.8477e-05
14 *489:28 *2005:A 0.000710089
15 *489:28 *547:24 0.000445713
16 *489:28 *571:26 7.0176e-05
17 *489:28 *586:93 4.32569e-05
18 *489:28 *590:118 5.08373e-05
19 *489:28 *625:34 0.000674686
20 *489:28 *631:18 0.000163693
21 *489:28 *631:22 0.000171158
22 *489:28 *633:46 4.78726e-05
23 *489:28 *677:30 9.044e-05
24 *489:28 *686:28 4.66108e-05
25 *489:46 *1457:A0 2.8585e-06
26 *489:46 *1457:A1 2.49909e-05
27 *489:46 *1519:A1 0.000132968
28 *489:46 *1711:A 0.000123091
29 *489:46 *614:61 3.45679e-05
30 *489:46 *614:68 1.61831e-05
31 FrameData_O[0] *489:46 3.00381e-05
32 FrameData_O[1] *489:46 7.1932e-06
33 FrameData_O[2] *489:46 1.88656e-05
34 FrameData_O[4] *489:46 2.49909e-05
35 *695:DIODE *489:46 3.83368e-05
36 *1457:S *489:46 0.000163199
37 *1717:A *489:46 0.00218406
38 *1722:A *489:46 0.00207427
39 *1727:A *489:46 8.18542e-05
40 *1730:A *489:46 6.53902e-05
41 *1757:A *489:46 1.61831e-05
42 *1804:A *489:28 3.26024e-05
43 *1917:A *489:28 8.93531e-05
44 *1924:A *489:46 0.000149699
45 *471:46 *489:46 0.000112147
46 *484:18 *489:46 5.56602e-05
*RES
1 *1685:X *489:28 42.765 
2 *489:28 *489:46 48.815 
3 *489:46 *1926:A 1.6 
*END

*D_NET *490 0.00920403
*CONN
*I *1927:A I *D sky130_fd_sc_hd__buf_2
*I *1686:X O *D sky130_fd_sc_hd__buf_1
*CAP
1 *1927:A 0.000784325
2 *1686:X 0.0018233
3 *490:36 0.00260763
4 *1927:A *1928:A 0.000518181
5 *490:36 *1470:A1 0.000645702
6 *490:36 *1518:A0 0.000276962
7 *490:36 *1643:D 4.83776e-05
8 *490:36 *1643:GATE 0.000119762
9 *490:36 *1947:A 0.000351657
10 *490:36 *1950:A 0.000187608
11 *490:36 *1954:A 0.00018955
12 *490:36 *2005:A 0.000638964
13 *1485:A2 *490:36 4.78726e-05
14 *1488:A1 *490:36 0.00010356
15 *1488:B1 *490:36 8.8266e-05
16 *1748:A *490:36 7.10578e-05
17 *2021:A *490:36 0.00033764
18 *2022:A *490:36 0.000268457
19 *275:16 *490:36 1.95531e-05
20 *471:50 *490:36 7.56067e-05
*RES
1 *1686:X *490:36 46.29 
2 *490:36 *1927:A 14.395 
*END

*D_NET *491 0.0108313
*CONN
*I *1928:A I *D sky130_fd_sc_hd__buf_2
*I *1687:X O *D sky130_fd_sc_hd__buf_1
*CAP
1 *1928:A 0.00119501
2 *1687:X 0.00212008
3 *491:38 0.00331509
4 *1928:A *1474:A1 2.05056e-05
5 *1928:A *1521:A0 4.82919e-05
6 *1928:A *1525:A1 0.000344454
7 *1928:A *574:28 7.67415e-06
8 *491:38 *1458:A0 0.00033264
9 *491:38 *1466:A1 6.05513e-05
10 *491:38 *1470:A1 0
11 *491:38 *1483:A1 7.39166e-05
12 *491:38 *1611:D 4.9101e-05
13 *491:38 *1642:D 7.9642e-06
14 *491:38 *1652:D 1.56428e-05
15 *491:38 *1687:A 2.6449e-05
16 *491:38 *1939:A 8.09021e-06
17 *491:38 *1949:A 4.84393e-05
18 *491:38 *492:30 0.00011852
19 *491:38 *526:46 0.000178473
20 *491:38 *526:61 3.18238e-05
21 *491:38 *543:24 0.000108522
22 *491:38 *547:24 0.000261568
23 *491:38 *560:24 0
24 *491:38 *588:97 0.000322516
25 *491:38 *626:43 4.77719e-05
26 *491:38 *627:124 4.41707e-05
27 *491:38 *628:120 2.62017e-05
28 *491:38 *649:30 0.000270415
29 *1518:S *491:38 0.000135889
30 *1639:D *491:38 8.7324e-05
31 *1748:A *491:38 0.000183043
32 *1764:A *491:38 3.59531e-06
33 *1776:A *1928:A 0.000118081
34 *1913:A *491:38 0.000122801
35 *1927:A *1928:A 0.000518181
36 *67:15 *491:38 0
37 *276:10 *491:38 0.000578523
*RES
1 *1687:X *491:38 49.1 
2 *491:38 *1928:A 23.04 
*END

*D_NET *492 0.0291436
*CONN
*I *1929:A I *D sky130_fd_sc_hd__buf_2
*I *699:DIODE I *D sky130_fd_sc_hd__diode_2
*I *1688:X O *D sky130_fd_sc_hd__clkbuf_2
*CAP
1 *1929:A 2.06702e-05
2 *699:DIODE 0.000253092
3 *1688:X 0.00778768
4 *492:30 0.0080201
5 *699:DIODE *1930:A 0.000567936
6 *1929:A *1930:A 2.86975e-05
7 *492:30 *1525:A1 0.000936783
8 *492:30 *1527:A0 0.000366912
9 *492:30 *1587:GATE 0
10 *492:30 *1930:A 0.000303636
11 *492:30 *1939:A 0
12 *492:30 *1940:A 7.23602e-05
13 *492:30 *1949:A 0.0005423
14 *492:30 *1970:A 5.23879e-05
15 *492:30 *1977:A 0.000118081
16 *492:30 *493:26 0.000247885
17 *492:30 *494:28 0.000210729
18 *492:30 *521:38 0.000249577
19 *492:30 *552:56 0
20 *492:30 *555:32 0.000819034
21 *492:30 *583:52 0.000182584
22 *492:30 *585:89 0.000183591
23 *492:30 *603:14 6.97754e-05
24 *492:30 *619:50 0
25 *492:30 *636:14 0
26 *492:30 *694:22 0.000109836
27 N2BEGb[5] *492:30 1.01152e-05
28 *1521:S *492:30 0.000118081
29 *1575:B *492:30 0.000301828
30 *1639:D *492:30 4.66108e-05
31 *1718:A *492:30 0.000118286
32 *1725:A *492:30 0.000174853
33 *1727:A *699:DIODE 4.77757e-05
34 *1731:A *492:30 0.000122076
35 *1772:A *699:DIODE 0.0001249
36 *2021:A *492:30 0.000124897
37 *462:44 *492:30 0.000125903
38 *463:20 *492:30 0.000688735
39 *482:28 *492:30 7.23602e-05
40 *488:28 *492:30 0.00580498
41 *491:38 *492:30 0.00011852
*RES
1 *1688:X *492:30 49.6179 
2 *492:30 *699:DIODE 7.495 
3 *699:DIODE *1929:A 3.65 
*END

*D_NET *493 0.0117836
*CONN
*I *1590:D I *D sky130_fd_sc_hd__dlxtp_1
*I *1622:D I *D sky130_fd_sc_hd__dlxtp_1
*I *1681:A I *D sky130_fd_sc_hd__buf_1
*I *1828:X O *D sky130_fd_sc_hd__buf_1
*CAP
1 *1590:D 0.000214492
2 *1622:D 0
3 *1681:A 0
4 *1828:X 0.00250058
5 *493:43 0.000777441
6 *493:26 0.00306353
7 *1590:D *631:71 0.000258798
8 *493:26 *1540:B 0.000242417
9 *493:26 *1542:B 4.76303e-05
10 *493:26 *1543:B 0.000661647
11 *493:26 *2013:A 1.19928e-05
12 *493:26 *2014:A 2.96426e-05
13 *493:26 *2016:A 1.08732e-05
14 *493:26 *2017:A 7.9642e-06
15 *493:26 *526:32 7.4027e-05
16 *493:26 *555:32 0.000289821
17 *493:26 *615:22 6.6708e-05
18 *493:26 *619:50 0.000217287
19 *493:43 *1455:A1 0.000606155
20 *493:43 *2008:A 0.000317017
21 *493:43 *548:68 0.000109913
22 *493:43 *579:72 5.46607e-05
23 *493:43 *624:140 0.00012421
24 *493:43 *631:71 4.41506e-05
25 HOLD_top *493:43 7.00889e-06
26 VALUE_top2 *493:26 9.18292e-06
27 VALUE_top5 *493:26 5.062e-06
28 *1500:B *1590:D 1.19928e-05
29 *1500:B *493:43 0.000107103
30 *1544:B1 *493:43 0.000153124
31 *1655:D *493:43 8.93275e-05
32 *1824:A *493:26 2.61299e-05
33 *1835:A *493:26 7.33977e-05
34 *376:12 *493:26 4.55864e-06
35 *376:12 *493:43 8.65961e-05
36 *455:75 *493:26 0.000381077
37 *459:24 *493:26 2.19562e-06
38 *459:26 *493:26 3.16707e-06
39 *461:24 *493:26 4.48373e-06
40 *462:20 *493:26 0.000684952
41 *462:44 *493:26 0.000155345
42 *492:30 *493:26 0.000247885
*RES
1 *1828:X *493:26 33.0554 
2 *493:26 *1681:A 1.6 
3 *493:26 *493:43 19.075 
4 *493:43 *1622:D 1.6 
5 *493:43 *1590:D 5.845 
*END

*D_NET *494 0.0299559
*CONN
*I *1930:A I *D sky130_fd_sc_hd__buf_2
*I *1689:X O *D sky130_fd_sc_hd__buf_1
*CAP
1 *1930:A 0.00125699
2 *1689:X 0.00367844
3 *494:28 0.00493543
4 *1930:A *1940:A 0.000432898
5 *1930:A *1947:A 3.42142e-05
6 *1930:A *1948:A 0.000496026
7 *494:28 *1568:A1 0.000159851
8 *494:28 *1598:D 2.14005e-05
9 *494:28 *1598:GATE 8.49101e-05
10 *494:28 *1970:A 2.05056e-05
11 *494:28 *1987:A 0.00031994
12 *494:28 *518:24 0.00439283
13 *494:28 *551:30 0.000136758
14 *494:28 *555:32 0.00077442
15 *494:28 *589:77 5.98468e-05
16 *494:28 *617:28 0.000945647
17 *494:28 *623:12 0.000122701
18 *494:28 *623:31 0
19 FrameData_O[8] *1930:A 3.07153e-05
20 VALUE_top9 *494:28 0.000226438
21 *699:DIODE *1930:A 0.000567936
22 *1568:A2 *494:28 1.02692e-05
23 *1570:C1 *494:28 0.000311983
24 *1663:D *494:28 9.44681e-05
25 *1719:A *1930:A 0.000467591
26 *1719:A *494:28 0.000160538
27 *1720:A *1930:A 0.000409286
28 *1726:A *1930:A 2.94565e-05
29 *1795:A *494:28 0.00015639
30 *1929:A *1930:A 2.86975e-05
31 *2021:A *1930:A 0
32 *2021:A *494:28 0
33 *80:19 *494:28 0.000123816
34 *213:13 *494:28 2.62641e-05
35 *462:44 *494:28 0.00199188
36 *463:20 *494:28 0.00677534
37 *471:36 *494:28 0.000157617
38 *492:30 *1930:A 0.000303636
39 *492:30 *494:28 0.000210729
*RES
1 *1689:X *494:28 48.5421 
2 *494:28 *1930:A 30.7725 
*END

*D_NET *495 0.00516348
*CONN
*I *1931:A I *D sky130_fd_sc_hd__buf_2
*I *1712:X O *D sky130_fd_sc_hd__clkbuf_1
*CAP
1 *1931:A 0.00147765
2 *1712:X 0.00147765
3 *1931:A *1521:A0 0.000251338
4 *1931:A *1932:A 2.49909e-05
5 *1931:A *1938:A 0.000599166
6 *1931:A *1939:A 8.34281e-06
7 *1931:A *1942:A 5.9166e-05
8 *1931:A *1944:A 8.23457e-05
9 *1931:A *1946:A 0.000122801
10 *1931:A *1949:A 2.99445e-05
11 *1931:A *496:20 4.93879e-05
12 *1931:A *504:40 0
13 *1931:A *527:12 0.000221581
14 *1931:A *632:166 8.53113e-06
15 FrameStrobe_O[12] *1931:A 8.23234e-05
16 FrameStrobe_O[13] *1931:A 0.000100156
17 FrameStrobe_O[14] *1931:A 3.31282e-05
18 FrameStrobe_O[1] *1931:A 2.76356e-05
19 FrameStrobe_O[2] *1931:A 2.73237e-05
20 FrameStrobe_O[3] *1931:A 4.82863e-05
21 FrameStrobe_O[7] *1931:A 5.83877e-05
22 FrameStrobe_O[9] *1931:A 0.000308124
23 *1919:A *1931:A 6.52265e-05
*RES
1 *1712:X *1931:A 36.805 
*END

*D_NET *496 0.00836107
*CONN
*I *1932:A I *D sky130_fd_sc_hd__buf_2
*I *1722:X O *D sky130_fd_sc_hd__clkbuf_1
*CAP
1 *1932:A 3.67114e-05
2 *1722:X 0.00213469
3 *496:20 0.0021714
4 *1932:A *1521:A0 0.000121811
5 *1932:A *1949:A 4.77719e-05
6 *496:20 *1472:A1 0.000124524
7 *496:20 *1519:A0 0.00103462
8 *496:20 *1934:A 0.000211439
9 *496:20 *1949:A 8.31645e-05
10 *496:20 *497:16 0.000548379
11 *496:20 *511:22 0.000114075
12 *496:20 *568:52 0.000149717
13 *496:20 *693:20 0.00094339
14 *1729:A *496:20 1.83847e-05
15 *1920:A *496:20 0.000237869
16 *1931:A *1932:A 2.49909e-05
17 *1931:A *496:20 4.93879e-05
18 *2025:A *496:20 0.000308741
*RES
1 *1722:X *496:20 49.575 
2 *496:20 *1932:A 2.74 
*END

*D_NET *497 0.00869195
*CONN
*I *1933:A I *D sky130_fd_sc_hd__buf_2
*I *1723:X O *D sky130_fd_sc_hd__clkbuf_1
*CAP
1 *1933:A 0.000516682
2 *1723:X 0.00157432
3 *497:16 0.002091
4 *1933:A *1521:A0 0.000869502
5 *1933:A *1935:A 0.000525198
6 *1933:A *1936:A 2.53191e-06
7 *1933:A *504:40 0
8 *1933:A *647:22 4.82172e-06
9 *497:16 *1472:A1 3.22894e-05
10 *497:16 *1519:A1 0.000412276
11 *497:16 *679:38 0.000249318
12 *497:16 *693:20 0.000244211
13 FrameStrobe_O[17] *1933:A 7.09999e-05
14 *1519:S *497:16 1.47347e-05
15 *1716:A *497:16 0
16 *1724:A *497:16 0.000130227
17 *1727:A *497:16 0.000234685
18 *1746:A *1933:A 7.47284e-05
19 *2020:A *497:16 0.00109604
20 *496:20 *497:16 0.000548379
*RES
1 *1723:X *497:16 38.005 
2 *497:16 *1933:A 17.16 
*END

*D_NET *498 0.00708377
*CONN
*I *1934:A I *D sky130_fd_sc_hd__buf_2
*I *1724:X O *D sky130_fd_sc_hd__clkbuf_1
*CAP
1 *1934:A 0.00181425
2 *1724:X 0.00181425
3 *1934:A *1468:A0 4.66108e-05
4 *1934:A *1468:A1 9.27495e-05
5 *1934:A *1523:A1 0.000156512
6 *1934:A *1603:D 0.000146332
7 *1934:A *1603:GATE 1.00941e-05
8 *1934:A *1635:GATE 0.000198945
9 *1934:A *1637:D 0.000124633
10 *1934:A *1637:GATE 3.66286e-05
11 *1934:A *1938:A 0
12 *1934:A *1939:A 0.000420594
13 *1934:A *1949:A 5.12748e-05
14 *1934:A *509:32 2.24544e-05
15 *1934:A *510:20 0.000611001
16 *1934:A *527:12 0
17 *1934:A *632:166 0.000219175
18 *1934:A *662:26 2.53191e-06
19 *1934:A *679:38 0
20 *1934:A *684:57 0.000137571
21 *1487:B1 *1934:A 4.82863e-05
22 *1517:A1 *1934:A 0.000650704
23 *1525:S *1934:A 4.40812e-05
24 *1728:A *1934:A 2.75145e-05
25 *1729:A *1934:A 8.87273e-05
26 *2020:A *1934:A 0
27 *2024:A *1934:A 0.000107415
28 *496:20 *1934:A 0.000211439
*RES
1 *1724:X *1934:A 49.795 
*END

*D_NET *499 0.00608076
*CONN
*I *1935:A I *D sky130_fd_sc_hd__buf_2
*I *1725:X O *D sky130_fd_sc_hd__clkbuf_1
*CAP
1 *1935:A 0.00121307
2 *1725:X 0.00121307
3 *1935:A *1474:A1 0.000475597
4 *1935:A *1521:A0 0.000162465
5 *1935:A *1523:A1 0.000157595
6 *1935:A *1948:A 0.00159147
7 *1935:A *1950:A 8.49205e-05
8 *1935:A *679:38 1.88602e-05
9 *696:DIODE *1935:A 0.000322583
10 *1720:A *1935:A 1.08758e-05
11 *1726:A *1935:A 8.8266e-05
12 *1729:A *1935:A 7.9901e-05
13 *1746:A *1935:A 0.000136877
14 *1933:A *1935:A 0.000525198
15 *2021:A *1935:A 0
*RES
1 *1725:X *1935:A 39.045 
*END

*D_NET *500 0.00504004
*CONN
*I *1936:A I *D sky130_fd_sc_hd__buf_2
*I *1726:X O *D sky130_fd_sc_hd__clkbuf_1
*CAP
1 *1936:A 0.000968842
2 *1726:X 0.000968842
3 *1936:A *1486:A1 9.21068e-05
4 *1936:A *1521:A0 0.000264938
5 *1936:A *1609:D 8.52172e-05
6 *1936:A *1939:A 0.000432784
7 *1936:A *504:40 0.000280232
8 *1936:A *647:22 0.00102335
9 *1468:S *1936:A 6.28765e-05
10 *1486:S *1936:A 1.92979e-05
11 *1521:S *1936:A 0.000135531
12 *1933:A *1936:A 2.53191e-06
13 *2021:A *1936:A 0.000579987
14 *466:44 *1936:A 0.000123509
*RES
1 *1726:X *1936:A 33.51 
*END

*D_NET *501 0.00611969
*CONN
*I *1937:A I *D sky130_fd_sc_hd__buf_2
*I *1727:X O *D sky130_fd_sc_hd__clkbuf_1
*CAP
1 *1937:A 0.00150845
2 *1727:X 0.00150845
3 *1937:A *1950:A 2.76356e-05
4 *1937:A *2000:A 3.99339e-05
5 *1937:A *509:32 0.0002394
6 *1937:A *511:22 0.00129318
7 FrameData_O[19] *1937:A 0
8 FrameData_O[22] *1937:A 0
9 FrameStrobe_O[19] *1937:A 6.07575e-06
10 *1774:A *1937:A 0.000140912
11 *1915:A *1937:A 0
12 *1916:A *1937:A 0
13 *1922:A *1937:A 0.000386799
14 *1923:A *1937:A 0.000955656
15 *2022:A *1937:A 1.32017e-05
16 *2026:A *1937:A 0
17 *2027:A *1937:A 0
*RES
1 *1727:X *1937:A 39.66 
*END

*D_NET *502 0.00630634
*CONN
*I *1938:A I *D sky130_fd_sc_hd__buf_2
*I *1728:X O *D sky130_fd_sc_hd__clkbuf_1
*CAP
1 *1938:A 0.00130717
2 *1728:X 0.00130717
3 *1938:A *1603:GATE 8.17102e-05
4 *1938:A *1635:GATE 5.93371e-05
5 *1938:A *1939:A 3.70572e-05
6 *1938:A *1941:A 0.00198594
7 *1938:A *1950:A 3.32661e-05
8 *1938:A *510:20 0
9 *1938:A *527:12 0
10 *1938:A *625:222 0.000232132
11 *1938:A *632:166 2.78732e-05
12 *1938:A *679:38 6.1357e-05
13 *1519:S *1938:A 0.000203168
14 *1729:A *1938:A 0.000118207
15 *1918:A *1938:A 2.32597e-05
16 *1919:A *1938:A 0.00022953
17 *1931:A *1938:A 0.000599166
18 *1934:A *1938:A 0
*RES
1 *1728:X *1938:A 39.93 
*END

*D_NET *503 0.0053267
*CONN
*I *1939:A I *D sky130_fd_sc_hd__buf_2
*I *1729:X O *D sky130_fd_sc_hd__clkbuf_1
*CAP
1 *1939:A 0.00121575
2 *1729:X 0.00121575
3 *1939:A *701:DIODE 2.67022e-05
4 *1939:A *1521:A0 7.79931e-05
5 *1939:A *1609:D 0.000159957
6 *1939:A *1940:A 2.46089e-05
7 *1939:A *1949:A 0
8 *1939:A *504:40 0.000680299
9 *1939:A *632:166 0.000217508
10 *1939:A *654:34 1.38716e-05
11 *1468:S *1939:A 0.000116158
12 *1487:B1 *1939:A 9.21068e-05
13 *1517:A1 *1939:A 3.23018e-05
14 *1521:S *1939:A 7.38766e-05
15 *1725:A *1939:A 3.00381e-05
16 *1748:A *1939:A 0.00016993
17 *1918:A *1939:A 0.000272984
18 *1931:A *1939:A 8.34281e-06
19 *1934:A *1939:A 0.000420594
20 *1936:A *1939:A 0.000432784
21 *1938:A *1939:A 3.70572e-05
22 *491:38 *1939:A 8.09021e-06
23 *492:30 *1939:A 0
*RES
1 *1729:X *1939:A 36.645 
*END

*D_NET *504 0.0271738
*CONN
*I *1641:D I *D sky130_fd_sc_hd__dlxtp_1
*I *1700:A I *D sky130_fd_sc_hd__clkbuf_1
*I *1609:D I *D sky130_fd_sc_hd__dlxtp_1
*I *1829:X O *D sky130_fd_sc_hd__dlymetal6s2s_1
*CAP
1 *1641:D 9.20933e-05
2 *1700:A 0
3 *1609:D 0.000106681
4 *1829:X 0.001919
5 *504:55 0.000114359
6 *504:40 0.000588724
7 *504:38 0.00202227
8 *504:30 0.00284618
9 *504:26 0.00320268
10 *1609:D *1519:A1 6.38284e-05
11 *1609:D *1523:A1 0.00015639
12 *1641:D *1641:GATE 0.000119756
13 *504:26 *1478:A1 0
14 *504:26 *1529:A0 7.00889e-06
15 *504:26 *1531:A1 1.88602e-05
16 *504:26 *1599:D 0.000105477
17 *504:26 *1601:GATE 0.000173012
18 *504:26 *1633:D 7.44696e-05
19 *504:26 *1967:A 2.83999e-05
20 *504:26 *1972:A 8.73147e-06
21 *504:26 *580:95 8.90025e-05
22 *504:26 *585:89 0.00025888
23 *504:26 *616:26 2.90383e-05
24 *504:26 *630:142 8.40213e-05
25 *504:26 *640:12 0.000148191
26 *504:26 *640:19 1.56428e-05
27 *504:26 *655:52 3.1562e-06
28 *504:30 *515:24 0.000310907
29 *504:30 *582:18 0.000782803
30 *504:30 *583:118 2.39856e-05
31 *504:30 *655:52 0.00170418
32 *504:30 *658:18 0.00237317
33 *504:38 *515:24 0
34 *504:38 *529:20 0
35 *504:38 *550:16 0
36 *504:55 *1641:GATE 4.82919e-05
37 FrameStrobe_O[11] *504:38 0.0001946
38 FrameStrobe_O[14] *504:40 2.97291e-05
39 FrameStrobe_O[15] *504:40 0.000250616
40 FrameStrobe_O[16] *504:40 0.000332802
41 FrameStrobe_O[3] *504:38 0.000268835
42 N2BEG[3] *504:26 0.000892681
43 N2BEG[4] *504:26 0.000327795
44 N4BEG[2] *504:30 7.94912e-05
45 *696:DIODE *1641:D 6.18914e-06
46 *1460:A1 *504:30 0.000376155
47 *1526:S *504:26 0.000385338
48 *1529:S *504:26 0.000136389
49 *1771:A *504:26 0.00012657
50 *1856:A *504:30 0.000130453
51 *1864:A *504:38 0.000530063
52 *1869:A *504:30 0.000343566
53 *1869:A *504:38 0
54 *1873:A *504:30 8.174e-05
55 *1875:A *504:38 1.91597e-05
56 *1880:A *504:38 0.000671212
57 *1882:A *504:38 0.000114958
58 *1887:A *504:38 6.42766e-05
59 *1891:A *504:38 0.000214591
60 *1893:A *504:38 3.59784e-05
61 *1894:A *504:38 4.99782e-05
62 *1895:A *504:38 0.000278166
63 *1898:A *504:38 0.000314213
64 *1903:A *504:38 0.00061837
65 *1907:A *504:38 1.91597e-05
66 *1911:A *1641:D 8.5134e-05
67 *1916:A *504:38 0.00024242
68 *1931:A *504:40 0
69 *1933:A *504:40 0
70 *1936:A *1609:D 8.52172e-05
71 *1936:A *504:40 0.000280232
72 *1939:A *1609:D 0.000159957
73 *1939:A *504:40 0.000680299
74 *461:24 *504:26 0.000271369
75 *466:44 *504:40 0.000122815
76 *478:26 *504:30 9.03508e-06
77 *478:26 *504:38 0.000786994
78 *486:26 *1641:D 3.80881e-05
*RES
1 *1829:X *504:26 42.29 
2 *504:26 *504:30 40.635 
3 *504:30 *504:38 42.59 
4 *504:38 *504:40 12.855 
5 *504:40 *1609:D 6.975 
6 *504:40 *504:55 2.45 
7 *504:55 *1700:A 1.6 
8 *504:55 *1641:D 3.97375 
*END

*D_NET *505 0.00686952
*CONN
*I *1940:A I *D sky130_fd_sc_hd__buf_2
*I *1730:X O *D sky130_fd_sc_hd__clkbuf_1
*CAP
1 *1940:A 0.0012099
2 *1730:X 0.0012099
3 *1940:A *1941:A 0.000529166
4 *1940:A *1947:A 0.00198651
5 *1940:A *1948:A 0.00134542
6 *1940:A *529:12 3.3972e-05
7 *1729:A *1940:A 4.9253e-06
8 *1730:A *1940:A 1.03423e-05
9 *1919:A *1940:A 9.50342e-06
10 *1930:A *1940:A 0.000432898
11 *1939:A *1940:A 2.46089e-05
12 *492:30 *1940:A 7.23602e-05
*RES
1 *1730:X *1940:A 42.55 
*END

*D_NET *506 0.0077875
*CONN
*I *1941:A I *D sky130_fd_sc_hd__buf_2
*I *1731:X O *D sky130_fd_sc_hd__clkbuf_1
*CAP
1 *1941:A 0.00130429
2 *1731:X 0.00130429
3 *1941:A *1949:A 8.70354e-05
4 *1941:A *1950:A 0.00081251
5 *1941:A *527:12 0
6 FrameStrobe_O[19] *1941:A 2.75229e-05
7 *695:DIODE *1941:A 0
8 *1715:A *1941:A 0.000822759
9 *1730:A *1941:A 2.65814e-06
10 *1731:A *1941:A 6.69608e-06
11 *1922:A *1941:A 0
12 *1923:A *1941:A 0.000904637
13 *1938:A *1941:A 0.00198594
14 *1940:A *1941:A 0.000529166
*RES
1 *1731:X *1941:A 48.61 
*END

*D_NET *507 0.00140228
*CONN
*I *1942:A I *D sky130_fd_sc_hd__buf_2
*I *1713:X O *D sky130_fd_sc_hd__clkbuf_1
*CAP
1 *1942:A 0.000368808
2 *1713:X 0.000368808
3 *1942:A *1519:A0 1.09281e-05
4 *1942:A *1521:A0 3.86814e-05
5 *1942:A *550:16 0
6 *1942:A *628:162 0.00010149
7 FrameStrobe_O[2] *1942:A 2.94864e-05
8 FrameStrobe_O[4] *1942:A 9.47454e-05
9 *1898:A *1942:A 0.000252381
10 *1899:A *1942:A 4.99619e-05
11 *1918:A *1942:A 2.78201e-05
12 *1931:A *1942:A 5.9166e-05
*RES
1 *1713:X *1942:A 14.475 
*END

*D_NET *508 0.00940891
*CONN
*I *1943:A I *D sky130_fd_sc_hd__buf_2
*I *1714:X O *D sky130_fd_sc_hd__clkbuf_1
*CAP
1 *1943:A 0
2 *1714:X 0.00248414
3 *508:30 0.00248414
4 *508:30 *1451:A1 0.000111505
5 *508:30 *1480:A1 7.3751e-05
6 *508:30 *1485:A1 6.01496e-05
7 *508:30 *1520:A0 0.00029001
8 *508:30 *1797:A 0.000128016
9 *508:30 *1954:A 0.000394615
10 *508:30 *1974:A 5.70461e-06
11 *508:30 *614:46 0.000335943
12 *508:30 *614:61 3.00381e-05
13 *508:30 *625:12 2.96342e-05
14 *508:30 *625:34 0.000282028
15 *508:30 *625:222 2.17931e-05
16 *508:30 *626:43 4.84379e-05
17 *508:30 *631:8 4.66108e-05
18 *508:30 *631:10 0.000200828
19 *508:30 *631:18 0.000386088
20 *508:30 *638:34 6.60257e-06
21 *508:30 *647:22 9.48284e-05
22 *508:30 *660:36 0.000933548
23 *508:30 *677:30 0.000134729
24 *508:30 *685:20 0.000194979
25 FrameStrobe_O[4] *508:30 1.7635e-05
26 FrameStrobe_O[5] *508:30 1.88602e-05
27 *697:DIODE *508:30 0
28 *1896:A *508:30 0.00022462
29 *1906:A *508:30 0.00028894
30 *1915:A *508:30 5.83121e-06
31 *474:20 *508:30 7.48995e-05
*RES
1 *1714:X *508:30 49.0185 
2 *508:30 *1943:A 3.6 
*END

*D_NET *509 0.0093805
*CONN
*I *1944:A I *D sky130_fd_sc_hd__buf_2
*I *1715:X O *D sky130_fd_sc_hd__buf_1
*CAP
1 *1944:A 0.000525293
2 *1715:X 0.00166836
3 *509:32 0.00219365
4 *1944:A *1618:D 0.000142684
5 *1944:A *1946:A 0.000116985
6 *1944:A *550:16 0.000379492
7 *1944:A *628:120 0.000308741
8 *1944:A *628:135 0.000357639
9 *1944:A *628:150 7.97852e-05
10 *1944:A *679:38 3.82018e-05
11 *509:32 *1472:A0 0.000312793
12 *509:32 *1486:A0 0.000198939
13 *509:32 *1603:GATE 1.88602e-05
14 *509:32 *1605:GATE 1.4174e-05
15 *509:32 *1637:D 2.59981e-05
16 *509:32 *1696:A 1.83847e-05
17 *509:32 *511:22 0.000165586
18 *509:32 *529:12 0.000195482
19 *509:32 *679:38 0.000145927
20 *509:32 *684:57 7.44375e-05
21 FrameData_O[11] *509:32 3.11771e-06
22 FrameStrobe_O[10] *1944:A 0.000133748
23 FrameStrobe_O[7] *1944:A 2.76356e-05
24 *695:DIODE *509:32 6.16226e-06
25 *1486:S *509:32 2.49909e-05
26 *1727:A *509:32 0.000316118
27 *1742:A *509:32 0.000352312
28 *1755:A *1944:A 0
29 *1922:A *1944:A 0.000929673
30 *1931:A *1944:A 8.23457e-05
31 *1934:A *509:32 2.24544e-05
32 *1937:A *509:32 0.0002394
33 *2020:A *509:32 0.000214785
34 *2022:A *509:32 4.63425e-05
35 *2023:A *509:32 0
*RES
1 *1715:X *509:32 42.575 
2 *509:32 *1944:A 20.565 
*END

*D_NET *510 0.00982526
*CONN
*I *1945:A I *D sky130_fd_sc_hd__buf_2
*I *1716:X O *D sky130_fd_sc_hd__buf_1
*CAP
1 *1945:A 0.000478508
2 *1716:X 0.00159569
3 *510:20 0.00207419
4 *1945:A *1521:A0 0.00012438
5 *1945:A *1947:A 0.00011379
6 *1945:A *550:16 1.75721e-05
7 *1945:A *628:135 0.000222691
8 *1945:A *628:150 0.000192599
9 *1945:A *645:34 0.000762812
10 *1945:A *679:38 0.00012438
11 *510:20 *1468:A0 4.66108e-05
12 *510:20 *1603:D 0
13 *510:20 *1635:GATE 0.000469215
14 *510:20 *527:12 0.000364374
15 *510:20 *662:26 9.5799e-06
16 *698:DIODE *510:20 0.000650004
17 *1487:B1 *510:20 0.000522481
18 *1934:A *510:20 0.000611001
19 *1938:A *510:20 0
20 *2024:A *510:20 0.00033764
21 *484:18 *510:20 0.000648334
22 *486:26 *1945:A 0.000459406
*RES
1 *1716:X *510:20 38.485 
2 *510:20 *1945:A 17.595 
*END

*D_NET *511 0.0100047
*CONN
*I *1946:A I *D sky130_fd_sc_hd__buf_2
*I *1717:X O *D sky130_fd_sc_hd__buf_1
*CAP
1 *1946:A 0.000292169
2 *1717:X 0.00160558
3 *511:22 0.00189775
4 *1946:A *1949:A 0
5 *1946:A *679:38 3.82018e-05
6 *1946:A *693:20 0
7 *511:22 *1472:A1 0.0001801
8 *511:22 *1519:A0 0.000110911
9 *511:22 *1947:A 0.000175619
10 *511:22 *2000:A 3.99339e-05
11 *511:22 *568:52 5.74746e-05
12 *511:22 *693:20 0.00152348
13 FrameStrobe_O[10] *1946:A 0.000132718
14 FrameStrobe_O[12] *1946:A 0
15 FrameStrobe_O[5] *1946:A 1.92979e-05
16 FrameStrobe_O[7] *1946:A 4.82369e-05
17 *1523:S *511:22 9.30787e-05
18 *1716:A *511:22 3.98757e-05
19 *1727:A *511:22 0
20 *1729:A *511:22 3.64998e-06
21 *1730:A *511:22 2.04748e-05
22 *1916:A *511:22 0.000163199
23 *1920:A *511:22 0.00171127
24 *1931:A *1946:A 0.000122801
25 *1937:A *511:22 0.00129318
26 *1944:A *1946:A 0.000116985
27 *2025:A *511:22 3.90266e-05
28 *496:20 *511:22 0.000114075
29 *509:32 *511:22 0.000165586
*RES
1 *1717:X *511:22 49.535 
2 *511:22 *1946:A 11.225 
*END

*D_NET *512 0.00758851
*CONN
*I *1947:A I *D sky130_fd_sc_hd__buf_2
*I *1718:X O *D sky130_fd_sc_hd__clkbuf_1
*CAP
1 *1947:A 0.00151628
2 *1718:X 0.00151628
3 *1947:A *1519:A0 3.34653e-05
4 *1947:A *1950:A 0.000245443
5 *1947:A *529:12 0.000225266
6 *1947:A *550:16 0.000113797
7 *1947:A *628:150 5.83121e-06
8 *1947:A *693:20 0.000666979
9 *1930:A *1947:A 3.42142e-05
10 *1940:A *1947:A 0.00198651
11 *1945:A *1947:A 0.00011379
12 *466:44 *1947:A 0.000603368
13 *490:36 *1947:A 0.000351657
14 *511:22 *1947:A 0.000175619
*RES
1 *1718:X *1947:A 46.24 
*END

*D_NET *513 0.00677018
*CONN
*I *1948:A I *D sky130_fd_sc_hd__buf_2
*I *1719:X O *D sky130_fd_sc_hd__clkbuf_1
*CAP
1 *1948:A 0.00106452
2 *1719:X 0.00106452
3 *1948:A *1523:A1 0.000158297
4 *1948:A *1950:A 0.000145752
5 *1948:A *679:38 1.7635e-05
6 FrameStrobe_O[13] *1948:A 6.27029e-05
7 FrameStrobe_O[15] *1948:A 0.000378524
8 FrameStrobe_O[9] *1948:A 3.03775e-05
9 *696:DIODE *1948:A 0.000322583
10 *1919:A *1948:A 9.23473e-05
11 *1930:A *1948:A 0.000496026
12 *1935:A *1948:A 0.00159147
13 *1940:A *1948:A 0.00134542
*RES
1 *1719:X *1948:A 40.605 
*END

*D_NET *514 0.00644255
*CONN
*I *1949:A I *D sky130_fd_sc_hd__buf_2
*I *1720:X O *D sky130_fd_sc_hd__clkbuf_1
*CAP
1 *1949:A 0.00155007
2 *1720:X 0.00155007
3 *1949:A *1521:A0 8.61608e-05
4 *1949:A *1639:GATE 1.88656e-05
5 *1949:A *1650:D 0
6 *1949:A *1968:A 5.25594e-05
7 *1949:A *632:150 2.25699e-05
8 *1949:A *679:38 3.09774e-05
9 *1949:A *693:20 0.000243675
10 *695:DIODE *1949:A 0
11 *1466:S *1949:A 0.00010297
12 *1517:A1 *1949:A 0.000610807
13 *1639:D *1949:A 0
14 *1730:A *1949:A 0.000423637
15 *1731:A *1949:A 7.33411e-05
16 *1748:A *1949:A 4.25982e-05
17 *1755:A *1949:A 6.98011e-06
18 *1920:A *1949:A 0.000269738
19 *1922:A *1949:A 0
20 *1931:A *1949:A 2.99445e-05
21 *1932:A *1949:A 4.77719e-05
22 *1934:A *1949:A 5.12748e-05
23 *1939:A *1949:A 0
24 *1941:A *1949:A 8.70354e-05
25 *1946:A *1949:A 0
26 *273:12 *1949:A 0.000467591
27 *474:20 *1949:A 0
28 *491:38 *1949:A 4.84393e-05
29 *492:30 *1949:A 0.0005423
30 *496:20 *1949:A 8.31645e-05
*RES
1 *1720:X *1949:A 40.17 
*END

*D_NET *515 0.0206784
*CONN
*I *1610:D I *D sky130_fd_sc_hd__dlxtp_1
*I *1642:D I *D sky130_fd_sc_hd__dlxtp_1
*I *1701:A I *D sky130_fd_sc_hd__buf_1
*I *1830:X O *D sky130_fd_sc_hd__buf_1
*CAP
1 *1610:D 5.71475e-05
2 *1642:D 0.000183378
3 *1701:A 0
4 *1830:X 0.00139625
5 *515:54 0.000280752
6 *515:48 0.00134742
7 *515:24 0.00331582
8 *515:20 0.00351917
9 *1610:D *1482:A0 5.51063e-06
10 *1610:D *1533:A1 1.39525e-05
11 *1610:D *589:120 1.23268e-05
12 *1642:D *543:24 0.000147499
13 *1642:D *547:24 0.000254327
14 *1642:D *627:124 9.67167e-05
15 *515:20 *571:22 0.000585014
16 *515:20 *582:14 0.00015379
17 *515:20 *582:18 0
18 *515:20 *603:14 0.000199054
19 *515:20 *613:24 0.000221441
20 *515:24 *550:16 2.01259e-05
21 *515:24 *658:18 0.00111351
22 *515:48 *1456:A1 0.000602455
23 *515:48 *1482:A0 3.57582e-05
24 *515:48 *1530:A0 0.000108585
25 *515:48 *1976:A 0.000180431
26 *515:48 *1979:A 0
27 *515:48 *1981:A 0.000141792
28 *515:48 *1991:A 0.000134465
29 *515:48 *543:24 9.90284e-05
30 *515:48 *590:95 2.39856e-05
31 *515:48 *625:34 9.07925e-05
32 *515:48 *638:34 0.000158066
33 *515:48 *645:34 0.000332386
34 *515:48 *648:38 0.000293772
35 *515:48 *675:42 0.000119296
36 *515:54 *1482:A0 3.29581e-05
37 *515:54 *1642:GATE 0
38 *515:54 *543:24 4.8854e-05
39 *515:54 *547:24 8.64421e-05
40 N2BEG[5] *515:20 0.000483154
41 N2BEG[6] *515:20 0.00130775
42 N2BEG[7] *515:20 0.000297064
43 N2BEGb[0] *515:20 0.000237664
44 N4BEG[2] *515:24 0.000561764
45 *1467:S *515:48 3.43923e-05
46 *1482:S1 *1642:D 0.000153811
47 *1765:A *515:48 0.000102929
48 *1838:A *515:20 6.44676e-05
49 *1856:A *515:24 0.000787046
50 *1864:A *515:48 0.000195607
51 *1865:A *515:48 0.000295844
52 *1869:A *515:24 3.83194e-05
53 *2026:A *515:48 0.00024631
54 *270:30 *515:48 1.7635e-05
55 *482:28 *515:20 0.000123492
56 *491:38 *1642:D 7.9642e-06
57 *504:30 *515:24 0.000310907
58 *504:38 *515:24 0
*RES
1 *1830:X *515:20 42.78 
2 *515:20 *515:24 44.195 
3 *515:24 *515:48 32.6001 
4 *515:48 *515:54 4.0475 
5 *515:54 *1701:A 1.6 
6 *515:54 *1642:D 10.52 
7 *515:48 *1610:D 4.3425 
*END

*D_NET *516 0.00639114
*CONN
*I *1950:A I *D sky130_fd_sc_hd__buf_2
*I *1721:X O *D sky130_fd_sc_hd__clkbuf_1
*CAP
1 *1950:A 0.00118091
2 *1721:X 0.00118091
3 *1950:A *527:12 0
4 *1950:A *529:12 0.00134668
5 FrameStrobe_O[15] *1950:A 1.47347e-05
6 FrameStrobe_O[19] *1950:A 0.000270404
7 *1923:A *1950:A 0.00086038
8 *1935:A *1950:A 8.49205e-05
9 *1937:A *1950:A 2.76356e-05
10 *1938:A *1950:A 3.32661e-05
11 *1941:A *1950:A 0.00081251
12 *1947:A *1950:A 0.000245443
13 *1948:A *1950:A 0.000145752
14 *490:36 *1950:A 0.000187608
*RES
1 *1721:X *1950:A 40.905 
*END

*D_NET *517 0.00695214
*CONN
*I *1951:A I *D sky130_fd_sc_hd__buf_2
*I *1513:Y O *D sky130_fd_sc_hd__nand2b_1
*CAP
1 *1951:A 0.0012526
2 *1513:Y 0.0012526
3 *1951:A *1573:A2 6.07676e-05
4 *1951:A *2008:A 0
5 *1951:A *548:68 0.000157026
6 *1951:A *570:24 0
7 *1951:A *581:108 1.16459e-05
8 *1951:A *675:42 2.97032e-05
9 VALUE_top11 *1951:A 0
10 *1502:B *1951:A 1.2973e-05
11 *1505:A *1951:A 8.8266e-05
12 *1505:C *1951:A 0.000228885
13 *1513:A_N *1951:A 2.0514e-05
14 *1513:B *1951:A 8.67208e-05
15 *1575:B *1951:A 0.000181792
16 *1575:C *1951:A 0
17 *1577:B *1951:A 0.000318091
18 *1851:A *1951:A 0.000238137
19 *1852:A *1951:A 0
20 *213:13 *1951:A 0.000104892
21 *246:14 *1951:A 0
22 *430:14 *1951:A 5.69513e-05
23 *449:34 *1951:A 0.000126634
24 *449:57 *1951:A 0.000787994
25 *472:14 *1951:A 0.00193595
*RES
1 *1513:Y *1951:A 43.855 
*END

*D_NET *518 0.0275031
*CONN
*I *1952:A I *D sky130_fd_sc_hd__buf_2
*I *1732:X O *D sky130_fd_sc_hd__buf_1
*CAP
1 *1952:A 0.00113638
2 *1732:X 0.00386849
3 *518:24 0.00500487
4 *1952:A *1476:A0 4.27883e-06
5 *1952:A *1556:A1 0
6 *1952:A *1558:B 0
7 *1952:A *1601:GATE 0.000151219
8 *1952:A *1632:GATE 8.48024e-05
9 *1952:A *1691:A 0.000132462
10 *1952:A *1954:A 8.53113e-06
11 *1952:A *1957:A 7.18452e-06
12 *1952:A *1958:A 0
13 *1952:A *559:48 4.1977e-05
14 *1952:A *571:22 0
15 *1952:A *585:26 3.98498e-05
16 *1952:A *603:14 0
17 *1952:A *613:24 0.000682339
18 *1952:A *618:18 0.000135574
19 *1952:A *621:22 0
20 *1952:A *629:22 0.000718196
21 *518:24 *1454:A0 1.66925e-05
22 *518:24 *1456:A0 0
23 *518:24 *1558:B 0
24 *518:24 *2007:A 2.51754e-05
25 *518:24 *526:34 0.000101392
26 *518:24 *528:28 0.000101392
27 *518:24 *548:44 0.00374774
28 *518:24 *551:12 0
29 *518:24 *570:10 0.000224494
30 *518:24 *584:125 0.000273757
31 *518:24 *619:50 5.17464e-05
32 *518:24 *636:10 0
33 N1BEG[0] *1952:A 0.000122797
34 VALUE_top1 *518:24 0
35 VALUE_top2 *518:24 0.000152075
36 *1454:S *518:24 0.000111011
37 *1476:S *1952:A 0.000110859
38 *1553:B1 *1952:A 1.38413e-05
39 *1553:B1 *518:24 0.000107382
40 *1659:CLK *1952:A 8.05818e-05
41 *1659:D *1952:A 0
42 *1737:A *1952:A 5.11729e-05
43 *1739:A *1952:A 0.000289683
44 *1756:A *518:24 0
45 *67:15 *518:24 0.000140716
46 *80:19 *518:24 0.000135083
47 *82:15 *518:24 0.000348946
48 *461:24 *518:24 0.000320986
49 *462:44 *518:24 0.00293514
50 *463:20 *518:24 0.00155108
51 *484:12 *518:24 8.03733e-05
52 *494:28 *518:24 0.00439283
*RES
1 *1732:X *518:24 39.5748 
2 *518:24 *1952:A 30.3225 
*END

*D_NET *519 0.00624096
*CONN
*I *1953:A I *D sky130_fd_sc_hd__buf_2
*I *1733:X O *D sky130_fd_sc_hd__clkbuf_1
*CAP
1 *1953:A 0.00100734
2 *1733:X 0.00100734
3 *1953:A *1469:A0 8.18626e-05
4 *1953:A *1469:A1 0.00012657
5 *1953:A *1599:D 0.000119756
6 *1953:A *1961:A 0.000133131
7 *1953:A *1965:A 0.000154526
8 *1953:A *1969:A 9.70233e-05
9 *1953:A *1971:A 8.40269e-05
10 *1953:A *1978:A 0.000685593
11 *1953:A *1979:A 0.00012349
12 *1953:A *1981:A 0.000232111
13 *1953:A *530:30 0
14 *1953:A *618:18 0.000349587
15 *1953:A *618:33 0.000198945
16 *1953:A *625:92 0.000277118
17 N2BEGb[5] *1953:A 8.51862e-05
18 *1529:S *1953:A 4.82748e-05
19 *1745:A *1953:A 0.000135265
20 *482:28 *1953:A 0.00122895
21 *482:41 *1953:A 6.48713e-05
*RES
1 *1733:X *1953:A 35.475 
*END

*D_NET *520 0.0230949
*CONN
*I *1954:A I *D sky130_fd_sc_hd__buf_2
*I *1734:X O *D sky130_fd_sc_hd__buf_1
*CAP
1 *1954:A 0.0046772
2 *1734:X 0.0046772
3 *1954:A *1452:A0 0.000202526
4 *1954:A *1456:A0 9.82856e-06
5 *1954:A *1460:A0 0
6 *1954:A *1461:A0 0.000144595
7 *1954:A *1520:A0 0.00139964
8 *1954:A *1626:GATE 5.43957e-05
9 *1954:A *1958:A 0
10 *1954:A *1966:A 0.000260523
11 *1954:A *1972:A 0.00414049
12 *1954:A *1980:A 0.00057056
13 *1954:A *527:36 0.000746963
14 *1954:A *559:48 0
15 *1954:A *571:22 0.000151557
16 *1954:A *583:52 0.000294906
17 *1954:A *583:77 0.000771652
18 *1954:A *583:118 0.000611975
19 *1954:A *587:75 0.00137797
20 *1954:A *592:48 0
21 *1954:A *626:43 0.00044021
22 *1954:A *631:10 1.08723e-05
23 *1954:A *638:34 1.81185e-05
24 *1954:A *647:22 0.000219136
25 *1954:A *655:52 0
26 *1954:A *660:36 0.000126656
27 N2BEGb[4] *1954:A 0.000779099
28 N4BEG[3] *1954:A 3.92756e-05
29 *1461:A1 *1954:A 0.000107291
30 *1533:S *1954:A 4.82863e-05
31 *1891:A *1954:A 7.25485e-05
32 *1952:A *1954:A 8.53113e-06
33 *466:44 *1954:A 0.000118735
34 *470:30 *1954:A 0.00042996
35 *490:36 *1954:A 0.00018955
36 *508:30 *1954:A 0.000394615
*RES
1 *1734:X *1954:A 41.228 
*END

*D_NET *521 0.00807761
*CONN
*I *1955:A I *D sky130_fd_sc_hd__buf_2
*I *1735:X O *D sky130_fd_sc_hd__clkbuf_1
*CAP
1 *1955:A 0
2 *1735:X 0.00238648
3 *521:38 0.00238648
4 *521:38 *1479:A1 0
5 *521:38 *1530:A0 0.000532024
6 *521:38 *1569:A 1.91597e-05
7 *521:38 *1599:D 5.58206e-05
8 *521:38 *1599:GATE 3.66286e-05
9 *521:38 *1961:A 2.61118e-05
10 *521:38 *1964:A 2.76654e-05
11 *521:38 *1970:A 7.34001e-05
12 *521:38 *1983:A 0.000570466
13 *521:38 *1996:A 1.77747e-05
14 *521:38 *589:120 2.5424e-05
15 *521:38 *590:95 1.7635e-05
16 *521:38 *625:140 0.000139516
17 *521:38 *625:154 0.000454812
18 N2BEGb[5] *521:38 1.22961e-05
19 *1478:S *521:38 0.000268757
20 *1537:A *521:38 3.0145e-05
21 *1537:B *521:38 2.75145e-05
22 *1569:B *521:38 8.23457e-05
23 *1766:A *521:38 3.09179e-05
24 *460:20 *521:38 0.000606666
25 *492:30 *521:38 0.000249577
*RES
1 *1735:X *521:38 49.21 
2 *521:38 *1955:A 1.6 
*END

*D_NET *522 0.00246392
*CONN
*I *1956:A I *D sky130_fd_sc_hd__buf_2
*I *1736:X O *D sky130_fd_sc_hd__clkbuf_1
*CAP
1 *1956:A 0.000416932
2 *1736:X 0.000416932
3 *1956:A *1531:A1 0.000119762
4 *1956:A *1690:A 4.66108e-05
5 *1956:A *1959:A 3.65496e-05
6 *1956:A *1965:A 5.21076e-05
7 *1956:A *1967:A 5.88334e-05
8 *1956:A *1968:A 6.63219e-06
9 *1956:A *1977:A 0.000160635
10 *1956:A *530:30 1.90887e-05
11 *1956:A *537:26 0.000378508
12 *1956:A *592:48 8.49205e-05
13 *1956:A *616:26 1.6408e-05
14 N2BEG[0] *1956:A 2.30292e-05
15 N2BEG[3] *1956:A 0.000404856
16 *1766:A *1956:A 0.000106377
17 *461:24 *1956:A 3.00381e-05
18 *464:56 *1956:A 8.57024e-05
*RES
1 *1736:X *1956:A 18.765 
*END

*D_NET *523 0.00211031
*CONN
*I *1957:A I *D sky130_fd_sc_hd__buf_2
*I *1737:X O *D sky130_fd_sc_hd__clkbuf_1
*CAP
1 *1957:A 0.000545952
2 *1737:X 0.000545952
3 *1957:A *1477:A1 0.000161529
4 *1957:A *1632:D 0.000159294
5 *1957:A *1632:GATE 0.00013344
6 *1957:A *1958:A 2.37606e-05
7 *1957:A *625:154 0.000137195
8 N1BEG[3] *1957:A 4.99619e-05
9 *1477:S *1957:A 0.000102922
10 *1737:A *1957:A 0.000231127
11 *1952:A *1957:A 7.18452e-06
12 *462:20 *1957:A 1.19928e-05
*RES
1 *1737:X *1957:A 18.75 
*END

*D_NET *524 0.00363269
*CONN
*I *1958:A I *D sky130_fd_sc_hd__buf_2
*I *1738:X O *D sky130_fd_sc_hd__clkbuf_1
*CAP
1 *1958:A 0.000836229
2 *1738:X 0.000836229
3 *1958:A *1632:D 0.000173911
4 *1958:A *1632:GATE 0.000101567
5 *1958:A *1633:GATE 3.60648e-06
6 *1958:A *1693:A 7.0176e-05
7 *1958:A *621:22 0.000116052
8 *1958:A *655:52 0.000924403
9 *1738:A *1958:A 2.0514e-05
10 *1770:A *1958:A 7.00889e-06
11 *1952:A *1958:A 0
12 *1954:A *1958:A 0
13 *1957:A *1958:A 2.37606e-05
14 *462:20 *1958:A 3.23391e-05
15 *463:20 *1958:A 0.000486895
*RES
1 *1738:X *1958:A 24.315 
*END

*D_NET *525 0.00123468
*CONN
*I *1959:A I *D sky130_fd_sc_hd__buf_2
*I *1739:X O *D sky130_fd_sc_hd__clkbuf_1
*CAP
1 *1959:A 0.000455784
2 *1739:X 0.000455784
3 *1956:A *1959:A 3.65496e-05
4 *464:56 *1959:A 0.000286564
*RES
1 *1739:X *1959:A 10.925 
*END

*D_NET *526 0.0216632
*CONN
*I *1611:D I *D sky130_fd_sc_hd__dlxtp_1
*I *1702:A I *D sky130_fd_sc_hd__clkbuf_1
*I *1643:D I *D sky130_fd_sc_hd__dlxtp_1
*I *1831:X O *D sky130_fd_sc_hd__clkbuf_2
*CAP
1 *1611:D 8.80913e-05
2 *1702:A 0
3 *1643:D 0.000154272
4 *1831:X 0.00146231
5 *526:61 0.000114407
6 *526:46 0.000920973
7 *526:34 0.00404308
8 *526:32 0.004765
9 *1611:D *584:125 2.01504e-05
10 *1611:D *628:120 0.000118081
11 *1643:D *1470:A1 0.000159333
12 *1643:D *1639:GATE 2.90919e-05
13 *1643:D *1643:GATE 4.82919e-05
14 *526:32 *1552:B 3.86252e-05
15 *526:32 *1554:A 6.14024e-05
16 *526:32 *1554:B 5.66161e-05
17 *526:32 *1555:B 0.000119866
18 *526:32 *1558:B 0
19 *526:32 *2006:A 7.14564e-05
20 *526:32 *548:44 0
21 *526:32 *613:24 0
22 *526:32 *614:40 0.000126099
23 *526:32 *616:26 0
24 *526:32 *619:50 3.34967e-05
25 *526:32 *622:127 2.53191e-06
26 *526:32 *624:61 0.000158297
27 *526:32 *634:26 0.000121019
28 *526:32 *640:12 0.000436099
29 *526:34 *528:28 0.00197213
30 *526:34 *570:12 7.53903e-05
31 *526:34 *617:22 0
32 *526:46 *1451:A1 0
33 *526:46 *1466:A1 0.000313857
34 *526:46 *1519:A1 0
35 *526:46 *552:56 0
36 *526:46 *579:94 0.000114492
37 *526:61 *1466:A1 7.49327e-05
38 *526:61 *584:125 2.10214e-05
39 VALUE_top0 *526:32 0
40 VALUE_top1 *526:32 0
41 *1487:C1 *1643:D 8.7152e-06
42 *1556:A2 *526:32 0.000151085
43 *1673:D *526:32 0.000105374
44 *1674:D *526:32 0.000131168
45 *1719:A *526:34 0.000460417
46 *1721:A *526:46 0
47 *1722:A *526:46 0.000345481
48 *1806:A *526:32 1.14559e-05
49 *1825:A *526:32 3.99339e-05
50 *1827:A *526:32 0.000276534
51 *1828:A *526:32 0.000167106
52 *1843:A *526:32 1.00941e-05
53 *1901:A *526:32 4.94284e-05
54 *1913:A *1611:D 5.06989e-05
55 *1913:A *1643:D 7.96909e-05
56 *1913:A *526:61 2.93678e-05
57 *67:15 *526:34 0.00144595
58 *80:19 *526:34 7.43206e-05
59 *80:19 *526:46 0.000387962
60 *81:13 *526:34 0.000922986
61 *276:10 *1643:D 0.000135533
62 *397:10 *526:32 0.000244785
63 *459:24 *526:32 2.48159e-05
64 *459:24 *526:34 0
65 *462:44 *526:34 0.000194339
66 *471:20 *526:32 0.000112361
67 *488:28 *526:46 0
68 *490:36 *1643:D 4.83776e-05
69 *491:38 *1611:D 4.9101e-05
70 *491:38 *526:46 0.000178473
71 *491:38 *526:61 3.18238e-05
72 *493:26 *526:32 7.4027e-05
73 *518:24 *526:34 0.000101392
*RES
1 *1831:X *526:32 41.145 
2 *526:32 *526:34 84.285 
3 *526:34 *526:46 19.765 
4 *526:46 *1643:D 9.485 
5 *526:46 *526:61 1.14 
6 *526:61 *1702:A 1.6 
7 *526:61 *1611:D 3.775 
*END

*D_NET *527 0.027706
*CONN
*I *1960:A I *D sky130_fd_sc_hd__buf_2
*I *1740:X O *D sky130_fd_sc_hd__buf_1
*CAP
1 *1960:A 8.94667e-05
2 *1740:X 0.00144649
3 *527:36 0.00445855
4 *527:20 0.00571259
5 *527:12 0.00279001
6 *1960:A *655:52 0
7 *527:12 *1519:A0 0.00033333
8 *527:12 *1603:D 1.75088e-05
9 *527:12 *1635:GATE 1.89226e-05
10 *527:12 *1989:A 1.88656e-05
11 *527:12 *529:12 0
12 *527:12 *625:222 0.000118616
13 *527:12 *632:166 1.44259e-05
14 *527:12 *632:179 8.18836e-05
15 *527:12 *679:38 0
16 *527:12 *684:42 8.49603e-05
17 *527:20 *529:20 0.00266999
18 *527:20 *550:16 3.83194e-05
19 *527:36 *1972:A 0.00178905
20 *527:36 *1980:A 0.000468993
21 *527:36 *529:32 0.0023889
22 *527:36 *571:22 0.000560497
23 N2BEG[4] *1960:A 1.70935e-05
24 N2BEG[6] *1960:A 6.9787e-05
25 N2BEGb[4] *527:36 0.000765186
26 N4BEG[12] *527:36 7.96104e-06
27 N4BEG[15] *527:36 0.000196376
28 NN4BEG[10] *527:36 0.000287757
29 NN4BEG[13] *527:36 0.000307068
30 NN4BEG[14] *527:36 3.83194e-05
31 NN4BEG[1] *527:36 8.33276e-05
32 NN4BEG[2] *527:36 0.000417802
33 *697:DIODE *527:12 0
34 *1740:A *527:12 4.92062e-05
35 *1778:A *527:12 6.02123e-05
36 *1853:A *527:36 4.94378e-05
37 *1854:A *527:36 1.88602e-05
38 *1871:A *527:36 0.000153073
39 *1877:A *527:20 0.000107041
40 *1900:A *527:20 0.000377851
41 *1902:A *527:20 6.90435e-05
42 *1903:A *527:20 0.000189143
43 *1904:A *527:20 7.21296e-06
44 *1931:A *527:12 0.000221581
45 *1934:A *527:12 0
46 *1938:A *527:12 0
47 *1941:A *527:12 0
48 *1950:A *527:12 0
49 *1954:A *527:36 0.000746963
50 *510:20 *527:12 0.000364374
*RES
1 *1740:X *527:12 32.63 
2 *527:12 *527:20 35.815 
3 *527:20 *527:36 48.9205 
4 *527:36 *1960:A 5.3625 
*END

*D_NET *528 0.0250287
*CONN
*I *1961:A I *D sky130_fd_sc_hd__buf_2
*I *1741:X O *D sky130_fd_sc_hd__buf_1
*CAP
1 *1961:A 0.00176219
2 *1741:X 0.00152234
3 *528:28 0.00268523
4 *528:24 0.00181266
5 *528:20 0.00241196
6 *1961:A *1526:A0 0
7 *1961:A *1549:B 7.9642e-06
8 *1961:A *1559:C1 0.000218087
9 *1961:A *1562:A1 5.05167e-05
10 *1961:A *1567:A 0
11 *1961:A *1964:A 4.05337e-05
12 *1961:A *2010:A 0.00018471
13 *1961:A *2014:A 0.000122331
14 *1961:A *530:30 0
15 *1961:A *625:154 0.00011577
16 *1961:A *634:26 0.000311406
17 *528:20 *1446:A 0.000199833
18 *528:20 *1454:A1 0.000348724
19 *528:20 *1463:A1 0.000451151
20 *528:20 *1636:D 1.56428e-05
21 *528:20 *1971:A 1.02396e-05
22 *528:20 *583:118 4.01778e-05
23 *528:20 *627:12 0.000411968
24 *528:20 *627:34 0.000347023
25 *528:20 *630:26 5.21562e-05
26 *528:20 *630:42 0.00014717
27 *528:20 *645:34 0.000448201
28 *528:20 *652:28 0.000228447
29 *528:20 *673:28 0
30 *528:24 *2000:A 3.97211e-05
31 *528:24 *531:50 0.000139625
32 *528:24 *552:56 0.000101896
33 *528:24 *615:22 0.000806454
34 *528:24 *628:41 3.45976e-05
35 *528:24 *631:71 1.7635e-05
36 *528:28 *570:12 0.00485696
37 N1BEG[1] *1961:A 0.000131502
38 N2BEG[1] *1961:A 4.66826e-05
39 N2BEG[5] *1961:A 3.00381e-05
40 VALUE_top2 *1961:A 2.24708e-05
41 VALUE_top3 *1961:A 0
42 *1495:B *528:24 0
43 *1562:A2 *1961:A 4.76121e-05
44 *1575:C *528:24 0
45 *1576:B *528:24 0.000104672
46 *1583:D *528:24 6.37091e-05
47 *1584:D *528:24 0
48 *1586:CLK *528:24 0
49 *1661:CLK *1961:A 0.000107103
50 *1661:D *1961:A 5.37091e-05
51 *1666:CLK *528:24 0
52 *1666:D *528:24 0
53 *1787:A *1961:A 8.82051e-05
54 *1856:A *528:20 0.00029028
55 *1866:A *528:20 1.73785e-05
56 *1953:A *1961:A 0.000133131
57 *67:15 *528:28 4.82919e-05
58 *449:57 *528:24 0.000213079
59 *456:41 *1961:A 0
60 *456:47 *1961:A 0
61 *456:60 *1961:A 6.06034e-05
62 *462:20 *1961:A 0.000432183
63 *463:20 *1961:A 0.00109505
64 *518:24 *528:28 0.000101392
65 *521:38 *1961:A 2.61118e-05
66 *526:34 *528:28 0.00197213
*RES
1 *1741:X *528:20 35.455 
2 *528:20 *528:24 19.445 
3 *528:24 *528:28 46.265 
4 *528:28 *1961:A 46.465 
*END

*D_NET *529 0.0284824
*CONN
*I *1962:A I *D sky130_fd_sc_hd__buf_2
*I *1742:X O *D sky130_fd_sc_hd__buf_1
*CAP
1 *1962:A 0.00137259
2 *1742:X 0.000849775
3 *529:32 0.00265787
4 *529:20 0.00215317
5 *529:12 0.00171767
6 *1962:A *1964:A 8.7152e-06
7 *1962:A *1974:A 0.000366545
8 *1962:A *571:22 0.00243349
9 *1962:A *587:75 0.000102262
10 *1962:A *655:52 0
11 *529:20 *550:16 0.00163055
12 *529:32 *655:42 0.000539647
13 Co *529:32 0.000122075
14 FrameStrobe_O[11] *529:20 0
15 FrameStrobe_O[18] *529:12 0.000289004
16 FrameStrobe_O[18] *529:20 0
17 N2BEG[6] *1962:A 5.64319e-05
18 N2BEGb[0] *1962:A 9.40525e-05
19 N2BEGb[1] *1962:A 0
20 N2BEGb[7] *1962:A 2.41342e-05
21 N4BEG[0] *1962:A 0.000996563
22 N4BEG[10] *529:32 1.79536e-05
23 N4BEG[11] *529:32 5.69898e-06
24 N4BEG[13] *529:32 4.35432e-05
25 N4BEG[5] *1962:A 2.98099e-05
26 N4BEG[9] *529:32 7.76832e-05
27 NN4BEG[10] *529:32 0.000167666
28 NN4BEG[11] *529:32 6.06805e-05
29 NN4BEG[14] *529:32 3.93101e-05
30 NN4BEG[1] *529:32 0.000564007
31 NN4BEG[6] *529:32 0.000186595
32 *1853:A *529:32 0.00044682
33 *1854:A *529:32 7.67415e-06
34 *1855:A *529:32 0.000558281
35 *1871:A *529:32 0.000150549
36 *1903:A *529:20 0.00016766
37 *1904:A *529:20 0.000230953
38 *1919:A *529:12 0.000151901
39 *1940:A *529:12 3.3972e-05
40 *1947:A *529:12 0.000225266
41 *1950:A *529:12 0.00134668
42 *466:44 *529:12 0.000601
43 *478:26 *529:32 0.00269976
44 *504:38 *529:20 0
45 *509:32 *529:12 0.000195482
46 *527:12 *529:12 0
47 *527:20 *529:20 0.00266999
48 *527:36 *529:32 0.0023889
*RES
1 *1742:X *529:12 27.68 
2 *529:12 *529:20 31.51 
3 *529:20 *529:32 48.0475 
4 *529:32 *1962:A 11.2178 
*END

*D_NET *530 0.00857837
*CONN
*I *1963:A I *D sky130_fd_sc_hd__buf_2
*I *1743:X O *D sky130_fd_sc_hd__clkbuf_1
*CAP
1 *1963:A 9.70571e-05
2 *1743:X 0.00211322
3 *530:30 0.00221028
4 *1963:A *1965:A 4.82863e-05
5 *1963:A *537:26 2.51519e-05
6 *530:30 *1567:A 0.000904709
7 *530:30 *1965:A 0.000124014
8 *530:30 *1968:A 0.000239472
9 *530:30 *580:8 1.12238e-05
10 *530:30 *589:120 8.23329e-05
11 *530:30 *590:10 0.00022707
12 *530:30 *590:50 0.000225285
13 *530:30 *622:14 0.000194694
14 *530:30 *622:46 0.000140082
15 *530:30 *625:140 8.23457e-05
16 *530:30 *625:154 1.19928e-05
17 N1BEG[1] *530:30 0
18 N2BEG[0] *530:30 0.000119113
19 N2BEGb[1] *1963:A 6.54713e-05
20 N2BEGb[3] *1963:A 0.000213826
21 *1663:CLK *530:30 0.00012182
22 *1663:D *530:30 0.000124689
23 *1766:A *530:30 0.000244048
24 *1953:A *530:30 0
25 *1956:A *530:30 1.90887e-05
26 *1961:A *530:30 0
27 *460:16 *530:30 0.000914203
28 *464:56 *530:30 1.88904e-05
*RES
1 *1743:X *530:30 48.565 
2 *530:30 *1963:A 6.555 
*END

*D_NET *531 0.0227901
*CONN
*I *1964:A I *D sky130_fd_sc_hd__buf_2
*I *1744:X O *D sky130_fd_sc_hd__buf_1
*CAP
1 *1964:A 0.000879344
2 *1744:X 0.0035634
3 *531:50 0.00444275
4 *1964:A *1526:A0 0.000108647
5 *1964:A *1528:A0 2.10433e-05
6 *1964:A *1559:C1 6.38573e-05
7 *1964:A *2014:A 8.98937e-05
8 *1964:A *587:10 0.000101913
9 *1964:A *587:46 0.000458068
10 *1964:A *587:75 0.000156373
11 *531:50 *1445:A 4.82172e-06
12 *531:50 *1446:A 0.000344941
13 *531:50 *1451:A1 0
14 *531:50 *1530:A0 0.000829202
15 *531:50 *1987:A 0.00061779
16 *531:50 *2000:A 0.000946751
17 *531:50 *548:68 0.000105911
18 *531:50 *568:52 3.65276e-05
19 *531:50 *578:32 0.000378809
20 *531:50 *588:83 0.00225903
21 *531:50 *589:77 0.000599998
22 *531:50 *622:46 0.000129366
23 *531:50 *627:34 0.000400257
24 *531:50 *662:22 0.00135972
25 *531:50 *684:26 9.50342e-06
26 N1BEG[0] *1964:A 0.000119762
27 N1BEG[3] *1964:A 0.000111434
28 N2BEG[4] *1964:A 0.000119762
29 N2BEGb[0] *1964:A 7.13883e-05
30 *1471:S *531:50 0.000123955
31 *1509:C1 *531:50 9.56742e-05
32 *1535:A2 *531:50 0.000199718
33 *1536:A2 *531:50 0.000198149
34 *1559:B1 *1964:A 4.66474e-05
35 *1570:A2 *531:50 0.000131095
36 *1581:CLK *531:50 8.4961e-05
37 *1744:A *531:50 4.48373e-06
38 *1791:A *531:50 2.98807e-05
39 *1961:A *1964:A 4.05337e-05
40 *1962:A *1964:A 8.7152e-06
41 *229:14 *531:50 1.71485e-05
42 *415:32 *531:50 0.000467694
43 *458:28 *531:50 8.65905e-05
44 *458:30 *531:50 0
45 *464:56 *531:50 0.000985631
46 *471:20 *531:50 0.0017717
47 *521:38 *1964:A 2.76654e-05
48 *528:24 *531:50 0.000139625
*RES
1 *1744:X *531:50 38.8386 
2 *531:50 *1964:A 23.0775 
*END

*D_NET *532 0.00583464
*CONN
*I *1965:A I *D sky130_fd_sc_hd__buf_2
*I *1745:X O *D sky130_fd_sc_hd__clkbuf_1
*CAP
1 *1965:A 0.00143286
2 *1745:X 0.00143286
3 *1965:A *1478:A1 0.000487422
4 *1965:A *1690:A 0.000101184
5 *1965:A *1968:A 7.76563e-05
6 *1965:A *1977:A 9.16941e-05
7 *1965:A *1978:A 0.000936841
8 *1965:A *1984:A 2.63062e-05
9 *1965:A *1986:A 0
10 *1965:A *1997:A 5.95143e-05
11 *1965:A *537:26 1.83756e-05
12 *1965:A *603:14 0.000550152
13 *1965:A *625:92 8.77516e-05
14 *1965:A *625:140 6.69679e-05
15 N2BEG[3] *1965:A 0
16 *1766:A *1965:A 8.73147e-06
17 *1767:A *1965:A 7.73914e-05
18 *1953:A *1965:A 0.000154526
19 *1956:A *1965:A 5.21076e-05
20 *1963:A *1965:A 4.82863e-05
21 *530:30 *1965:A 0.000124014
*RES
1 *1745:X *1965:A 28.5237 
*END

*D_NET *533 0.0272902
*CONN
*I *1966:A I *D sky130_fd_sc_hd__buf_2
*I *1746:X O *D sky130_fd_sc_hd__buf_1
*CAP
1 *1966:A 0.00483633
2 *1746:X 0.00483633
3 *1966:A *1452:A0 0.000289749
4 *1966:A *1464:A0 0.00232085
5 *1966:A *1477:A0 0.00178778
6 *1966:A *1522:A0 3.65646e-05
7 *1966:A *1523:A1 0.000999625
8 *1966:A *1524:A1 1.79536e-05
9 *1966:A *1527:A0 0.00114019
10 *1966:A *1528:A0 9.64365e-05
11 *1966:A *1528:A1 0.000107046
12 *1966:A *1531:A0 0.00149308
13 *1966:A *1968:A 5.83121e-06
14 *1966:A *1989:A 0.000914732
15 *1966:A *1994:A 3.89772e-05
16 *1966:A *582:30 0.000989477
17 *1966:A *583:52 0.000235578
18 *1966:A *587:75 0.000906097
19 *1966:A *603:14 0.00217371
20 *1966:A *617:28 0.000318251
21 *1966:A *617:53 0.00146583
22 *1966:A *633:10 0.000100742
23 *1966:A *633:16 3.69766e-05
24 *1966:A *645:34 0
25 *1966:A *668:16 0.000210042
26 *1966:A *682:50 6.64482e-05
27 N1BEG[2] *1966:A 7.93716e-05
28 N2BEG[1] *1966:A 0.000101551
29 N2BEG[4] *1966:A 0.000126423
30 N2BEG[5] *1966:A 1.93834e-05
31 N2BEG[7] *1966:A 1.79536e-05
32 N2BEGb[4] *1966:A 5.80923e-05
33 N4BEG[3] *1966:A 0.000238962
34 N4BEG[5] *1966:A 7.54285e-05
35 *1856:A *1966:A 0.000290511
36 *1869:A *1966:A 0.000129847
37 *1913:A *1966:A 1.30972e-05
38 *1954:A *1966:A 0.000260523
39 *488:28 *1966:A 0.000454466
*RES
1 *1746:X *1966:A 48.6499 
*END

*D_NET *534 0.0173529
*CONN
*I *1967:A I *D sky130_fd_sc_hd__buf_2
*I *1747:X O *D sky130_fd_sc_hd__buf_1
*CAP
1 *1967:A 0.000820519
2 *1747:X 0.00246156
3 *534:28 0.00328208
4 *1967:A *1531:A0 3.86479e-05
5 *1967:A *1531:A1 6.59214e-05
6 *1967:A *1972:A 0.000146715
7 *1967:A *1984:A 0
8 *1967:A *580:95 0.000100115
9 *1967:A *582:18 0.00162676
10 *534:28 *1464:A0 0.000169949
11 *534:28 *1467:A1 3.78903e-05
12 *534:28 *1469:A0 0.000120663
13 *534:28 *1482:A0 7.83434e-05
14 *534:28 *1522:A0 0.000192125
15 *534:28 *1529:A0 0.00246877
16 *534:28 *1640:GATE 0.000371415
17 *534:28 *1971:A 8.72065e-05
18 *534:28 *1976:A 0.00161849
19 *534:28 *1996:A 0.000195076
20 *534:28 *580:48 0.000167451
21 *534:28 *580:65 8.86617e-05
22 *534:28 *587:92 4.99555e-05
23 *534:28 *625:92 0.000755832
24 *534:28 *630:86 0.000152017
25 *534:28 *637:12 1.69587e-05
26 N2BEG[5] *1967:A 0.000127068
27 N2BEG[6] *1967:A 0.000160802
28 N2BEGb[3] *1967:A 7.66388e-05
29 N4BEG[10] *1967:A 0.000250644
30 N4BEG[11] *534:28 0.000160827
31 N4BEG[12] *534:28 1.01152e-05
32 N4BEG[13] *1967:A 3.74359e-05
33 N4BEG[4] *1967:A 0.000929776
34 NN4BEG[2] *534:28 3.14086e-05
35 *1491:B1_N *534:28 0
36 *1493:A1 *534:28 7.23533e-05
37 *1766:A *1967:A 2.49909e-05
38 *1854:A *534:28 0.000270428
39 *1956:A *1967:A 5.88334e-05
40 *504:26 *1967:A 2.83999e-05
*RES
1 *1747:X *534:28 40.1803 
2 *534:28 *1967:A 28.895 
*END

*D_NET *535 0.0266076
*CONN
*I *1968:A I *D sky130_fd_sc_hd__buf_2
*I *1748:X O *D sky130_fd_sc_hd__buf_1
*CAP
1 *1968:A 0.00468818
2 *1748:X 0.00468818
3 *1968:A *1478:A1 0.000273026
4 *1968:A *1563:A 0.000158728
5 *1968:A *1566:A 0.000133782
6 *1968:A *1566:B 1.88602e-05
7 *1968:A *1567:A 4.39376e-05
8 *1968:A *1639:GATE 0.000723957
9 *1968:A *1690:A 0.000151992
10 *1968:A *1977:A 9.17456e-05
11 *1968:A *2014:A 0.000180862
12 *1968:A *548:68 0.00197975
13 *1968:A *552:56 0.00214429
14 *1968:A *586:51 0.00190098
15 *1968:A *588:83 0.000203036
16 *1968:A *613:24 0.00516445
17 *1968:A *616:26 0.000246568
18 *1968:A *620:42 1.95991e-05
19 *1968:A *623:31 2.14532e-05
20 *1968:A *623:37 4.09699e-05
21 *1968:A *625:140 6.81984e-05
22 *1968:A *662:22 0.000181176
23 N2BEG[0] *1968:A 0.000306603
24 N2BEG[1] *1968:A 2.44932e-05
25 N2BEG[3] *1968:A 4.33972e-05
26 N2BEG[4] *1968:A 0.000229536
27 N2BEGb[4] *1968:A 0.000136174
28 N4BEG[0] *1968:A 5.41834e-05
29 *695:DIODE *1968:A 7.93268e-05
30 *1639:D *1968:A 3.18878e-05
31 *1949:A *1968:A 5.25594e-05
32 *1956:A *1968:A 6.63219e-06
33 *1965:A *1968:A 7.76563e-05
34 *1966:A *1968:A 5.83121e-06
35 *396:14 *1968:A 5.12871e-05
36 *415:32 *1968:A 0.00178988
37 *464:56 *1968:A 0.000354977
38 *530:30 *1968:A 0.000239472
*RES
1 *1748:X *1968:A 48.7063 
*END

*D_NET *536 0.00899148
*CONN
*I *1969:A I *D sky130_fd_sc_hd__buf_2
*I *1749:X O *D sky130_fd_sc_hd__clkbuf_1
*CAP
1 *1969:A 0.00166044
2 *1749:X 0.00166044
3 *1969:A *1476:A0 4.66108e-05
4 *1969:A *1477:A0 0.0016993
5 *1969:A *1617:D 0.000157378
6 *1969:A *1649:GATE 1.88656e-05
7 *1969:A *1703:A 4.66108e-05
8 *1969:A *1705:A 8.40269e-05
9 *1969:A *1971:A 8.40269e-05
10 *1969:A *1979:A 3.94499e-05
11 *1969:A *1980:A 4.03822e-05
12 *1969:A *1987:A 0.000282162
13 *1969:A *1991:A 0.000342013
14 *1969:A *1992:A 8.52845e-05
15 *1969:A *1995:A 0.000385266
16 *1969:A *2003:A 0.000201943
17 *1969:A *568:52 0.000223078
18 *1969:A *587:147 3.96645e-05
19 *1969:A *592:75 1.33285e-05
20 *1969:A *627:55 1.0129e-05
21 *1969:A *682:50 0.000843413
22 N2BEGb[7] *1969:A 4.77719e-05
23 N4BEG[1] *1969:A 0.000263568
24 *1749:A *1969:A 1.10085e-05
25 *1754:A *1969:A 5.17372e-05
26 *1872:A *1969:A 4.82919e-05
27 *1919:A *1969:A 7.33639e-05
28 *1953:A *1969:A 9.70233e-05
29 *464:56 *1969:A 0.000434911
*RES
1 *1749:X *1969:A 30.8683 
*END

*D_NET *537 0.0164849
*CONN
*I *1703:A I *D sky130_fd_sc_hd__buf_1
*I *1612:D I *D sky130_fd_sc_hd__dlxtp_1
*I *1644:D I *D sky130_fd_sc_hd__dlxtp_1
*I *1832:X O *D sky130_fd_sc_hd__buf_1
*CAP
1 *1703:A 0.000101182
2 *1612:D 7.22142e-05
3 *1644:D 0.000113211
4 *1832:X 0.00233661
5 *537:75 0.000571023
6 *537:52 0.00237488
7 *537:26 0.00420065
8 *1612:D *1999:A 6.1357e-05
9 *1612:D *682:50 4.66108e-05
10 *1644:D *1646:GATE 0.000176646
11 *1644:D *1992:A 1.453e-05
12 *1644:D *559:48 9.03508e-06
13 *1644:D *632:40 7.9642e-06
14 *1644:D *654:34 0.000128887
15 *1703:A *1477:A0 0.00013757
16 *1703:A *1991:A 4.66108e-05
17 *537:26 *1528:A1 1.12578e-05
18 *537:26 *592:48 0.000476537
19 *537:26 *603:14 0.000235967
20 *537:26 *614:40 2.45812e-05
21 *537:26 *655:52 2.66935e-05
22 *537:52 *1452:A0 5.84786e-05
23 *537:52 *1528:A0 2.86265e-06
24 *537:52 *1531:A0 0.00048826
25 *537:52 *1593:GATE 2.97593e-05
26 *537:52 *1976:A 0.000116406
27 *537:52 *1989:A 4.24213e-05
28 *537:52 *1994:A 9.14285e-05
29 *537:52 *1999:A 0.000402769
30 *537:52 *2000:A 0.000259105
31 *537:52 *559:48 0.00021307
32 *537:52 *580:95 0.000101022
33 *537:52 *587:92 1.54111e-05
34 *537:52 *587:147 0.0001371
35 *537:52 *592:48 5.82004e-05
36 *537:52 *654:34 1.08758e-05
37 *537:75 *1477:A0 3.82072e-05
38 *537:75 *1614:D 7.05554e-05
39 *537:75 *559:48 7.79208e-05
40 *537:75 *654:34 3.57349e-05
41 *537:75 *682:50 9.94071e-05
42 Co *537:52 0.000184547
43 N1BEG[0] *537:26 8.80056e-05
44 N1BEG[2] *537:26 0.000423117
45 N2BEG[4] *537:26 8.53113e-06
46 N2BEG[7] *537:26 0.000120655
47 N2BEGb[1] *537:26 0.000120182
48 N4BEG[9] *537:52 8.52845e-05
49 NN4BEG[0] *537:52 1.7635e-05
50 *1481:S0 *537:52 0.000306155
51 *1514:S *1612:D 8.55525e-05
52 *1514:S *537:75 4.82863e-05
53 *1528:S *537:26 0.000272096
54 *1754:A *537:52 0.000183322
55 *1766:A *537:26 3.1562e-06
56 *1769:A *537:26 8.88523e-06
57 *1837:A *537:26 0
58 *1839:A *537:26 5.53549e-06
59 *1841:A *537:26 0.000129898
60 *1842:A *537:26 5.71917e-05
61 *1867:A *1703:A 6.69969e-05
62 *1867:A *537:75 2.40793e-05
63 *1870:A *1612:D 0.000122337
64 *1956:A *537:26 0.000378508
65 *1963:A *537:26 2.51519e-05
66 *1965:A *537:26 1.83756e-05
67 *1969:A *1703:A 4.66108e-05
68 *272:10 *537:52 4.77719e-05
69 *488:28 *537:26 8.40269e-05
*RES
1 *1832:X *537:26 42.36 
2 *537:26 *537:52 32.3705 
3 *537:52 *1644:D 8.105 
4 *537:52 *537:75 7.925 
5 *537:75 *1612:D 5.775 
6 *537:75 *1703:A 5.94 
*END

*D_NET *538 0.0205128
*CONN
*I *1970:A I *D sky130_fd_sc_hd__buf_2
*I *1750:X O *D sky130_fd_sc_hd__buf_1
*CAP
1 *1970:A 0.000923005
2 *1750:X 0.00369305
3 *538:40 0.00461605
4 *1970:A *1567:B 4.11799e-05
5 *1970:A *1568:C1 4.6368e-06
6 *1970:A *1597:D 4.66108e-05
7 *1970:A *1971:A 0
8 *1970:A *1977:A 4.66108e-05
9 *1970:A *1983:A 2.14129e-05
10 *1970:A *1987:A 0
11 *1970:A *552:56 0
12 *1970:A *585:89 6.66534e-05
13 *1970:A *623:12 0.000294768
14 *1970:A *623:31 4.72487e-05
15 *538:40 *1454:A1 7.77232e-05
16 *538:40 *1526:A0 0.00300932
17 *538:40 *1987:A 4.56755e-05
18 *538:40 *1989:A 7.50946e-05
19 *538:40 *1991:A 0.000252352
20 *538:40 *2009:A 0.00013974
21 *538:40 *568:52 0.000572609
22 *538:40 *580:18 0.000117595
23 *538:40 *581:16 2.35435e-05
24 *538:40 *581:108 0.000187798
25 *538:40 *586:51 0.000126419
26 *538:40 *586:76 1.35034e-05
27 *538:40 *590:118 0.000941228
28 *538:40 *619:50 8.57616e-05
29 *538:40 *626:10 1.67263e-05
30 *538:40 *628:41 2.10214e-05
31 *538:40 *632:112 0.000149717
32 *538:40 *675:42 0.000165561
33 N2BEGb[5] *1970:A 0.000109782
34 N2BEGb[7] *1970:A 0
35 *1495:B *538:40 0
36 *1496:C *538:40 8.11195e-05
37 *1499:A *538:40 1.22811e-05
38 *1500:C *538:40 1.49171e-05
39 *1511:B1 *538:40 0.000226961
40 *1515:S *538:40 0
41 *1568:A2 *1970:A 2.96938e-05
42 *1568:B1 *1970:A 8.12896e-06
43 *1583:CLK *538:40 1.31227e-05
44 *1583:D *538:40 2.37118e-05
45 *1585:D *538:40 1.90973e-05
46 *1663:CLK *1970:A 2.11536e-05
47 *1750:A *538:40 7.23533e-05
48 *1785:A *538:40 0.000172898
49 *1807:A *538:40 7.9642e-06
50 *2026:A *538:40 0.000324068
51 *233:10 *538:40 6.59891e-05
52 *270:30 *538:40 0.00091953
53 *402:8 *1970:A 0.000171189
54 *406:18 *538:40 0.00040821
55 *436:24 *538:40 0.000145037
56 *458:49 *538:40 0.000529761
57 *458:61 *538:40 8.49205e-05
58 *471:20 *538:40 0.00108205
59 *492:30 *1970:A 5.23879e-05
60 *494:28 *1970:A 2.05056e-05
61 *521:38 *1970:A 7.34001e-05
*RES
1 *1750:X *538:40 49.9165 
2 *538:40 *1970:A 20.525 
*END

*D_NET *539 0.0100183
*CONN
*I *1971:A I *D sky130_fd_sc_hd__buf_2
*I *1751:X O *D sky130_fd_sc_hd__clkbuf_1
*CAP
1 *1971:A 0.00179887
2 *1751:X 0.00179887
3 *1971:A *1464:A0 6.88241e-05
4 *1971:A *1479:A1 0.000299765
5 *1971:A *1489:A1 0.00067696
6 *1971:A *1527:A0 4.79229e-05
7 *1971:A *1529:A0 2.15702e-05
8 *1971:A *1976:A 0.000339789
9 *1971:A *1987:A 3.69766e-05
10 *1971:A *2000:A 7.46418e-05
11 *1971:A *585:89 0.000989328
12 *1971:A *603:14 0.00354467
13 *1856:A *1971:A 5.46154e-05
14 *1953:A *1971:A 8.40269e-05
15 *1969:A *1971:A 8.40269e-05
16 *1970:A *1971:A 0
17 *528:20 *1971:A 1.02396e-05
18 *534:28 *1971:A 8.72065e-05
*RES
1 *1751:X *1971:A 16.7601 
*END

*D_NET *540 0.0191125
*CONN
*I *1972:A I *D sky130_fd_sc_hd__buf_2
*I *1752:X O *D sky130_fd_sc_hd__buf_1
*CAP
1 *1972:A 0.00280271
2 *1752:X 0.00280271
3 *1972:A *1456:A0 1.50624e-05
4 *1972:A *1458:A0 9.45795e-05
5 *1972:A *1461:A0 4.01221e-05
6 *1972:A *1520:A0 9.70043e-06
7 *1972:A *1524:A0 0.00035782
8 *1972:A *1616:GATE 0.000115712
9 *1972:A *1980:A 4.57722e-05
10 *1972:A *571:22 0.00639139
11 N2BEG[4] *1972:A 0.000240429
12 N2BEG[5] *1972:A 1.7635e-05
13 N4BEG[2] *1972:A 3.00381e-05
14 *1461:A1 *1972:A 7.9642e-06
15 *1461:S *1972:A 2.47313e-05
16 *1753:A *1972:A 1.83847e-05
17 *1891:A *1972:A 1.2778e-05
18 *1954:A *1972:A 0.00414049
19 *1967:A *1972:A 0.000146715
20 *504:26 *1972:A 8.73147e-06
21 *527:36 *1972:A 0.00178905
*RES
1 *1752:X *1972:A 35.8707 
*END

*D_NET *541 0.00052207
*CONN
*I *1973:A I *D sky130_fd_sc_hd__buf_2
*I *1762:X O *D sky130_fd_sc_hd__clkbuf_1
*CAP
1 *1973:A 0.000124744
2 *1762:X 0.000124744
3 N2BEGb[6] *1973:A 0.000130545
4 N4BEG[10] *1973:A 0.000108254
5 N4BEG[9] *1973:A 0
6 *1762:A *1973:A 3.37834e-05
*RES
1 *1762:X *1973:A 9.975 
*END

*D_NET *542 0.0176472
*CONN
*I *1974:A I *D sky130_fd_sc_hd__buf_2
*I *1763:X O *D sky130_fd_sc_hd__buf_1
*CAP
1 *1974:A 0.00361262
2 *1763:X 0.00361262
3 *1974:A *1459:A0 3.23663e-05
4 *1974:A *1461:A0 8.57024e-05
5 *1974:A *1462:A0 8.40213e-05
6 *1974:A *1520:A0 0
7 *1974:A *1521:A0 3.85204e-05
8 *1974:A *1526:A0 0.000228771
9 *1974:A *1529:A0 4.46543e-05
10 *1974:A *1976:A 7.91885e-05
11 *1974:A *1978:A 0.00033455
12 *1974:A *551:30 0.00019554
13 *1974:A *571:22 0.00389186
14 *1974:A *580:95 0.000185722
15 *1974:A *587:75 3.04717e-05
16 *1974:A *677:30 0.000120655
17 *1974:A *685:20 0.000254224
18 *1974:A *687:26 6.71767e-05
19 N4BEG[4] *1974:A 1.91763e-05
20 N4BEG[5] *1974:A 8.80658e-06
21 N4BEG[6] *1974:A 4.38541e-05
22 *697:DIODE *1974:A 0.0027052
23 *1763:A *1974:A 3.64549e-05
24 *1880:A *1974:A 0.000299484
25 *1897:A *1974:A 4.27246e-05
26 *1903:A *1974:A 6.58339e-05
27 *1905:A *1974:A 0.00035751
28 *1906:A *1974:A 1.80763e-05
29 *1919:A *1974:A 0.000743181
30 *1962:A *1974:A 0.000366545
31 *470:30 *1974:A 3.59971e-05
32 *508:30 *1974:A 5.70461e-06
*RES
1 *1763:X *1974:A 45.4442 
*END

*D_NET *543 0.00951008
*CONN
*I *1975:A I *D sky130_fd_sc_hd__buf_2
*I *1764:X O *D sky130_fd_sc_hd__buf_1
*CAP
1 *1975:A 0.000300121
2 *1764:X 0.00209682
3 *543:24 0.00239694
4 *1975:A *1481:A0 0.000203267
5 *1975:A *1708:A 4.77757e-05
6 *1975:A *587:147 5.69863e-05
7 *1975:A *630:86 0.000230258
8 *1975:A *637:12 4.77757e-05
9 *543:24 *1482:A0 0
10 *543:24 *1489:A1 1.07563e-05
11 *543:24 *1539:A 0.000119246
12 *543:24 *1624:D 1.91597e-05
13 *543:24 *2001:A 0.000533687
14 *543:24 *547:24 6.16192e-05
15 *543:24 *578:55 4.79653e-05
16 *543:24 *585:128 2.38537e-05
17 *543:24 *589:120 0.000248146
18 *543:24 *620:42 0.000567487
19 *543:24 *626:22 0.0002071
20 *543:24 *638:20 4.05106e-05
21 *543:24 *649:30 0.000267846
22 *543:24 *673:28 8.05328e-05
23 *543:24 *675:42 0.000148487
24 *1450:A *543:24 1.0129e-05
25 *1467:S *543:24 4.66108e-05
26 *1471:S *543:24 3.22351e-05
27 *1489:S0 *543:24 0.000142678
28 *1493:B1 *543:24 0.000107444
29 *1495:B *543:24 4.66108e-05
30 *1642:D *543:24 0.000147499
31 *1697:A *543:24 0.000188299
32 *1781:A *543:24 0.000246935
33 *1808:A *543:24 0.000163204
34 *1853:A *1975:A 0.000123955
35 *1855:A *1975:A 1.77595e-05
36 *270:30 *543:24 5.63183e-05
37 *270:49 *543:24 4.95846e-05
38 *271:45 *1975:A 0.000118081
39 *491:38 *543:24 0.000108522
40 *515:48 *543:24 9.90284e-05
41 *515:54 *543:24 4.8854e-05
*RES
1 *1764:X *543:24 47.685 
2 *543:24 *1975:A 8.725 
*END

*D_NET *544 0.0121767
*CONN
*I *1976:A I *D sky130_fd_sc_hd__buf_2
*I *1765:X O *D sky130_fd_sc_hd__clkbuf_1
*CAP
1 *1976:A 0.00229624
2 *1765:X 0.00229624
3 *1976:A *1452:A0 0.00100124
4 *1976:A *1464:A0 0.000145336
5 *1976:A *1489:A1 0.000682469
6 *1976:A *1526:A0 0.000842909
7 *1976:A *1529:A0 0.000228071
8 *1976:A *1531:A0 0.000303583
9 *1976:A *1617:GATE 0.000106567
10 *1976:A *1979:A 0
11 *1976:A *1980:A 0
12 *1976:A *2000:A 0.000170418
13 *1976:A *551:30 8.1895e-05
14 *1976:A *568:52 0.000580709
15 *1976:A *587:92 4.66108e-05
16 *1976:A *587:147 0.000234504
17 *1976:A *592:48 1.56428e-05
18 *1976:A *603:14 2.35179e-05
19 *1490:B *1976:A 0.000406499
20 *1493:B1 *1976:A 1.88602e-05
21 *1971:A *1976:A 0.000339789
22 *1974:A *1976:A 7.91885e-05
23 *464:56 *1976:A 2.54661e-05
24 *488:28 *1976:A 0.000335625
25 *515:48 *1976:A 0.000180431
26 *534:28 *1976:A 0.00161849
27 *537:52 *1976:A 0.000116406
*RES
1 *1765:X *1976:A 21.7201 
*END

*D_NET *545 0.00503687
*CONN
*I *1977:A I *D sky130_fd_sc_hd__buf_2
*I *1766:X O *D sky130_fd_sc_hd__clkbuf_1
*CAP
1 *1977:A 0.00100294
2 *1766:X 0.00100294
3 *1977:A *1481:A0 3.94472e-05
4 *1977:A *1594:GATE 0.00019507
5 *1977:A *1597:D 0.000497089
6 *1977:A *1597:GATE 2.35435e-05
7 *1977:A *580:48 0.000118081
8 *1977:A *621:28 0.000226104
9 *1977:A *625:92 8.58007e-05
10 *1977:A *625:103 0.000119219
11 *1977:A *630:86 0.000264248
12 *1977:A *630:94 3.62504e-05
13 *1977:A *630:113 3.02353e-05
14 *1469:S *1977:A 8.8266e-05
15 *1531:S *1977:A 0.000192369
16 *1608:D *1977:A 4.82863e-05
17 *1956:A *1977:A 0.000160635
18 *1965:A *1977:A 9.16941e-05
19 *1968:A *1977:A 9.17456e-05
20 *1970:A *1977:A 4.66108e-05
21 *461:24 *1977:A 3.74359e-05
22 *482:28 *1977:A 0.00052079
23 *492:30 *1977:A 0.000118081
*RES
1 *1766:X *1977:A 31.26 
*END

*D_NET *546 0.00399607
*CONN
*I *1978:A I *D sky130_fd_sc_hd__buf_2
*I *1767:X O *D sky130_fd_sc_hd__clkbuf_1
*CAP
1 *1978:A 0.000520381
2 *1767:X 0.000520381
3 *1978:A *1594:GATE 0.000148115
4 *1978:A *1979:A 1.52513e-05
5 *1978:A *1995:A 3.60679e-05
6 *1978:A *551:30 1.15529e-05
7 *1978:A *580:95 0.000170624
8 *1978:A *617:28 0.000464206
9 *1479:S0 *1978:A 0.000152504
10 *1953:A *1978:A 0.000685593
11 *1965:A *1978:A 0.000936841
12 *1974:A *1978:A 0.00033455
*RES
1 *1767:X *1978:A 24.705 
*END

*D_NET *547 0.0191988
*CONN
*I *1979:A I *D sky130_fd_sc_hd__buf_2
*I *1753:X O *D sky130_fd_sc_hd__buf_1
*CAP
1 *1979:A 0.00203499
2 *1753:X 0.00145079
3 *547:24 0.00348579
4 *1979:A *1456:A1 0
5 *1979:A *1477:A0 2.44501e-05
6 *1979:A *1527:A0 0.000540823
7 *1979:A *1594:GATE 3.72952e-05
8 *1979:A *1989:A 0.000528868
9 *1979:A *1997:A 0.000891962
10 *1979:A *551:30 0.000182419
11 *1979:A *560:24 9.73473e-05
12 *1979:A *592:58 0.000351581
13 *1979:A *603:14 0.000427917
14 *1979:A *615:30 6.90381e-05
15 *1979:A *625:34 6.88241e-05
16 *1979:A *630:42 0.00137589
17 *1979:A *632:40 0.000289418
18 *1979:A *673:28 0.000536625
19 *1979:A *684:26 6.9768e-05
20 *547:24 *1462:A0 0.000289925
21 *547:24 *1483:A1 0.000492537
22 *547:24 *1529:A0 0.000461242
23 *547:24 *1624:D 2.54431e-05
24 *547:24 *1626:D 4.78726e-05
25 *547:24 *1626:GATE 4.94405e-05
26 *547:24 *615:30 4.29107e-05
27 *547:24 *627:12 0.000178482
28 *547:24 *631:10 0.000110284
29 *547:24 *631:18 0.000230964
30 N4BEG[3] *1979:A 2.30292e-05
31 *1460:A1 *1979:A 9.09643e-05
32 *1479:S0 *1979:A 0.000113821
33 *1480:S0 *547:24 0.000256882
34 *1482:S1 *547:24 0.000338992
35 *1489:S1 *1979:A 1.7635e-05
36 *1493:B1 *1979:A 3.80329e-05
37 *1642:D *547:24 0.000254327
38 *1752:A *547:24 5.48487e-05
39 *1753:A *547:24 0.000120655
40 *1765:A *1979:A 0
41 *1953:A *1979:A 0.00012349
42 *1969:A *1979:A 3.94499e-05
43 *1976:A *1979:A 0
44 *1978:A *1979:A 1.52513e-05
45 *271:28 *1979:A 4.38791e-05
46 *464:56 *1979:A 0.00138404
47 *470:30 *1979:A 6.768e-05
48 *474:20 *547:24 0.000883569
49 *482:28 *1979:A 8.40213e-05
50 *489:28 *547:24 0.000445713
51 *491:38 *547:24 0.000261568
52 *515:48 *1979:A 0
53 *515:54 *547:24 8.64421e-05
54 *543:24 *547:24 6.16192e-05
*RES
1 *1753:X *547:24 42.1 
2 *547:24 *1979:A 25.5767 
*END

*D_NET *548 0.0328045
*CONN
*I *1704:A I *D sky130_fd_sc_hd__clkbuf_1
*I *1645:D I *D sky130_fd_sc_hd__dlxtp_1
*I *1613:D I *D sky130_fd_sc_hd__dlxtp_1
*I *1833:X O *D sky130_fd_sc_hd__dlymetal6s2s_1
*CAP
1 *1704:A 9.48178e-05
2 *1645:D 7.37088e-05
3 *1613:D 0
4 *1833:X 0.00343616
5 *548:76 0.000297307
6 *548:68 0.00346041
7 *548:44 0.00657815
8 *1645:D *1451:A1 1.59207e-05
9 *1645:D *1526:A0 0.000144233
10 *1645:D *1650:GATE 4.66108e-05
11 *1645:D *632:106 1.56428e-05
12 *1645:D *685:20 0.000116165
13 *1704:A *1518:A0 5.42681e-05
14 *548:44 *1552:B 1.34361e-05
15 *548:44 *1555:A 0.000116151
16 *548:44 *612:20 4.27774e-05
17 *548:44 *614:40 0.000818864
18 *548:44 *617:22 0.000205149
19 *548:44 *619:50 0
20 *548:44 *620:42 1.92979e-05
21 *548:44 *634:26 4.66108e-05
22 *548:68 *1451:A1 0
23 *548:68 *1455:A1 0
24 *548:68 *1518:A0 8.25335e-05
25 *548:68 *1622:GATE 1.87674e-05
26 *548:68 *2008:A 0
27 *548:68 *568:52 6.99235e-05
28 *548:68 *578:18 0
29 *548:68 *579:72 0.000108737
30 *548:68 *586:51 2.02787e-05
31 *548:68 *613:24 0.000137831
32 *548:68 *614:40 0.00265627
33 *548:68 *620:42 0.000849711
34 *548:68 *628:41 0.00123932
35 *548:68 *684:26 5.34541e-05
36 *548:76 *1451:A1 3.75738e-05
37 *548:76 *586:93 3.0807e-05
38 *548:76 *626:43 6.33103e-05
39 HOLD_top *548:68 0.00036968
40 VALUE_top0 *548:44 0.000185813
41 VALUE_top11 *548:44 1.70668e-05
42 *1515:A1 *1645:D 5.53549e-06
43 *1515:A1 *548:76 3.75738e-05
44 *1734:A *1704:A 6.21165e-05
45 *1734:A *548:68 0.000113797
46 *1759:A *548:68 0.00011041
47 *1790:A *548:68 2.10902e-05
48 *1824:A *548:44 0
49 *1826:A *548:44 6.44676e-05
50 *1828:A *548:44 0
51 *1829:A *548:44 6.44676e-05
52 *1831:A *548:44 8.61961e-05
53 *1832:A *548:44 0.000131007
54 *1833:A *548:44 6.44676e-05
55 *1835:A *548:44 0
56 *1840:A *548:44 0.00023487
57 *1844:A *548:44 1.17462e-05
58 *1845:A *548:44 7.37867e-05
59 *1849:A *548:44 4.86248e-05
60 *1850:A *548:44 7.13998e-05
61 *1868:A *548:44 6.44676e-05
62 *1951:A *548:68 0.000157026
63 *1968:A *548:68 0.00197975
64 *232:34 *548:68 0
65 *275:16 *548:68 0.000537841
66 *461:24 *548:44 0.00227046
67 *464:56 *548:68 0.000629409
68 *474:20 *1704:A 0.000217735
69 *474:20 *548:68 0.000245902
70 *493:43 *548:68 0.000109913
71 *518:24 *548:44 0.00374774
72 *526:32 *548:44 0
73 *531:50 *548:68 0.000105911
*RES
1 *1833:X *548:44 49.1112 
2 *548:44 *548:68 31.9784 
3 *548:68 *548:76 7.045 
4 *548:76 *1613:D 3.6 
5 *548:76 *1645:D 5.94 
6 *548:68 *1704:A 6.255 
*END

*D_NET *549 0.00702013
*CONN
*I *1980:A I *D sky130_fd_sc_hd__buf_2
*I *1754:X O *D sky130_fd_sc_hd__clkbuf_1
*CAP
1 *1980:A 0.0014563
2 *1754:X 0.0014563
3 *1980:A *1982:A 4.47125e-05
4 *1980:A *1984:A 8.41307e-05
5 *1980:A *551:30 0.000779907
6 *1980:A *559:48 0.000215752
7 *1980:A *568:52 2.06223e-06
8 *1980:A *580:95 0.000153505
9 N4BEG[12] *1980:A 2.05641e-05
10 N4BEG[14] *1980:A 1.7635e-05
11 N4BEG[2] *1980:A 0.000348292
12 N4BEG[4] *1980:A 3.23663e-05
13 N4BEG[6] *1980:A 0.000950911
14 N4BEG[7] *1980:A 3.86814e-05
15 N4BEG[8] *1980:A 0.000248384
16 *1954:A *1980:A 0.00057056
17 *1969:A *1980:A 4.03822e-05
18 *1972:A *1980:A 4.57722e-05
19 *1976:A *1980:A 0
20 *464:56 *1980:A 4.49305e-05
21 *488:28 *1980:A 0
22 *527:36 *1980:A 0.000468993
*RES
1 *1754:X *1980:A 33.3416 
*END

*D_NET *550 0.0197611
*CONN
*I *1981:A I *D sky130_fd_sc_hd__buf_2
*I *1755:X O *D sky130_fd_sc_hd__buf_1
*CAP
1 *1981:A 0.00173386
2 *1755:X 0.00155884
3 *550:16 0.0032927
4 *1981:A *1477:A0 0.000621135
5 *1981:A *1524:A0 3.45254e-05
6 *1981:A *1617:GATE 2.3093e-05
7 *1981:A *1985:A 6.03508e-05
8 *1981:A *1989:A 0.00157481
9 *1981:A *1997:A 5.44058e-05
10 *1981:A *603:14 0.00162933
11 *1981:A *617:53 2.86034e-05
12 *1981:A *625:34 0.000197983
13 *1981:A *625:71 0.000621243
14 *1981:A *625:92 2.77052e-05
15 *1981:A *630:42 6.83741e-05
16 *1981:A *645:34 0.000333731
17 *1981:A *682:50 0.000877548
18 *550:16 *1519:A0 0.000121023
19 *550:16 *628:150 5.06699e-05
20 FrameStrobe_O[10] *550:16 1.79098e-05
21 FrameStrobe_O[3] *550:16 0
22 FrameStrobe_O[8] *550:16 0.000484015
23 FrameStrobe_O[9] *550:16 0.000316659
24 *1862:A *1981:A 6.57949e-06
25 *1863:A *1981:A 0.000297735
26 *1864:A *1981:A 0.000113193
27 *1864:A *550:16 1.51976e-05
28 *1875:A *550:16 0.000109749
29 *1876:A *550:16 0.000492739
30 *1877:A *550:16 2.8185e-05
31 *1881:A *550:16 0.000166266
32 *1887:A *550:16 0.000114498
33 *1891:A *550:16 0.000105701
34 *1893:A *550:16 5.21706e-05
35 *1895:A *550:16 0.000139226
36 *1900:A *550:16 1.48096e-05
37 *1902:A *550:16 0.000483154
38 *1942:A *550:16 0
39 *1944:A *550:16 0.000379492
40 *1945:A *550:16 1.75721e-05
41 *1947:A *550:16 0.000113797
42 *1953:A *1981:A 0.000232111
43 *470:30 *1981:A 0.00108918
44 *482:28 *1981:A 0.000230429
45 *504:38 *550:16 0
46 *515:24 *550:16 2.01259e-05
47 *515:48 *1981:A 0.000141792
48 *527:20 *550:16 3.83194e-05
49 *529:20 *550:16 0.00163055
*RES
1 *1755:X *550:16 47.98 
2 *550:16 *1981:A 23.1723 
*END

*D_NET *551 0.0193956
*CONN
*I *1982:A I *D sky130_fd_sc_hd__buf_2
*I *1756:X O *D sky130_fd_sc_hd__buf_1
*CAP
1 *1982:A 6.87582e-05
2 *1756:X 0.000704438
3 *551:30 0.00185728
4 *551:16 0.00246824
5 *551:12 0.00138415
6 *1982:A *1984:A 4.77757e-05
7 *551:12 *555:32 0
8 *551:12 *613:44 0
9 *551:12 *635:12 0.000612388
10 *551:16 *570:12 0.0010233
11 *551:30 *1455:A1 9.14049e-05
12 *551:30 *1479:A1 7.27402e-06
13 *551:30 *1530:A0 0.000303612
14 *551:30 *1543:B 0.000144957
15 *551:30 *1593:GATE 0.000315095
16 *551:30 *1594:GATE 5.56917e-05
17 *551:30 *555:32 0.000772603
18 *551:30 *577:30 3.91137e-05
19 *551:30 *580:95 0.000141533
20 *551:30 *587:75 0.000129526
21 *551:30 *617:22 0.000113722
22 *551:30 *617:28 0
23 *551:30 *627:34 0
24 *551:30 *627:55 8.1822e-05
25 N2BEGb[1] *551:30 1.56428e-05
26 N2BEGb[2] *551:30 7.11235e-06
27 N4BEG[1] *551:30 3.90755e-05
28 N4BEG[3] *551:30 4.81484e-06
29 N4BEG[4] *1982:A 4.99619e-05
30 N4BEG[4] *551:30 2.2142e-05
31 N4BEG[6] *551:30 0.000105534
32 N4BEG[8] *551:30 0.000744172
33 *1479:S0 *551:30 6.6883e-05
34 *1479:S1 *551:30 8.53109e-05
35 *1496:C *551:30 0.000229542
36 *1499:A *551:30 0
37 *1570:C1 *551:30 0.000599597
38 *1575:C *551:16 0.00107391
39 *1669:CLK *551:30 7.51877e-05
40 *1807:A *551:30 5.34796e-05
41 *1852:A *551:12 0
42 *1974:A *551:30 0.00019554
43 *1976:A *551:30 8.1895e-05
44 *1978:A *551:30 1.15529e-05
45 *1979:A *551:30 0.000182419
46 *1980:A *1982:A 4.47125e-05
47 *1980:A *551:30 0.000779907
48 *231:10 *551:30 5.76099e-05
49 *459:24 *551:16 0.000196376
50 *461:36 *551:12 6.82931e-05
51 *462:44 *551:16 0.00127978
52 *471:36 *551:16 0.00192082
53 *472:14 *551:16 0.000814467
54 *482:28 *551:30 9.0444e-05
55 *494:28 *551:30 0.000136758
56 *518:24 *551:12 0
*RES
1 *1756:X *551:12 15.41 
2 *551:12 *551:16 37.985 
3 *551:16 *551:30 49.525 
4 *551:30 *1982:A 5.1 
*END

*D_NET *552 0.0216754
*CONN
*I *1983:A I *D sky130_fd_sc_hd__buf_2
*I *1757:X O *D sky130_fd_sc_hd__buf_1
*CAP
1 *1983:A 0.000515485
2 *1757:X 0.0038669
3 *552:56 0.00438238
4 *1983:A *1478:A0 9.17274e-05
5 *1983:A *1684:A 3.21081e-06
6 *1983:A *1986:A 0.000562083
7 *1983:A *592:48 9.39629e-05
8 *1983:A *616:49 9.82689e-05
9 *1983:A *625:140 3.08152e-05
10 *552:56 *1454:A0 4.93163e-05
11 *552:56 *1519:A1 4.13879e-05
12 *552:56 *1567:B 0.000133788
13 *552:56 *1587:GATE 0.000105018
14 *552:56 *1590:GATE 0.000106377
15 *552:56 *1984:A 0.00132418
16 *552:56 *1986:A 0.000188517
17 *552:56 *2005:A 0.000145211
18 *552:56 *584:90 1.78103e-05
19 *552:56 *588:83 0.00212168
20 *552:56 *589:10 3.69766e-05
21 *552:56 *589:18 2.8856e-05
22 *552:56 *612:20 0.00048241
23 *552:56 *619:50 0.00064138
24 *552:56 *631:71 6.90438e-05
25 *552:56 *636:14 0.000681068
26 N2BEGb[5] *1983:A 1.4816e-05
27 *1496:D *552:56 0.000213835
28 *1499:B *552:56 5.38001e-05
29 *1499:C *552:56 9.5432e-06
30 *1530:S *1983:A 6.78637e-05
31 *1572:B1_N *552:56 4.96965e-05
32 *1578:A *552:56 2.38377e-05
33 *1579:C *552:56 4.38278e-05
34 *1663:CLK *552:56 6.26921e-05
35 *1669:D *552:56 0.000119102
36 *1678:CLK *552:56 0.000144791
37 *1678:D *552:56 9.39388e-06
38 *1924:A *552:56 0.00104838
39 *1968:A *552:56 0.00214429
40 *1970:A *1983:A 2.14129e-05
41 *1970:A *552:56 0
42 *232:20 *552:56 6.1357e-05
43 *246:37 *552:56 6.04799e-05
44 *250:8 *552:56 5.9216e-05
45 *406:18 *552:56 2.10582e-05
46 *407:16 *552:56 0.000376148
47 *415:44 *552:56 1.34298e-05
48 *449:57 *552:56 0.000103545
49 *457:8 *552:56 0.000342083
50 *457:59 *552:56 4.66108e-05
51 *471:20 *552:56 7.39814e-05
52 *492:30 *552:56 0
53 *521:38 *1983:A 0.000570466
54 *526:46 *552:56 0
55 *528:24 *552:56 0.000101896
*RES
1 *1757:X *552:56 48.2016 
2 *552:56 *1983:A 16.8375 
*END

*D_NET *553 0.0173744
*CONN
*I *1984:A I *D sky130_fd_sc_hd__buf_2
*I *1758:X O *D sky130_fd_sc_hd__buf_1
*CAP
1 *1984:A 0.00319728
2 *1758:X 0.00319728
3 *1984:A *1478:A1 0.000219232
4 *1984:A *1530:A0 0.000391163
5 *1984:A *1544:C1 5.63183e-05
6 *1984:A *1597:D 1.59682e-05
7 *1984:A *1629:D 1.62605e-06
8 *1984:A *1986:A 0
9 *1984:A *1988:A 0.000176284
10 *1984:A *2017:A 0.000947526
11 *1984:A *559:48 4.00257e-05
12 *1984:A *580:95 3.12433e-05
13 *1984:A *583:12 0.000171784
14 *1984:A *592:48 9.387e-06
15 *1984:A *612:20 0.00088529
16 *1984:A *613:44 2.11651e-05
17 *1984:A *615:22 0.00050122
18 *1984:A *616:26 0.000184942
19 *1984:A *619:50 0.00278131
20 *1984:A *621:22 0.000134166
21 *1984:A *622:46 1.37415e-05
22 *1984:A *624:140 0.000152524
23 *1984:A *627:34 6.27135e-05
24 *1984:A *630:113 2.08918e-05
25 *1984:A *634:26 0.000473269
26 *1984:A *662:22 0.0013088
27 *1984:A *673:28 0.000246025
28 *1531:S *1984:A 1.9006e-05
29 *1570:A2 *1984:A 0.000159923
30 *1736:A *1984:A 0.000110431
31 *1767:A *1984:A 9.9136e-05
32 *1965:A *1984:A 2.63062e-05
33 *1967:A *1984:A 0
34 *1980:A *1984:A 8.41307e-05
35 *1982:A *1984:A 4.77757e-05
36 *376:12 *1984:A 0.000262385
37 *552:56 *1984:A 0.00132418
*RES
1 *1758:X *1984:A 46.8617 
*END

*D_NET *554 0.00616646
*CONN
*I *1985:A I *D sky130_fd_sc_hd__buf_2
*I *1759:X O *D sky130_fd_sc_hd__clkbuf_1
*CAP
1 *1985:A 0.00128146
2 *1759:X 0.00128146
3 *1985:A *1544:A1 1.47347e-05
4 *1985:A *1544:C1 0.000270415
5 *1985:A *1996:A 0
6 *1985:A *2017:A 0.00108305
7 *1985:A *578:18 5.2268e-05
8 *1985:A *578:119 0.000231321
9 *1985:A *579:72 1.92818e-05
10 *1985:A *590:95 5.28555e-05
11 *1985:A *617:28 0.000148469
12 *1985:A *625:92 4.49656e-05
13 *1537:B *1985:A 0.000400245
14 *1544:A2 *1985:A 0.000135672
15 *1544:B1 *1985:A 4.82919e-05
16 *1981:A *1985:A 6.03508e-05
17 *459:26 *1985:A 0.000891146
18 *460:16 *1985:A 0.00015047
*RES
1 *1759:X *1985:A 36.705 
*END

*D_NET *555 0.0158826
*CONN
*I *1986:A I *D sky130_fd_sc_hd__buf_2
*I *1760:X O *D sky130_fd_sc_hd__buf_1
*CAP
1 *1986:A 0.00121459
2 *1760:X 0.00328278
3 *555:32 0.00449737
4 *1986:A *1478:A0 0.000151117
5 *1986:A *1597:D 2.26771e-05
6 *1986:A *581:53 0
7 *1986:A *589:10 3.14002e-05
8 *1986:A *589:18 6.03272e-05
9 *1986:A *634:26 0
10 *1986:A *658:18 1.32077e-05
11 *555:32 *613:44 5.73375e-05
12 *555:32 *615:22 0.000681487
13 *555:32 *619:50 0.000885975
14 *555:32 *622:46 9.91901e-05
15 *555:32 *635:12 0.000163204
16 N4BEG[10] *1986:A 1.67131e-05
17 N4BEG[2] *1986:A 3.62952e-05
18 N4BEG[5] *1986:A 2.21141e-05
19 N4BEG[8] *1986:A 1.67131e-05
20 *1496:D *1986:A 0.000105788
21 *1496:D *555:32 5.05521e-05
22 *1530:S *1986:A 0.000134387
23 *1570:C1 *555:32 2.49909e-05
24 *1575:B *555:32 0.000718239
25 *1669:D *555:32 0.000170789
26 *1767:A *1986:A 0
27 *1965:A *1986:A 0
28 *1983:A *1986:A 0.000562083
29 *1984:A *1986:A 0
30 *488:28 *1986:A 1.88904e-05
31 *492:30 *555:32 0.000819034
32 *493:26 *555:32 0.000289821
33 *494:28 *555:32 0.00077442
34 *551:12 *555:32 0
35 *551:30 *555:32 0.000772603
36 *552:56 *1986:A 0.000188517
*RES
1 *1760:X *555:32 35.0331 
2 *555:32 *1986:A 25.275 
*END

*D_NET *556 0.012386
*CONN
*I *1987:A I *D sky130_fd_sc_hd__buf_2
*I *1761:X O *D sky130_fd_sc_hd__buf_1
*CAP
1 *1987:A 0.00234721
2 *1761:X 0.00234721
3 *1987:A *1568:A1 4.99918e-05
4 *1987:A *1598:GATE 2.08502e-05
5 *1987:A *2000:A 0.000908683
6 *1987:A *2002:A 0.000210755
7 *1987:A *568:52 0.000104213
8 *1987:A *581:16 0.000574309
9 *1987:A *615:30 1.34363e-05
10 *1987:A *627:34 0.000229684
11 *1987:A *627:55 5.06382e-06
12 *1987:A *654:34 0.00128722
13 *1987:A *662:22 0.000112432
14 *1987:A *684:26 8.7152e-06
15 N2BEGb[6] *1987:A 0
16 N2BEGb[7] *1987:A 0.000386768
17 N4BEG[1] *1987:A 2.99967e-05
18 *1452:S *1987:A 0.000113573
19 *1535:A2 *1987:A 6.16297e-05
20 *1568:A2 *1987:A 0
21 *1663:D *1987:A 9.44681e-05
22 *1678:D *1987:A 0
23 *1807:A *1987:A 1.31064e-05
24 *1924:A *1987:A 4.61701e-06
25 *1969:A *1987:A 0.000282162
26 *1970:A *1987:A 0
27 *1971:A *1987:A 3.69766e-05
28 *458:61 *1987:A 0.000145726
29 *464:56 *1987:A 7.28812e-05
30 *471:20 *1987:A 0.00194088
31 *494:28 *1987:A 0.00031994
32 *531:50 *1987:A 0.00061779
33 *538:40 *1987:A 4.56755e-05
*RES
1 *1761:X *1987:A 32.0849 
*END

*D_NET *557 0.00503135
*CONN
*I *1988:A I *D sky130_fd_sc_hd__buf_2
*I *1768:X O *D sky130_fd_sc_hd__clkbuf_1
*CAP
1 *1988:A 0.00174942
2 *1768:X 0.00174942
3 *1988:A *1479:A0 6.37306e-06
4 *1988:A *1479:A2 8.06376e-05
5 *1988:A *1479:A3 4.80285e-05
6 *1988:A *1598:D 8.63543e-05
7 *1988:A *1598:GATE 2.20732e-05
8 *1988:A *1630:GATE 5.52231e-05
9 *1988:A *1997:A 1.88656e-05
10 *1988:A *2001:A 0
11 *1988:A *585:89 1.48096e-05
12 *1988:A *585:128 0.000112631
13 *1988:A *592:58 2.05641e-05
14 *1988:A *616:26 0.000114144
15 *1988:A *630:113 8.53113e-06
16 *1988:A *634:26 1.56428e-05
17 *1988:A *634:33 0.000175257
18 *1988:A *638:20 0.000206701
19 *1479:S0 *1988:A 0.000307411
20 *1733:A *1988:A 6.29831e-05
21 *1984:A *1988:A 0.000176284
*RES
1 *1768:X *1988:A 34.81 
*END

*D_NET *558 0.0173396
*CONN
*I *1989:A I *D sky130_fd_sc_hd__buf_2
*I *1778:X O *D sky130_fd_sc_hd__buf_1
*CAP
1 *1989:A 0.00408166
2 *1778:X 0.00408166
3 *1989:A *1464:A0 0.000318252
4 *1989:A *1477:A0 5.99242e-05
5 *1989:A *1492:A1 0
6 *1989:A *1522:A0 4.76459e-05
7 *1989:A *1526:A0 0.000175716
8 *1989:A *1527:A0 4.7383e-05
9 *1989:A *1529:A0 0.000923206
10 *1989:A *1801:A 0.000118081
11 *1989:A *1991:A 0.000204704
12 *1989:A *1994:A 3.67004e-05
13 *1989:A *603:14 5.69834e-05
14 *1989:A *603:31 2.26636e-05
15 *1989:A *625:34 0.000285351
16 *1989:A *625:222 9.58678e-06
17 *1989:A *630:16 4.77757e-05
18 *1989:A *630:42 0.000567719
19 *1989:A *649:30 0.000169535
20 *1989:A *655:42 0.000150587
21 *1989:A *658:18 4.66474e-05
22 *1989:A *677:30 0.000111656
23 *1989:A *682:50 0.000267208
24 NN4BEG[12] *1989:A 0.000238198
25 *1467:S *1989:A 9.51146e-06
26 *1855:A *1989:A 0.000451301
27 *1922:A *1989:A 0
28 *1966:A *1989:A 0.000914732
29 *1979:A *1989:A 0.000528868
30 *1981:A *1989:A 0.00157481
31 *2026:A *1989:A 0
32 *229:101 *1989:A 0.000571199
33 *229:131 *1989:A 0.00102525
34 *272:10 *1989:A 5.8678e-05
35 *466:44 *1989:A 0
36 *527:12 *1989:A 1.88656e-05
37 *537:52 *1989:A 4.24213e-05
38 *538:40 *1989:A 7.50946e-05
*RES
1 *1778:X *1989:A 42.4157 
*END

*D_NET *559 0.0141513
*CONN
*I *1614:D I *D sky130_fd_sc_hd__dlxtp_1
*I *1705:A I *D sky130_fd_sc_hd__buf_1
*I *1646:D I *D sky130_fd_sc_hd__dlxtp_1
*I *1834:X O *D sky130_fd_sc_hd__buf_1
*CAP
1 *1614:D 0.000195237
2 *1705:A 0.000100824
3 *1646:D 0
4 *1834:X 0.00268088
5 *559:48 0.00297694
6 *1614:D *1477:A0 3.72899e-05
7 *1614:D *1614:GATE 4.99619e-05
8 *1614:D *1990:A 0.000191231
9 *1614:D *682:50 0.000119756
10 *1614:D *686:28 1.83847e-05
11 *1705:A *1991:A 8.40269e-05
12 *1705:A *1992:A 4.31725e-05
13 *1705:A *582:30 5.75488e-05
14 *559:48 *1477:A0 0.00143514
15 *559:48 *1478:A0 0.000121019
16 *559:48 *1528:A0 5.62863e-05
17 *559:48 *1593:D 0.000311542
18 *559:48 *1594:D 0.000196479
19 *559:48 *1594:GATE 2.68464e-05
20 *559:48 *1600:D 4.77719e-05
21 *559:48 *1632:D 8.40269e-05
22 *559:48 *1632:GATE 1.08732e-05
23 *559:48 *1997:A 7.63361e-05
24 *559:48 *1999:A 0.000221186
25 *559:48 *571:22 0.000195591
26 *559:48 *592:48 0.00131976
27 *559:48 *603:14 0
28 *559:48 *616:49 0.000119756
29 *559:48 *625:140 0.000270089
30 *559:48 *625:154 3.96864e-05
31 *559:48 *625:160 3.30017e-05
32 *559:48 *630:86 0.000111393
33 N4BEG[11] *559:48 0.000376319
34 NN4BEG[5] *559:48 0.00018955
35 *1452:S *559:48 3.57596e-05
36 *1460:A1 *1705:A 0.000146127
37 *1481:S1 *559:48 0.000233276
38 *1640:D *559:48 0.000268745
39 *1644:D *559:48 9.03508e-06
40 *1737:A *559:48 1.88602e-05
41 *1754:A *559:48 0.000340164
42 *1836:A *559:48 4.77757e-05
43 *1867:A *1614:D 0
44 *1870:A *1614:D 0.00026617
45 *1870:A *559:48 0.000223961
46 *1952:A *559:48 4.1977e-05
47 *1954:A *559:48 0
48 *1969:A *1705:A 8.40269e-05
49 *1980:A *559:48 0.000215752
50 *1984:A *559:48 4.00257e-05
51 *272:10 *559:48 2.01565e-05
52 *537:52 *559:48 0.00021307
53 *537:75 *1614:D 7.05554e-05
54 *537:75 *559:48 7.79208e-05
*RES
1 *1834:X *559:48 49.4865 
2 *559:48 *1646:D 1.6 
3 *559:48 *1705:A 8.285 
4 *559:48 *1614:D 10.97 
*END

*D_NET *560 0.0114331
*CONN
*I *1990:A I *D sky130_fd_sc_hd__buf_2
*I *1779:X O *D sky130_fd_sc_hd__buf_1
*CAP
1 *1990:A 0.00115411
2 *1779:X 0.00144164
3 *560:24 0.00259575
4 *1990:A *1477:A0 6.04686e-05
5 *1990:A *1522:A0 5.38986e-06
6 *1990:A *632:40 1.12196e-05
7 *1990:A *638:34 0.000832153
8 *1990:A *655:42 7.00115e-05
9 *1990:A *682:50 1.43749e-05
10 *560:24 *1458:A0 0
11 *560:24 *1470:A1 0.000413821
12 *560:24 *1680:A 4.82863e-05
13 *560:24 *1799:A 0
14 *560:24 *574:28 0.000940143
15 *560:24 *588:97 3.05097e-05
16 *560:24 *615:30 0.000191552
17 *560:24 *620:42 0.00020242
18 *560:24 *628:8 0.0013456
19 *560:24 *631:34 4.42853e-05
20 *560:24 *631:38 0.000213502
21 *560:24 *631:71 7.90275e-05
22 *560:24 *652:28 5.99988e-05
23 *560:24 *673:28 0.000158573
24 *1460:A1 *1990:A 0
25 *1493:B1 *1990:A 0.000375333
26 *1614:D *1990:A 0.000191231
27 *1779:A *560:24 4.99619e-05
28 *1871:A *1990:A 0.000191332
29 *1979:A *560:24 9.73473e-05
30 *67:15 *560:24 8.50523e-05
31 *229:71 *1990:A 9.46449e-05
32 *271:28 *1990:A 0.000254766
33 *421:10 *1990:A 0
34 *464:56 *560:24 0.000132895
35 *478:26 *1990:A 4.77091e-05
36 *491:38 *560:24 0
*RES
1 *1779:X *560:24 43.29 
2 *560:24 *1990:A 25.13 
*END

*D_NET *561 0.0149218
*CONN
*I *1991:A I *D sky130_fd_sc_hd__buf_2
*I *1780:X O *D sky130_fd_sc_hd__buf_1
*CAP
1 *1991:A 0.00280359
2 *1780:X 0.00280359
3 *1991:A *1460:A0 5.05437e-05
4 *1991:A *1463:A0 0.000349181
5 *1991:A *1463:A1 0
6 *1991:A *1472:A0 8.34281e-06
7 *1991:A *1527:A0 0.000176157
8 *1991:A *1530:A0 0.000787934
9 *1991:A *1992:A 8.52845e-05
10 *1991:A *1994:A 6.11912e-05
11 *1991:A *583:118 6.90381e-05
12 *1991:A *587:147 0.000923426
13 *1991:A *626:10 5.26644e-05
14 *1991:A *626:86 6.92087e-05
15 *1991:A *645:34 1.76833e-05
16 *1991:A *650:16 3.31786e-05
17 *1991:A *652:36 8.49205e-05
18 *1991:A *654:34 1.72069e-05
19 *1991:A *655:42 0.000275929
20 *1991:A *658:18 0.000130374
21 *1991:A *662:22 0.00225812
22 *1460:S *1991:A 0.000126054
23 *1487:A1 *1991:A 5.18317e-06
24 *1514:S *1991:A 0.000287977
25 *1703:A *1991:A 4.66108e-05
26 *1705:A *1991:A 8.40269e-05
27 *1749:A *1991:A 4.66108e-05
28 *1780:A *1991:A 5.83121e-06
29 *1866:A *1991:A 7.62186e-05
30 *1872:A *1991:A 8.49205e-05
31 *1913:A *1991:A 0
32 *1969:A *1991:A 0.000342013
33 *1989:A *1991:A 0.000204704
34 *2026:A *1991:A 0.00142864
35 *229:101 *1991:A 0.000129721
36 *273:14 *1991:A 5.82798e-05
37 *273:24 *1991:A 0.000550602
38 *515:48 *1991:A 0.000134465
39 *538:40 *1991:A 0.000252352
*RES
1 *1780:X *1991:A 48.3653 
*END

*D_NET *562 0.00133149
*CONN
*I *1992:A I *D sky130_fd_sc_hd__buf_2
*I *1781:X O *D sky130_fd_sc_hd__clkbuf_1
*CAP
1 *1992:A 0.000398728
2 *1781:X 0.000398728
3 *1992:A *1644:GATE 2.83579e-05
4 *1992:A *1646:GATE 3.82018e-05
5 *1992:A *582:30 5.73352e-05
6 *1992:A *587:147 4.77719e-05
7 *1992:A *654:34 6.59891e-05
8 *1992:A *686:32 3.59531e-06
9 *1460:A1 *1992:A 3.04717e-05
10 *1493:B1 *1992:A 3.40395e-05
11 *1644:D *1992:A 1.453e-05
12 *1705:A *1992:A 4.31725e-05
13 *1969:A *1992:A 8.52845e-05
14 *1991:A *1992:A 8.52845e-05
*RES
1 *1781:X *1992:A 13.59 
*END

*D_NET *563 0.0103478
*CONN
*I *1993:A I *D sky130_fd_sc_hd__buf_2
*I *1782:X O *D sky130_fd_sc_hd__buf_1
*CAP
1 *1993:A 0.000617683
2 *1782:X 0.00167851
3 *563:34 0.00229619
4 *1993:A *1460:A0 0.000321936
5 *1993:A *1463:A0 8.4778e-05
6 *1993:A *1476:A0 0.000614192
7 *1993:A *626:86 0.000354152
8 *1993:A *658:18 0.000381177
9 *563:34 *1453:A0 0.000197437
10 *563:34 *1456:A0 0.000109184
11 *563:34 *1489:A1 0.000247083
12 *563:34 *1522:A0 0.00116512
13 *563:34 *1595:GATE 2.38709e-05
14 *563:34 *1596:D 6.78961e-06
15 *563:34 *1628:D 3.03831e-05
16 *563:34 *1686:A 8.05167e-05
17 *563:34 *586:93 0.000271308
18 *563:34 *590:118 5.81072e-05
19 *563:34 *626:43 6.05134e-05
20 *563:34 *627:124 5.07376e-05
21 *563:34 *638:34 0.000513248
22 *563:34 *648:38 0.000341406
23 *563:34 *650:16 0.000270415
24 *563:34 *668:16 7.50662e-05
25 *1532:S *563:34 3.71082e-05
26 *1533:S *563:34 9.44888e-05
27 *1747:A *563:34 0.000131476
28 *1866:A *1993:A 6.07575e-06
29 *1870:A *1993:A 4.37408e-05
30 *1872:A *1993:A 7.1115e-05
31 *1874:A *1993:A 1.99109e-05
32 *270:16 *563:34 9.40887e-05
*RES
1 *1782:X *563:34 43.895 
2 *563:34 *1993:A 18.72 
*END

*D_NET *564 0.00171381
*CONN
*I *1994:A I *D sky130_fd_sc_hd__buf_2
*I *1783:X O *D sky130_fd_sc_hd__clkbuf_1
*CAP
1 *1994:A 0.000407589
2 *1783:X 0.000407589
3 *1994:A *1531:A0 0.000167562
4 *1994:A *587:147 0.000223705
5 *1994:A *625:71 0.000167562
6 NN4BEG[13] *1994:A 3.36916e-05
7 *1460:S *1994:A 4.45127e-05
8 *1966:A *1994:A 3.89772e-05
9 *1989:A *1994:A 3.67004e-05
10 *1991:A *1994:A 6.11912e-05
11 *272:10 *1994:A 3.32976e-05
12 *537:52 *1994:A 9.14285e-05
*RES
1 *1783:X *1994:A 15.0861 
*END

*D_NET *565 0.0069872
*CONN
*I *1995:A I *D sky130_fd_sc_hd__buf_2
*I *1769:X O *D sky130_fd_sc_hd__clkbuf_1
*CAP
1 *1995:A 0.00148771
2 *1769:X 0.00148771
3 *1995:A *1477:A0 0.00114286
4 *1995:A *1997:A 0.000256237
5 *1995:A *580:95 0.00016928
6 *1995:A *587:46 3.08009e-05
7 *1995:A *587:92 8.23457e-05
8 *1995:A *617:28 0.000168368
9 N4BEG[15] *1995:A 4.41506e-05
10 N4BEG[7] *1995:A 0.00039924
11 *1769:A *1995:A 3.32631e-05
12 *1969:A *1995:A 0.000385266
13 *1978:A *1995:A 3.60679e-05
14 *464:56 *1995:A 0.00126391
*RES
1 *1769:X *1995:A 18.7898 
*END

*D_NET *566 0.00875256
*CONN
*I *1996:A I *D sky130_fd_sc_hd__buf_2
*I *1770:X O *D sky130_fd_sc_hd__clkbuf_1
*CAP
1 *1996:A 0.00232477
2 *1770:X 0.00232477
3 *1996:A *1479:A3 3.87762e-05
4 *1996:A *1527:A1 0.00147287
5 *1996:A *1528:A0 1.9488e-05
6 *1996:A *1529:A1 0.000169256
7 *1996:A *1530:A1 0.000149438
8 *1996:A *1567:B 0.000310175
9 *1996:A *1569:A 5.74791e-05
10 *1996:A *1594:D 7.20735e-05
11 *1996:A *580:48 0.000468047
12 *1996:A *587:92 8.65905e-05
13 *1996:A *592:48 8.65905e-05
14 *1996:A *625:92 1.73654e-05
15 *1996:A *630:86 0.000153361
16 N4BEG[11] *1996:A 6.07332e-05
17 *1537:A *1996:A 0.000377723
18 *1569:B *1996:A 1.19928e-05
19 *1640:D *1996:A 0.000192405
20 *1770:A *1996:A 1.83847e-05
21 *1985:A *1996:A 0
22 *482:41 *1996:A 0.000127423
23 *521:38 *1996:A 1.77747e-05
24 *534:28 *1996:A 0.000195076
*RES
1 *1770:X *1996:A 47.64 
*END

*D_NET *567 0.00897395
*CONN
*I *1997:A I *D sky130_fd_sc_hd__buf_2
*I *1771:X O *D sky130_fd_sc_hd__clkbuf_1
*CAP
1 *1997:A 0.00187881
2 *1771:X 0.00187881
3 *1997:A *1478:A1 0.000432687
4 *1997:A *587:46 0.000108597
5 *1997:A *592:48 0.000177601
6 *1997:A *592:58 1.01574e-05
7 *1997:A *603:14 0.000683385
8 *1997:A *625:140 0.000572354
9 *1997:A *638:20 0.000216285
10 N4BEG[3] *1997:A 1.81196e-05
11 NN4BEG[3] *1997:A 4.77719e-05
12 *1520:S *1997:A 8.35106e-05
13 *1754:A *1997:A 3.58815e-05
14 *1771:A *1997:A 3.98602e-05
15 *1965:A *1997:A 5.95143e-05
16 *1979:A *1997:A 0.000891962
17 *1981:A *1997:A 5.44058e-05
18 *1988:A *1997:A 1.88656e-05
19 *1995:A *1997:A 0.000256237
20 *462:20 *1997:A 0
21 *464:56 *1997:A 0.000925632
22 *470:30 *1997:A 0.000507171
23 *559:48 *1997:A 7.63361e-05
*RES
1 *1771:X *1997:A 21.1476 
*END

*D_NET *568 0.0234509
*CONN
*I *1998:A I *D sky130_fd_sc_hd__buf_2
*I *1772:X O *D sky130_fd_sc_hd__buf_1
*CAP
1 *1998:A 0
2 *1772:X 0.0059002
3 *568:52 0.0059002
4 *568:52 *1508:A1 3.4767e-05
5 *568:52 *1639:GATE 5.32633e-05
6 *568:52 *2000:A 0.000178315
7 *568:52 *2005:A 0.000565948
8 *568:52 *574:28 0.000107405
9 *568:52 *581:108 0.000368526
10 *568:52 *584:90 0.00114286
11 *568:52 *586:51 9.03488e-05
12 *568:52 *592:48 2.92823e-05
13 *568:52 *614:40 0.000949367
14 *568:52 *638:20 0.000346179
15 N4BEG[14] *568:52 0.000370975
16 NN4BEG[6] *568:52 9.06592e-06
17 *695:DIODE *568:52 0
18 *1448:A *568:52 0.000165632
19 *1574:A2 *568:52 0
20 *1583:D *568:52 8.59924e-05
21 *1584:CLK *568:52 2.64891e-05
22 *1924:A *568:52 0.000947179
23 *1969:A *568:52 0.000223078
24 *1976:A *568:52 0.000580709
25 *1980:A *568:52 2.06223e-06
26 *1987:A *568:52 0.000104213
27 *415:50 *568:52 6.8597e-05
28 *436:24 *568:52 6.07809e-06
29 *449:34 *568:52 7.96104e-06
30 *458:30 *568:52 1.7635e-05
31 *464:56 *568:52 0.00355534
32 *471:20 *568:52 0.000727
33 *488:28 *568:52 0
34 *496:20 *568:52 0.000149717
35 *511:22 *568:52 5.74746e-05
36 *531:50 *568:52 3.65276e-05
37 *538:40 *568:52 0.000572609
38 *548:68 *568:52 6.99235e-05
*RES
1 *1772:X *568:52 49.5517 
2 *568:52 *1998:A 3.6 
*END

*D_NET *569 0.005509
*CONN
*I *1999:A I *D sky130_fd_sc_hd__buf_2
*I *1773:X O *D sky130_fd_sc_hd__clkbuf_1
*CAP
1 *1999:A 0.00161941
2 *1773:X 0.00161941
3 *1999:A *1464:A0 5.74791e-05
4 *1999:A *1465:A0 0.00013968
5 *1999:A *645:34 0.00029933
6 *1465:S *1999:A 4.43197e-05
7 *1514:S *1999:A 1.51935e-05
8 *1612:D *1999:A 6.1357e-05
9 *1754:A *1999:A 4.77719e-05
10 *1773:A *1999:A 1.56428e-05
11 *1856:A *1999:A 1.89738e-05
12 *1862:A *1999:A 6.07575e-06
13 *1866:A *1999:A 0.000261444
14 *1870:A *1999:A 0.00067896
15 *537:52 *1999:A 0.000402769
16 *559:48 *1999:A 0.000221186
*RES
1 *1773:X *1999:A 32.445 
*END

*D_NET *570 0.0143836
*CONN
*I *1680:A I *D sky130_fd_sc_hd__buf_1
*I *1621:D I *D sky130_fd_sc_hd__dlxtp_1
*I *1589:D I *D sky130_fd_sc_hd__dlxtp_1
*I *1835:X O *D sky130_fd_sc_hd__buf_1
*CAP
1 *1680:A 0.00012687
2 *1621:D 0
3 *1589:D 0
4 *1835:X 9.18697e-05
5 *570:35 0.000238031
6 *570:24 0.0005252
7 *570:12 0.00141119
8 *570:10 0.00108902
9 *1680:A *1589:GATE 2.68499e-05
10 *1680:A *1621:GATE 4.34547e-05
11 *1680:A *612:20 0
12 *1680:A *631:38 4.82863e-05
13 *1680:A *631:71 8.69417e-06
14 *1680:A *694:18 0.000131469
15 *570:10 *2007:A 0.000112284
16 *570:24 *579:72 9.39388e-06
17 *570:24 *694:18 0
18 *570:35 *694:18 0.000158394
19 VALUE_top1 *570:10 0
20 VALUE_top7 *570:12 0.000540512
21 *1504:B *570:24 5.34747e-05
22 *1504:B *570:35 1.61831e-05
23 *1852:A *570:24 4.12378e-05
24 *1951:A *570:24 0
25 *67:15 *570:12 0.00049892
26 *246:14 *570:24 1.73524e-05
27 *246:14 *570:35 0
28 *449:34 *570:24 0.000125996
29 *459:24 *570:12 0.00128404
30 *461:24 *570:24 0.000105903
31 *471:36 *570:12 0.00145054
32 *518:24 *570:10 0.000224494
33 *526:34 *570:12 7.53903e-05
34 *528:28 *570:12 0.00485696
35 *551:16 *570:12 0.0010233
36 *560:24 *1680:A 4.82863e-05
*RES
1 *1835:X *570:10 8.255 
2 *570:10 *570:12 53.925 
3 *570:12 *570:24 11.155 
4 *570:24 *1589:D 1.6 
5 *570:24 *570:35 4.34 
6 *570:35 *1621:D 3.6 
7 *570:35 *1680:A 6.45 
*END

*D_NET *571 0.0254072
*CONN
*I *1615:D I *D sky130_fd_sc_hd__dlxtp_1
*I *1706:A I *D sky130_fd_sc_hd__buf_1
*I *1647:D I *D sky130_fd_sc_hd__dlxtp_1
*I *1836:X O *D sky130_fd_sc_hd__buf_1
*CAP
1 *1615:D 9.83339e-06
2 *1706:A 6.238e-05
3 *1647:D 0.000291285
4 *1836:X 0.0041862
5 *571:26 0.000520641
6 *571:22 0.00436301
7 *1615:D *1451:A0 4.82919e-05
8 *1615:D *686:28 2.11084e-05
9 *1647:D *1458:A0 0
10 *1647:D *1802:A 8.40269e-05
11 *1647:D *625:34 5.67405e-05
12 *1647:D *632:93 4.32997e-05
13 *1647:D *677:30 8.66113e-05
14 *1706:A *632:93 3.83194e-05
15 *1706:A *677:30 0.000119762
16 *571:22 *1520:A0 6.68625e-06
17 *571:22 *1615:GATE 2.24842e-05
18 *571:22 *1616:GATE 2.24911e-05
19 *571:22 *582:14 5.94081e-05
20 *571:22 *582:18 0.000103832
21 *571:22 *603:14 0.000292053
22 *571:22 *660:36 0.000136951
23 *571:26 *1615:GATE 8.7152e-06
24 *571:26 *686:28 2.96155e-05
25 *1804:A *1706:A 4.66108e-05
26 *1876:A *571:22 0.000229912
27 *1917:A *571:26 1.08879e-05
28 *1952:A *571:22 0
29 *1954:A *571:22 0.000151557
30 *1962:A *571:22 0.00243349
31 *1972:A *571:22 0.00639139
32 *1974:A *571:22 0.00389186
33 *466:44 *1706:A 8.05167e-05
34 *489:28 *1647:D 0.000145937
35 *489:28 *571:26 7.0176e-05
36 *515:20 *571:22 0.000585014
37 *527:36 *571:22 0.000560497
38 *559:48 *571:22 0.000195591
*RES
1 *1836:X *571:22 33.8417 
2 *571:22 *571:26 2.85 
3 *571:26 *1647:D 9.495 
4 *571:26 *1706:A 5.43 
5 *571:22 *1615:D 4.05 
*END

*D_NET *572 0.0223015
*CONN
*I *2000:A I *D sky130_fd_sc_hd__buf_2
*I *1774:X O *D sky130_fd_sc_hd__buf_1
*CAP
1 *2000:A 0.00502454
2 *1774:X 0.00502454
3 *2000:A *1452:A0 0.000256505
4 *2000:A *1476:A0 0.000135368
5 *2000:A *1479:A1 0.000189049
6 *2000:A *1527:A0 0.000257385
7 *2000:A *1603:GATE 0.000368724
8 *2000:A *1606:GATE 0.000130188
9 *2000:A *2002:A 7.91584e-06
10 *2000:A *578:18 0.000158068
11 *2000:A *587:147 0.000125653
12 *2000:A *637:12 4.17004e-05
13 *2000:A *654:34 0.00371112
14 *2000:A *655:42 8.52534e-05
15 *2000:A *662:22 0.000633801
16 NN4BEG[0] *2000:A 2.64028e-05
17 NN4BEG[3] *2000:A 8.02282e-05
18 NN4BEG[4] *2000:A 2.04432e-05
19 NN4BEG[7] *2000:A 1.83756e-05
20 *695:DIODE *2000:A 0.000202241
21 *1486:S *2000:A 8.54866e-05
22 *1509:A1 *2000:A 0
23 *1509:A2 *2000:A 0.000274836
24 *1509:C1 *2000:A 9.28568e-05
25 *1536:A2 *2000:A 8.93531e-05
26 *1536:B1 *2000:A 5.8177e-05
27 *1584:CLK *2000:A 3.15734e-05
28 *1584:D *2000:A 0.000201297
29 *1743:A *2000:A 0.000126786
30 *1744:A *2000:A 0.000621474
31 *1919:A *2000:A 0.000365348
32 *1937:A *2000:A 3.99339e-05
33 *1971:A *2000:A 7.46418e-05
34 *1976:A *2000:A 0.000170418
35 *1987:A *2000:A 0.000908683
36 *2026:A *2000:A 0
37 *229:33 *2000:A 0
38 *405:6 *2000:A 3.72916e-05
39 *415:32 *2000:A 0
40 *464:56 *2000:A 0.00114798
41 *470:30 *2000:A 1.40633e-05
42 *511:22 *2000:A 3.99339e-05
43 *528:24 *2000:A 3.97211e-05
44 *531:50 *2000:A 0.000946751
45 *537:52 *2000:A 0.000259105
46 *568:52 *2000:A 0.000178315
*RES
1 *1774:X *2000:A 49.0435 
*END

*D_NET *573 0.00680313
*CONN
*I *2001:A I *D sky130_fd_sc_hd__buf_2
*I *1775:X O *D sky130_fd_sc_hd__clkbuf_1
*CAP
1 *2001:A 0.00172839
2 *1775:X 0.00172839
3 *2001:A *1479:A1 0.000617934
4 *2001:A *2002:A 0.000776674
5 *2001:A *587:147 7.73646e-05
6 *2001:A *589:120 0.00018263
7 *2001:A *592:75 0.000109431
8 *2001:A *655:42 0.000179438
9 Co *2001:A 0.000312571
10 NN4BEG[3] *2001:A 5.83121e-06
11 NN4BEG[5] *2001:A 0.000223248
12 NN4BEG[7] *2001:A 2.39856e-05
13 NN4BEG[8] *2001:A 0.000139815
14 *1495:B *2001:A 7.9642e-06
15 *1754:A *2001:A 0.000119246
16 *1775:A *2001:A 8.7152e-06
17 *1988:A *2001:A 0
18 *421:10 *2001:A 2.78201e-05
19 *543:24 *2001:A 0.000533687
*RES
1 *1775:X *2001:A 45.755 
*END

*D_NET *574 0.0201962
*CONN
*I *2002:A I *D sky130_fd_sc_hd__buf_2
*I *1776:X O *D sky130_fd_sc_hd__buf_1
*CAP
1 *2002:A 0.00219932
2 *1776:X 0.00180686
3 *574:28 0.00400617
4 *2002:A *1445:A 2.53191e-06
5 *2002:A *1446:A 6.16226e-06
6 *2002:A *1456:A1 0.000448519
7 *2002:A *1476:A0 8.4774e-05
8 *2002:A *1479:A1 1.0129e-05
9 *2002:A *1520:A0 0.000206015
10 *2002:A *1606:GATE 0.000294696
11 *2002:A *1617:GATE 0.000118372
12 *2002:A *578:32 2.10582e-05
13 *2002:A *586:51 4.96408e-05
14 *2002:A *586:76 0.000105551
15 *2002:A *592:58 1.7635e-05
16 *2002:A *592:75 0.000242888
17 *2002:A *625:71 3.99138e-05
18 *2002:A *627:10 7.97135e-05
19 *2002:A *627:34 0.00011159
20 *2002:A *654:34 0.00140379
21 *2002:A *662:22 0.00180681
22 *574:28 *1466:A1 2.24746e-05
23 *574:28 *1474:A1 8.69098e-05
24 *574:28 *1482:A1 1.93416e-05
25 *574:28 *1591:D 4.66108e-05
26 *574:28 *1623:D 0.000133544
27 *574:28 *1651:GATE 4.66826e-05
28 *574:28 *584:90 0.000131877
29 *574:28 *584:125 0.000866346
30 *574:28 *612:24 0.000197556
31 *574:28 *628:8 0.000378429
32 *574:28 *628:108 0.00110821
33 *574:28 *631:26 0.00118906
34 *574:28 *631:34 4.29107e-05
35 NN4BEG[3] *2002:A 4.27883e-06
36 NN4BEG[5] *2002:A 0.000178594
37 *1743:A *2002:A 0.000412863
38 *1776:A *574:28 1.56428e-05
39 *1928:A *574:28 7.67415e-06
40 *1987:A *2002:A 0.000210755
41 *2000:A *2002:A 7.91584e-06
42 *2001:A *2002:A 0.000776674
43 *229:14 *2002:A 8.53307e-05
44 *415:32 *574:28 0.000116831
45 *560:24 *574:28 0.000940143
46 *568:52 *574:28 0.000107405
*RES
1 *1776:X *574:28 48.175 
2 *574:28 *2002:A 40.7298 
*END

*D_NET *575 0.00227678
*CONN
*I *2003:A I *D sky130_fd_sc_hd__buf_2
*I *1777:X O *D sky130_fd_sc_hd__clkbuf_1
*CAP
1 *2003:A 0.000702025
2 *1777:X 0.000702025
3 *2003:A *1469:A0 7.04613e-05
4 *2003:A *1649:D 0.000146018
5 *2003:A *1649:GATE 5.61129e-05
6 *2003:A *592:75 0.000119866
7 *2003:A *625:71 0.000162007
8 *2003:A *630:86 8.03588e-06
9 *2003:A *637:12 2.97897e-05
10 *2003:A *682:50 3.07207e-05
11 *1493:A1 *2003:A 4.77757e-05
12 *1783:A *2003:A 0
13 *1853:A *2003:A 0
14 *1969:A *2003:A 0.000201943
*RES
1 *1777:X *2003:A 18.255 
*END

*D_NET *576 0.0018545
*CONN
*I *2004:A I *D sky130_fd_sc_hd__buf_2
*I *1512:X O *D sky130_fd_sc_hd__or2_1
*CAP
1 *2004:A 0.000549303
2 *1512:X 0.000549303
3 *2004:A *1590:GATE 3.61807e-05
4 *2004:A *586:51 7.96104e-06
5 *2004:A *675:42 7.82985e-05
6 *1455:S *2004:A 5.67399e-05
7 *1576:C *2004:A 9.16333e-06
8 *1579:C *2004:A 0.000198618
9 *1586:D *2004:A 4.82863e-05
10 *1667:D *2004:A 8.64421e-05
11 *1668:CLK *2004:A 4.41712e-05
12 *1668:D *2004:A 0.000132709
13 *232:34 *2004:A 0
14 *232:65 *2004:A 5.73286e-05
15 *471:20 *2004:A 0
*RES
1 *1512:X *2004:A 17.235 
*END

*D_NET *577 0.0260286
*CONN
*I *2005:A I *D sky130_fd_sc_hd__buf_1
*I *1784:X O *D sky130_fd_sc_hd__buf_2
*CAP
1 *2005:A 0.0021434
2 *1784:X 0.00327219
3 *577:30 0.00541559
4 *2005:A *1480:A2 3.72952e-05
5 *2005:A *1518:A0 0.000168635
6 *2005:A *1529:A0 5.3715e-05
7 *2005:A *1621:GATE 0.000102709
8 *2005:A *1652:D 0.000309433
9 *2005:A *1797:A 4.66108e-05
10 *2005:A *584:90 0.000754704
11 *2005:A *586:93 0.00018136
12 *2005:A *612:20 7.66319e-05
13 *2005:A *625:12 0.000229541
14 *2005:A *677:30 0.000237249
15 *577:30 *1455:A1 1.91597e-05
16 *577:30 *1543:B 4.04634e-05
17 *577:30 *584:90 1.7635e-05
18 *577:30 *612:20 0.00306742
19 *577:30 *614:40 0.000452335
20 *577:30 *616:26 4.55338e-05
21 *1448:A *577:30 0.000300343
22 *1497:B *577:30 9.50342e-06
23 *1501:B *577:30 0.000375039
24 *1503:A *577:30 1.30364e-05
25 *1503:B *577:30 8.23457e-05
26 *1547:B1 *577:30 0.000315608
27 *1553:A2 *577:30 0.00142202
28 *1576:B *577:30 0.000126045
29 *1578:B *577:30 0.000149186
30 *1586:CLK *577:30 2.32615e-05
31 *1673:D *577:30 5.11552e-05
32 *1790:A *577:30 2.39856e-05
33 *1897:A *2005:A 4.99619e-05
34 *1924:A *2005:A 0.00196944
35 *229:150 *2005:A 0.000160641
36 *232:20 *577:30 0.000339793
37 *232:24 *577:30 0.000490267
38 *246:14 *577:30 2.0514e-05
39 *246:25 *577:30 9.80032e-06
40 *249:18 *577:30 7.68414e-06
41 *275:16 *2005:A 0
42 *397:10 *577:30 6.03517e-05
43 *449:34 *577:30 0.000559763
44 *457:12 *577:30 9.27255e-06
45 *457:14 *577:30 0.000438675
46 *470:30 *2005:A 0.000249978
47 *489:28 *2005:A 0.000710089
48 *490:36 *2005:A 0.000638964
49 *551:30 *577:30 3.91137e-05
50 *552:56 *2005:A 0.000145211
51 *568:52 *2005:A 0.000565948
*RES
1 *1784:X *577:30 49.7576 
2 *577:30 *2005:A 37.084 
*END

*D_NET *578 0.0294653
*CONN
*I *2006:A I *D sky130_fd_sc_hd__buf_2
*I *1541:A1 I *D sky130_fd_sc_hd__o211a_1
*I *1479:A1 I *D sky130_fd_sc_hd__mux4_1
*I *1458:A1 I *D sky130_fd_sc_hd__mux2_1
*I *1518:A1 I *D sky130_fd_sc_hd__mux2_1
*I *1471:A1 I *D sky130_fd_sc_hd__mux2_1
*I *1654:Q O *D sky130_fd_sc_hd__dfxtp_2
*CAP
1 *2006:A 0.00145504
2 *1541:A1 3.0963e-05
3 *1479:A1 0.000826335
4 *1458:A1 0.000492446
5 *1518:A1 0
6 *1471:A1 0
7 *1654:Q 0.00208826
8 *578:119 0.00231618
9 *578:55 0.00215954
10 *578:32 0.00191713
11 *578:18 0.00233446
12 *1458:A1 *1458:A0 0.000880618
13 *1458:A1 *1470:A1 4.74134e-05
14 *1458:A1 *1480:A1 0.000510784
15 *1458:A1 *1518:A0 4.66108e-05
16 *1479:A1 *1527:A0 0.0011316
17 *1479:A1 *585:89 0.000596058
18 *1479:A1 *589:120 0.000307138
19 *1479:A1 *617:28 5.75434e-05
20 *1479:A1 *631:90 5.97682e-05
21 *1541:A1 *1455:A1 1.28131e-05
22 *1541:A1 *623:113 8.52845e-05
23 *2006:A *1540:B 2.5424e-05
24 *2006:A *1541:B1 0
25 *2006:A *1543:B 4.11301e-05
26 *2006:A *2007:A 0.00196556
27 *2006:A *617:22 0.000132207
28 *2006:A *623:113 0
29 *2006:A *624:106 0
30 *578:18 *1447:A 4.50225e-05
31 *578:18 *1455:A1 0.000232531
32 *578:18 *1544:A1 0.000234685
33 *578:18 *579:72 3.13623e-05
34 *578:32 *1471:A0 4.89295e-05
35 *578:32 *627:34 0.000613169
36 *578:55 *1470:A1 0.000117116
37 *578:55 *1471:A0 4.89295e-05
38 *578:55 *1482:A0 0.000166686
39 *578:55 *1482:A1 3.2071e-05
40 *578:55 *1482:A2 8.30342e-05
41 *578:55 *1495:A 0.000158066
42 *578:55 *1591:GATE 0.000170797
43 *578:55 *1624:D 0.000261443
44 *578:55 *581:108 0.000194505
45 *578:55 *586:76 5.72259e-05
46 *578:55 *615:30 0.000457994
47 *578:55 *626:10 4.82863e-05
48 *578:55 *627:12 0.000333051
49 *578:55 *627:34 0.000361422
50 *578:55 *627:107 8.9895e-05
51 *578:55 *675:42 0.000711784
52 *578:119 *1455:A1 4.50316e-05
53 VALUE_top6 *2006:A 0
54 VALUE_top8 *2006:A 0.00019913
55 *1453:S *578:55 1.08758e-05
56 *1458:S *1458:A1 0.000281771
57 *1479:S0 *1479:A1 3.86479e-05
58 *1482:S0 *578:55 4.66108e-05
59 *1500:B *578:18 0.000271975
60 *1509:C1 *578:18 9.0444e-05
61 *1510:B *1479:A1 1.23015e-05
62 *1536:A1 *578:18 2.49909e-05
63 *1536:B1 *578:18 4.9253e-06
64 *1539:B *578:18 7.10578e-05
65 *1544:A2 *578:18 4.0843e-05
66 *1544:A2 *578:119 0.000116937
67 *1571:A_N *578:18 2.77183e-05
68 *1581:CLK *1479:A1 0
69 *1581:CLK *578:18 0
70 *1654:D *2006:A 0
71 *1654:D *578:119 0.000510594
72 *1669:D *1541:A1 7.05395e-05
73 *1669:D *578:119 0.000149599
74 *1670:CLK *2006:A 9.17274e-05
75 *1670:D *578:119 6.93719e-05
76 *1732:A *578:55 2.28686e-05
77 *1743:A *578:32 4.82919e-05
78 *1759:A *578:18 0
79 *1790:A *578:18 0.000361901
80 *1791:A *578:18 0.000350642
81 *1835:A *2006:A 1.08723e-05
82 *1971:A *1479:A1 0.000299765
83 *1985:A *578:18 5.2268e-05
84 *1985:A *578:119 0.000231321
85 *2000:A *1479:A1 0.000189049
86 *2000:A *578:18 0.000158068
87 *2001:A *1479:A1 0.000617934
88 *2002:A *1479:A1 1.0129e-05
89 *2002:A *578:32 2.10582e-05
90 *67:15 *1458:A1 0
91 *229:33 *1479:A1 4.66474e-05
92 *232:26 *578:18 1.34361e-05
93 *232:65 *578:18 3.76781e-05
94 *232:83 *578:18 1.23015e-05
95 *393:12 *2006:A 0
96 *394:14 *2006:A 0
97 *415:52 *578:18 0.000130977
98 *458:28 *578:32 3.59531e-06
99 *458:61 *578:18 6.57949e-06
100 *459:24 *2006:A 9.26619e-05
101 *461:36 *1458:A1 4.82863e-05
102 *521:38 *1479:A1 0
103 *526:32 *2006:A 7.14564e-05
104 *531:50 *578:32 0.000378809
105 *543:24 *578:55 4.79653e-05
106 *548:68 *578:18 0
107 *551:30 *1479:A1 7.27402e-06
*RES
1 *1654:Q *578:18 30.085 
2 *578:18 *578:32 12.795 
3 *578:32 *1471:A1 1.6 
4 *578:32 *578:55 36.475 
5 *578:55 *1518:A1 1.6 
6 *578:55 *1458:A1 18.635 
7 *578:18 *1479:A1 21.1577 
8 *1654:Q *578:119 13.675 
9 *578:119 *1541:A1 2.74 
10 *578:119 *2006:A 36.975 
*END

*D_NET *579 0.034586
*CONN
*I *1472:A1 I *D sky130_fd_sc_hd__mux2_1
*I *1480:A1 I *D sky130_fd_sc_hd__mux4_1
*I *1519:A1 I *D sky130_fd_sc_hd__mux2_1
*I *1457:A1 I *D sky130_fd_sc_hd__mux2_1
*I *1544:A1 I *D sky130_fd_sc_hd__o211a_1
*I *2007:A I *D sky130_fd_sc_hd__buf_2
*I *1655:Q O *D sky130_fd_sc_hd__dfxtp_2
*CAP
1 *1472:A1 0.000573199
2 *1480:A1 0.000852752
3 *1519:A1 0.00283343
4 *1457:A1 2.11528e-05
5 *1544:A1 7.50105e-05
6 *2007:A 0.00104221
7 *1655:Q 0
8 *579:94 0.00293231
9 *579:84 0.00199698
10 *579:72 0.00250208
11 *579:10 0.0012539
12 *579:4 0.00214545
13 *1457:A1 *1457:A0 1.56428e-05
14 *1480:A1 *1458:A0 0.000174557
15 *1480:A1 *1485:A1 0.000154229
16 *1480:A1 *626:43 2.49909e-05
17 *1480:A1 *635:18 0
18 *1480:A1 *660:36 0.000113905
19 *1519:A1 *1451:A1 0
20 *1519:A1 *1457:A0 3.64998e-06
21 *1519:A1 *1466:A1 0
22 *1519:A1 *1470:A0 6.87336e-05
23 *1519:A1 *1483:A2 4.32771e-05
24 *1519:A1 *1517:A0 0
25 *1519:A1 *1523:A1 0.000240479
26 *1519:A1 *1609:GATE 0.000151327
27 *1519:A1 *1639:GATE 0.000185338
28 *1519:A1 *632:112 0.000600098
29 *1519:A1 *687:26 0
30 *2007:A *1444:A 0.000152807
31 *2007:A *2010:A 0.00224062
32 *2007:A *617:22 0.000180264
33 *579:10 *1444:A 0.000141604
34 *579:10 *2009:A 0
35 *579:72 *1573:A2 4.21973e-05
36 *579:84 *1458:A0 4.82863e-05
37 *579:84 *613:44 0.00118581
38 VALUE_top1 *2007:A 0
39 VALUE_top10 *2007:A 0.000111547
40 VALUE_top11 *2007:A 0
41 VALUE_top8 *2007:A 0.000268335
42 *1458:A1 *1480:A1 0.000510784
43 *1458:S *1480:A1 0.000228455
44 *1458:S *579:84 5.33085e-05
45 *1464:S *1519:A1 0.00023371
46 *1468:S *1519:A1 6.58339e-05
47 *1488:A2 *1519:A1 6.51203e-05
48 *1502:B *579:72 5.65935e-05
49 *1504:B *579:72 0.000381082
50 *1515:S *1519:A1 0
51 *1519:S *1472:A1 2.75229e-05
52 *1519:S *1519:A1 0.000272984
53 *1523:S *1472:A1 9.47454e-05
54 *1544:A2 *1544:A1 0.000228247
55 *1544:B1 *2007:A 5.78439e-05
56 *1544:B1 *579:10 1.22127e-05
57 *1571:A_N *579:72 0.000751578
58 *1573:B1 *579:72 0.000277223
59 *1575:A *579:72 4.82919e-05
60 *1575:B *579:72 0.000113237
61 *1609:D *1519:A1 6.38284e-05
62 *1655:D *579:72 0.000120655
63 *1665:D *579:72 5.1002e-05
64 *1666:D *579:72 2.0514e-05
65 *1717:A *579:84 0.000729083
66 *1717:A *579:94 0.000960783
67 *1746:A *1519:A1 4.66108e-05
68 *1757:A *1519:A1 8.65905e-05
69 *1835:A *2007:A 0
70 *1985:A *1544:A1 1.47347e-05
71 *1985:A *579:72 1.92818e-05
72 *2006:A *2007:A 0.00196556
73 *2025:A *1472:A1 0.000201114
74 *80:19 *579:94 0.000114492
75 *213:13 *2007:A 0.000221132
76 *246:14 *579:72 0.000132645
77 *246:66 *579:72 9.80032e-06
78 *247:29 *579:72 0.000448328
79 *247:48 *579:72 8.57024e-05
80 *249:18 *579:72 2.49909e-05
81 *415:32 *1519:A1 0
82 *449:34 *579:72 0.000618244
83 *457:14 *579:10 2.75229e-05
84 *457:14 *579:72 0.000171288
85 *459:26 *2007:A 0
86 *461:36 *579:84 0.000117291
87 *462:44 *2007:A 0.000606163
88 *471:36 *579:84 0
89 *471:46 *1519:A1 0
90 *472:14 *2007:A 0.000160641
91 *489:28 *1480:A1 0
92 *489:46 *1457:A1 2.49909e-05
93 *489:46 *1519:A1 0.000132968
94 *493:43 *579:72 5.46607e-05
95 *496:20 *1472:A1 0.000124524
96 *497:16 *1472:A1 3.22894e-05
97 *497:16 *1519:A1 0.000412276
98 *508:30 *1480:A1 7.3751e-05
99 *511:22 *1472:A1 0.0001801
100 *518:24 *2007:A 2.51754e-05
101 *526:46 *1519:A1 0
102 *526:46 *579:94 0.000114492
103 *548:68 *579:72 0.000108737
104 *552:56 *1519:A1 4.13879e-05
105 *570:10 *2007:A 0.000112284
106 *570:24 *579:72 9.39388e-06
107 *578:18 *1544:A1 0.000234685
108 *578:18 *579:72 3.13623e-05
*RES
1 *1655:Q *579:4 1.6 
2 *579:4 *579:10 4.34 
3 *579:10 *2007:A 44.08 
4 *579:10 *1544:A1 6.39 
5 *579:4 *579:72 42.56 
6 *579:72 *579:84 17 
7 *579:84 *579:94 16.11 
8 *579:94 *1457:A1 2.05 
9 *579:94 *1519:A1 42.8 
10 *579:84 *1480:A1 20.265 
11 *1519:A1 *1472:A1 16.845 
*END

*D_NET *580 0.0167013
*CONN
*I *1481:A3 I *D sky130_fd_sc_hd__mux4_1
*I *1528:A1 I *D sky130_fd_sc_hd__mux2_1
*I *1531:A1 I *D sky130_fd_sc_hd__mux2_1
*I *1469:A1 I *D sky130_fd_sc_hd__mux2_1
*I *1570:A1 I *D sky130_fd_sc_hd__o211a_1
*I *2008:A I *D sky130_fd_sc_hd__buf_2
*I *1664:Q O *D sky130_fd_sc_hd__dfxtp_1
*CAP
1 *1481:A3 0
2 *1528:A1 0.000367499
3 *1531:A1 4.55129e-05
4 *1469:A1 0.000126507
5 *1570:A1 3.74709e-05
6 *2008:A 0.000531919
7 *1664:Q 0.000265034
8 *580:95 0.0015492
9 *580:65 0.00137112
10 *580:48 0.000798918
11 *580:18 0.000925494
12 *580:8 0.00105861
13 *1469:A1 *1469:A0 4.99619e-05
14 *1469:A1 *1640:GATE 8.83797e-05
15 *1469:A1 *625:92 3.23663e-05
16 *1528:A1 *1528:A0 0.00062709
17 *1528:A1 *587:75 2.91013e-05
18 *1531:A1 *616:26 1.83847e-05
19 *2008:A *1546:A 0
20 *2008:A *2009:A 8.45727e-05
21 *580:8 *590:50 0.000154981
22 *580:8 *622:46 4.80285e-05
23 *580:18 *1535:B1 0.000112238
24 *580:18 *1545:A 5.98209e-05
25 *580:18 *2009:A 0.000194948
26 *580:18 *581:18 0.000109755
27 *580:18 *586:51 0.000365424
28 *580:18 *622:46 4.36573e-05
29 *580:48 *1545:A 1.03572e-05
30 *580:48 *1640:GATE 0.00018633
31 *580:48 *590:95 0
32 *580:48 *622:46 1.97442e-05
33 *580:65 *1640:GATE 0.000205189
34 *580:65 *587:92 7.9642e-06
35 *580:95 *1481:A1 4.82863e-05
36 *580:95 *1528:A0 8.82051e-05
37 HOLD_top *2008:A 0
38 N1BEG[1] *1528:A1 3.72952e-05
39 N1BEG[3] *1528:A1 0
40 N2BEG[1] *1528:A1 0.000252847
41 N2BEGb[0] *580:95 5.06382e-06
42 N2BEGb[1] *1528:A1 9.69737e-05
43 N2BEGb[1] *580:95 7.9642e-06
44 N2BEGb[2] *580:95 4.77757e-05
45 N2BEGb[3] *580:95 4.11718e-05
46 N4BEG[10] *580:95 0.000215767
47 N4BEG[12] *580:65 0.000153435
48 N4BEG[2] *580:95 0.000377132
49 N4BEG[4] *580:95 0.000162554
50 N4BEG[6] *580:95 0.000107356
51 N4BEG[7] *580:95 2.87965e-05
52 N4BEG[8] *580:95 0.000355787
53 N4BEG[9] *580:95 0.000266164
54 *1479:S1 *1469:A1 0
55 *1481:S0 *580:95 0.00030794
56 *1511:A2 *2008:A 1.58266e-05
57 *1528:S *1528:A1 2.75229e-05
58 *1537:A *580:18 7.9642e-06
59 *1537:A *580:48 0.000210142
60 *1544:B1 *2008:A 0
61 *1582:CLK *1570:A1 4.66108e-05
62 *1582:D *1570:A1 3.96653e-05
63 *1585:D *2008:A 0.000292518
64 *1585:D *580:18 1.7635e-05
65 *1655:D *2008:A 9.06149e-05
66 *1664:D *2008:A 6.76938e-05
67 *1664:D *580:18 9.67081e-06
68 *1795:A *580:18 0.000290931
69 *1812:A *2008:A 0.000449369
70 *1951:A *2008:A 0
71 *1953:A *1469:A1 0.00012657
72 *1956:A *1531:A1 0.000119762
73 *1966:A *1528:A1 0.000107046
74 *1967:A *1531:A1 6.59214e-05
75 *1967:A *580:95 0.000100115
76 *1974:A *580:95 0.000185722
77 *1977:A *580:48 0.000118081
78 *1978:A *580:95 0.000170624
79 *1980:A *580:95 0.000153505
80 *1984:A *580:95 3.12433e-05
81 *1995:A *580:95 0.00016928
82 *1996:A *580:48 0.000468047
83 *376:12 *580:18 1.14274e-05
84 *436:24 *1570:A1 0.000118081
85 *493:43 *2008:A 0.000317017
86 *504:26 *1531:A1 1.88602e-05
87 *504:26 *580:95 8.90025e-05
88 *530:30 *580:8 1.12238e-05
89 *534:28 *580:48 0.000167451
90 *534:28 *580:65 8.86617e-05
91 *537:26 *1528:A1 1.12578e-05
92 *537:52 *580:95 0.000101022
93 *538:40 *580:18 0.000117595
94 *548:68 *2008:A 0
95 *551:30 *580:95 0.000141533
*RES
1 *1664:Q *580:8 6.81 
2 *580:8 *580:18 7.1274 
3 *580:18 *2008:A 16.26 
4 *580:18 *1570:A1 4.74 
5 *580:8 *580:48 13.405 
6 *580:48 *1469:A1 6.315 
7 *580:48 *580:65 6.95 
8 *580:65 *580:95 36.6625 
9 *580:95 *1531:A1 4.9725 
10 *580:95 *1528:A1 7.54277 
11 *580:65 *1481:A3 1.6 
*END

*D_NET *581 0.0226492
*CONN
*I *1482:A3 I *D sky130_fd_sc_hd__mux4_1
*I *1470:A1 I *D sky130_fd_sc_hd__mux2_1
*I *1535:B1 I *D sky130_fd_sc_hd__o31a_1
*I *1530:A1 I *D sky130_fd_sc_hd__mux2_1
*I *1529:A1 I *D sky130_fd_sc_hd__mux2_1
*I *2009:A I *D sky130_fd_sc_hd__buf_2
*I *1580:Q O *D sky130_fd_sc_hd__dfxtp_1
*CAP
1 *1482:A3 0
2 *1470:A1 0.00111168
3 *1535:B1 7.08656e-05
4 *1530:A1 2.74758e-05
5 *1529:A1 0.000212596
6 *2009:A 0.000790452
7 *1580:Q 0
8 *581:108 0.00236684
9 *581:53 0.00154356
10 *581:18 0.00214973
11 *581:16 0.00116834
12 *581:4 0.00229685
13 *1470:A1 *1517:A0 0.000269521
14 *1470:A1 *1518:A0 0.000355234
15 *1470:A1 *1643:GATE 3.83194e-05
16 *1470:A1 *584:125 0.000161066
17 *1470:A1 *588:97 0.000230793
18 *1470:A1 *619:50 2.88008e-05
19 *1470:A1 *645:34 4.78145e-05
20 *1529:A1 *1526:A1 7.0021e-05
21 *1529:A1 *1527:A1 0.000128545
22 *1529:A1 *585:89 0.000120655
23 *1529:A1 *616:26 9.39388e-06
24 *1530:A1 *1527:A1 0.0001286
25 *1535:B1 *1545:A 0.000117872
26 *2009:A *1444:A 0
27 *2009:A *1545:A 0.000154072
28 *581:16 *1511:A1 2.49909e-05
29 *581:16 *628:41 7.78623e-05
30 *581:16 *631:90 0.000283363
31 *581:16 *662:22 2.70958e-05
32 *581:18 *1545:A 0.000116048
33 *581:53 *589:18 6.87289e-05
34 *581:53 *634:26 0.000528489
35 *581:108 *1453:A0 0.000189159
36 *581:108 *1453:A1 5.74829e-05
37 *581:108 *1482:A0 0.000119866
38 *581:108 *1482:A1 5.82897e-05
39 *1453:S *581:108 2.81948e-05
40 *1458:A1 *1470:A1 4.74134e-05
41 *1482:S0 *581:108 4.66108e-05
42 *1488:B1 *1470:A1 8.65905e-05
43 *1496:D *581:53 4.00099e-05
44 *1499:A *581:53 0.000122423
45 *1499:B *581:53 0.000119821
46 *1499:C *581:53 4.77757e-05
47 *1500:C *581:16 0.000190613
48 *1510:B *581:16 0.000100354
49 *1511:A2 *2009:A 5.69513e-05
50 *1511:B1 *581:16 3.59784e-05
51 *1513:A_N *581:108 0.0003119
52 *1513:B *581:108 2.10646e-05
53 *1535:A2 *581:16 0.000172956
54 *1544:B1 *2009:A 9.3714e-05
55 *1570:A2 *2009:A 5.75434e-05
56 *1580:D *581:16 5.81774e-06
57 *1583:CLK *581:16 2.86975e-05
58 *1583:CLK *581:108 2.68464e-05
59 *1583:D *581:108 5.16161e-05
60 *1643:D *1470:A1 0.000159333
61 *1653:D *581:53 0.000253339
62 *1678:D *581:53 0.000151415
63 *1679:CLK *1535:B1 8.40269e-05
64 *1761:A *581:108 8.40213e-05
65 *1768:A *1529:A1 0.000113372
66 *1779:A *1470:A1 4.02544e-05
67 *1812:A *2009:A 0.000229813
68 *1818:A *581:53 0.000207725
69 *1913:A *1470:A1 3.53662e-05
70 *1951:A *581:108 1.16459e-05
71 *1986:A *581:53 0
72 *1987:A *581:16 0.000574309
73 *1996:A *1529:A1 0.000169256
74 *1996:A *1530:A1 0.000149438
75 *2008:A *2009:A 8.45727e-05
76 *67:15 *1470:A1 0.000110083
77 *232:10 *581:108 6.50535e-05
78 *376:27 *581:53 0.00014294
79 *403:12 *1535:B1 8.40269e-05
80 *415:32 *1470:A1 3.86814e-05
81 *458:49 *581:16 9.3038e-05
82 *458:61 *581:16 0.000382472
83 *461:24 *1529:A1 3.39527e-05
84 *490:36 *1470:A1 0.000645702
85 *491:38 *1470:A1 0
86 *538:40 *2009:A 0.00013974
87 *538:40 *581:16 2.35435e-05
88 *538:40 *581:108 0.000187798
89 *560:24 *1470:A1 0.000413821
90 *568:52 *581:108 0.000368526
91 *578:55 *1470:A1 0.000117116
92 *578:55 *581:108 0.000194505
93 *579:10 *2009:A 0
94 *580:18 *1535:B1 0.000112238
95 *580:18 *2009:A 0.000194948
96 *580:18 *581:18 0.000109755
*RES
1 *1580:Q *581:4 1.6 
2 *581:4 *581:16 15.8445 
3 *581:16 *581:18 1.5075 
4 *581:18 *2009:A 17.6528 
5 *581:18 *581:53 26.505 
6 *581:53 *1529:A1 10.55 
7 *581:53 *1530:A1 3.085 
8 *581:16 *1535:B1 5.9025 
9 *581:4 *581:108 24.075 
10 *581:108 *1470:A1 40.42 
11 *581:108 *1482:A3 1.6 
*END

*D_NET *582 0.0190111
*CONN
*I *1616:D I *D sky130_fd_sc_hd__dlxtp_1
*I *1707:A I *D sky130_fd_sc_hd__buf_1
*I *1648:D I *D sky130_fd_sc_hd__dlxtp_1
*I *1837:X O *D sky130_fd_sc_hd__buf_1
*CAP
1 *1616:D 5.23646e-05
2 *1707:A 0
3 *1648:D 9.67187e-05
4 *1837:X 0.000380383
5 *582:45 6.38693e-05
6 *582:30 0.00130602
7 *582:18 0.00274428
8 *582:14 0.00192686
9 *1616:D *1460:A0 3.30017e-05
10 *1616:D *1524:A0 0.000236648
11 *1616:D *1616:GATE 5.19106e-05
12 *1648:D *1451:A0 9.93805e-05
13 *1648:D *1456:A0 0
14 *1648:D *1626:D 0
15 *1648:D *1648:GATE 1.62835e-05
16 *1648:D *669:28 1.17735e-05
17 *582:18 *583:118 0.00103335
18 *582:18 *655:52 0.00286853
19 *582:30 *1531:A0 0.000284478
20 *582:30 *617:53 0.000530322
21 *582:30 *647:22 7.40726e-05
22 *582:30 *675:42 0.000570175
23 *582:45 *1451:A0 1.05827e-05
24 N2BEGb[0] *582:18 0
25 N2BEGb[1] *582:18 6.3124e-06
26 N2BEGb[2] *582:18 1.74678e-05
27 N2BEGb[3] *582:18 0.000212882
28 N4BEG[13] *582:18 6.07575e-06
29 NN4BEG[13] *582:30 0.000251532
30 NN4BEG[14] *582:30 0.00011321
31 *1460:A1 *582:18 0.00030211
32 *1460:A1 *582:30 0.000159255
33 *1705:A *582:30 5.75488e-05
34 *1842:A *582:14 0
35 *1853:A *582:30 0.000146498
36 *1854:A *582:18 0.000306785
37 *1854:A *582:30 4.90071e-05
38 *1966:A *582:30 0.000989477
39 *1967:A *582:18 0.00162676
40 *1992:A *582:30 5.73352e-05
41 *271:28 *582:30 0.00121796
42 *504:30 *582:18 0.000782803
43 *515:20 *582:14 0.00015379
44 *515:20 *582:18 0
45 *571:22 *582:14 5.94081e-05
46 *571:22 *582:18 0.000103832
*RES
1 *1837:X *582:14 12.8225 
2 *582:14 *582:18 49.8875 
3 *582:18 *582:30 11.5004 
4 *582:30 *1648:D 5.355 
5 *582:30 *582:45 2.2325 
6 *582:45 *1707:A 1.6 
7 *582:45 *1616:D 3.775 
*END

*D_NET *583 0.0325175
*CONN
*I *1473:A1 I *D sky130_fd_sc_hd__mux2_1
*I *1456:A1 I *D sky130_fd_sc_hd__mux2_1
*I *1520:A1 I *D sky130_fd_sc_hd__mux2_1
*I *1481:A1 I *D sky130_fd_sc_hd__mux4_1
*I *1547:A1 I *D sky130_fd_sc_hd__o211a_1
*I *2010:A I *D sky130_fd_sc_hd__buf_2
*I *1656:Q O *D sky130_fd_sc_hd__dfxtp_2
*CAP
1 *1473:A1 4.58955e-05
2 *1456:A1 0.000986028
3 *1520:A1 0.000139053
4 *1481:A1 0.000198524
5 *1547:A1 4.03922e-05
6 *2010:A 0.000660873
7 *1656:Q 0.000169633
8 *583:118 0.00242191
9 *583:77 0.00186875
10 *583:52 0.00278401
11 *583:16 0.000812641
12 *583:12 0.00252678
13 *1456:A1 *1454:A1 4.21973e-05
14 *1456:A1 *1530:A0 0.000242554
15 *1456:A1 *586:76 5.51063e-06
16 *1456:A1 *613:44 0.000150256
17 *1456:A1 *627:10 2.41099e-05
18 *1456:A1 *648:38 0.000457889
19 *1456:A1 *684:26 8.49595e-05
20 *1473:A1 *630:26 0.000155491
21 *1473:A1 *645:34 5.30022e-05
22 *1481:A1 *1481:A0 7.9642e-06
23 *1520:A1 *1520:A0 0.000198671
24 *1547:A1 *1544:C1 2.49909e-05
25 *1547:A1 *600:14 5.8023e-05
26 *2010:A *600:14 0.000284544
27 *2010:A *617:22 0.00224653
28 *583:12 *1444:A 1.88656e-05
29 *583:12 *612:20 0.000437882
30 *583:12 *619:50 0.000137853
31 *583:16 *612:20 0.000259937
32 *583:16 *619:50 0.000144093
33 *583:52 *1452:A0 0.000297214
34 *583:77 *1452:A0 0.000771013
35 *583:118 *1460:A0 2.8585e-06
36 *583:118 *1463:A0 4.94012e-05
37 *583:118 *1520:A0 0.000339466
38 *583:118 *1524:A1 0.000108886
39 *583:118 *1604:GATE 0.000153816
40 *583:118 *587:147 0.00015639
41 *583:118 *625:34 0.000104672
42 *583:118 *630:26 0.000191232
43 *583:118 *645:34 4.41506e-05
44 *583:118 *673:43 0.000105897
45 N4BEG[11] *1481:A1 0.000177432
46 N4BEG[15] *1481:A1 3.86044e-05
47 N4BEG[3] *583:52 0.000236791
48 N4BEG[7] *1481:A1 4.40773e-05
49 NN4BEG[11] *583:118 0.000178178
50 NN4BEG[3] *1520:A1 0.00023968
51 NN4BEG[3] *583:118 0.000239215
52 NN4BEG[4] *1520:A1 1.7635e-05
53 NN4BEG[4] *583:118 0.000245892
54 NN4BEG[5] *1520:A1 4.95617e-05
55 VALUE_top3 *2010:A 0
56 VALUE_top8 *2010:A 2.21286e-05
57 *1456:S *1456:A1 0.000275548
58 *1460:A1 *583:118 9.58062e-05
59 *1473:S *1473:A1 4.66108e-05
60 *1493:B1 *1456:A1 9.30637e-06
61 *1498:A *1547:A1 4.66108e-05
62 *1501:B *1456:A1 0.000351262
63 *1520:S *1520:A1 8.23457e-05
64 *1671:D *1547:A1 5.1216e-05
65 *1671:D *2010:A 0.000305539
66 *1765:A *1456:A1 0.000116361
67 *1854:A *583:118 0.00106909
68 *1855:A *583:118 8.9899e-05
69 *1859:A *583:118 2.44872e-05
70 *1866:A *583:118 0.000294925
71 *1872:A *583:118 1.08814e-05
72 *1874:A *583:118 6.0383e-05
73 *1924:A *1456:A1 0.000684345
74 *1954:A *583:52 0.000294906
75 *1954:A *583:77 0.000771652
76 *1954:A *583:118 0.000611975
77 *1961:A *2010:A 0.00018471
78 *1966:A *583:52 0.000235578
79 *1979:A *1456:A1 0
80 *1984:A *583:12 0.000171784
81 *1991:A *583:118 6.90381e-05
82 *2002:A *1456:A1 0.000448519
83 *2007:A *2010:A 0.00224062
84 *376:12 *583:12 9.58678e-06
85 *462:44 *2010:A 0.000168502
86 *488:28 *583:52 0.000261196
87 *492:30 *583:52 0.000182584
88 *504:30 *583:118 2.39856e-05
89 *515:48 *1456:A1 0.000602455
90 *528:20 *583:118 4.01778e-05
91 *580:95 *1481:A1 4.82863e-05
92 *582:18 *583:118 0.00103335
*RES
1 *1656:Q *583:12 5.04057 
2 *583:12 *583:16 0.916733 
3 *583:16 *2010:A 35.7925 
4 *583:16 *1547:A1 4.7925 
5 *583:12 *583:52 6.1642 
6 *583:52 *1481:A1 7.6325 
7 *583:52 *583:77 1.982 
8 *583:77 *1520:A1 7.4325 
9 *583:77 *583:118 40.1928 
10 *583:118 *1456:A1 31.46 
11 *583:118 *1473:A1 3.085 
*END

*D_NET *584 0.0272205
*CONN
*I *1474:A1 I *D sky130_fd_sc_hd__mux2_1
*I *1521:A1 I *D sky130_fd_sc_hd__mux2_1
*I *1482:A1 I *D sky130_fd_sc_hd__mux4_1
*I *1455:A1 I *D sky130_fd_sc_hd__mux2_1
*I *1550:A1 I *D sky130_fd_sc_hd__o211a_1
*I *2011:A I *D sky130_fd_sc_hd__buf_2
*I *1657:Q O *D sky130_fd_sc_hd__dfxtp_2
*CAP
1 *1474:A1 0.000256411
2 *1521:A1 0
3 *1482:A1 0.000189542
4 *1455:A1 0.00293582
5 *1550:A1 7.23034e-05
6 *2011:A 0.00039905
7 *1657:Q 0.000298574
8 *584:125 0.00212534
9 *584:90 0.00339005
10 *584:12 0.000717016
11 *584:10 0.00214848
12 *1455:A1 *1543:B 4.77701e-05
13 *1455:A1 *2017:A 2.75145e-05
14 *1455:A1 *617:22 0.000158066
15 *1455:A1 *623:92 0.000255112
16 *1455:A1 *623:113 8.48856e-05
17 *1474:A1 *1521:A0 0.000181441
18 *1474:A1 *1525:A1 0.000236823
19 *1474:A1 *684:42 4.66108e-05
20 *1482:A1 *1453:A0 8.40213e-05
21 *1482:A1 *1482:A0 4.91032e-05
22 *1482:A1 *1591:GATE 3.40401e-05
23 *1482:A1 *1624:GATE 8.16183e-05
24 *1550:A1 *623:92 3.21081e-06
25 *2011:A *1560:B 7.10992e-05
26 *584:10 *2015:A 0.000355426
27 *584:10 *588:52 1.15399e-05
28 *584:12 *623:88 1.47256e-05
29 *584:12 *623:92 0.000136284
30 *584:90 *1624:GATE 7.41126e-05
31 *584:90 *612:20 6.6621e-05
32 *584:90 *614:40 9.83039e-05
33 *584:90 *619:50 0
34 *584:90 *631:34 2.65028e-05
35 *584:90 *675:42 0.000972366
36 *584:125 *1466:A0 0.000211398
37 *584:125 *1466:A1 0.000619513
38 *584:125 *1525:A1 0.000252095
39 *584:125 *588:97 0.00103444
40 *584:125 *628:108 3.45117e-05
41 *584:125 *645:34 1.2026e-05
42 HOLD_top *1455:A1 5.3619e-05
43 VALUE_top4 *2011:A 8.53113e-06
44 *1470:A1 *584:125 0.000161066
45 *1498:B *1455:A1 0.000118081
46 *1541:A1 *1455:A1 1.28131e-05
47 *1544:A2 *1455:A1 0.000176451
48 *1544:B1 *1455:A1 4.61807e-05
49 *1550:A2 *1550:A1 1.31843e-05
50 *1550:A2 *584:12 2.86265e-06
51 *1550:B1 *584:12 1.33293e-05
52 *1562:B1 *2011:A 0.000236569
53 *1576:B *584:90 4.36573e-05
54 *1577:A *1455:A1 9.66021e-05
55 *1579:B *1455:A1 0.000238137
56 *1611:D *584:125 2.01504e-05
57 *1657:D *2011:A 9.60582e-07
58 *1670:D *1455:A1 6.33719e-05
59 *1672:CLK *584:10 0
60 *1732:A *584:125 9.03508e-06
61 *1790:A *1455:A1 0.000194694
62 *1812:A *1455:A1 0.000702214
63 *1928:A *1474:A1 2.05056e-05
64 *1935:A *1474:A1 0.000475597
65 *2005:A *584:90 0.000754704
66 *2021:A *1474:A1 5.71093e-06
67 *232:24 *1455:A1 0.00015896
68 *232:26 *1455:A1 0.000201293
69 *232:34 *1455:A1 0.000113846
70 *246:37 *584:90 0.000501872
71 *249:18 *584:90 3.22025e-05
72 *396:14 *584:10 0.000115582
73 *415:32 *584:125 0.000130469
74 *455:65 *584:10 0
75 *455:75 *584:10 0
76 *457:8 *584:90 0.000638014
77 *462:20 *2011:A 3.99879e-05
78 *484:12 *584:125 0.000344325
79 *493:43 *1455:A1 0.000606155
80 *518:24 *584:125 0.000273757
81 *526:61 *584:125 2.10214e-05
82 *548:68 *1455:A1 0
83 *551:30 *1455:A1 9.14049e-05
84 *552:56 *584:90 1.78103e-05
85 *568:52 *584:90 0.00114286
86 *574:28 *1474:A1 8.69098e-05
87 *574:28 *1482:A1 1.93416e-05
88 *574:28 *584:90 0.000131877
89 *574:28 *584:125 0.000866346
90 *577:30 *1455:A1 1.91597e-05
91 *577:30 *584:90 1.7635e-05
92 *578:18 *1455:A1 0.000232531
93 *578:55 *1482:A1 3.2071e-05
94 *578:119 *1455:A1 4.50316e-05
95 *581:108 *1482:A1 5.82897e-05
*RES
1 *1657:Q *584:10 11.825 
2 *584:10 *584:12 3.21 
3 *584:12 *2011:A 11.885 
4 *584:12 *1550:A1 3.025 
5 *584:10 *1455:A1 40.845 
6 *1455:A1 *584:90 18.5631 
7 *584:90 *1482:A1 7.77 
8 *584:90 *584:125 41.115 
9 *584:125 *1521:A1 1.6 
10 *584:125 *1474:A1 13.25 
*END

*D_NET *585 0.027629
*CONN
*I *1463:A1 I *D sky130_fd_sc_hd__mux2_1
*I *1454:A1 I *D sky130_fd_sc_hd__mux2_1
*I *1522:A1 I *D sky130_fd_sc_hd__mux2_1
*I *1479:A2 I *D sky130_fd_sc_hd__mux4_1
*I *1475:A1 I *D sky130_fd_sc_hd__mux2_1
*I *2012:A I *D sky130_fd_sc_hd__buf_2
*I *1553:A1 I *D sky130_fd_sc_hd__o211a_1
*I *1658:Q O *D sky130_fd_sc_hd__dfxtp_2
*CAP
1 *1463:A1 0.000329338
2 *1454:A1 0.00142359
3 *1522:A1 0
4 *1479:A2 4.31516e-05
5 *1475:A1 0.000277086
6 *2012:A 0.000327968
7 *1553:A1 1.96695e-06
8 *1658:Q 4.16082e-05
9 *585:137 0.00190964
10 *585:128 0.000915986
11 *585:89 0.00238139
12 *585:52 0.00222252
13 *585:26 0.000953895
14 *585:8 0.00103203
15 *1454:A1 *1454:A0 2.49909e-05
16 *1454:A1 *1456:A0 0.000234085
17 *1454:A1 *612:20 0.000271341
18 *1454:A1 *620:42 0.000117637
19 *1454:A1 *652:28 5.68852e-05
20 *1454:A1 *675:42 0.000397445
21 *1463:A1 *650:16 0.000108706
22 *1475:A1 *1476:A0 5.48905e-05
23 *1475:A1 *603:14 4.46815e-05
24 *1475:A1 *629:22 1.22932e-05
25 *1475:A1 *651:14 0
26 *1479:A2 *1479:A0 5.40146e-05
27 *2012:A *2013:A 0.000510058
28 *585:26 *613:24 4.10347e-05
29 *585:26 *618:18 8.53113e-06
30 *585:26 *621:22 0.000180388
31 *585:52 *618:18 0.000936933
32 *585:52 *621:22 0.000940742
33 *585:89 *1476:A0 8.00149e-05
34 *585:89 *1526:A1 0.000650898
35 *585:89 *1527:A0 0.000192789
36 *585:89 *1529:A0 8.57024e-05
37 *585:89 *1598:D 3.6355e-05
38 *585:89 *1598:GATE 2.2684e-05
39 *585:89 *1630:GATE 2.49909e-05
40 *585:89 *1640:GATE 4.33344e-05
41 *585:89 *603:14 5.73155e-05
42 *585:89 *621:22 9.77349e-05
43 *585:89 *630:142 2.10034e-05
44 *585:89 *634:26 4.66108e-05
45 *585:89 *634:33 0.000444821
46 *585:128 *1479:A0 0.000339899
47 *585:128 *1491:A1 2.49909e-05
48 *585:128 *1527:A0 0.000293367
49 *585:128 *590:95 0.00029043
50 *585:128 *637:12 4.93919e-05
51 *585:128 *638:20 0.000647973
52 *585:128 *638:34 0.000268049
53 *585:128 *673:28 0.000136939
54 *585:128 *684:26 6.17964e-05
55 *585:137 *590:95 0.000760678
56 *585:137 *638:34 0.000359958
57 *1456:A1 *1454:A1 4.21973e-05
58 *1456:S *1454:A1 0.000344829
59 *1471:S *585:128 1.7635e-05
60 *1475:S *1475:A1 9.09788e-06
61 *1479:A1 *585:89 0.000596058
62 *1490:B *585:128 6.15773e-05
63 *1491:B1_N *585:128 0
64 *1497:C *585:26 2.75229e-05
65 *1501:B *1454:A1 0.000259255
66 *1514:S *1463:A1 7.27402e-06
67 *1522:S *585:128 2.58961e-05
68 *1526:S *585:89 0.000225718
69 *1529:A1 *585:89 0.000120655
70 *1529:S *585:89 3.00381e-05
71 *1530:S *585:89 8.49205e-05
72 *1553:A2 *1553:A1 1.09712e-05
73 *1553:A2 *2012:A 7.56521e-05
74 *1553:B1 *2012:A 6.07575e-06
75 *1553:B1 *585:26 0.0002639
76 *1562:B1 *2012:A 0.000573996
77 *1658:D *585:26 2.75145e-05
78 *1674:CLK *585:8 1.56428e-05
79 *1697:A *585:128 0.000155601
80 *1735:A *585:128 0.00012657
81 *1768:A *585:89 4.66108e-05
82 *1775:A *585:137 0.000123225
83 *1866:A *1463:A1 5.13708e-05
84 *1952:A *585:26 3.98498e-05
85 *1970:A *585:89 6.66534e-05
86 *1971:A *585:89 0.000989328
87 *1988:A *1479:A2 8.06376e-05
88 *1988:A *585:89 1.48096e-05
89 *1988:A *585:128 0.000112631
90 *1991:A *1463:A1 0
91 *229:33 *585:128 5.24846e-05
92 *229:101 *1463:A1 8.49205e-05
93 *246:14 *1454:A1 0.000126944
94 *270:30 *585:128 7.60096e-05
95 *430:14 *1454:A1 8.57024e-05
96 *460:27 *585:128 0.000271592
97 *462:20 *2012:A 5.10477e-05
98 *462:20 *585:89 1.00941e-05
99 *492:30 *585:89 0.000183591
100 *504:26 *585:89 0.00025888
101 *528:20 *1454:A1 0.000348724
102 *528:20 *1463:A1 0.000451151
103 *538:40 *1454:A1 7.77232e-05
104 *543:24 *585:128 2.38537e-05
*RES
1 *1658:Q *585:8 4.05 
2 *585:8 *585:26 12.3125 
3 *585:26 *1553:A1 1.7275 
4 *585:26 *2012:A 13.9775 
5 *585:8 *585:52 11.9525 
6 *585:52 *1475:A1 5.03337 
7 *585:52 *585:89 30.2761 
8 *585:89 *1479:A2 2.9125 
9 *585:89 *585:128 27.5226 
10 *585:128 *1522:A1 1.6 
11 *585:128 *585:137 9.005 
12 *585:137 *1454:A1 29.295 
13 *585:137 *1463:A1 10.11 
*END

*D_NET *586 0.0371461
*CONN
*I *1476:A1 I *D sky130_fd_sc_hd__mux2_1
*I *1556:A1 I *D sky130_fd_sc_hd__o211a_1
*I *1523:A1 I *D sky130_fd_sc_hd__mux2_1
*I *1464:A1 I *D sky130_fd_sc_hd__mux2_1
*I *1480:A2 I *D sky130_fd_sc_hd__mux4_1
*I *1453:A1 I *D sky130_fd_sc_hd__mux2_1
*I *2013:A I *D sky130_fd_sc_hd__buf_2
*I *1659:Q O *D sky130_fd_sc_hd__dfxtp_2
*CAP
1 *1476:A1 0
2 *1556:A1 0.000367733
3 *1523:A1 0.00173068
4 *1464:A1 0
5 *1480:A2 2.82054e-05
6 *1453:A1 3.5948e-05
7 *2013:A 0.00047281
8 *1659:Q 0
9 *586:125 0.000845051
10 *586:93 0.00232679
11 *586:76 0.00188126
12 *586:51 0.00353909
13 *586:12 0.00308079
14 *586:6 0.000839104
15 *1480:A2 *1480:A3 3.85204e-05
16 *1523:A1 *1609:GATE 0.000151327
17 *1523:A1 *1635:GATE 0.000113255
18 *1523:A1 *1637:D 4.85494e-05
19 *1523:A1 *1637:GATE 5.05521e-05
20 *1556:A1 *1556:C1 5.3176e-05
21 *1556:A1 *1558:B 4.2295e-05
22 *1556:A1 *605:8 0.000105756
23 *1556:A1 *613:24 0.000195753
24 *1556:A1 *629:22 0.000240327
25 *2013:A *2014:A 7.8249e-05
26 *2013:A *623:82 0.000305284
27 *2013:A *623:88 0.000139421
28 *586:12 *2014:A 0
29 *586:12 *616:26 0.000585191
30 *586:12 *622:119 0.000320274
31 *586:51 *1591:GATE 3.40112e-05
32 *586:51 *588:83 0.00208323
33 *586:51 *613:24 0.000572307
34 *586:51 *616:26 0.000629936
35 *586:51 *620:42 0.00195894
36 *586:51 *628:41 1.48566e-05
37 *586:76 *1482:A0 0
38 *586:76 *1483:A1 1.52837e-05
39 *586:76 *1530:A0 9.90349e-05
40 *586:76 *1533:A1 0.000596036
41 *586:76 *589:120 0.000267846
42 *586:76 *590:118 0.000271116
43 *586:76 *619:50 0.000219631
44 *586:76 *626:22 0.00011564
45 *586:76 *627:10 0.00012849
46 *586:76 *627:107 4.0956e-05
47 *586:76 *669:28 8.22439e-06
48 *586:76 *675:42 6.83488e-05
49 *586:93 *1480:A3 3.14383e-05
50 *586:93 *590:118 5.86739e-05
51 *586:93 *626:43 0.000209054
52 *586:93 *685:20 0.000155491
53 *586:125 *587:10 0
54 *586:125 *613:24 0.000118081
55 *586:125 *622:119 7.01309e-05
56 FrameData_O[15] *1523:A1 7.23602e-05
57 FrameData_O[17] *1523:A1 3.97211e-05
58 *1453:S *1453:A1 4.66108e-05
59 *1453:S *586:51 2.8531e-05
60 *1453:S *586:76 0.000134867
61 *1456:A1 *586:76 5.51063e-06
62 *1464:S *1523:A1 1.55649e-05
63 *1464:S *586:93 9.36526e-05
64 *1480:S1 *1480:A2 2.05864e-05
65 *1497:C *586:12 4.33599e-05
66 *1519:A1 *1523:A1 0.000240479
67 *1553:A2 *2013:A 7.87447e-05
68 *1556:A2 *1556:A1 4.87465e-06
69 *1556:B1 *1556:A1 7.79767e-06
70 *1562:B1 *2013:A 0.000136868
71 *1609:D *1523:A1 0.00015639
72 *1659:CLK *1556:A1 7.23943e-06
73 *1659:CLK *586:125 3.83194e-05
74 *1659:D *1556:A1 7.85862e-05
75 *1660:D *586:125 0.000239464
76 *1675:D *586:12 0
77 *1675:D *586:125 0
78 *1746:A *1523:A1 4.66108e-05
79 *1785:A *586:12 0.000583489
80 *1785:A *586:51 0.00187847
81 *1804:A *586:76 8.00716e-05
82 *1816:A *586:51 0.000137532
83 *1934:A *1523:A1 0.000156512
84 *1935:A *1523:A1 0.000157595
85 *1948:A *1523:A1 0.000158297
86 *1952:A *1556:A1 0
87 *1966:A *1523:A1 0.000999625
88 *1968:A *586:51 0.00190098
89 *2002:A *586:51 4.96408e-05
90 *2002:A *586:76 0.000105551
91 *2004:A *586:51 7.96104e-06
92 *2005:A *1480:A2 3.72952e-05
93 *2005:A *586:93 0.00018136
94 *2012:A *2013:A 0.000510058
95 *2024:A *1523:A1 5.5949e-05
96 *2025:A *1523:A1 0.000299912
97 *2026:A *586:76 0.000751933
98 *2027:A *1523:A1 3.93842e-05
99 *232:65 *586:51 3.86439e-05
100 *232:83 *586:51 0.000176215
101 *415:50 *586:51 0.000133592
102 *436:24 *586:51 6.23438e-05
103 *456:6 *586:125 5.07494e-05
104 *462:20 *2013:A 5.52191e-05
105 *462:20 *586:125 3.25153e-05
106 *464:56 *586:51 0.000488556
107 *471:20 *586:12 1.03191e-05
108 *489:28 *586:93 4.32569e-05
109 *493:26 *2013:A 1.19928e-05
110 *538:40 *586:51 0.000126419
111 *538:40 *586:76 1.35034e-05
112 *548:68 *586:51 2.02787e-05
113 *548:76 *586:93 3.0807e-05
114 *563:34 *586:93 0.000271308
115 *568:52 *586:51 9.03488e-05
116 *578:55 *586:76 5.72259e-05
117 *580:18 *586:51 0.000365424
118 *581:108 *1453:A1 5.74829e-05
*RES
1 *1659:Q *586:6 3.6 
2 *586:6 *586:12 5.2145 
3 *586:12 *2013:A 15.2825 
4 *586:12 *586:51 16.5469 
5 *586:51 *1453:A1 4.395 
6 *586:51 *586:76 22.2776 
7 *586:76 *1480:A2 4.28625 
8 *586:76 *586:93 13.6925 
9 *586:93 *1464:A1 1.6 
10 *586:93 *1523:A1 39.03 
11 *586:6 *586:125 8.735 
12 *586:125 *1556:A1 12.965 
13 *586:125 *1476:A1 1.6 
*END

*D_NET *587 0.0257701
*CONN
*I *1524:A1 I *D sky130_fd_sc_hd__mux2_1
*I *1465:A1 I *D sky130_fd_sc_hd__mux2_1
*I *1481:A2 I *D sky130_fd_sc_hd__mux4_1
*I *1452:A1 I *D sky130_fd_sc_hd__mux2_1
*I *1477:A1 I *D sky130_fd_sc_hd__mux2_1
*I *1559:A1 I *D sky130_fd_sc_hd__o211a_1
*I *2014:A I *D sky130_fd_sc_hd__buf_2
*I *1660:Q O *D sky130_fd_sc_hd__dfxtp_2
*CAP
1 *1524:A1 0.00022007
2 *1465:A1 0
3 *1481:A2 0
4 *1452:A1 0.000146797
5 *1477:A1 0.000107769
6 *1559:A1 0
7 *2014:A 0.000862401
8 *1660:Q 2.18567e-05
9 *587:147 0.00191122
10 *587:92 0.00213207
11 *587:75 0.00236753
12 *587:46 0.00239584
13 *587:10 0.000972423
14 *587:8 0.000640128
15 *1452:A1 *592:48 6.64817e-05
16 *1524:A1 *1460:A0 1.74678e-05
17 *1524:A1 *1464:A0 8.23457e-05
18 *1524:A1 *645:34 4.08514e-05
19 *2014:A *1549:B 0.000337634
20 *2014:A *1559:C1 0
21 *2014:A *1563:A 0.000149083
22 *2014:A *2015:A 0
23 *2014:A *623:82 6.91999e-05
24 *2014:A *623:88 0.000350283
25 *2014:A *634:26 0.000485723
26 *587:46 *1527:A0 2.64841e-05
27 *587:75 *1528:A0 4.29035e-05
28 *587:75 *592:48 0
29 *587:75 *655:52 0
30 *587:92 *1528:A0 1.23792e-05
31 *587:92 *592:48 0.000217437
32 *587:147 *1460:A0 0.000268993
33 *587:147 *1481:A0 0.00044674
34 *587:147 *1528:A0 8.4499e-05
35 *587:147 *1531:A0 0.000145914
36 *587:147 *1644:GATE 6.69608e-06
37 *587:147 *1646:GATE 7.36438e-05
38 *587:147 *617:53 0.000143997
39 *587:147 *682:50 9.20382e-05
40 Co *587:147 8.46717e-05
41 N2BEG[1] *587:75 2.77016e-05
42 N2BEG[6] *587:75 8.50807e-05
43 N2BEGb[4] *587:75 0.000315356
44 N2BEGb[7] *587:75 0.000146158
45 N4BEG[0] *587:75 0.000125552
46 N4BEG[12] *587:92 0.000189981
47 N4BEG[13] *587:92 0.000269636
48 N4BEG[3] *587:75 0.000358468
49 N4BEG[4] *587:75 0.000120187
50 N4BEG[5] *587:75 0.000590253
51 NN4BEG[0] *587:147 6.17895e-06
52 VALUE_top5 *2014:A 9.66021e-05
53 *1460:S *587:147 4.77757e-05
54 *1465:S *1524:A1 2.49909e-05
55 *1465:S *587:147 5.83121e-06
56 *1493:B1 *587:147 1.31297e-05
57 *1520:S *587:147 3.91137e-05
58 *1527:S *587:46 5.21046e-05
59 *1528:A1 *587:75 2.91013e-05
60 *1550:A2 *2014:A 0.000300206
61 *1660:D *587:10 3.53512e-05
62 *1661:D *2014:A 9.0444e-05
63 *1675:D *2014:A 0.000199763
64 *1675:D *587:10 1.93416e-05
65 *1749:A *587:147 3.09774e-05
66 *1769:A *587:46 0
67 *1771:A *587:46 0
68 *1853:A *587:147 1.52352e-05
69 *1854:A *587:92 1.39456e-05
70 *1855:A *587:147 5.14854e-05
71 *1856:A *1524:A1 0.000135639
72 *1861:A *1524:A1 6.83025e-05
73 *1862:A *1524:A1 1.16578e-05
74 *1869:A *1524:A1 0.000212511
75 *1954:A *587:75 0.00137797
76 *1957:A *1477:A1 0.000161529
77 *1961:A *2014:A 0.000122331
78 *1962:A *587:75 0.000102262
79 *1964:A *2014:A 8.98937e-05
80 *1964:A *587:10 0.000101913
81 *1964:A *587:46 0.000458068
82 *1964:A *587:75 0.000156373
83 *1966:A *1524:A1 1.79536e-05
84 *1966:A *587:75 0.000906097
85 *1968:A *2014:A 0.000180862
86 *1969:A *587:147 3.96645e-05
87 *1974:A *587:75 3.04717e-05
88 *1975:A *587:147 5.69863e-05
89 *1976:A *587:92 4.66108e-05
90 *1976:A *587:147 0.000234504
91 *1991:A *587:147 0.000923426
92 *1992:A *587:147 4.77719e-05
93 *1994:A *587:147 0.000223705
94 *1995:A *587:46 3.08009e-05
95 *1995:A *587:92 8.23457e-05
96 *1996:A *587:92 8.65905e-05
97 *1997:A *587:46 0.000108597
98 *2000:A *587:147 0.000125653
99 *2001:A *587:147 7.73646e-05
100 *2013:A *2014:A 7.8249e-05
101 *271:45 *587:147 6.07575e-06
102 *396:14 *2014:A 0
103 *400:22 *2014:A 5.16899e-05
104 *455:65 *2014:A 1.71207e-05
105 *455:75 *2014:A 0.000131409
106 *456:6 *587:8 4.80285e-05
107 *456:60 *2014:A 0.000133148
108 *460:16 *587:8 8.49205e-05
109 *462:20 *587:46 0
110 *464:56 *587:147 4.32417e-05
111 *493:26 *2014:A 2.96426e-05
112 *534:28 *587:92 4.99555e-05
113 *537:52 *587:92 1.54111e-05
114 *537:52 *587:147 0.0001371
115 *551:30 *587:75 0.000129526
116 *580:65 *587:92 7.9642e-06
117 *583:118 *1524:A1 0.000108886
118 *583:118 *587:147 0.00015639
119 *586:12 *2014:A 0
120 *586:125 *587:10 0
*RES
1 *1660:Q *587:8 4.395 
2 *587:8 *587:10 2.4 
3 *587:10 *2014:A 30.22 
4 *587:10 *1559:A1 3.6 
5 *587:8 *587:46 10.56 
6 *587:46 *1477:A1 5.085 
7 *587:46 *587:75 16.4056 
8 *587:75 *1452:A1 3.775 
9 *587:75 *587:92 13.3375 
10 *587:92 *1481:A2 1.6 
11 *587:92 *587:147 39.7502 
12 *587:147 *1465:A1 1.6 
13 *587:147 *1524:A1 11.24 
*END

*D_NET *588 0.0382533
*CONN
*I *1525:A1 I *D sky130_fd_sc_hd__mux2_1
*I *1482:A2 I *D sky130_fd_sc_hd__mux4_1
*I *1466:A1 I *D sky130_fd_sc_hd__mux2_1
*I *1451:A1 I *D sky130_fd_sc_hd__mux2_1
*I *2015:A I *D sky130_fd_sc_hd__buf_2
*I *1478:A1 I *D sky130_fd_sc_hd__mux2_1
*I *1562:A1 I *D sky130_fd_sc_hd__o211a_1
*I *1661:Q O *D sky130_fd_sc_hd__dfxtp_2
*CAP
1 *1525:A1 0.000854435
2 *1482:A2 7.22683e-05
3 *1466:A1 0.00140613
4 *1451:A1 0.00102238
5 *2015:A 0.000314618
6 *1478:A1 0.00100593
7 *1562:A1 0.000252787
8 *1661:Q 0
9 *588:97 0.00226083
10 *588:83 0.00345025
11 *588:52 0.00308948
12 *588:29 0.00126602
13 *588:4 0.000429242
14 *1451:A1 *1451:A0 8.40269e-05
15 *1451:A1 *1607:GATE 0.000202824
16 *1451:A1 *1797:A 0.000500828
17 *1451:A1 *652:28 0.000215597
18 *1451:A1 *662:22 0.000301074
19 *1451:A1 *685:20 0.000675457
20 *1451:A1 *687:26 0
21 *1466:A1 *1466:A0 0.000217784
22 *1466:A1 *628:108 0.000158543
23 *1478:A1 *1526:A1 3.86529e-05
24 *1478:A1 *1629:D 2.10582e-05
25 *1478:A1 *1690:A 2.34691e-05
26 *1478:A1 *621:22 7.96104e-06
27 *1478:A1 *623:31 5.16348e-05
28 *1478:A1 *623:37 0.000219088
29 *1478:A1 *624:22 1.81185e-05
30 *1478:A1 *625:140 0.000196048
31 *1478:A1 *630:113 4.74044e-05
32 *1478:A1 *630:142 4.60712e-05
33 *1482:A2 *1456:A0 5.05066e-06
34 *1525:A1 *1466:A0 4.89295e-05
35 *1525:A1 *1521:A0 7.06865e-05
36 *1562:A1 *1563:A 9.39388e-06
37 *1562:A1 *623:37 3.57349e-05
38 *1562:A1 *623:39 3.66286e-05
39 *1562:A1 *623:41 0.000158066
40 *1562:A1 *623:82 0.000151518
41 *1562:A1 *624:28 0.000130352
42 *2015:A *624:22 8.23934e-05
43 *588:29 *1549:B 2.0514e-05
44 *588:29 *624:28 0.000269521
45 *588:52 *624:22 0.000182141
46 *588:83 *613:24 0.000621801
47 *588:83 *620:42 0.0016291
48 *588:97 *1456:A0 2.94308e-05
49 *588:97 *1458:A0 4.18862e-05
50 *588:97 *1652:D 4.66108e-05
51 *1470:A1 *588:97 0.000230793
52 *1474:A1 *1525:A1 0.000236823
53 *1478:S *1478:A1 0.000196048
54 *1488:B1 *1451:A1 0
55 *1515:A1 *1451:A1 3.59272e-05
56 *1519:A1 *1451:A1 0
57 *1519:A1 *1466:A1 0
58 *1529:S *1478:A1 1.31821e-05
59 *1531:S *1478:A1 5.43551e-05
60 *1562:A2 *1562:A1 4.88568e-05
61 *1565:A2 *1478:A1 0.00012252
62 *1645:D *1451:A1 1.59207e-05
63 *1677:D *1478:A1 4.77701e-05
64 *1744:A *1451:A1 1.48335e-05
65 *1928:A *1525:A1 0.000344454
66 *1961:A *1562:A1 5.05167e-05
67 *1965:A *1478:A1 0.000487422
68 *1968:A *1478:A1 0.000273026
69 *1968:A *588:83 0.000203036
70 *1984:A *1478:A1 0.000219232
71 *1997:A *1478:A1 0.000432687
72 *2014:A *2015:A 0
73 *2021:A *1525:A1 2.15594e-05
74 *396:14 *1478:A1 7.9642e-06
75 *396:14 *588:29 4.82863e-05
76 *396:14 *588:52 7.66959e-05
77 *415:32 *1451:A1 2.05191e-05
78 *415:32 *588:83 0.000126891
79 *415:50 *588:83 0.000298926
80 *455:75 *2015:A 0
81 *461:24 *1478:A1 0.000134072
82 *461:24 *2015:A 0.000502126
83 *464:56 *588:83 0.00123839
84 *491:38 *1466:A1 6.05513e-05
85 *491:38 *588:97 0.000322516
86 *492:30 *1525:A1 0.000936783
87 *504:26 *1478:A1 0
88 *508:30 *1451:A1 0.000111505
89 *526:46 *1451:A1 0
90 *526:46 *1466:A1 0.000313857
91 *526:61 *1466:A1 7.49327e-05
92 *531:50 *1451:A1 0
93 *531:50 *588:83 0.00225903
94 *548:68 *1451:A1 0
95 *548:76 *1451:A1 3.75738e-05
96 *552:56 *588:83 0.00212168
97 *560:24 *588:97 3.05097e-05
98 *574:28 *1466:A1 2.24746e-05
99 *578:55 *1482:A2 8.30342e-05
100 *584:10 *2015:A 0.000355426
101 *584:10 *588:52 1.15399e-05
102 *584:125 *1466:A1 0.000619513
103 *584:125 *1525:A1 0.000252095
104 *584:125 *588:97 0.00103444
105 *586:51 *588:83 0.00208323
*RES
1 *1661:Q *588:4 1.6 
2 *588:4 *1562:A1 14.28 
3 *588:4 *588:29 5.225 
4 *588:29 *1478:A1 24.5989 
5 *588:29 *588:52 2.2725 
6 *588:52 *2015:A 11.7825 
7 *588:52 *588:83 11.7103 
8 *588:83 *588:97 21.3525 
9 *588:97 *1451:A1 26.78 
10 *588:97 *1466:A1 17.66 
11 *588:83 *1482:A2 5.145 
12 *1466:A1 *1525:A1 22.365 
*END

*D_NET *589 0.0244425
*CONN
*I *1533:A1 I *D sky130_fd_sc_hd__mux2_1
*I *1467:A1 I *D sky130_fd_sc_hd__mux2_1
*I *1479:A3 I *D sky130_fd_sc_hd__mux4_1
*I *1526:A1 I *D sky130_fd_sc_hd__mux2_1
*I *1565:A1 I *D sky130_fd_sc_hd__o211a_1
*I *2016:A I *D sky130_fd_sc_hd__buf_2
*I *1662:Q O *D sky130_fd_sc_hd__dfxtp_1
*CAP
1 *1533:A1 0.000362954
2 *1467:A1 0.000439549
3 *1479:A3 8.79376e-05
4 *1526:A1 0.00079934
5 *1565:A1 4.43439e-05
6 *2016:A 0.000461557
7 *1662:Q 6.77541e-05
8 *589:120 0.00245263
9 *589:77 0.00255515
10 *589:35 0.000884724
11 *589:18 0.000946922
12 *589:10 0.00132917
13 *1467:A1 *1482:A0 0.000338638
14 *1467:A1 *1489:A1 8.58007e-05
15 *1467:A1 *1522:A0 5.90993e-05
16 *1467:A1 *1532:A0 4.00646e-05
17 *1467:A1 *1642:GATE 0
18 *1479:A3 *1479:A0 3.1835e-05
19 *1526:A1 *1527:A1 4.46799e-05
20 *1526:A1 *616:26 5.55622e-05
21 *1533:A1 *1642:GATE 3.0088e-05
22 *1533:A1 *1687:A 4.77757e-05
23 *1533:A1 *626:22 4.77757e-05
24 *1533:A1 *626:43 0.000221518
25 *2016:A *1542:B 0.000222145
26 *2016:A *622:46 0.000474883
27 *2016:A *622:48 0.00012877
28 *589:10 *623:31 6.07575e-06
29 *589:77 *1526:A0 0.000120846
30 *589:77 *1529:A0 0.000320558
31 *589:77 *590:95 9.76391e-05
32 *589:77 *617:28 0.000495606
33 *589:77 *662:22 0.000780238
34 *589:120 *1482:A0 6.0837e-05
35 *589:120 *1529:A0 0.000437243
36 *589:120 *1539:A 0.000555114
37 *589:120 *1545:B 0.0001319
38 *589:120 *590:95 0.00041978
39 *589:120 *622:14 0.00015896
40 *589:120 *626:22 0.00111895
41 VALUE_top6 *2016:A 8.8266e-05
42 *1478:A1 *1526:A1 3.86529e-05
43 *1479:A1 *589:120 0.000307138
44 *1479:S1 *589:77 0.000172849
45 *1495:C *589:120 1.70906e-05
46 *1496:B *589:18 1.74053e-05
47 *1496:D *589:18 8.53113e-06
48 *1510:A *589:120 1.07628e-05
49 *1510:B *589:120 0
50 *1511:A2 *589:120 3.53837e-05
51 *1529:A1 *1526:A1 7.0021e-05
52 *1533:S *1533:A1 8.43255e-05
53 *1534:A *589:120 1.19928e-05
54 *1534:B *589:120 4.82863e-05
55 *1539:B *589:120 4.77719e-05
56 *1565:B1 *1565:A1 1.76441e-05
57 *1568:B1 *1565:A1 4.41506e-05
58 *1568:B1 *589:10 0.000167266
59 *1570:C1 *589:77 0.000131565
60 *1581:D *589:120 1.43717e-05
61 *1610:D *1533:A1 1.39525e-05
62 *1610:D *589:120 1.23268e-05
63 *1662:D *1565:A1 0
64 *1664:D *589:120 5.83121e-06
65 *1677:CLK *1526:A1 2.03245e-05
66 *1677:CLK *2016:A 0.000219207
67 *1677:CLK *589:35 0.000103707
68 *1678:D *589:18 1.40723e-06
69 *1697:A *589:120 0.000467688
70 *1743:A *589:120 0.000233015
71 *1789:A *1526:A1 0.000157651
72 *1789:A *2016:A 0.0002602
73 *1789:A *589:35 0.000111543
74 *1822:A *589:18 4.11678e-06
75 *1986:A *589:10 3.14002e-05
76 *1986:A *589:18 6.03272e-05
77 *1988:A *1479:A3 4.80285e-05
78 *1996:A *1479:A3 3.87762e-05
79 *2001:A *589:120 0.00018263
80 *229:14 *589:120 1.33285e-05
81 *229:33 *589:120 8.23457e-05
82 *230:8 *589:120 0.000123589
83 *455:75 *2016:A 2.0514e-05
84 *456:80 *1565:A1 2.8694e-05
85 *456:95 *1565:A1 4.66108e-05
86 *456:106 *589:10 4.38278e-05
87 *461:24 *1526:A1 0.000256663
88 *461:24 *2016:A 0.000843104
89 *493:26 *2016:A 1.08732e-05
90 *494:28 *589:77 5.98468e-05
91 *521:38 *589:120 2.5424e-05
92 *530:30 *589:120 8.23329e-05
93 *531:50 *589:77 0.000599998
94 *534:28 *1467:A1 3.78903e-05
95 *543:24 *589:120 0.000248146
96 *552:56 *589:10 3.69766e-05
97 *552:56 *589:18 2.8856e-05
98 *581:53 *589:18 6.87289e-05
99 *585:89 *1526:A1 0.000650898
100 *586:76 *1533:A1 0.000596036
101 *586:76 *589:120 0.000267846
*RES
1 *1662:Q *589:10 5.5725 
2 *589:10 *589:18 9.3325 
3 *589:18 *2016:A 18.06 
4 *589:18 *589:35 1.38 
5 *589:35 *1565:A1 4.755 
6 *589:35 *1526:A1 20.53 
7 *589:10 *589:77 9.49073 
8 *589:77 *1479:A3 5.8925 
9 *589:77 *589:120 40.1589 
10 *589:120 *1467:A1 15.2425 
11 *589:120 *1533:A1 12.1425 
*END

*D_NET *590 0.0266017
*CONN
*I *1468:A1 I *D sky130_fd_sc_hd__mux2_1
*I *1480:A3 I *D sky130_fd_sc_hd__mux4_1
*I *1532:A1 I *D sky130_fd_sc_hd__mux2_1
*I *2017:A I *D sky130_fd_sc_hd__buf_2
*I *1527:A1 I *D sky130_fd_sc_hd__mux2_1
*I *1568:A1 I *D sky130_fd_sc_hd__o211a_1
*I *1663:Q O *D sky130_fd_sc_hd__dfxtp_2
*CAP
1 *1468:A1 0.00123319
2 *1480:A3 2.60454e-05
3 *1532:A1 0
4 *2017:A 0.000672033
5 *1527:A1 0.000884062
6 *1568:A1 0.000159388
7 *1663:Q 2.21004e-05
8 *590:118 0.00185992
9 *590:95 0.00301859
10 *590:50 0.0031726
11 *590:10 0.00117873
12 *590:6 0.000240043
13 *1527:A1 *1530:A0 0.000456645
14 *1527:A1 *1569:A 0.000193286
15 *1527:A1 *627:34 0.000186021
16 *1568:A1 *623:12 4.40028e-05
17 *1568:A1 *627:34 4.0031e-05
18 *2017:A *1544:C1 2.34691e-05
19 *590:95 *1471:A0 1.60335e-05
20 *590:95 *1522:A0 2.97004e-06
21 *590:95 *1526:A0 0.000633304
22 *590:95 *1529:A0 6.27135e-05
23 *590:95 *622:46 7.14892e-06
24 *590:95 *638:34 0.00106485
25 *590:118 *1596:D 1.67176e-05
26 *590:118 *1628:D 1.23268e-05
27 *590:118 *619:50 0.00047363
28 *590:118 *620:57 4.12797e-05
29 *590:118 *638:34 0.000301041
30 *1455:A1 *2017:A 2.75145e-05
31 *1480:A2 *1480:A3 3.85204e-05
32 *1480:S1 *1468:A1 6.33103e-05
33 *1487:A1 *1468:A1 8.73389e-06
34 *1487:A2 *1468:A1 0.000221896
35 *1487:B1 *1468:A1 0.000272024
36 *1487:C1 *1468:A1 0.000123225
37 *1493:B1 *590:95 0.000158072
38 *1515:A1 *1468:A1 4.66108e-05
39 *1526:A1 *1527:A1 4.46799e-05
40 *1527:S *1527:A1 3.01435e-05
41 *1529:A1 *1527:A1 0.000128545
42 *1530:A1 *1527:A1 0.0001286
43 *1533:S *590:118 1.85001e-05
44 *1544:B1 *2017:A 4.99619e-05
45 *1570:A2 *2017:A 5.53549e-06
46 *1697:A *590:95 1.23268e-05
47 *1734:A *1468:A1 0.000119762
48 *1765:A *590:95 0.00017036
49 *1767:A *1527:A1 4.82919e-05
50 *1782:A *1468:A1 8.57024e-05
51 *1807:A *1527:A1 0.000193511
52 *1807:A *1568:A1 0.000132613
53 *1934:A *1468:A1 9.27495e-05
54 *1984:A *2017:A 0.000947526
55 *1985:A *2017:A 0.00108305
56 *1985:A *590:95 5.28555e-05
57 *1987:A *1568:A1 4.99918e-05
58 *1996:A *1527:A1 0.00147287
59 *376:12 *2017:A 6.16356e-05
60 *421:10 *590:95 0
61 *459:26 *2017:A 0.000107453
62 *460:16 *590:95 0.000149121
63 *460:20 *590:95 0.000493514
64 *460:27 *590:95 5.20373e-05
65 *489:28 *1480:A3 7.16255e-05
66 *489:28 *590:118 5.08373e-05
67 *493:26 *2017:A 7.9642e-06
68 *494:28 *1568:A1 0.000159851
69 *515:48 *590:95 2.39856e-05
70 *521:38 *590:95 1.7635e-05
71 *530:30 *590:10 0.00022707
72 *530:30 *590:50 0.000225285
73 *538:40 *590:118 0.000941228
74 *563:34 *590:118 5.81072e-05
75 *580:8 *590:50 0.000154981
76 *580:48 *590:95 0
77 *585:128 *590:95 0.00029043
78 *585:137 *590:95 0.000760678
79 *586:76 *590:118 0.000271116
80 *586:93 *1480:A3 3.14383e-05
81 *586:93 *590:118 5.86739e-05
82 *589:77 *590:95 9.76391e-05
83 *589:120 *590:95 0.00041978
*RES
1 *1663:Q *590:6 1.96 
2 *590:6 *590:10 4.175 
3 *590:10 *1568:A1 7.41 
4 *590:10 *1527:A1 27 
5 *590:6 *590:50 4.175 
6 *590:50 *2017:A 20.67 
7 *590:50 *590:95 44.0453 
8 *590:95 *1532:A1 1.6 
9 *590:95 *590:118 9.81967 
10 *590:118 *1480:A3 4.47 
11 *590:118 *1468:A1 22.47 
*END

*D_NET *591 0.00433137
*CONN
*I *1444:A I *D sky130_fd_sc_hd__inv_2
*I *1561:A I *D sky130_fd_sc_hd__and2_1
*I *1805:X O *D sky130_fd_sc_hd__dlygate4sd3_1
*CAP
1 *1444:A 0.000445577
2 *1561:A 0.000352535
3 *1805:X 9.91152e-05
4 *591:6 0.000897227
5 *1444:A *1545:A 7.64703e-05
6 *1561:A *1546:B 1.74446e-05
7 *1561:A *1561:B 1.10085e-05
8 *1561:A *624:6 0.00030938
9 *1561:A *624:140 0.000516314
10 *1499:B *1561:A 3.64998e-06
11 *1805:A *1561:A 1.33285e-05
12 *2007:A *1444:A 0.000152807
13 *2009:A *1444:A 0
14 *376:12 *1444:A 0.000219007
15 *453:8 *1561:A 0.000746536
16 *453:37 *1561:A 0.000122435
17 *453:37 *591:6 0.000188069
18 *579:10 *1444:A 0.000141604
19 *583:12 *1444:A 1.88656e-05
*RES
1 *1805:X *591:6 3.43 
2 *591:6 *1561:A 11.725 
3 *591:6 *1444:A 14.375 
*END

*D_NET *592 0.0139747
*CONN
*I *1649:D I *D sky130_fd_sc_hd__dlxtp_1
*I *1617:D I *D sky130_fd_sc_hd__dlxtp_1
*I *1708:A I *D sky130_fd_sc_hd__buf_1
*I *1838:X O *D sky130_fd_sc_hd__buf_1
*CAP
1 *1649:D 0.000120467
2 *1617:D 9.29666e-05
3 *1708:A 1.19676e-05
4 *1838:X 0.00256559
5 *592:75 0.000583486
6 *592:58 0.000567315
7 *592:48 0.00275089
8 *1649:D *1617:GATE 3.79936e-05
9 *1649:D *682:50 5.70461e-06
10 *1708:A *1481:A0 4.66108e-05
11 *592:48 *1528:A0 0.000994022
12 *592:48 *616:26 4.24632e-05
13 *592:48 *616:49 3.80951e-05
14 *592:48 *638:20 0.000274759
15 *592:58 *1649:GATE 2.53191e-06
16 *592:58 *630:86 2.0851e-06
17 *592:75 *1649:GATE 1.58266e-05
18 *592:75 *682:50 0.00010163
19 Co *592:75 2.85992e-05
20 N4BEG[15] *592:48 8.40269e-05
21 N4BEG[9] *592:48 2.38791e-05
22 NN4BEG[0] *592:48 0.000345532
23 NN4BEG[4] *592:48 4.38278e-05
24 NN4BEG[5] *592:75 7.9642e-06
25 NN4BEG[6] *592:48 3.2318e-05
26 *1452:A1 *592:48 6.64817e-05
27 *1531:S *592:48 8.05381e-05
28 *1733:A *592:48 1.01643e-05
29 *1733:A *592:58 4.83522e-05
30 *1736:A *592:48 0.000180396
31 *1737:A *592:48 0.00012479
32 *1762:A *592:48 0.000106377
33 *1769:A *592:48 1.7635e-05
34 *1853:A *1649:D 3.5399e-05
35 *1919:A *592:75 5.92147e-05
36 *1954:A *592:48 0
37 *1956:A *592:48 8.49205e-05
38 *1969:A *1617:D 0.000157378
39 *1969:A *592:75 1.33285e-05
40 *1975:A *1708:A 4.77757e-05
41 *1976:A *592:48 1.56428e-05
42 *1979:A *592:58 0.000351581
43 *1983:A *592:48 9.39629e-05
44 *1984:A *592:48 9.387e-06
45 *1988:A *592:58 2.05641e-05
46 *1996:A *592:48 8.65905e-05
47 *1997:A *592:48 0.000177601
48 *1997:A *592:58 1.01574e-05
49 *2001:A *592:75 0.000109431
50 *2002:A *592:58 1.7635e-05
51 *2002:A *592:75 0.000242888
52 *2003:A *1649:D 0.000146018
53 *2003:A *592:75 0.000119866
54 *462:20 *592:48 0.000269272
55 *470:30 *592:58 0.000349587
56 *537:26 *592:48 0.000476537
57 *537:52 *592:48 5.82004e-05
58 *559:48 *592:48 0.00131976
59 *568:52 *592:48 2.92823e-05
60 *587:75 *592:48 0
61 *587:92 *592:48 0.000217437
*RES
1 *1838:X *592:48 49.8166 
2 *592:48 *592:58 2.4099 
3 *592:58 *1708:A 4.05 
4 *592:58 *592:75 9.41 
5 *592:75 *1617:D 3.445 
6 *592:75 *1649:D 7.745 
*END

*D_NET *593 0.000174621
*CONN
*I *1511:A1 I *D sky130_fd_sc_hd__o21a_1
*I *1816:X O *D sky130_fd_sc_hd__dlygate4sd3_1
*CAP
1 *1511:A1 3.36421e-05
2 *1816:X 3.36421e-05
3 *1511:B1 *1511:A1 8.23457e-05
4 *581:16 *1511:A1 2.49909e-05
*RES
1 *1816:X *1511:A1 3.995 
*END

*D_NET *594 0.000836389
*CONN
*I *1508:A1 I *D sky130_fd_sc_hd__o21a_1
*I *1817:X O *D sky130_fd_sc_hd__dlygate4sd3_1
*CAP
1 *1508:A1 0.000166518
2 *1817:X 0.000166518
3 *1448:A *1508:A1 3.59531e-06
4 *1495:B *1508:A1 5.82654e-05
5 *1506:C *1508:A1 9.47208e-05
6 *1507:B *1508:A1 2.30292e-05
7 *1508:A2 *1508:A1 4.99619e-05
8 *1513:A_N *1508:A1 2.75229e-05
9 *415:32 *1508:A1 8.65961e-05
10 *415:34 *1508:A1 0.000124895
11 *568:52 *1508:A1 3.4767e-05
*RES
1 *1817:X *1508:A1 11.115 
*END

*D_NET *595 0.00271238
*CONN
*I *1447:A I *D sky130_fd_sc_hd__inv_2
*I *1818:X O *D sky130_fd_sc_hd__dlygate4sd3_1
*CAP
1 *1447:A 0.000714014
2 *1818:X 0.000714014
3 *1500:B *1447:A 6.72143e-05
4 *1506:A *1447:A 4.82863e-05
5 *1512:B *1447:A 0.000119762
6 *1539:B *1447:A 0.000118836
7 *1585:D *1447:A 5.01066e-05
8 *1586:D *1447:A 9.99245e-05
9 *232:83 *1447:A 0.000288576
10 *234:10 *1447:A 3.83041e-05
11 *376:27 *1447:A 4.99619e-05
12 *415:52 *1447:A 0.000137213
13 *425:18 *1447:A 0.000162319
14 *458:78 *1447:A 1.91597e-05
15 *458:80 *1447:A 3.96653e-05
16 *578:18 *1447:A 4.50225e-05
*RES
1 *1818:X *1447:A 18.675 
*END

*D_NET *596 0.00251825
*CONN
*I *1538:A I *D sky130_fd_sc_hd__nand2_1
*I *1819:X O *D sky130_fd_sc_hd__dlygate4sd3_1
*CAP
1 *1538:A 0.000939419
2 *1819:X 0.000939419
3 *1538:A *1549:B 0.000129304
4 *1538:A *1553:C1 1.19928e-05
5 *1538:A *624:14 2.95938e-05
6 *1538:A *624:22 8.88655e-05
7 *1550:A2 *1538:A 6.11607e-05
8 *1553:A2 *1538:A 5.26865e-05
9 *1553:B1 *1538:A 0.000153816
10 *396:14 *1538:A 1.58313e-06
11 *455:34 *1538:A 0.00011041
*RES
1 *1819:X *1538:A 18.6 
*END

*D_NET *597 0.00229563
*CONN
*I *1495:A I *D sky130_fd_sc_hd__and3_1
*I *1446:A I *D sky130_fd_sc_hd__inv_2
*I *1820:X O *D sky130_fd_sc_hd__dlygate4sd3_1
*CAP
1 *1495:A 0.000185681
2 *1446:A 0.000493884
3 *1820:X 0.000679565
4 *1446:A *1617:GATE 0
5 *1446:A *627:34 3.63661e-05
6 *1509:A2 *1495:A 4.61196e-05
7 *2002:A *1446:A 6.16226e-06
8 *2026:A *1495:A 1.02348e-05
9 *421:10 *1495:A 3.59531e-06
10 *458:28 *1446:A 0.000121682
11 *458:30 *1446:A 9.50342e-06
12 *528:20 *1446:A 0.000199833
13 *531:50 *1446:A 0.000344941
14 *578:55 *1495:A 0.000158066
*RES
1 *1820:X *1446:A 14.46 
2 *1820:X *1495:A 9.81 
*END

*D_NET *598 0.00342738
*CONN
*I *1561:B I *D sky130_fd_sc_hd__and2_1
*I *1563:A I *D sky130_fd_sc_hd__nand2_1
*I *1821:X O *D sky130_fd_sc_hd__dlygate4sd3_1
*CAP
1 *1561:B 0.000120414
2 *1563:A 0.000513652
3 *1821:X 0
4 *598:4 0.000634066
5 *1563:A *1566:B 7.9642e-06
6 *1563:A *1567:A 4.66474e-05
7 *1563:A *623:82 2.38055e-05
8 *1563:A *624:28 0.000171814
9 *1563:A *624:37 0.000158533
10 *1499:B *1561:B 5.77646e-05
11 *1561:A *1561:B 1.10085e-05
12 *1562:A1 *1563:A 9.39388e-06
13 *1565:B1 *1563:A 4.66108e-05
14 *1968:A *1563:A 0.000158728
15 *2014:A *1563:A 0.000149083
16 *400:22 *1561:B 0.000202242
17 *400:22 *1563:A 0.000553166
18 *453:8 *1561:B 0.000356918
19 *453:8 *1563:A 0.00015896
20 *456:80 *1563:A 4.66108e-05
*RES
1 *1821:X *598:4 1.6 
2 *598:4 *1563:A 17.405 
3 *598:4 *1561:B 5.875 
*END

*D_NET *599 0.000592464
*CONN
*I *1566:A I *D sky130_fd_sc_hd__nand2_1
*I *1564:B I *D sky130_fd_sc_hd__and2_1
*I *1822:X O *D sky130_fd_sc_hd__dlygate4sd3_1
*CAP
1 *1566:A 4.68626e-05
2 *1564:B 5.37094e-05
3 *1822:X 0.000100572
4 *1564:B *623:37 0.000122337
5 *1566:A *623:37 0.000135201
6 *1968:A *1566:A 0.000133782
*RES
1 *1822:X *1564:B 4.34 
2 *1822:X *1566:A 8.835 
*END

*D_NET *600 0.00418917
*CONN
*I *1542:A I *D sky130_fd_sc_hd__nand2_1
*I *1540:B I *D sky130_fd_sc_hd__and2_1
*I *1823:X O *D sky130_fd_sc_hd__dlygate4sd3_1
*CAP
1 *1542:A 0
2 *1540:B 0.000317734
3 *1823:X 0.00066232
4 *600:14 0.000980054
5 *1540:B *1542:B 2.73206e-05
6 *1540:B *1543:A 6.78828e-05
7 *1540:B *624:106 2.99518e-06
8 *600:14 *1543:B 0.00035907
9 *600:14 *617:22 8.69417e-06
10 *600:14 *624:14 2.65814e-06
11 VALUE_top6 *1540:B 0
12 VALUE_top8 *1540:B 6.57653e-06
13 *1498:B *600:14 0.000110053
14 *1544:B1 *1540:B 7.00889e-06
15 *1544:B1 *600:14 0.000139675
16 *1547:A1 *600:14 5.8023e-05
17 *1654:D *1540:B 0
18 *1671:CLK *1540:B 4.82919e-05
19 *1671:CLK *600:14 8.69583e-05
20 *1671:D *600:14 0.000135969
21 *1823:A *600:14 0.00011975
22 *2006:A *1540:B 2.5424e-05
23 *2010:A *600:14 0.000284544
24 *235:8 *600:14 0.000228247
25 *394:14 *1540:B 1.57462e-05
26 *395:12 *600:14 0.000102564
27 *455:75 *1540:B 4.66742e-05
28 *462:44 *1540:B 0.000102516
29 *493:26 *1540:B 0.000242417
*RES
1 *1823:X *600:14 18.77 
2 *600:14 *1540:B 10.2726 
3 *600:14 *1542:A 1.6 
*END

*D_NET *601 0.00100611
*CONN
*I *1554:A I *D sky130_fd_sc_hd__nand2_1
*I *1552:B I *D sky130_fd_sc_hd__and2_1
*I *1806:X O *D sky130_fd_sc_hd__dlygate4sd3_1
*CAP
1 *1554:A 4.44008e-05
2 *1552:B 0.00018226
3 *1806:X 6.49153e-05
4 *601:8 0.000291577
5 *1552:B *1555:A 0.000153825
6 *1552:B *624:61 4.77757e-05
7 *601:8 *1555:B 4.7003e-05
8 *1556:A2 *1552:B 0
9 *1857:A *1552:B 1.59562e-05
10 *1857:A *1554:A 4.49328e-05
11 *526:32 *1552:B 3.86252e-05
12 *526:32 *1554:A 6.14024e-05
13 *548:44 *1552:B 1.34361e-05
*RES
1 *1806:X *601:8 4.395 
2 *601:8 *1552:B 7.515 
3 *601:8 *1554:A 4.98 
*END

*D_NET *602 0.00173349
*CONN
*I *1569:A I *D sky130_fd_sc_hd__nand2_1
*I *1567:B I *D sky130_fd_sc_hd__and2_1
*I *1807:X O *D sky130_fd_sc_hd__dlygate4sd3_1
*CAP
1 *1569:A 8.02606e-05
2 *1567:B 0.000269644
3 *1807:X 0.000349904
4 *1569:A *1530:A0 0.0002699
5 *1527:A1 *1569:A 0.000193286
6 *1663:CLK *1567:B 8.7152e-06
7 *1970:A *1567:B 4.11799e-05
8 *1996:A *1567:B 0.000310175
9 *1996:A *1569:A 5.74791e-05
10 *521:38 *1569:A 1.91597e-05
11 *552:56 *1567:B 0.000133788
*RES
1 *1807:X *1567:B 11.7 
2 *1807:X *1569:A 6.065 
*END

*D_NET *603 0.026471
*CONN
*I *1709:A I *D sky130_fd_sc_hd__clkbuf_1
*I *1650:D I *D sky130_fd_sc_hd__dlxtp_1
*I *1618:D I *D sky130_fd_sc_hd__dlxtp_1
*I *1839:X O *D sky130_fd_sc_hd__dlymetal6s2s_1
*CAP
1 *1709:A 0
2 *1650:D 0.00020686
3 *1618:D 5.87328e-05
4 *1839:X 0.00522188
5 *603:31 0.000294938
6 *603:14 0.00536869
7 *1618:D *628:135 0.00014101
8 *1618:D *628:150 8.53113e-06
9 *1650:D *632:150 0.000118354
10 *603:14 *1464:A0 0.000985032
11 *603:14 *1477:A0 0
12 *603:14 *1527:A0 0.000511649
13 *603:14 *1691:A 0
14 *603:14 *621:22 0.000833932
15 *603:14 *625:160 0.00017065
16 *603:14 *629:22 0
17 *603:14 *630:42 4.60312e-05
18 *603:14 *632:40 0.000399944
19 *603:14 *649:30 0.000473584
20 N4BEG[3] *603:14 4.49305e-05
21 *1475:A1 *603:14 4.46815e-05
22 *1922:A *1650:D 0.000192604
23 *1922:A *603:31 1.05827e-05
24 *1944:A *1618:D 0.000142684
25 *1949:A *1650:D 0
26 *1952:A *603:14 0
27 *1965:A *603:14 0.000550152
28 *1966:A *603:14 0.00217371
29 *1971:A *603:14 0.00354467
30 *1976:A *603:14 2.35179e-05
31 *1979:A *603:14 0.000427917
32 *1981:A *603:14 0.00162933
33 *1989:A *603:14 5.69834e-05
34 *1989:A *603:31 2.26636e-05
35 *1997:A *603:14 0.000683385
36 *466:44 *603:14 0.000961742
37 *466:44 *603:31 5.88095e-05
38 *474:20 *1650:D 8.7152e-06
39 *474:20 *603:14 0.00012905
40 *474:20 *603:31 1.92979e-05
41 *486:26 *1650:D 5.16211e-05
42 *492:30 *603:14 6.97754e-05
43 *515:20 *603:14 0.000199054
44 *537:26 *603:14 0.000235967
45 *559:48 *603:14 0
46 *571:22 *603:14 0.000292053
47 *585:89 *603:14 5.73155e-05
*RES
1 *1839:X *603:14 31.1281 
2 *603:14 *1618:D 5.8625 
3 *603:14 *603:31 0.9453 
4 *603:31 *1650:D 7.83 
5 *603:31 *1709:A 3.6 
*END

*D_NET *604 0.00287703
*CONN
*I *1539:A I *D sky130_fd_sc_hd__nor2_1
*I *1808:X O *D sky130_fd_sc_hd__dlygate4sd3_1
*CAP
1 *1539:A 0.000836548
2 *1808:X 0.000836548
3 *1539:A *1445:A 8.35188e-05
4 *1539:A *1471:A0 6.76938e-05
5 *1471:S *1539:A 1.88218e-05
6 *1534:A *1539:A 0
7 *1581:D *1539:A 1.43717e-05
8 *1697:A *1539:A 4.77757e-05
9 *1743:A *1539:A 9.90437e-05
10 *229:14 *1539:A 0.00015817
11 *229:33 *1539:A 4.01811e-05
12 *543:24 *1539:A 0.000119246
13 *589:120 *1539:A 0.000555114
*RES
1 *1808:X *1539:A 19.8 
*END

*D_NET *605 0.00198142
*CONN
*I *1557:A I *D sky130_fd_sc_hd__nand2_1
*I *1555:B I *D sky130_fd_sc_hd__and2_1
*I *1809:X O *D sky130_fd_sc_hd__dlygate4sd3_1
*CAP
1 *1557:A 0.000118129
2 *1555:B 0.000169475
3 *1809:X 0.00011432
4 *605:8 0.000401924
5 *1555:B *1558:B 0.0001101
6 *1555:B *624:61 0.000118527
7 *1555:B *634:26 0.000104025
8 *1557:A *1558:B 0.000235864
9 *1557:A *624:53 4.66108e-05
10 *1557:A *624:61 0.000208199
11 *1557:A *651:14 4.80285e-05
12 *605:8 *1556:C1 1.22191e-05
13 *1556:A1 *605:8 0.000105756
14 *1559:B1 *1557:A 1.19928e-05
15 *471:20 *1557:A 9.387e-06
16 *526:32 *1555:B 0.000119866
17 *601:8 *1555:B 4.7003e-05
*RES
1 *1809:X *605:8 5.085 
2 *605:8 *1555:B 7.845 
3 *605:8 *1557:A 7.305 
*END

*D_NET *606 0.00475441
*CONN
*I *1560:A I *D sky130_fd_sc_hd__nand2_1
*I *1558:B I *D sky130_fd_sc_hd__and2_1
*I *1810:X O *D sky130_fd_sc_hd__dlygate4sd3_1
*CAP
1 *1560:A 9.49513e-05
2 *1558:B 0.00138985
3 *1810:X 0
4 *606:4 0.00148481
5 *1558:B *1549:B 0.000576848
6 *1558:B *1551:A 1.61831e-05
7 *1558:B *1551:B 2.36716e-05
8 *1558:B *615:22 1.92979e-05
9 *1558:B *616:26 0.000502805
10 *1558:B *619:50 1.88259e-05
11 *1558:B *624:61 0
12 *1558:B *629:22 0.000132115
13 *1560:A *1560:B 6.92163e-05
14 *1555:B *1558:B 0.0001101
15 *1556:A1 *1558:B 4.2295e-05
16 *1557:A *1558:B 0.000235864
17 *1806:A *1558:B 3.09416e-05
18 *1843:A *1558:B 6.63219e-06
19 *1952:A *1558:B 0
20 *518:24 *1558:B 0
21 *526:32 *1558:B 0
*RES
1 *1810:X *606:4 1.6 
2 *606:4 *1558:B 28.685 
3 *606:4 *1560:A 7.235 
*END

*D_NET *607 0.00416232
*CONN
*I *1551:A I *D sky130_fd_sc_hd__nand2_1
*I *1549:B I *D sky130_fd_sc_hd__and2_1
*I *1811:X O *D sky130_fd_sc_hd__dlygate4sd3_1
*CAP
1 *1551:A 6.71858e-06
2 *1549:B 0.000702824
3 *1811:X 0.000709543
4 *1549:B *1551:B 8.4546e-05
5 *1549:B *1560:B 0.000160068
6 *1549:B *624:28 0.000230429
7 *1549:B *634:26 8.43862e-05
8 *1551:A *1551:B 4.99619e-05
9 *1538:A *1549:B 0.000129304
10 *1558:B *1549:B 0.000576848
11 *1558:B *1551:A 1.61831e-05
12 *1562:A2 *1549:B 0.000131722
13 *1562:B1 *1549:B 9.1635e-05
14 *1657:D *1549:B 0.000423747
15 *1661:CLK *1549:B 5.93824e-05
16 *1811:A *1549:B 0.000203178
17 *1961:A *1549:B 7.9642e-06
18 *2014:A *1549:B 0.000337634
19 *455:34 *1549:B 0.00011824
20 *456:60 *1549:B 1.74905e-05
21 *588:29 *1549:B 2.0514e-05
*RES
1 *1811:X *1549:B 26.88 
2 *1811:X *1551:A 3.65 
*END

*D_NET *608 0.00660332
*CONN
*I *1545:A I *D sky130_fd_sc_hd__nand2_1
*I *1543:B I *D sky130_fd_sc_hd__and2_1
*I *1812:X O *D sky130_fd_sc_hd__dlygate4sd3_1
*CAP
1 *1545:A 0.000618374
2 *1543:B 0.000880186
3 *1812:X 0.00149856
4 *1543:B *615:22 0.000250575
5 *1543:B *624:140 4.43682e-05
6 *1545:A *1640:GATE 2.98807e-05
7 *1444:A *1545:A 7.64703e-05
8 *1455:A1 *1543:B 4.77701e-05
9 *1479:S1 *1545:A 1.75833e-05
10 *1510:A *1545:A 3.23239e-05
11 *1535:B1 *1545:A 0.000117872
12 *1537:A *1545:A 0.000210142
13 *1547:B1 *1545:A 5.75488e-05
14 *1570:A2 *1545:A 1.78122e-05
15 *1582:D *1545:A 6.76938e-05
16 *1654:CLK *1543:B 0.000147352
17 *1669:CLK *1543:B 0.000152767
18 *1679:CLK *1545:A 0.000147635
19 *1823:A *1543:B 0.000518985
20 *2006:A *1543:B 4.11301e-05
21 *2009:A *1545:A 0.000154072
22 *235:8 *1543:B 2.90245e-05
23 *376:12 *1545:A 0
24 *376:27 *1545:A 2.75123e-05
25 *376:38 *1545:A 2.53191e-05
26 *493:26 *1543:B 0.000661647
27 *551:30 *1543:B 0.000144957
28 *577:30 *1543:B 4.04634e-05
29 *580:18 *1545:A 5.98209e-05
30 *580:48 *1545:A 1.03572e-05
31 *581:18 *1545:A 0.000116048
32 *600:14 *1543:B 0.00035907
*RES
1 *1812:X *1543:B 21.8285 
2 *1812:X *1545:A 19.035 
*END

*D_NET *609 0.00589137
*CONN
*I *1546:B I *D sky130_fd_sc_hd__and2_1
*I *1548:A I *D sky130_fd_sc_hd__nand2_1
*I *1813:X O *D sky130_fd_sc_hd__dlygate4sd3_1
*CAP
1 *1546:B 0.0014192
2 *1548:A 0.000304927
3 *1813:X 0
4 *609:4 0.00172413
5 *1546:B *624:6 4.40028e-05
6 *1548:A *1542:B 2.97004e-06
7 *1548:A *619:50 9.82856e-06
8 *1548:A *622:46 5.69898e-06
9 *1548:A *622:48 5.06544e-05
10 *1548:A *623:92 4.99619e-05
11 *1548:A *624:106 1.96145e-05
12 *1496:C *1548:A 0.000279059
13 *1499:B *1546:B 0.000488589
14 *1499:B *1548:A 4.66108e-05
15 *1541:C1 *1548:A 0.000106126
16 *1550:B1 *1548:A 1.08758e-05
17 *1561:A *1546:B 1.74446e-05
18 *1786:A *1546:B 4.76682e-05
19 *1788:A *1548:A 0.000156051
20 *1796:A *1546:B 8.01929e-05
21 *395:12 *1546:B 0.00100233
22 *453:37 *1546:B 2.54431e-05
*RES
1 *1813:X *609:4 1.6 
2 *609:4 *1548:A 11.96 
3 *609:4 *1546:B 20.845 
*END

*D_NET *610 0.000601872
*CONN
*I *1445:A I *D sky130_fd_sc_hd__inv_1
*I *1814:X O *D sky130_fd_sc_hd__dlygate4sd3_1
*CAP
1 *1445:A 0.000151665
2 *1814:X 0.000151665
3 *1445:A *627:34 5.75434e-05
4 *1445:A *631:90 0.000109431
5 *1536:A2 *1445:A 3.27294e-05
6 *1539:A *1445:A 8.35188e-05
7 *1791:A *1445:A 7.9642e-06
8 *2002:A *1445:A 2.53191e-06
9 *531:50 *1445:A 4.82172e-06
*RES
1 *1814:X *1445:A 9.91875 
*END

*D_NET *611 0.00178762
*CONN
*I *1573:A2 I *D sky130_fd_sc_hd__o21a_1
*I *1815:X O *D sky130_fd_sc_hd__dlygate4sd3_1
*CAP
1 *1573:A2 0.000296148
2 *1815:X 0.000296148
3 *1573:B1 *1573:A2 0.000349592
4 *1951:A *1573:A2 6.07676e-05
5 *246:14 *1573:A2 0.000451174
6 *246:66 *1573:A2 0.000231592
7 *449:34 *1573:A2 6.00029e-05
8 *579:72 *1573:A2 4.21973e-05
*RES
1 *1815:X *1573:A2 15.075 
*END

*D_NET *612 0.0179709
*CONN
*I *1682:A I *D sky130_fd_sc_hd__buf_1
*I *1591:D I *D sky130_fd_sc_hd__dlxtp_1
*I *1623:D I *D sky130_fd_sc_hd__dlxtp_1
*I *1840:X O *D sky130_fd_sc_hd__buf_1
*CAP
1 *1682:A 0
2 *1591:D 5.24397e-05
3 *1623:D 8.63467e-05
4 *1840:X 0.00387063
5 *612:24 0.000229954
6 *612:20 0.0039618
7 *1623:D *613:44 0
8 *612:20 *1621:GATE 1.01469e-05
9 *612:20 *614:40 0.000330795
10 *612:20 *615:22 0.000580369
11 *612:20 *619:50 0.000232534
12 *612:20 *631:71 3.48855e-05
13 *612:20 *675:42 0.00163293
14 *1454:A1 *612:20 0.000271341
15 *1547:B1 *612:20 0.000215232
16 *1553:A2 *612:20 2.02872e-05
17 *1680:A *612:20 0
18 *1843:A *612:20 9.17179e-05
19 *1844:A *612:20 9.78866e-05
20 *1984:A *612:20 0.00088529
21 *2005:A *612:20 7.66319e-05
22 *246:14 *612:20 3.80227e-05
23 *415:32 *1591:D 8.73389e-06
24 *415:32 *612:20 0.000266729
25 *415:32 *612:24 9.80943e-06
26 *484:12 *1591:D 7.14699e-05
27 *484:12 *612:24 0.000160145
28 *548:44 *612:20 4.27774e-05
29 *552:56 *612:20 0.00048241
30 *574:28 *1591:D 4.66108e-05
31 *574:28 *1623:D 0.000133544
32 *574:28 *612:24 0.000197556
33 *577:30 *612:20 0.00306742
34 *583:12 *612:20 0.000437882
35 *583:16 *612:20 0.000259937
36 *584:90 *612:20 6.6621e-05
*RES
1 *1840:X *612:20 25.7631 
2 *612:20 *612:24 2.535 
3 *612:24 *1623:D 7.235 
4 *612:24 *1591:D 2.755 
5 *612:20 *1682:A 1.6 
*END

*D_NET *613 0.0280551
*CONN
*I *1619:D I *D sky130_fd_sc_hd__dlxtp_1
*I *1651:D I *D sky130_fd_sc_hd__dlxtp_1
*I *1710:A I *D sky130_fd_sc_hd__buf_1
*I *1587:D I *D sky130_fd_sc_hd__dlxtp_1
*I *1841:X O *D sky130_fd_sc_hd__clkbuf_2
*CAP
1 *1619:D 1.14807e-05
2 *1651:D 0.000109221
3 *1710:A 0.000303608
4 *1587:D 0
5 *1841:X 0.00424028
6 *613:53 0.000412829
7 *613:51 0.000134132
8 *613:44 0.00124868
9 *613:24 0.00536632
10 *1619:D *1619:GATE 3.74161e-05
11 *1651:D *1652:D 0.000194373
12 *1710:A *1619:GATE 0.000132654
13 *1710:A *1652:D 4.92861e-05
14 *613:24 *614:40 1.77665e-05
15 *613:24 *616:26 0.000473926
16 *613:24 *618:18 0.000600374
17 *613:24 *620:42 0.00133877
18 *613:24 *628:41 0.000153228
19 *613:24 *631:71 0.000960654
20 *613:24 *651:14 0.000132658
21 *613:24 *673:28 1.92979e-05
22 *613:24 *684:26 8.88799e-05
23 *613:44 *1458:A0 0.000179214
24 *613:44 *1589:GATE 0
25 *613:44 *614:40 0.000282548
26 *613:44 *636:10 2.63322e-05
27 *613:51 *1587:GATE 0.000119756
28 *613:51 *1619:GATE 0.000230429
29 *1456:A1 *613:44 0.000150256
30 *1458:S *613:44 4.66826e-05
31 *1458:S *613:51 8.57321e-05
32 *1556:A1 *613:24 0.000195753
33 *1575:B *613:44 3.63701e-06
34 *1575:C *613:44 9.50342e-06
35 *1623:D *613:44 0
36 *1659:CLK *613:24 0.000119866
37 *1758:A *613:44 9.39388e-06
38 *1825:A *613:24 0
39 *1827:A *613:24 0
40 *1830:A *613:24 0
41 *1837:A *613:24 7.24896e-05
42 *1838:A *613:24 6.27875e-05
43 *1851:A *613:44 0
44 *1852:A *613:44 1.71013e-05
45 *1901:A *613:24 4.37173e-06
46 *1924:A *613:44 8.66454e-06
47 *1952:A *613:24 0.000682339
48 *1968:A *613:24 0.00516445
49 *1984:A *613:44 2.11651e-05
50 *67:15 *613:44 0
51 *460:16 *613:24 9.89283e-05
52 *461:36 *613:44 0.00106177
53 *471:20 *613:24 0.000195758
54 *484:18 *1619:D 1.83847e-05
55 *484:18 *1710:A 2.0248e-05
56 *484:18 *613:44 7.32882e-05
57 *484:18 *613:51 0.000112722
58 *488:28 *1651:D 0
59 *488:28 *1710:A 0
60 *515:20 *613:24 0.000221441
61 *526:32 *613:24 0
62 *548:68 *613:24 0.000137831
63 *551:12 *613:44 0
64 *555:32 *613:44 5.73375e-05
65 *579:84 *613:44 0.00118581
66 *585:26 *613:24 4.10347e-05
67 *586:51 *613:24 0.000572307
68 *586:125 *613:24 0.000118081
69 *588:83 *613:24 0.000621801
*RES
1 *1841:X *613:24 46.8743 
2 *613:24 *613:44 32.8125 
3 *613:44 *1587:D 1.6 
4 *613:44 *613:51 3.9 
5 *613:51 *613:53 2 
6 *613:53 *1710:A 7.695 
7 *613:53 *1651:D 6 
8 *613:51 *1619:D 2.05 
*END

*D_NET *614 0.0278722
*CONN
*I *1711:A I *D sky130_fd_sc_hd__buf_1
*I *1652:D I *D sky130_fd_sc_hd__dlxtp_1
*I *1620:D I *D sky130_fd_sc_hd__dlxtp_1
*I *1588:D I *D sky130_fd_sc_hd__dlxtp_1
*I *1842:X O *D sky130_fd_sc_hd__clkbuf_2
*CAP
1 *1711:A 0.000152779
2 *1652:D 0.000287343
3 *1620:D 0
4 *1588:D 0
5 *1842:X 0.00427371
6 *614:68 0.000450822
7 *614:61 0.000115062
8 *614:46 0.000774515
9 *614:40 0.00494386
10 *1711:A *1457:A0 0.000274451
11 *614:40 *1554:B 3.63701e-06
12 *614:40 *1555:A 3.52089e-05
13 *614:40 *620:42 0.00445821
14 *614:40 *640:12 0.00038457
15 *614:40 *675:42 0.000128582
16 *614:46 *635:12 0.000107973
17 *614:61 *1457:A0 0.000112253
18 *614:61 *635:12 5.95275e-05
19 *614:61 *635:18 4.66108e-05
20 *614:68 *1457:A0 2.75145e-05
21 *1457:S *1711:A 9.66021e-05
22 *1504:B *614:46 0.000661289
23 *1547:B1 *614:40 0.000371098
24 *1553:A2 *614:40 0.000799444
25 *1651:D *1652:D 0.000194373
26 *1710:A *1652:D 4.92861e-05
27 *1758:A *614:40 9.44791e-05
28 *1758:A *614:46 4.82863e-05
29 *1826:A *614:40 6.44676e-05
30 *1827:A *614:40 5.79711e-05
31 *1829:A *614:40 6.44676e-05
32 *1831:A *614:40 7.14124e-05
33 *1832:A *614:40 9.91538e-05
34 *1834:A *614:40 4.45146e-05
35 *1836:A *614:40 8.49087e-05
36 *1837:A *614:40 2.97244e-05
37 *1844:A *614:40 1.53353e-05
38 *1845:A *614:40 8.80658e-06
39 *1846:A *614:40 1.82759e-05
40 *1849:A *614:40 0.000141438
41 *1850:A *614:40 0.000170583
42 *1857:A *614:40 0.000152503
43 *1868:A *614:40 3.57702e-05
44 *1879:A *614:40 4.55864e-06
45 *1890:A *614:40 8.61961e-05
46 *1910:A *614:40 4.13879e-05
47 *2005:A *1652:D 0.000309433
48 *80:19 *1711:A 0.000153754
49 *246:37 *614:40 0.00067742
50 *275:16 *1652:D 1.7345e-05
51 *488:28 *1711:A 0.000153754
52 *489:28 *1652:D 5.85449e-05
53 *489:46 *1711:A 0.000123091
54 *489:46 *614:61 3.45679e-05
55 *489:46 *614:68 1.61831e-05
56 *491:38 *1652:D 1.56428e-05
57 *508:30 *614:46 0.000335943
58 *508:30 *614:61 3.00381e-05
59 *526:32 *614:40 0.000126099
60 *537:26 *614:40 2.45812e-05
61 *548:44 *614:40 0.000818864
62 *548:68 *614:40 0.00265627
63 *568:52 *614:40 0.000949367
64 *577:30 *614:40 0.000452335
65 *584:90 *614:40 9.83039e-05
66 *588:97 *1652:D 4.66108e-05
67 *612:20 *614:40 0.000330795
68 *613:24 *614:40 1.77665e-05
69 *613:44 *614:40 0.000282548
*RES
1 *1842:X *614:40 47.3919 
2 *614:40 *614:46 14.025 
3 *614:46 *1588:D 1.6 
4 *614:46 *614:61 3.36 
5 *614:61 *1620:D 1.6 
6 *614:61 *614:68 0.45 
7 *614:68 *1652:D 12.02 
8 *614:68 *1711:A 11.735 
*END

*D_NET *615 0.0181046
*CONN
*I *1683:A I *D sky130_fd_sc_hd__buf_1
*I *1624:D I *D sky130_fd_sc_hd__dlxtp_1
*I *1592:D I *D sky130_fd_sc_hd__dlxtp_1
*I *1843:X O *D sky130_fd_sc_hd__buf_1
*CAP
1 *1683:A 0
2 *1624:D 0.000216929
3 *1592:D 0
4 *1843:X 0.00363054
5 *615:30 0.000422249
6 *615:22 0.00383586
7 *1624:D *1482:A0 0.000110043
8 *1624:D *652:28 0.000196738
9 *1624:D *684:26 7.31796e-05
10 *615:22 *619:50 0.00426882
11 *615:22 *652:28 9.27495e-05
12 *615:30 *627:12 0.000345353
13 *1495:B *615:22 0
14 *1504:A *615:22 6.63219e-06
15 *1509:A2 *615:22 2.20732e-05
16 *1543:B *615:22 0.000250575
17 *1558:B *615:22 1.92979e-05
18 *1584:D *615:22 0.000163204
19 *1666:D *615:22 1.39062e-05
20 *1979:A *615:30 6.90381e-05
21 *1984:A *615:22 0.00050122
22 *1987:A *615:30 1.34363e-05
23 *232:10 *615:22 3.72071e-05
24 *232:20 *615:22 0.000320768
25 *233:10 *615:22 0.000352544
26 *247:29 *615:22 0
27 *407:16 *615:22 8.73147e-06
28 *493:26 *615:22 6.6708e-05
29 *528:24 *615:22 0.000806454
30 *543:24 *1624:D 1.91597e-05
31 *547:24 *1624:D 2.54431e-05
32 *547:24 *615:30 4.29107e-05
33 *555:32 *615:22 0.000681487
34 *560:24 *615:30 0.000191552
35 *578:55 *1624:D 0.000261443
36 *578:55 *615:30 0.000457994
37 *612:20 *615:22 0.000580369
*RES
1 *1843:X *615:22 34.4701 
2 *615:22 *615:30 10.645 
3 *615:30 *1592:D 1.6 
4 *615:30 *1624:D 11.24 
5 *615:22 *1683:A 1.6 
*END

*D_NET *616 0.0124525
*CONN
*I *1593:D I *D sky130_fd_sc_hd__dlxtp_1
*I *1625:D I *D sky130_fd_sc_hd__dlxtp_1
*I *1684:A I *D sky130_fd_sc_hd__clkbuf_2
*I *1844:X O *D sky130_fd_sc_hd__clkbuf_1
*CAP
1 *1593:D 0.000256426
2 *1625:D 0
3 *1684:A 2.0176e-05
4 *1844:X 0.0025167
5 *616:49 0.000562383
6 *616:26 0.00284283
7 *1593:D *1593:GATE 0.000111942
8 *1593:D *630:86 0.000175647
9 *616:26 *1529:A0 1.7635e-05
10 *616:26 *1599:D 0.000332922
11 *616:26 *1630:GATE 5.07362e-05
12 *616:26 *620:42 0
13 *616:26 *621:22 4.31222e-06
14 *616:26 *630:113 0.000305069
15 *616:26 *634:26 7.81547e-05
16 N2BEGb[5] *616:49 7.06865e-05
17 N2BEGb[6] *616:49 4.78726e-05
18 N2BEGb[7] *616:49 0
19 N4BEG[1] *1593:D 9.10606e-05
20 *1496:B *616:26 3.23391e-05
21 *1496:C *616:26 0.000120678
22 *1497:B *616:26 0.000178441
23 *1526:A1 *616:26 5.55622e-05
24 *1529:A1 *616:26 9.39388e-06
25 *1531:A1 *616:26 1.83847e-05
26 *1531:S *616:26 0.000117213
27 *1558:B *616:26 0.000502805
28 *1673:CLK *616:26 0.000127842
29 *1673:D *616:26 3.21313e-05
30 *1736:A *616:26 6.80137e-05
31 *1768:A *616:26 0.000113372
32 *1789:A *616:26 0.000278927
33 *1806:A *616:26 0.00017151
34 *1956:A *616:26 1.6408e-05
35 *1968:A *616:26 0.000246568
36 *1983:A *1684:A 3.21081e-06
37 *1983:A *616:49 9.82689e-05
38 *1984:A *616:26 0.000184942
39 *1988:A *616:26 0.000114144
40 *461:24 *616:26 0.000101661
41 *471:20 *616:26 0.000100646
42 *504:26 *616:26 2.90383e-05
43 *526:32 *616:26 0
44 *559:48 *1593:D 0.000311542
45 *559:48 *616:49 0.000119756
46 *577:30 *616:26 4.55338e-05
47 *586:12 *616:26 0.000585191
48 *586:51 *616:26 0.000629936
49 *592:48 *616:26 4.24632e-05
50 *592:48 *616:49 3.80951e-05
51 *613:24 *616:26 0.000473926
*RES
1 *1844:X *616:26 40.5846 
2 *616:26 *1684:A 1.96 
3 *616:26 *616:49 12.455 
4 *616:49 *1625:D 1.6 
5 *616:49 *1593:D 12.08 
*END

*D_NET *617 0.0287693
*CONN
*I *1626:D I *D sky130_fd_sc_hd__dlxtp_1
*I *1685:A I *D sky130_fd_sc_hd__buf_1
*I *1594:D I *D sky130_fd_sc_hd__dlxtp_1
*I *1845:X O *D sky130_fd_sc_hd__dlymetal6s2s_1
*CAP
1 *1626:D 0.000596549
2 *1685:A 2.97784e-05
3 *1594:D 0.000138493
4 *1845:X 0.00103015
5 *617:53 0.00260362
6 *617:28 0.00333286
7 *617:22 0.00224722
8 *1594:D *1481:A0 2.51429e-05
9 *1594:D *630:86 8.75776e-05
10 *1626:D *1451:A0 0.000746173
11 *1626:D *1456:A0 3.79595e-05
12 *1685:A *1451:A0 4.66108e-05
13 *1685:A *1456:A0 1.7635e-05
14 *1685:A *686:28 1.83756e-05
15 *617:28 *1528:A0 0.000279502
16 *617:28 *1531:A0 1.98863e-05
17 *617:53 *1477:A0 0.000685059
18 *617:53 *1531:A0 0.00052431
19 *617:53 *1617:GATE 0.000144073
20 *617:53 *647:22 1.41429e-05
21 *617:53 *682:50 0.00200205
22 N4BEG[11] *1594:D 3.02488e-05
23 N4BEG[7] *617:28 2.34475e-05
24 *1455:A1 *617:22 0.000158066
25 *1479:A1 *617:28 5.75434e-05
26 *1479:S0 *617:28 2.85992e-05
27 *1479:S1 *617:28 6.71803e-06
28 *1498:B *617:22 2.0514e-05
29 *1537:B *617:28 8.24097e-05
30 *1544:B1 *617:22 9.08507e-05
31 *1640:D *1594:D 7.9642e-06
32 *1648:D *1626:D 0
33 *1752:A *1626:D 4.78726e-05
34 *1785:A *617:28 0.000313565
35 *1794:A *617:28 0.00023124
36 *1824:A *617:22 0
37 *1845:A *617:22 8.53113e-06
38 *1966:A *617:28 0.000318251
39 *1966:A *617:53 0.00146583
40 *1978:A *617:28 0.000464206
41 *1981:A *617:53 2.86034e-05
42 *1985:A *617:28 0.000148469
43 *1995:A *617:28 0.000168368
44 *1996:A *1594:D 7.20735e-05
45 *2006:A *617:22 0.000132207
46 *2007:A *617:22 0.000180264
47 *2010:A *617:22 0.00224653
48 *213:13 *617:28 0.000522528
49 *271:28 *617:53 0.00122364
50 *459:24 *617:22 0.00295249
51 *459:26 *617:28 0.00011891
52 *462:44 *617:22 0.000129512
53 *463:20 *617:22 0.000175147
54 *494:28 *617:28 0.000945647
55 *526:34 *617:22 0
56 *547:24 *1626:D 4.78726e-05
57 *548:44 *617:22 0.000205149
58 *551:30 *617:22 0.000113722
59 *551:30 *617:28 0
60 *559:48 *1594:D 0.000196479
61 *582:30 *617:53 0.000530322
62 *587:147 *617:53 0.000143997
63 *589:77 *617:28 0.000495606
64 *600:14 *617:22 8.69417e-06
*RES
1 *1845:X *617:22 49.64 
2 *617:22 *617:28 28.7766 
3 *617:28 *1594:D 7.7375 
4 *617:28 *617:53 7.25387 
5 *617:53 *1685:A 4.2825 
6 *617:53 *1626:D 15.7075 
*END

*D_NET *618 0.00938717
*CONN
*I *1599:D I *D sky130_fd_sc_hd__dlxtp_1
*I *1631:D I *D sky130_fd_sc_hd__dlxtp_1
*I *1690:A I *D sky130_fd_sc_hd__clkbuf_2
*I *1846:X O *D sky130_fd_sc_hd__buf_1
*CAP
1 *1599:D 0.000283652
2 *1631:D 0
3 *1690:A 8.36616e-05
4 *1846:X 0.00139306
5 *618:33 0.000341848
6 *618:18 0.00153491
7 *1599:D *625:140 8.63479e-05
8 *618:18 *1601:GATE 0.000151219
9 *618:18 *1632:GATE 8.52546e-05
10 *618:18 *1633:GATE 0.000116158
11 *618:18 *1693:A 4.66108e-05
12 *618:18 *621:22 1.27504e-05
13 *618:18 *624:61 0.000170486
14 *618:18 *630:148 0.000489046
15 *618:18 *651:21 4.66108e-05
16 *618:33 *630:142 2.75229e-05
17 *618:33 *630:148 4.35348e-05
18 N2BEG[3] *1690:A 2.49909e-05
19 *1478:A1 *1690:A 2.34691e-05
20 *1529:S *1599:D 3.87203e-05
21 *1529:S *618:33 3.64998e-06
22 *1674:CLK *618:18 1.83847e-05
23 *1674:D *618:18 0.000130167
24 *1739:A *618:18 0.000158838
25 *1952:A *618:18 0.000135574
26 *1953:A *1599:D 0.000119756
27 *1953:A *618:18 0.000349587
28 *1953:A *618:33 0.000198945
29 *1956:A *1690:A 4.66108e-05
30 *1965:A *1690:A 0.000101184
31 *1968:A *1690:A 0.000151992
32 *461:24 *1599:D 0.000125719
33 *482:28 *618:18 0.000806851
34 *504:26 *1599:D 0.000105477
35 *521:38 *1599:D 5.58206e-05
36 *585:26 *618:18 8.53113e-06
37 *585:52 *618:18 0.000936933
38 *613:24 *618:18 0.000600374
39 *616:26 *1599:D 0.000332922
*RES
1 *1846:X *618:18 39.035 
2 *618:18 *1690:A 7.94 
3 *618:18 *618:33 1.83 
4 *618:33 *1631:D 1.6 
5 *618:33 *1599:D 12.41 
*END

*D_NET *619 0.025687
*CONN
*I *1595:D I *D sky130_fd_sc_hd__dlxtp_1
*I *1686:A I *D sky130_fd_sc_hd__buf_1
*I *1627:D I *D sky130_fd_sc_hd__dlxtp_1
*I *1847:X O *D sky130_fd_sc_hd__dlymetal6s2s_1
*CAP
1 *1595:D 0.000158533
2 *1686:A 0.00011222
3 *1627:D 0
4 *1847:X 0.00570526
5 *619:52 0.00011222
6 *619:50 0.00586379
7 *1595:D *1458:A0 2.96344e-05
8 *1595:D *1526:A0 0.000121838
9 *1595:D *1529:A0 0.000211327
10 *1595:D *1627:GATE 5.93727e-05
11 *1595:D *669:28 4.40653e-05
12 *1686:A *626:43 0.000118081
13 *1686:A *638:34 0.000194694
14 *619:50 *1453:A0 0.000511776
15 *619:50 *1454:A0 3.86439e-05
16 *619:50 *1458:A0 4.31657e-05
17 *619:50 *1542:B 0
18 *619:50 *1624:GATE 0
19 *619:50 *624:106 0.000174363
20 *619:50 *627:124 0.000447961
21 *619:50 *631:34 0
22 *619:50 *635:12 0.000125285
23 *619:50 *649:30 0.000218959
24 *619:50 *669:28 5.79231e-05
25 *1454:S *619:50 1.88605e-05
26 *1470:A1 *619:50 2.88008e-05
27 *1482:S0 *619:50 8.97264e-05
28 *1482:S1 *619:50 0
29 *1504:B *619:50 0.000104325
30 *1533:S *1686:A 7.61562e-05
31 *1548:A *619:50 9.82856e-06
32 *1558:B *619:50 1.88259e-05
33 *1572:A1 *619:50 9.06831e-05
34 *1572:B1_N *619:50 4.79849e-05
35 *1760:A *619:50 0
36 *1804:A *1595:D 6.10968e-05
37 *1835:A *619:50 3.23812e-05
38 *1984:A *619:50 0.00278131
39 *2026:A *619:50 0.000112854
40 *415:32 *619:50 2.18326e-05
41 *462:44 *619:50 0.000136095
42 *463:20 *619:50 0
43 *484:12 *619:50 0.000234373
44 *492:30 *619:50 0
45 *493:26 *619:50 0.000217287
46 *518:24 *619:50 5.17464e-05
47 *526:32 *619:50 3.34967e-05
48 *538:40 *619:50 8.57616e-05
49 *548:44 *619:50 0
50 *552:56 *619:50 0.00064138
51 *555:32 *619:50 0.000885975
52 *563:34 *1686:A 8.05167e-05
53 *583:12 *619:50 0.000137853
54 *583:16 *619:50 0.000144093
55 *584:90 *619:50 0
56 *586:76 *619:50 0.000219631
57 *590:118 *619:50 0.00047363
58 *612:20 *619:50 0.000232534
59 *615:22 *619:50 0.00426882
*RES
1 *1847:X *619:50 46.5501 
2 *619:50 *619:52 2 
3 *619:52 *1627:D 1.6 
4 *619:52 *1686:A 4.81 
5 *619:50 *1595:D 6.92433 
*END

*D_NET *620 0.0213411
*CONN
*I *1596:D I *D sky130_fd_sc_hd__dlxtp_1
*I *1628:D I *D sky130_fd_sc_hd__dlxtp_1
*I *1687:A I *D sky130_fd_sc_hd__buf_1
*I *1848:X O *D sky130_fd_sc_hd__dlymetal6s2s_1
*CAP
1 *1596:D 4.47691e-05
2 *1628:D 0.000190279
3 *1687:A 4.37274e-05
4 *1848:X 0.00374629
5 *620:57 0.000351075
6 *620:42 0.00390604
7 *1628:D *1595:GATE 0.000101821
8 *1628:D *633:16 6.74282e-06
9 *1687:A *626:43 4.66108e-05
10 *1687:A *627:124 7.11219e-05
11 *620:42 *1590:GATE 4.92826e-05
12 *620:42 *626:22 0.000762617
13 *620:42 *626:43 0.000103485
14 *620:42 *628:41 0
15 *620:42 *631:71 5.63183e-05
16 *620:42 *652:28 0.000332556
17 *620:57 *1595:GATE 2.98909e-05
18 *620:57 *627:124 4.72078e-05
19 *1454:A1 *620:42 0.000117637
20 *1467:S *620:42 4.08514e-05
21 *1533:A1 *1687:A 4.77757e-05
22 *1533:S *1687:A 0
23 *1533:S *620:57 0
24 *1968:A *620:42 1.95991e-05
25 *464:56 *620:42 6.75652e-05
26 *491:38 *1687:A 2.6449e-05
27 *543:24 *620:42 0.000567487
28 *548:44 *620:42 1.92979e-05
29 *548:68 *620:42 0.000849711
30 *560:24 *620:42 0.00020242
31 *563:34 *1596:D 6.78961e-06
32 *563:34 *1628:D 3.03831e-05
33 *586:51 *620:42 0.00195894
34 *588:83 *620:42 0.0016291
35 *590:118 *1596:D 1.67176e-05
36 *590:118 *1628:D 1.23268e-05
37 *590:118 *620:57 4.12797e-05
38 *613:24 *620:42 0.00133877
39 *614:40 *620:42 0.00445821
40 *616:26 *620:42 0
*RES
1 *1848:X *620:42 41.8281 
2 *620:42 *1687:A 4.92 
3 *620:42 *620:57 2.085 
4 *620:57 *1628:D 7.155 
5 *620:57 *1596:D 4.20375 
*END

*D_NET *621 0.0111763
*CONN
*I *1629:D I *D sky130_fd_sc_hd__dlxtp_1
*I *1688:A I *D sky130_fd_sc_hd__clkbuf_2
*I *1597:D I *D sky130_fd_sc_hd__dlxtp_1
*I *1849:X O *D sky130_fd_sc_hd__buf_1
*CAP
1 *1629:D 5.91271e-05
2 *1688:A 0
3 *1597:D 0.000219974
4 *1849:X 0.00200824
5 *621:28 0.000402953
6 *621:22 0.00225035
7 *1597:D *1597:GATE 5.70237e-05
8 *1597:D *630:94 0.000231321
9 *1629:D *630:113 7.70735e-05
10 *621:22 *1476:A0 0
11 *621:22 *1527:A0 0.000698583
12 *621:22 *1633:GATE 0.000105799
13 *621:22 *630:113 0.000182847
14 N2BEGb[6] *1597:D 4.1527e-05
15 *1478:A1 *1629:D 2.10582e-05
16 *1478:A1 *621:22 7.96104e-06
17 *1553:B1 *621:22 0.000107444
18 *1673:CLK *621:22 0.000265431
19 *1952:A *621:22 0
20 *1958:A *621:22 0.000116052
21 *1970:A *1597:D 4.66108e-05
22 *1977:A *1597:D 0.000497089
23 *1977:A *621:28 0.000226104
24 *1984:A *1597:D 1.59682e-05
25 *1984:A *1629:D 1.62605e-06
26 *1984:A *621:22 0.000134166
27 *1986:A *1597:D 2.26771e-05
28 *239:8 *621:22 0.000120655
29 *463:20 *621:22 0.00118878
30 *585:26 *621:22 0.000180388
31 *585:52 *621:22 0.000940742
32 *585:89 *621:22 9.77349e-05
33 *603:14 *621:22 0.000833932
34 *616:26 *621:22 4.31222e-06
35 *618:18 *621:22 1.27504e-05
*RES
1 *1849:X *621:22 35.7537 
2 *621:22 *621:28 4.535 
3 *621:28 *1597:D 11.96 
4 *621:28 *1688:A 1.6 
5 *621:22 *1629:D 4.665 
*END

*D_NET *622 0.0215829
*CONN
*I *1545:B I *D sky130_fd_sc_hd__nand2_1
*I *1538:B I *D sky130_fd_sc_hd__nand2_1
*I *1560:B I *D sky130_fd_sc_hd__nand2_1
*I *1566:B I *D sky130_fd_sc_hd__nand2_1
*I *1563:B I *D sky130_fd_sc_hd__nand2_1
*I *1557:B I *D sky130_fd_sc_hd__nand2_1
*I *1554:B I *D sky130_fd_sc_hd__nand2_1
*I *1551:B I *D sky130_fd_sc_hd__nand2_1
*I *1548:B I *D sky130_fd_sc_hd__nand2_1
*I *1542:B I *D sky130_fd_sc_hd__nand2_1
*I *1794:X O *D sky130_fd_sc_hd__buf_2
*CAP
1 *1545:B 0.000121961
2 *1538:B 1.72537e-05
3 *1560:B 0.000232727
4 *1566:B 7.3839e-05
5 *1563:B 1.08984e-05
6 *1557:B 0
7 *1554:B 0.000239714
8 *1551:B 0.000276707
9 *1548:B 1.41735e-05
10 *1542:B 0.000440836
11 *1794:X 0.000198878
12 *622:151 0.00032495
13 *622:127 0.000738789
14 *622:119 0.00117061
15 *622:102 0.000871455
16 *622:94 0.000410771
17 *622:90 0.000440339
18 *622:48 0.000508578
19 *622:46 0.001874
20 *622:14 0.00173281
21 *1542:B *1543:A 0.00013774
22 *1545:B *1640:GATE 0.00012969
23 *1548:B *623:92 8.65961e-05
24 *1554:B *1556:C1 3.13354e-05
25 *1554:B *629:22 6.90044e-05
26 *1554:B *651:14 6.90044e-05
27 *1566:B *1567:A 4.36573e-06
28 *1566:B *662:22 0.000149685
29 *1566:B *673:28 6.28203e-05
30 *622:46 *634:26 4.37874e-05
31 *622:127 *662:22 0.000906498
32 *622:127 *673:28 0.000295941
33 *622:151 *662:22 0.000653842
34 *622:151 *673:28 0.000272421
35 VALUE_top6 *1542:B 2.30292e-05
36 VALUE_top8 *1542:B 0.00010005
37 *1496:B *622:46 3.60738e-06
38 *1496:C *622:46 0.000833024
39 *1496:D *622:46 0.000319397
40 *1497:C *622:119 0
41 *1497:D *1551:B 5.70461e-06
42 *1497:D *622:119 6.51848e-05
43 *1510:A *1545:B 0.00011232
44 *1510:B *622:14 1.07563e-05
45 *1511:A2 *622:14 0.000247002
46 *1536:A2 *622:14 4.66108e-05
47 *1537:A *622:46 4.74336e-05
48 *1539:B *622:14 2.2142e-05
49 *1540:B *1542:B 2.73206e-05
50 *1541:C1 *622:90 0.000236849
51 *1548:A *1542:B 2.97004e-06
52 *1548:A *622:46 5.69898e-06
53 *1548:A *622:48 5.06544e-05
54 *1549:B *1551:B 8.4546e-05
55 *1549:B *1560:B 0.000160068
56 *1550:B1 *1548:B 8.65961e-05
57 *1551:A *1551:B 4.99619e-05
58 *1556:B1 *1554:B 2.68464e-05
59 *1558:B *1551:B 2.36716e-05
60 *1560:A *1560:B 6.92163e-05
61 *1562:B1 *1560:B 4.47938e-06
62 *1563:A *1566:B 7.9642e-06
63 *1570:A2 *622:46 1.84871e-05
64 *1570:C1 *622:46 0.000405287
65 *1664:CLK *622:46 4.82863e-05
66 *1664:D *622:14 8.34281e-06
67 *1664:D *622:46 8.83665e-05
68 *1669:D *622:46 0.000384327
69 *1671:CLK *1542:B 5.77541e-05
70 *1673:CLK *1538:B 9.03508e-06
71 *1673:CLK *622:94 1.16578e-05
72 *1673:CLK *622:102 0.000200441
73 *1676:D *622:102 7.27956e-05
74 *1677:D *622:46 8.44909e-06
75 *1787:A *622:119 0.000139379
76 *1788:A *622:46 0.000401287
77 *1789:A *622:46 6.05081e-05
78 *1795:A *622:46 0.000290931
79 *1810:A *1551:B 3.47837e-05
80 *1811:A *1560:B 0
81 *1879:A *1554:B 0.000170403
82 *1901:A *622:127 4.05129e-06
83 *1968:A *1566:B 1.88602e-05
84 *1984:A *622:46 1.37415e-05
85 *2011:A *1560:B 7.10992e-05
86 *2016:A *1542:B 0.000222145
87 *2016:A *622:46 0.000474883
88 *2016:A *622:48 0.00012877
89 *242:8 *622:102 0.000123225
90 *376:12 *622:46 8.76863e-05
91 *394:14 *1542:B 2.81676e-05
92 *436:24 *622:14 0.000171104
93 *455:6 *622:90 4.35348e-05
94 *455:8 *622:90 3.00381e-05
95 *455:8 *622:94 2.30292e-05
96 *455:63 *622:90 0.000155491
97 *455:75 *1542:B 0.000220313
98 *456:47 *1563:B 1.92979e-05
99 *460:20 *1545:B 3.96653e-05
100 *462:20 *1551:B 6.12148e-05
101 *462:20 *622:119 0.000468903
102 *471:20 *622:127 8.41703e-06
103 *493:26 *1542:B 4.76303e-05
104 *526:32 *1554:B 5.66161e-05
105 *526:32 *622:127 2.53191e-06
106 *530:30 *622:14 0.000194694
107 *530:30 *622:46 0.000140082
108 *531:50 *622:46 0.000129366
109 *555:32 *622:46 9.91901e-05
110 *580:8 *622:46 4.80285e-05
111 *580:18 *622:46 4.36573e-05
112 *580:48 *622:46 1.97442e-05
113 *586:12 *622:119 0.000320274
114 *586:125 *622:119 7.01309e-05
115 *589:120 *1545:B 0.0001319
116 *589:120 *622:14 0.00015896
117 *590:95 *622:46 7.14892e-06
118 *614:40 *1554:B 3.63701e-06
119 *619:50 *1542:B 0
*RES
1 *1794:X *622:14 11.045 
2 *622:14 *622:46 42.1 
3 *622:46 *622:48 1.635 
4 *622:48 *1542:B 13.275 
5 *622:48 *1548:B 4.395 
6 *622:46 *622:90 9.35 
7 *622:90 *622:94 0.81 
8 *622:94 *622:102 5.33 
9 *622:102 *1551:B 8.55 
10 *622:102 *622:119 11.4425 
11 *622:119 *622:127 4.1689 
12 *622:127 *1554:B 10.73 
13 *622:127 *1557:B 1.6 
14 *622:119 *622:151 1.02853 
15 *622:151 *1563:B 4.3325 
16 *622:151 *1566:B 4.60357 
17 *622:94 *1560:B 10.415 
18 *622:90 *1538:B 1.96 
19 *622:14 *1545:B 8.735 
*END

*D_NET *623 0.015552
*CONN
*I *1565:C1 I *D sky130_fd_sc_hd__o211a_1
*I *1553:C1 I *D sky130_fd_sc_hd__o211a_1
*I *1550:C1 I *D sky130_fd_sc_hd__o211a_1
*I *1544:C1 I *D sky130_fd_sc_hd__o211a_1
*I *1547:C1 I *D sky130_fd_sc_hd__o211a_1
*I *1541:B1 I *D sky130_fd_sc_hd__o211a_1
*I *1562:C1 I *D sky130_fd_sc_hd__o211a_1
*I *1559:C1 I *D sky130_fd_sc_hd__o211a_1
*I *1556:C1 I *D sky130_fd_sc_hd__o211a_1
*I *1568:C1 I *D sky130_fd_sc_hd__o211a_1
*I *1795:X O *D sky130_fd_sc_hd__buf_2
*CAP
1 *1565:C1 0
2 *1553:C1 2.84691e-05
3 *1550:C1 0
4 *1544:C1 0.000710813
5 *1547:C1 3.77548e-05
6 *1541:B1 2.25943e-05
7 *1562:C1 2.21004e-05
8 *1559:C1 8.62308e-05
9 *1556:C1 0.000689885
10 *1568:C1 1.74647e-05
11 *1795:X 0.000122336
12 *623:113 0.00118732
13 *623:92 0.000684035
14 *623:88 0.000387138
15 *623:82 0.000426153
16 *623:41 0.000860555
17 *623:39 0.000117614
18 *623:37 0.000453276
19 *623:31 0.000940944
20 *623:12 0.000871776
21 *1556:C1 *629:22 0.000229905
22 *623:82 *624:28 9.34171e-06
23 *623:113 *624:106 0
24 *1455:A1 *623:92 0.000255112
25 *1455:A1 *623:113 8.48856e-05
26 *1478:A1 *623:31 5.16348e-05
27 *1478:A1 *623:37 0.000219088
28 *1496:A *623:113 2.97004e-06
29 *1497:C *1556:C1 0.000333871
30 *1498:A *1544:C1 7.57459e-05
31 *1498:A *623:113 4.29535e-05
32 *1498:B *623:113 6.71882e-05
33 *1498:D_N *623:113 1.99498e-05
34 *1538:A *1553:C1 1.19928e-05
35 *1541:A1 *623:113 8.52845e-05
36 *1541:C1 *1541:B1 4.87465e-06
37 *1541:C1 *623:92 2.05056e-05
38 *1544:A2 *1544:C1 0.000271576
39 *1547:A1 *1544:C1 2.49909e-05
40 *1548:A *623:92 4.99619e-05
41 *1548:B *623:92 8.65961e-05
42 *1550:A1 *623:92 3.21081e-06
43 *1550:B1 *623:88 4.66108e-05
44 *1550:B1 *623:92 0.000245734
45 *1553:A2 *1553:C1 5.83121e-06
46 *1553:A2 *623:88 7.87447e-05
47 *1554:B *1556:C1 3.13354e-05
48 *1556:A1 *1556:C1 5.3176e-05
49 *1556:A2 *1556:C1 9.08494e-05
50 *1556:B1 *1556:C1 1.92392e-05
51 *1559:B1 *1559:C1 4.66474e-05
52 *1562:A1 *623:37 3.57349e-05
53 *1562:A1 *623:39 3.66286e-05
54 *1562:A1 *623:41 0.000158066
55 *1562:A1 *623:82 0.000151518
56 *1562:B1 *623:82 4.83327e-05
57 *1563:A *623:82 2.38055e-05
58 *1564:B *623:37 0.000122337
59 *1566:A *623:37 0.000135201
60 *1568:A1 *623:12 4.40028e-05
61 *1568:A2 *623:12 4.97019e-05
62 *1568:B1 *1568:C1 5.74866e-05
63 *1568:B1 *623:12 3.64998e-06
64 *1568:B1 *623:31 8.23457e-05
65 *1654:D *623:113 9.22203e-05
66 *1656:D *1544:C1 0.000144349
67 *1659:D *1556:C1 8.52883e-05
68 *1661:D *1556:C1 8.23457e-05
69 *1669:D *623:113 9.23811e-05
70 *1670:CLK *623:113 3.59531e-06
71 *1675:CLK *1556:C1 2.49909e-05
72 *1675:D *1556:C1 1.54049e-05
73 *1809:A *1556:C1 4.41506e-05
74 *1961:A *1559:C1 0.000218087
75 *1964:A *1559:C1 6.38573e-05
76 *1968:A *623:31 2.14532e-05
77 *1968:A *623:37 4.09699e-05
78 *1970:A *1568:C1 4.6368e-06
79 *1970:A *623:12 0.000294768
80 *1970:A *623:31 4.72487e-05
81 *1984:A *1544:C1 5.63183e-05
82 *1985:A *1544:C1 0.000270415
83 *2006:A *1541:B1 0
84 *2006:A *623:113 0
85 *2013:A *623:82 0.000305284
86 *2013:A *623:88 0.000139421
87 *2014:A *1559:C1 0
88 *2014:A *623:82 6.91999e-05
89 *2014:A *623:88 0.000350283
90 *2017:A *1544:C1 2.34691e-05
91 *376:12 *1544:C1 0.000104672
92 *400:22 *623:82 7.57302e-05
93 *401:8 *623:37 8.65961e-05
94 *456:47 *1556:C1 1.91597e-05
95 *456:47 *623:37 2.75229e-05
96 *456:47 *623:39 2.75145e-05
97 *456:47 *623:41 0.000127191
98 *456:60 *1559:C1 4.83522e-05
99 *456:80 *623:31 0.000196376
100 *456:95 *623:31 5.30022e-05
101 *456:106 *623:31 0.000527683
102 *457:14 *1544:C1 0.000178893
103 *462:20 *1556:C1 3.82609e-05
104 *463:20 *1556:C1 7.3816e-05
105 *494:28 *623:12 0.000122701
106 *494:28 *623:31 0
107 *584:12 *623:88 1.47256e-05
108 *584:12 *623:92 0.000136284
109 *589:10 *623:31 6.07575e-06
110 *605:8 *1556:C1 1.22191e-05
*RES
1 *1795:X *623:12 7.185 
2 *623:12 *1568:C1 4.05 
3 *623:12 *623:31 13.96 
4 *623:31 *623:37 7.175 
5 *623:37 *623:39 0.45 
6 *623:39 *623:41 2.175 
7 *623:41 *1556:C1 19.025 
8 *623:41 *1559:C1 8.255 
9 *623:39 *1562:C1 1.96 
10 *623:37 *623:82 8.0375 
11 *623:82 *623:88 6.7625 
12 *623:88 *623:92 6.675 
13 *623:92 *1541:B1 1.96 
14 *623:92 *623:113 10.885 
15 *623:113 *1547:C1 2.215 
16 *623:113 *1544:C1 16.505 
17 *623:88 *1550:C1 1.6 
18 *623:82 *1553:C1 4.05 
19 *623:31 *1565:C1 3.6 
*END

*D_NET *624 0.0176889
*CONN
*I *1500:A I *D sky130_fd_sc_hd__and3_1
*I *1546:A I *D sky130_fd_sc_hd__and2_1
*I *1540:A I *D sky130_fd_sc_hd__and2_1
*I *1543:A I *D sky130_fd_sc_hd__and2_1
*I *1549:A I *D sky130_fd_sc_hd__and2_1
*I *1567:A I *D sky130_fd_sc_hd__and2_1
*I *1558:A I *D sky130_fd_sc_hd__and2_1
*I *1552:A I *D sky130_fd_sc_hd__and2_1
*I *1555:A I *D sky130_fd_sc_hd__and2_1
*I *1564:A I *D sky130_fd_sc_hd__and2_1
*I *1796:X O *D sky130_fd_sc_hd__clkbuf_2
*CAP
1 *1500:A 0
2 *1546:A 0.000110814
3 *1540:A 0
4 *1543:A 0.000166745
5 *1549:A 0
6 *1567:A 0.000499733
7 *1558:A 0
8 *1552:A 0
9 *1555:A 5.7106e-05
10 *1564:A 0
11 *1796:X 5.38854e-05
12 *624:140 0.000715909
13 *624:106 0.000464111
14 *624:61 0.000350335
15 *624:53 0.000984091
16 *624:37 0.00124247
17 *624:28 0.000213712
18 *624:22 0.000524111
19 *624:14 0.00118908
20 *624:6 0.00118843
21 *1546:A *1622:GATE 1.02348e-05
22 *1546:A *631:90 1.74085e-05
23 *624:28 *634:26 2.45351e-05
24 *1478:A1 *624:22 1.81185e-05
25 *1496:A *624:106 0
26 *1496:B *624:106 0.000135725
27 *1496:C *624:106 1.88605e-05
28 *1496:D *624:106 0.000196086
29 *1498:C *624:14 0.000269814
30 *1498:C *624:22 1.16578e-05
31 *1499:A *624:14 1.81185e-05
32 *1500:C *1546:A 0.000111567
33 *1500:C *624:140 5.61178e-05
34 *1506:C *1546:A 2.66861e-05
35 *1538:A *624:14 2.95938e-05
36 *1538:A *624:22 8.88655e-05
37 *1540:B *1543:A 6.78828e-05
38 *1540:B *624:106 2.99518e-06
39 *1541:C1 *624:106 5.0651e-05
40 *1542:B *1543:A 0.00013774
41 *1543:B *624:140 4.43682e-05
42 *1546:B *624:6 4.40028e-05
43 *1548:A *624:106 1.96145e-05
44 *1549:B *624:28 0.000230429
45 *1552:B *1555:A 0.000153825
46 *1552:B *624:61 4.77757e-05
47 *1555:B *624:61 0.000118527
48 *1556:A2 *624:61 7.8984e-05
49 *1557:A *624:53 4.66108e-05
50 *1557:A *624:61 0.000208199
51 *1558:B *624:61 0
52 *1559:A2 *624:53 4.76456e-05
53 *1559:B1 *624:53 0.00064792
54 *1561:A *624:6 0.00030938
55 *1561:A *624:140 0.000516314
56 *1562:A1 *624:28 0.000130352
57 *1563:A *1567:A 4.66474e-05
58 *1563:A *624:28 0.000171814
59 *1563:A *624:37 0.000158533
60 *1565:B1 *624:53 4.66108e-05
61 *1566:B *1567:A 4.36573e-06
62 *1659:D *624:53 0.00011596
63 *1669:CLK *624:14 7.55866e-05
64 *1669:D *624:106 2.38184e-05
65 *1674:D *624:61 8.40269e-05
66 *1677:D *624:28 5.83121e-06
67 *1786:A *624:14 8.64421e-05
68 *1789:A *1567:A 4.82919e-05
69 *1796:A *624:6 0.000234354
70 *1796:A *624:140 0.00010978
71 *1805:A *624:140 0.000406535
72 *1806:A *624:61 8.71079e-05
73 *1819:A *624:14 4.82919e-05
74 *1823:A *624:140 7.05418e-05
75 *1961:A *1567:A 0
76 *1968:A *1567:A 4.39376e-05
77 *1984:A *624:140 0.000152524
78 *2006:A *624:106 0
79 *2008:A *1546:A 0
80 *2015:A *624:22 8.23934e-05
81 *376:12 *624:140 0.000151242
82 *393:12 *1543:A 0
83 *393:12 *624:106 0.000133782
84 *395:12 *624:14 0.000112559
85 *397:10 *624:61 4.40028e-05
86 *399:10 *624:53 0.000416763
87 *453:37 *1546:A 8.40213e-05
88 *455:75 *1543:A 2.72392e-05
89 *456:41 *1567:A 9.44791e-05
90 *456:47 *1567:A 5.97296e-05
91 *456:47 *624:37 0.000136023
92 *461:24 *624:22 0.000295951
93 *471:20 *624:61 0.00018552
94 *493:43 *624:140 0.00012421
95 *526:32 *624:61 0.000158297
96 *530:30 *1567:A 0.000904709
97 *548:44 *1555:A 0.000116151
98 *588:29 *624:28 0.000269521
99 *588:52 *624:22 0.000182141
100 *600:14 *624:14 2.65814e-06
101 *614:40 *1555:A 3.52089e-05
102 *618:18 *624:61 0.000170486
103 *619:50 *624:106 0.000174363
104 *623:82 *624:28 9.34171e-06
105 *623:113 *624:106 0
*RES
1 *1796:X *624:6 4.465 
2 *624:6 *624:14 13.24 
3 *624:14 *624:22 10.885 
4 *624:22 *624:28 7.01 
5 *624:28 *1564:A 3.6 
6 *624:28 *624:37 1.89 
7 *624:37 *624:53 17.3 
8 *624:53 *624:61 12.835 
9 *624:61 *1555:A 7.745 
10 *624:61 *1552:A 1.6 
11 *624:53 *1558:A 1.6 
12 *624:37 *1567:A 14.49 
13 *624:22 *1549:A 1.6 
14 *624:14 *624:106 8.84 
15 *624:106 *1543:A 6.36 
16 *624:106 *1540:A 3.6 
17 *624:6 *624:140 17.14 
18 *624:140 *1546:A 8.03 
19 *624:140 *1500:A 1.6 
*END

*D_NET *625 0.0378265
*CONN
*I *1605:GATE I *D sky130_fd_sc_hd__dlxtp_1
*I *1603:GATE I *D sky130_fd_sc_hd__dlxtp_1
*I *1599:GATE I *D sky130_fd_sc_hd__dlxtp_1
*I *1600:GATE I *D sky130_fd_sc_hd__dlxtp_1
*I *1602:GATE I *D sky130_fd_sc_hd__dlxtp_1
*I *1601:GATE I *D sky130_fd_sc_hd__dlxtp_1
*I *1593:GATE I *D sky130_fd_sc_hd__dlxtp_1
*I *1608:GATE I *D sky130_fd_sc_hd__dlxtp_1
*I *1606:GATE I *D sky130_fd_sc_hd__dlxtp_1
*I *1604:GATE I *D sky130_fd_sc_hd__dlxtp_1
*I *1797:X O *D sky130_fd_sc_hd__buf_2
*CAP
1 *1605:GATE 3.51505e-05
2 *1603:GATE 0.000263508
3 *1599:GATE 1.11734e-05
4 *1600:GATE 1.8388e-05
5 *1602:GATE 0.000175491
6 *1601:GATE 0.000258466
7 *1593:GATE 0.00028397
8 *1608:GATE 0
9 *1606:GATE 0.000153856
10 *1604:GATE 9.85261e-05
11 *1797:X 0.000248682
12 *625:222 0.00219394
13 *625:160 0.000685363
14 *625:154 0.00110441
15 *625:140 0.00169271
16 *625:103 0.00131489
17 *625:92 0.000561362
18 *625:71 0.00212824
19 *625:34 0.00323791
20 *625:12 0.00368632
21 *1601:GATE *1633:D 0.000259899
22 *1601:GATE *651:14 4.40812e-05
23 *1602:GATE *651:14 1.83847e-05
24 *1602:GATE *651:21 2.96334e-05
25 *1603:GATE *1635:GATE 0.000148043
26 *1604:GATE *1460:A0 2.62017e-05
27 *1604:GATE *1695:A 8.49205e-05
28 *1605:GATE *1472:A0 4.41506e-05
29 *625:12 *1518:A0 4.34623e-05
30 *625:34 *1482:A0 0.000428034
31 *625:34 *1802:A 8.40269e-05
32 *625:34 *630:16 4.86375e-05
33 *625:34 *631:8 0.000123257
34 *625:34 *673:28 6.66145e-05
35 *625:34 *673:43 1.01911e-05
36 *625:34 *677:30 2.19562e-06
37 *625:71 *1452:A0 0.00157859
38 *625:71 *1469:A0 0.000269303
39 *625:71 *1524:A0 0.00010986
40 *625:71 *1531:A0 0.000736581
41 *625:71 *1617:GATE 0.000407198
42 *625:71 *630:42 0.000283459
43 *625:71 *637:12 3.60738e-06
44 *625:71 *673:43 1.07797e-05
45 *625:92 *1469:A0 0.00047687
46 *625:103 *1594:GATE 0.000119756
47 *625:140 *630:94 8.65612e-05
48 *625:154 *1600:D 1.77595e-05
49 *625:154 *1632:D 0.000110221
50 *625:160 *629:22 0
51 *625:160 *651:14 2.75538e-05
52 *625:222 *1635:GATE 0.000196296
53 N2BEGb[5] *625:140 4.06644e-05
54 N4BEG[1] *1593:GATE 5.98926e-05
55 N4BEG[7] *625:103 3.00381e-05
56 *697:DIODE *625:71 3.99991e-05
57 *1467:S *625:34 0.000119212
58 *1469:A1 *625:92 3.23663e-05
59 *1475:S *1601:GATE 6.28765e-05
60 *1475:S *625:160 4.43871e-06
61 *1477:S *625:154 0.000279949
62 *1478:A1 *625:140 0.000196048
63 *1478:S *625:140 4.18337e-05
64 *1493:A1 *625:71 9.64575e-05
65 *1493:A2 *625:71 3.59531e-06
66 *1519:S *625:222 0.000199746
67 *1524:S *625:71 2.32745e-05
68 *1593:D *1593:GATE 0.000111942
69 *1599:D *625:140 8.63479e-05
70 *1647:D *625:34 5.67405e-05
71 *1742:A *1605:GATE 2.49909e-05
72 *1747:A *625:34 8.23457e-05
73 *1766:A *1599:GATE 4.52133e-05
74 *1766:A *625:140 2.05056e-05
75 *1766:A *625:154 8.09482e-05
76 *1778:A *625:222 0.000117825
77 *1913:A *625:222 0.00161191
78 *1915:A *625:222 0.000553276
79 *1934:A *1603:GATE 1.00941e-05
80 *1938:A *1603:GATE 8.17102e-05
81 *1938:A *625:222 0.000232132
82 *1952:A *1601:GATE 0.000151219
83 *1953:A *625:92 0.000277118
84 *1957:A *625:154 0.000137195
85 *1961:A *625:154 0.00011577
86 *1965:A *625:92 8.77516e-05
87 *1965:A *625:140 6.69679e-05
88 *1968:A *625:140 6.81984e-05
89 *1977:A *625:92 8.58007e-05
90 *1977:A *625:103 0.000119219
91 *1979:A *625:34 6.88241e-05
92 *1981:A *625:34 0.000197983
93 *1981:A *625:71 0.000621243
94 *1981:A *625:92 2.77052e-05
95 *1983:A *625:140 3.08152e-05
96 *1985:A *625:92 4.49656e-05
97 *1989:A *625:34 0.000285351
98 *1989:A *625:222 9.58678e-06
99 *1994:A *625:71 0.000167562
100 *1996:A *625:92 1.73654e-05
101 *1997:A *625:140 0.000572354
102 *2000:A *1603:GATE 0.000368724
103 *2000:A *1606:GATE 0.000130188
104 *2002:A *1606:GATE 0.000294696
105 *2002:A *625:71 3.99138e-05
106 *2003:A *625:71 0.000162007
107 *2005:A *625:12 0.000229541
108 *2026:A *1603:GATE 0
109 *229:101 *625:34 3.21182e-05
110 *463:20 *1601:GATE 8.23457e-05
111 *464:56 *625:140 0.000572569
112 *470:30 *625:92 5.97078e-05
113 *474:20 *625:12 7.03434e-05
114 *482:28 *1602:GATE 2.87826e-05
115 *482:41 *625:92 3.49585e-05
116 *489:28 *625:34 0.000674686
117 *504:26 *1601:GATE 0.000173012
118 *508:30 *625:12 2.96342e-05
119 *508:30 *625:34 0.000282028
120 *508:30 *625:222 2.17931e-05
121 *509:32 *1603:GATE 1.88602e-05
122 *509:32 *1605:GATE 1.4174e-05
123 *515:48 *625:34 9.07925e-05
124 *521:38 *1599:GATE 3.66286e-05
125 *521:38 *625:140 0.000139516
126 *521:38 *625:154 0.000454812
127 *527:12 *625:222 0.000118616
128 *530:30 *625:140 8.23457e-05
129 *530:30 *625:154 1.19928e-05
130 *534:28 *625:92 0.000755832
131 *537:52 *1593:GATE 2.97593e-05
132 *551:30 *1593:GATE 0.000315095
133 *559:48 *625:140 0.000270089
134 *559:48 *625:154 3.96864e-05
135 *559:48 *625:160 3.30017e-05
136 *583:118 *1604:GATE 0.000153816
137 *583:118 *625:34 0.000104672
138 *603:14 *625:160 0.00017065
139 *618:18 *1601:GATE 0.000151219
*RES
1 *1797:X *625:12 9.41 
2 *625:12 *625:34 31.145 
3 *625:34 *1604:GATE 5.79 
4 *625:34 *625:71 16.2109 
5 *625:71 *1606:GATE 7.275 
6 *625:71 *625:92 17.925 
7 *625:92 *1608:GATE 1.6 
8 *625:92 *625:103 5.57 
9 *625:103 *1593:GATE 9.12 
10 *625:103 *625:140 19.2145 
11 *625:140 *625:154 14.61 
12 *625:154 *625:160 7.235 
13 *625:160 *1601:GATE 14.89 
14 *625:160 *1602:GATE 6.255 
15 *625:154 *1600:GATE 1.96 
16 *625:140 *1599:GATE 2.05 
17 *625:12 *625:222 32.075 
18 *625:222 *1603:GATE 7.1574 
19 *625:222 *1605:GATE 4.395 
*END

*D_NET *626 0.0128948
*CONN
*I *1612:GATE I *D sky130_fd_sc_hd__dlxtp_1
*I *1614:GATE I *D sky130_fd_sc_hd__dlxtp_1
*I *1613:GATE I *D sky130_fd_sc_hd__dlxtp_1
*I *1797:A I *D sky130_fd_sc_hd__buf_2
*I *1607:GATE I *D sky130_fd_sc_hd__dlxtp_1
*I *1610:GATE I *D sky130_fd_sc_hd__dlxtp_1
*I *1798:X O *D sky130_fd_sc_hd__dlymetal6s2s_1
*CAP
1 *1612:GATE 6.63387e-05
2 *1614:GATE 0.000199163
3 *1613:GATE 0
4 *1797:A 0.000227532
5 *1607:GATE 0.000279013
6 *1610:GATE 0
7 *1798:X 0.000109523
8 *626:86 0.000722795
9 *626:45 0.000506545
10 *626:43 0.000736918
11 *626:22 0.00107135
12 *626:10 0.000901245
13 *1607:GATE *1470:A0 0.000146165
14 *1607:GATE *652:28 0.000265556
15 *1607:GATE *684:26 1.65709e-05
16 *1607:GATE *684:42 5.05437e-05
17 *1612:GATE *1476:A0 0.000151008
18 *1614:GATE *686:28 6.80019e-05
19 *626:10 *1476:A0 2.53191e-06
20 *626:10 *627:12 4.99619e-05
21 *626:43 *638:34 0.00012984
22 *626:86 *1463:A0 1.56477e-05
23 *626:86 *1476:A0 0.00013127
24 *626:86 *1527:A0 0.000492586
25 *626:86 *686:28 6.33103e-05
26 *1451:A1 *1607:GATE 0.000202824
27 *1451:A1 *1797:A 0.000500828
28 *1463:S *1614:GATE 0
29 *1480:A1 *626:43 2.49909e-05
30 *1480:S1 *626:43 0.000421062
31 *1487:A2 *1607:GATE 0.000113905
32 *1493:B1 *1614:GATE 2.04029e-05
33 *1509:A2 *626:10 0
34 *1533:A1 *626:22 4.77757e-05
35 *1533:A1 *626:43 0.000221518
36 *1533:S *626:43 0.00017433
37 *1614:D *1614:GATE 4.99619e-05
38 *1686:A *626:43 0.000118081
39 *1687:A *626:43 4.66108e-05
40 *1744:A *1607:GATE 7.9642e-06
41 *1764:A *626:43 1.1392e-05
42 *1782:A *1607:GATE 0.000111543
43 *1782:A *1797:A 2.05722e-05
44 *1867:A *1612:GATE 0.000152668
45 *1915:A *1797:A 0.000107602
46 *1954:A *626:43 0.00044021
47 *1991:A *626:10 5.26644e-05
48 *1991:A *626:86 6.92087e-05
49 *1993:A *626:86 0.000354152
50 *2005:A *1797:A 4.66108e-05
51 *2026:A *626:10 3.99339e-05
52 *470:30 *1797:A 4.66108e-05
53 *474:20 *1607:GATE 3.35242e-05
54 *474:20 *1797:A 0.000124527
55 *491:38 *626:43 4.77719e-05
56 *508:30 *1797:A 0.000128016
57 *508:30 *626:43 4.84379e-05
58 *538:40 *626:10 1.67263e-05
59 *543:24 *626:22 0.0002071
60 *548:76 *626:43 6.33103e-05
61 *563:34 *626:43 6.05134e-05
62 *578:55 *626:10 4.82863e-05
63 *586:76 *626:22 0.00011564
64 *586:93 *626:43 0.000209054
65 *589:120 *626:22 0.00111895
66 *620:42 *626:22 0.000762617
67 *620:42 *626:43 0.000103485
*RES
1 *1798:X *626:10 5.94 
2 *626:10 *626:22 15.11 
3 *626:22 *1610:GATE 1.6 
4 *626:22 *626:43 21.85 
5 *626:43 *626:45 2 
6 *626:45 *1607:GATE 11.175 
7 *626:45 *1797:A 10.275 
8 *626:43 *1613:GATE 1.6 
9 *626:10 *626:86 12.215 
10 *626:86 *1614:GATE 5.2 
11 *626:86 *1612:GATE 7.49 
*END

*D_NET *627 0.0179222
*CONN
*I *1595:GATE I *D sky130_fd_sc_hd__dlxtp_1
*I *1596:GATE I *D sky130_fd_sc_hd__dlxtp_1
*I *1591:GATE I *D sky130_fd_sc_hd__dlxtp_1
*I *1592:GATE I *D sky130_fd_sc_hd__dlxtp_1
*I *1798:A I *D sky130_fd_sc_hd__dlymetal6s2s_1
*I *1594:GATE I *D sky130_fd_sc_hd__dlxtp_1
*I *1597:GATE I *D sky130_fd_sc_hd__dlxtp_1
*I *1598:GATE I *D sky130_fd_sc_hd__dlxtp_1
*I *1799:X O *D sky130_fd_sc_hd__clkbuf_2
*CAP
1 *1595:GATE 0.000327764
2 *1596:GATE 0
3 *1591:GATE 0.000158749
4 *1592:GATE 0
5 *1798:A 0
6 *1594:GATE 0.000165852
7 *1597:GATE 0.000284849
8 *1598:GATE 0.000115494
9 *1799:X 0
10 *627:124 0.000962979
11 *627:107 0.000861823
12 *627:55 0.000730669
13 *627:34 0.00153554
14 *627:12 0.00142526
15 *627:10 0.000347277
16 *627:4 0.000129946
17 *1594:GATE *630:86 2.49909e-05
18 *1595:GATE *633:27 4.82299e-05
19 *1595:GATE *669:28 5.83121e-06
20 *1598:GATE *1598:D 0.000121643
21 *627:34 *1530:A0 0.00125052
22 *627:34 *673:28 0.00133581
23 *627:107 *652:28 0.000122331
24 *627:107 *684:26 0.000120655
25 *627:124 *1453:A0 2.32997e-05
26 *627:124 *652:28 0.00050324
27 N4BEG[1] *627:55 0.000112679
28 N4BEG[3] *627:55 1.88602e-05
29 *1445:A *627:34 5.75434e-05
30 *1446:A *627:34 3.63661e-05
31 *1453:S *1591:GATE 0.000151847
32 *1456:A1 *627:10 2.41099e-05
33 *1471:S *627:34 0.000122801
34 *1482:A1 *1591:GATE 3.40401e-05
35 *1482:S1 *627:124 1.22885e-05
36 *1527:A1 *627:34 0.000186021
37 *1536:A2 *627:34 1.03423e-05
38 *1568:A1 *627:34 4.0031e-05
39 *1597:D *1597:GATE 5.70237e-05
40 *1628:D *1595:GATE 0.000101821
41 *1642:D *627:124 9.67167e-05
42 *1687:A *627:124 7.11219e-05
43 *1743:A *627:34 0.000466115
44 *1969:A *627:55 1.0129e-05
45 *1977:A *1594:GATE 0.00019507
46 *1977:A *1597:GATE 2.35435e-05
47 *1978:A *1594:GATE 0.000148115
48 *1979:A *1594:GATE 3.72952e-05
49 *1984:A *627:34 6.27135e-05
50 *1987:A *1598:GATE 2.08502e-05
51 *1987:A *627:34 0.000229684
52 *1987:A *627:55 5.06382e-06
53 *1988:A *1598:GATE 2.20732e-05
54 *2002:A *627:10 7.97135e-05
55 *2002:A *627:34 0.00011159
56 *270:16 *1595:GATE 0.000112143
57 *458:28 *627:34 8.49205e-05
58 *482:28 *627:55 3.64076e-05
59 *491:38 *627:124 4.41707e-05
60 *494:28 *1598:GATE 8.49101e-05
61 *528:20 *627:12 0.000411968
62 *528:20 *627:34 0.000347023
63 *531:50 *627:34 0.000400257
64 *547:24 *627:12 0.000178482
65 *551:30 *1594:GATE 5.56917e-05
66 *551:30 *627:34 0
67 *551:30 *627:55 8.1822e-05
68 *559:48 *1594:GATE 2.68464e-05
69 *563:34 *1595:GATE 2.38709e-05
70 *563:34 *627:124 5.07376e-05
71 *578:32 *627:34 0.000613169
72 *578:55 *1591:GATE 0.000170797
73 *578:55 *627:12 0.000333051
74 *578:55 *627:34 0.000361422
75 *578:55 *627:107 8.9895e-05
76 *585:89 *1598:GATE 2.2684e-05
77 *586:51 *1591:GATE 3.40112e-05
78 *586:76 *627:10 0.00012849
79 *586:76 *627:107 4.0956e-05
80 *615:30 *627:12 0.000345353
81 *619:50 *627:124 0.000447961
82 *620:57 *1595:GATE 2.98909e-05
83 *620:57 *627:124 4.72078e-05
84 *625:103 *1594:GATE 0.000119756
85 *626:10 *627:12 4.99619e-05
*RES
1 *1799:X *627:4 1.6 
2 *627:4 *627:10 5.635 
3 *627:10 *627:12 9.075 
4 *627:12 *627:34 25.5356 
5 *627:34 *1598:GATE 10.045 
6 *627:34 *627:55 6.89 
7 *627:55 *1597:GATE 6.37 
8 *627:55 *1594:GATE 10.13 
9 *627:12 *1798:A 1.6 
10 *627:10 *1592:GATE 1.6 
11 *627:4 *627:107 4.265 
12 *627:107 *1591:GATE 7.02 
13 *627:107 *627:124 15.67 
14 *627:124 *1596:GATE 3.6 
15 *627:124 *1595:GATE 8.82 
*END

*D_NET *628 0.0314639
*CONN
*I *1611:GATE I *D sky130_fd_sc_hd__dlxtp_1
*I *1713:A I *D sky130_fd_sc_hd__clkbuf_1
*I *1616:GATE I *D sky130_fd_sc_hd__dlxtp_1
*I *1615:GATE I *D sky130_fd_sc_hd__dlxtp_1
*I *1618:GATE I *D sky130_fd_sc_hd__dlxtp_1
*I *1609:GATE I *D sky130_fd_sc_hd__dlxtp_1
*I *1799:A I *D sky130_fd_sc_hd__clkbuf_2
*I *1617:GATE I *D sky130_fd_sc_hd__dlxtp_1
*I *1590:GATE I *D sky130_fd_sc_hd__dlxtp_1
*I *1589:GATE I *D sky130_fd_sc_hd__dlxtp_1
*I *1800:X O *D sky130_fd_sc_hd__buf_2
*CAP
1 *1611:GATE 3.14878e-05
2 *1713:A 0
3 *1616:GATE 0.000307372
4 *1615:GATE 4.20725e-05
5 *1618:GATE 3.05355e-05
6 *1609:GATE 7.86524e-05
7 *1799:A 0.000398264
8 *1617:GATE 0.00160876
9 *1590:GATE 0.000371422
10 *1589:GATE 0.000215176
11 *1800:X 0
12 *628:162 0.0009663
13 *628:150 0.000704323
14 *628:135 0.000343004
15 *628:120 0.000792456
16 *628:108 0.00134621
17 *628:41 0.00279629
18 *628:8 0.00263655
19 *628:4 0.00203293
20 *1589:GATE *694:18 0.000281703
21 *1590:GATE *631:71 3.59531e-06
22 *1611:GATE *645:34 4.7878e-05
23 *1615:GATE *1456:A0 4.43871e-06
24 *1616:GATE *1456:A0 7.42729e-05
25 *1616:GATE *1524:A0 4.57347e-05
26 *1617:GATE *1530:A0 4.2145e-05
27 *1617:GATE *1531:A0 0.000143849
28 *1617:GATE *673:28 3.92756e-05
29 *1618:GATE *1459:A0 3.69837e-05
30 *1799:A *652:28 8.63479e-05
31 *628:41 *631:71 0.000991315
32 *628:108 *645:34 9.02902e-05
33 *628:150 *1519:A0 3.57349e-05
34 *628:162 *1519:A0 0.000236918
35 *695:DIODE *628:120 0.000185502
36 *696:DIODE *1618:GATE 8.23457e-05
37 *1446:A *1617:GATE 0
38 *1466:A1 *628:108 0.000158543
39 *1501:B *1589:GATE 0.000151284
40 *1509:B1 *1617:GATE 5.53549e-06
41 *1509:C1 *1617:GATE 0
42 *1517:S *628:120 0.000134382
43 *1519:A1 *1609:GATE 0.000151327
44 *1523:A1 *1609:GATE 0.000151327
45 *1581:D *1617:GATE 0.000183177
46 *1583:CLK *628:41 6.01025e-05
47 *1586:CLK *628:41 0.000100653
48 *1586:D *1590:GATE 0.000230626
49 *1611:D *628:120 0.000118081
50 *1616:D *1616:GATE 5.19106e-05
51 *1618:D *628:135 0.00014101
52 *1618:D *628:150 8.53113e-06
53 *1649:D *1617:GATE 3.79936e-05
54 *1680:A *1589:GATE 2.68499e-05
55 *1761:A *1799:A 5.0651e-05
56 *1851:A *1589:GATE 8.7152e-06
57 *1853:A *1617:GATE 1.83182e-05
58 *1898:A *628:162 1.01276e-05
59 *1917:A *1615:GATE 9.5799e-06
60 *1917:A *628:162 0.00172297
61 *1918:A *1616:GATE 1.7635e-05
62 *1918:A *628:162 0.00172511
63 *1922:A *628:120 0.000333767
64 *1924:A *1589:GATE 3.00441e-05
65 *1924:A *1799:A 0.000102621
66 *1942:A *628:162 0.00010149
67 *1944:A *628:120 0.000308741
68 *1944:A *628:135 0.000357639
69 *1944:A *628:150 7.97852e-05
70 *1945:A *628:135 0.000222691
71 *1945:A *628:150 0.000192599
72 *1947:A *628:150 5.83121e-06
73 *1972:A *1616:GATE 0.000115712
74 *1976:A *1617:GATE 0.000106567
75 *1981:A *1617:GATE 2.3093e-05
76 *2002:A *1617:GATE 0.000118372
77 *2004:A *1590:GATE 3.61807e-05
78 *275:16 *628:108 0.000203178
79 *458:30 *1617:GATE 0
80 *458:49 *628:41 0.000199833
81 *471:20 *1590:GATE 0.000236125
82 *471:20 *1617:GATE 0.000130227
83 *486:26 *628:120 0.000675485
84 *486:26 *628:135 0.000234234
85 *491:38 *628:120 2.62017e-05
86 *528:24 *628:41 3.45976e-05
87 *538:40 *628:41 2.10214e-05
88 *548:68 *628:41 0.00123932
89 *550:16 *628:150 5.06699e-05
90 *552:56 *1590:GATE 0.000106377
91 *560:24 *1799:A 0
92 *560:24 *628:8 0.0013456
93 *571:22 *1615:GATE 2.24842e-05
94 *571:22 *1616:GATE 2.24911e-05
95 *571:26 *1615:GATE 8.7152e-06
96 *574:28 *628:8 0.000378429
97 *574:28 *628:108 0.00110821
98 *581:16 *628:41 7.78623e-05
99 *584:125 *628:108 3.45117e-05
100 *586:51 *628:41 1.48566e-05
101 *613:24 *628:41 0.000153228
102 *613:44 *1589:GATE 0
103 *617:53 *1617:GATE 0.000144073
104 *620:42 *1590:GATE 4.92826e-05
105 *620:42 *628:41 0
106 *625:71 *1617:GATE 0.000407198
*RES
1 *1800:X *628:4 1.6 
2 *628:4 *628:8 18.32 
3 *628:8 *1589:GATE 8.4225 
4 *628:8 *628:41 15.01 
5 *628:41 *1590:GATE 14.32 
6 *628:41 *1617:GATE 13.4965 
7 *628:8 *1799:A 10.1625 
8 *628:4 *628:108 16.925 
9 *628:108 *628:120 17.29 
10 *628:120 *1609:GATE 6.12 
11 *628:120 *628:135 6.78 
12 *628:135 *1618:GATE 4.395 
13 *628:135 *628:150 4.85 
14 *628:150 *628:162 8.5775 
15 *628:162 *1615:GATE 4.3425 
16 *628:162 *1616:GATE 8.7525 
17 *628:150 *1713:A 1.6 
18 *628:108 *1611:GATE 4.215 
*END

*D_NET *629 0.00555996
*CONN
*I *1691:A I *D sky130_fd_sc_hd__clkbuf_2
*I *1632:D I *D sky130_fd_sc_hd__dlxtp_1
*I *1600:D I *D sky130_fd_sc_hd__dlxtp_1
*I *1857:X O *D sky130_fd_sc_hd__buf_1
*CAP
1 *1691:A 7.52121e-05
2 *1632:D 0.000182979
3 *1600:D 1.38334e-05
4 *1857:X 0.00111791
5 *629:24 0.000196813
6 *629:22 0.00119312
7 *1632:D *1632:GATE 2.50049e-05
8 *629:22 *1476:A0 0.000115518
9 *629:22 *1601:D 0
10 *629:22 *651:14 8.97903e-05
11 *629:22 *684:26 0.000261582
12 *1475:A1 *629:22 1.22932e-05
13 *1476:S *629:22 5.8069e-05
14 *1554:B *629:22 6.90044e-05
15 *1556:A1 *629:22 0.000240327
16 *1556:B1 *629:22 7.11235e-06
17 *1556:C1 *629:22 0.000229905
18 *1558:B *629:22 0.000132115
19 *1659:CLK *629:22 0
20 *1737:A *1632:D 3.02686e-05
21 *1738:A *629:22 1.88602e-05
22 *1952:A *1691:A 0.000132462
23 *1952:A *629:22 0.000718196
24 *1957:A *1632:D 0.000159294
25 *1958:A *1632:D 0.000173911
26 *462:20 *1632:D 4.66108e-05
27 *463:20 *629:22 0
28 *471:20 *629:22 0
29 *559:48 *1600:D 4.77719e-05
30 *559:48 *1632:D 8.40269e-05
31 *603:14 *1691:A 0
32 *603:14 *629:22 0
33 *625:154 *1600:D 1.77595e-05
34 *625:154 *1632:D 0.000110221
35 *625:160 *629:22 0
*RES
1 *1857:X *629:22 23.0776 
2 *629:22 *629:24 2 
3 *629:24 *1600:D 2.05 
4 *629:24 *1632:D 10.835 
5 *629:22 *1691:A 5.235 
*END

*D_NET *630 0.0218891
*CONN
*I *1648:GATE I *D sky130_fd_sc_hd__dlxtp_1
*I *1636:GATE I *D sky130_fd_sc_hd__dlxtp_1
*I *1649:GATE I *D sky130_fd_sc_hd__dlxtp_1
*I *1625:GATE I *D sky130_fd_sc_hd__dlxtp_1
*I *1631:GATE I *D sky130_fd_sc_hd__dlxtp_1
*I *1632:GATE I *D sky130_fd_sc_hd__dlxtp_1
*I *1633:GATE I *D sky130_fd_sc_hd__dlxtp_1
*I *1634:GATE I *D sky130_fd_sc_hd__dlxtp_1
*I *1630:GATE I *D sky130_fd_sc_hd__dlxtp_1
*I *1629:GATE I *D sky130_fd_sc_hd__dlxtp_1
*I *1801:X O *D sky130_fd_sc_hd__buf_2
*CAP
1 *1648:GATE 0.000266384
2 *1636:GATE 2.21004e-05
3 *1649:GATE 0.000202803
4 *1625:GATE 3.40871e-05
5 *1631:GATE 1.85694e-05
6 *1632:GATE 0.000225288
7 *1633:GATE 3.594e-05
8 *1634:GATE 0.000140958
9 *1630:GATE 4.16535e-05
10 *1629:GATE 2.21004e-05
11 *1801:X 0.000362752
12 *630:159 0.000261228
13 *630:148 0.000851267
14 *630:142 0.00103167
15 *630:113 0.000652259
16 *630:94 0.000528982
17 *630:86 0.00175564
18 *630:42 0.00282699
19 *630:26 0.00151987
20 *630:16 0.0010252
21 *1632:GATE *1693:A 0.000134539
22 *1634:GATE *651:21 3.96284e-05
23 *1648:GATE *1451:A0 0.000100155
24 *1648:GATE *645:34 7.75514e-05
25 *1648:GATE *669:28 4.27276e-05
26 *1648:GATE *686:28 2.65814e-06
27 *630:16 *1453:A0 0.000167512
28 *630:16 *1642:GATE 2.91963e-05
29 *630:16 *649:30 0
30 *630:26 *1636:D 4.66108e-05
31 *630:26 *645:34 0.000363221
32 *630:42 *1527:A0 0.000251784
33 *630:42 *632:40 3.43109e-05
34 *630:42 *654:34 3.92756e-05
35 *630:86 *1481:A0 0.00035049
36 *630:86 *637:12 7.9642e-06
37 *630:142 *1529:A0 2.54431e-05
38 *630:148 *1693:A 1.19928e-05
39 *630:148 *651:21 3.64998e-06
40 Co *1649:GATE 7.58908e-05
41 N2BEGb[5] *630:94 8.53307e-05
42 N2BEGb[6] *630:94 4.66108e-05
43 *1469:S *630:86 1.08758e-05
44 *1473:A1 *630:26 0.000155491
45 *1478:A1 *630:113 4.74044e-05
46 *1478:A1 *630:142 4.60712e-05
47 *1524:S *630:26 0.000262696
48 *1529:S *630:142 6.4528e-05
49 *1531:S *630:113 8.53113e-06
50 *1593:D *630:86 0.000175647
51 *1594:D *630:86 8.75776e-05
52 *1594:GATE *630:86 2.49909e-05
53 *1597:D *630:94 0.000231321
54 *1629:D *630:113 7.70735e-05
55 *1632:D *1632:GATE 2.50049e-05
56 *1640:D *630:86 4.41506e-05
57 *1648:D *1648:GATE 1.62835e-05
58 *1737:A *1632:GATE 0.000109786
59 *1739:A *1632:GATE 7.00914e-05
60 *1754:A *1649:GATE 7.9642e-06
61 *1856:A *630:42 3.1529e-05
62 *1866:A *630:42 9.15852e-05
63 *1952:A *1632:GATE 8.48024e-05
64 *1957:A *1632:GATE 0.00013344
65 *1958:A *1632:GATE 0.000101567
66 *1958:A *1633:GATE 3.60648e-06
67 *1969:A *1649:GATE 1.88656e-05
68 *1975:A *630:86 0.000230258
69 *1977:A *630:86 0.000264248
70 *1977:A *630:94 3.62504e-05
71 *1977:A *630:113 3.02353e-05
72 *1979:A *630:42 0.00137589
73 *1981:A *630:42 6.83741e-05
74 *1984:A *630:113 2.08918e-05
75 *1988:A *1630:GATE 5.52231e-05
76 *1988:A *630:113 8.53113e-06
77 *1989:A *630:16 4.77757e-05
78 *1989:A *630:42 0.000567719
79 *1996:A *630:86 0.000153361
80 *2003:A *1649:GATE 5.61129e-05
81 *2003:A *630:86 8.03588e-06
82 *229:101 *630:16 0.000128783
83 *271:28 *630:26 0.000383423
84 *470:30 *630:42 7.48593e-05
85 *504:26 *630:142 8.40213e-05
86 *528:20 *630:26 5.21562e-05
87 *528:20 *630:42 0.00014717
88 *534:28 *630:86 0.000152017
89 *559:48 *1632:GATE 1.08732e-05
90 *559:48 *630:86 0.000111393
91 *583:118 *630:26 0.000191232
92 *585:89 *1630:GATE 2.49909e-05
93 *585:89 *630:142 2.10034e-05
94 *592:58 *1649:GATE 2.53191e-06
95 *592:58 *630:86 2.0851e-06
96 *592:75 *1649:GATE 1.58266e-05
97 *603:14 *630:42 4.60312e-05
98 *616:26 *1630:GATE 5.07362e-05
99 *616:26 *630:113 0.000305069
100 *618:18 *1632:GATE 8.52546e-05
101 *618:18 *1633:GATE 0.000116158
102 *618:18 *630:148 0.000489046
103 *618:33 *630:142 2.75229e-05
104 *618:33 *630:148 4.35348e-05
105 *621:22 *1633:GATE 0.000105799
106 *621:22 *630:113 0.000182847
107 *625:34 *630:16 4.86375e-05
108 *625:71 *630:42 0.000283459
109 *625:140 *630:94 8.65612e-05
*RES
1 *1801:X *630:16 11.645 
2 *630:16 *630:26 10.605 
3 *630:26 *630:42 9.17637 
4 *630:42 *630:86 33.5125 
5 *630:86 *630:94 7.99 
6 *630:94 *1629:GATE 1.96 
7 *630:94 *630:113 8.585 
8 *630:113 *1630:GATE 4.665 
9 *630:113 *630:142 10.41 
10 *630:142 *630:148 11.61 
11 *630:148 *1634:GATE 3.355 
12 *630:148 *630:159 2 
13 *630:159 *1633:GATE 4.98 
14 *630:159 *1632:GATE 10.335 
15 *630:142 *1631:GATE 1.96 
16 *630:86 *1625:GATE 2.215 
17 *630:42 *1649:GATE 6.7725 
18 *630:26 *1636:GATE 1.96 
19 *630:16 *1648:GATE 10.61 
*END

*D_NET *631 0.0263017
*CONN
*I *1626:GATE I *D sky130_fd_sc_hd__dlxtp_1
*I *1650:GATE I *D sky130_fd_sc_hd__dlxtp_1
*I *1652:GATE I *D sky130_fd_sc_hd__dlxtp_1
*I *1651:GATE I *D sky130_fd_sc_hd__dlxtp_1
*I *1624:GATE I *D sky130_fd_sc_hd__dlxtp_1
*I *1623:GATE I *D sky130_fd_sc_hd__dlxtp_1
*I *1638:GATE I *D sky130_fd_sc_hd__dlxtp_1
*I *1640:GATE I *D sky130_fd_sc_hd__dlxtp_1
*I *1622:GATE I *D sky130_fd_sc_hd__dlxtp_1
*I *1621:GATE I *D sky130_fd_sc_hd__dlxtp_1
*I *1802:X O *D sky130_fd_sc_hd__buf_2
*CAP
1 *1626:GATE 0.000136269
2 *1650:GATE 0.000677344
3 *1652:GATE 0
4 *1651:GATE 4.09902e-05
5 *1624:GATE 0.00051606
6 *1623:GATE 0
7 *1638:GATE 0.000485762
8 *1640:GATE 0.000736602
9 *1622:GATE 7.70711e-05
10 *1621:GATE 0.000107157
11 *1802:X 0.000297806
12 *631:90 0.00169386
13 *631:71 0.00184505
14 *631:38 0.00157505
15 *631:34 0.000443114
16 *631:26 0.00138153
17 *631:22 0.000724862
18 *631:18 0.000638281
19 *631:10 0.00134778
20 *631:8 0.000556342
21 *1624:GATE *1453:A0 0
22 *1624:GATE *1482:A0 0.000211953
23 *1624:GATE *652:28 8.64421e-05
24 *1624:GATE *684:26 3.51072e-05
25 *1626:GATE *1462:A0 0.000170347
26 *1650:GATE *632:93 0.000519526
27 *1650:GATE *632:106 0.00010502
28 *1650:GATE *632:150 0.000267518
29 *631:18 *1800:A 0
30 *631:18 *660:36 0.000566812
31 *631:22 *1800:A 1.39525e-05
32 *631:22 *660:36 4.32457e-05
33 *1445:A *631:90 0.000109431
34 *1454:S *631:26 0.000108519
35 *1469:A1 *1640:GATE 8.83797e-05
36 *1471:S *1638:GATE 2.68464e-05
37 *1479:A1 *631:90 5.97682e-05
38 *1479:S1 *1640:GATE 0.000119478
39 *1480:S0 *1650:GATE 2.49909e-05
40 *1480:S0 *631:18 0.000255058
41 *1482:A1 *1624:GATE 8.16183e-05
42 *1482:S0 *1624:GATE 0
43 *1500:C *631:90 2.11311e-05
44 *1501:B *631:38 0.000233004
45 *1506:C *631:90 8.80142e-05
46 *1510:B *1640:GATE 0.000161121
47 *1510:B *631:90 0.000382249
48 *1511:A2 *1640:GATE 0.000123225
49 *1515:S *1650:GATE 0.000161529
50 *1545:A *1640:GATE 2.98807e-05
51 *1545:B *1640:GATE 0.00012969
52 *1546:A *1622:GATE 1.02348e-05
53 *1546:A *631:90 1.74085e-05
54 *1579:C *631:71 4.40325e-06
55 *1586:D *631:71 0.000234722
56 *1590:D *631:71 0.000258798
57 *1590:GATE *631:71 3.59531e-06
58 *1645:D *1650:GATE 4.66108e-05
59 *1680:A *1621:GATE 4.34547e-05
60 *1680:A *631:38 4.82863e-05
61 *1680:A *631:71 8.69417e-06
62 *1750:A *1650:GATE 0.000120655
63 *1790:A *1622:GATE 6.8919e-05
64 *1790:A *631:90 0.00012849
65 *1791:A *631:90 0.000445228
66 *1954:A *1626:GATE 5.43957e-05
67 *1954:A *631:10 1.08723e-05
68 *2005:A *1621:GATE 0.000102709
69 *249:18 *631:71 2.0851e-06
70 *415:44 *631:71 0.000209245
71 *460:20 *1638:GATE 9.98519e-05
72 *460:20 *1640:GATE 3.50612e-05
73 *460:27 *1638:GATE 0.000187872
74 *470:30 *1626:GATE 0.000149182
75 *471:20 *631:71 1.51915e-05
76 *489:28 *631:18 0.000163693
77 *489:28 *631:22 0.000171158
78 *493:43 *631:71 4.41506e-05
79 *508:30 *631:8 4.66108e-05
80 *508:30 *631:10 0.000200828
81 *508:30 *631:18 0.000386088
82 *528:24 *631:71 1.7635e-05
83 *534:28 *1640:GATE 0.000371415
84 *547:24 *1626:GATE 4.94405e-05
85 *547:24 *631:10 0.000110284
86 *547:24 *631:18 0.000230964
87 *548:68 *1622:GATE 1.87674e-05
88 *552:56 *631:71 6.90438e-05
89 *560:24 *631:34 4.42853e-05
90 *560:24 *631:38 0.000213502
91 *560:24 *631:71 7.90275e-05
92 *574:28 *1651:GATE 4.66826e-05
93 *574:28 *631:26 0.00118906
94 *574:28 *631:34 4.29107e-05
95 *580:48 *1640:GATE 0.00018633
96 *580:65 *1640:GATE 0.000205189
97 *581:16 *631:90 0.000283363
98 *584:90 *1624:GATE 7.41126e-05
99 *584:90 *631:34 2.65028e-05
100 *585:89 *1640:GATE 4.33344e-05
101 *612:20 *1621:GATE 1.01469e-05
102 *612:20 *631:71 3.48855e-05
103 *613:24 *631:71 0.000960654
104 *619:50 *1624:GATE 0
105 *619:50 *631:34 0
106 *620:42 *631:71 5.63183e-05
107 *625:34 *631:8 0.000123257
108 *628:41 *631:71 0.000991315
*RES
1 *1802:X *631:8 7.155 
2 *631:8 *631:10 2.91 
3 *631:10 *631:18 13.695 
4 *631:18 *631:22 4.145 
5 *631:22 *631:26 14.87 
6 *631:26 *631:34 5.75 
7 *631:34 *631:38 6.245 
8 *631:38 *1621:GATE 5.49 
9 *631:38 *631:71 24.0097 
10 *631:71 *1622:GATE 4.92 
11 *631:71 *631:90 13.88 
12 *631:90 *1640:GATE 20.27 
13 *631:90 *1638:GATE 8.755 
14 *631:34 *1623:GATE 1.6 
15 *631:26 *1624:GATE 11.76 
16 *631:22 *1651:GATE 2.395 
17 *631:18 *1652:GATE 3.6 
18 *631:10 *1650:GATE 16.95 
19 *631:8 *1626:GATE 7.02 
*END

*D_NET *632 0.0273797
*CONN
*I *1641:GATE I *D sky130_fd_sc_hd__dlxtp_1
*I *1637:GATE I *D sky130_fd_sc_hd__dlxtp_1
*I *1635:GATE I *D sky130_fd_sc_hd__dlxtp_1
*I *1712:A I *D sky130_fd_sc_hd__clkbuf_1
*I *1643:GATE I *D sky130_fd_sc_hd__dlxtp_1
*I *1639:GATE I *D sky130_fd_sc_hd__dlxtp_1
*I *1645:GATE I *D sky130_fd_sc_hd__dlxtp_1
*I *1642:GATE I *D sky130_fd_sc_hd__dlxtp_1
*I *1646:GATE I *D sky130_fd_sc_hd__dlxtp_1
*I *1644:GATE I *D sky130_fd_sc_hd__dlxtp_1
*I *1803:X O *D sky130_fd_sc_hd__buf_2
*CAP
1 *1641:GATE 8.54757e-05
2 *1637:GATE 2.10064e-05
3 *1635:GATE 0.000263541
4 *1712:A 0
5 *1643:GATE 3.5024e-05
6 *1639:GATE 0.000533925
7 *1645:GATE 0
8 *1642:GATE 0.000658417
9 *1646:GATE 0.000202931
10 *1644:GATE 2.07673e-05
11 *1803:X 0
12 *632:179 0.000614196
13 *632:166 0.0010503
14 *632:150 0.00147877
15 *632:112 0.000925701
16 *632:106 0.00150933
17 *632:93 0.00142761
18 *632:40 0.00163617
19 *632:8 0.00228822
20 *632:4 0.00116502
21 *1637:GATE *1637:D 1.16578e-05
22 *1642:GATE *1453:A0 0.000784693
23 *1642:GATE *1482:A0 0
24 *1642:GATE *1532:A0 0.000164128
25 *1642:GATE *652:28 4.60061e-05
26 *1642:GATE *684:26 4.41506e-05
27 *632:8 *1803:A 4.89295e-05
28 *632:8 *633:10 8.40269e-05
29 *632:40 *1489:A2 0.000140444
30 *632:40 *1530:A0 9.17274e-05
31 *632:40 *648:38 1.78126e-05
32 *632:40 *653:8 8.23457e-05
33 *632:40 *654:34 0.000111108
34 *632:40 *675:42 9.044e-05
35 *632:40 *677:30 0.000849904
36 *632:40 *686:32 2.0231e-05
37 *632:93 *1458:A0 1.661e-05
38 *632:93 *677:30 0.000194694
39 *632:106 *687:26 0
40 *632:179 *1519:A0 0.00031209
41 *632:179 *679:38 0
42 *695:DIODE *1639:GATE 8.75811e-06
43 *1467:A1 *1642:GATE 0
44 *1470:A1 *1643:GATE 3.83194e-05
45 *1480:S0 *632:93 8.03466e-05
46 *1487:C1 *632:112 0.000493601
47 *1493:B1 *1644:GATE 8.52845e-05
48 *1493:B1 *632:40 8.67465e-06
49 *1515:S *632:112 0
50 *1519:A1 *1639:GATE 0.000185338
51 *1519:A1 *632:112 0.000600098
52 *1523:A1 *1635:GATE 0.000113255
53 *1523:A1 *1637:GATE 5.05521e-05
54 *1532:S *1642:GATE 0.000127124
55 *1533:A1 *1642:GATE 3.0088e-05
56 *1603:GATE *1635:GATE 0.000148043
57 *1641:D *1641:GATE 0.000119756
58 *1643:D *1639:GATE 2.90919e-05
59 *1643:D *1643:GATE 4.82919e-05
60 *1644:D *1646:GATE 0.000176646
61 *1644:D *632:40 7.9642e-06
62 *1645:D *632:106 1.56428e-05
63 *1647:D *632:93 4.32997e-05
64 *1650:D *632:150 0.000118354
65 *1650:GATE *632:93 0.000519526
66 *1650:GATE *632:106 0.00010502
67 *1650:GATE *632:150 0.000267518
68 *1706:A *632:93 3.83194e-05
69 *1750:A *632:106 5.33945e-05
70 *1783:A *632:40 0.000122337
71 *1804:A *632:8 8.71886e-05
72 *1804:A *632:93 2.11559e-05
73 *1867:A *632:40 1.66925e-05
74 *1912:A *632:166 0.000423247
75 *1912:A *632:179 0.000120655
76 *1913:A *632:106 0.00011303
77 *1913:A *632:112 0.00025454
78 *1915:A *632:166 0.000124895
79 *1915:A *632:179 0.00010978
80 *1922:A *632:150 1.49348e-05
81 *1931:A *632:166 8.53113e-06
82 *1934:A *1635:GATE 0.000198945
83 *1934:A *1637:GATE 3.66286e-05
84 *1934:A *632:166 0.000219175
85 *1938:A *1635:GATE 5.93371e-05
86 *1938:A *632:166 2.78732e-05
87 *1939:A *632:166 0.000217508
88 *1949:A *1639:GATE 1.88656e-05
89 *1949:A *632:150 2.25699e-05
90 *1968:A *1639:GATE 0.000723957
91 *1979:A *632:40 0.000289418
92 *1990:A *632:40 1.12196e-05
93 *1992:A *1644:GATE 2.83579e-05
94 *1992:A *1646:GATE 3.82018e-05
95 *2024:A *1637:GATE 8.34281e-06
96 *229:71 *632:40 6.38722e-05
97 *229:101 *1642:GATE 0.000108216
98 *229:101 *632:40 0.000450179
99 *229:109 *632:93 0.000110257
100 *273:12 *632:150 2.07726e-05
101 *276:10 *1639:GATE 0.000112123
102 *276:10 *632:112 2.95721e-05
103 *464:56 *1639:GATE 0.000169746
104 *466:44 *632:8 6.32176e-05
105 *466:44 *632:40 1.19928e-05
106 *466:44 *632:166 0.000406535
107 *486:26 *1641:GATE 0.000124667
108 *486:26 *632:150 0.00015589
109 *490:36 *1643:GATE 0.000119762
110 *504:55 *1641:GATE 4.82919e-05
111 *510:20 *1635:GATE 0.000469215
112 *515:54 *1642:GATE 0
113 *527:12 *1635:GATE 1.89226e-05
114 *527:12 *632:166 1.44259e-05
115 *527:12 *632:179 8.18836e-05
116 *538:40 *632:112 0.000149717
117 *568:52 *1639:GATE 5.32633e-05
118 *587:147 *1644:GATE 6.69608e-06
119 *587:147 *1646:GATE 7.36438e-05
120 *603:14 *632:40 0.000399944
121 *625:222 *1635:GATE 0.000196296
122 *630:16 *1642:GATE 2.91963e-05
123 *630:42 *632:40 3.43109e-05
*RES
1 *1803:X *632:4 1.6 
2 *632:4 *632:8 3.915 
3 *632:8 *632:40 27.6907 
4 *632:40 *1644:GATE 4.395 
5 *632:40 *1646:GATE 7.41 
6 *632:8 *1642:GATE 19.34 
7 *632:4 *632:93 19.36 
8 *632:93 *1645:GATE 1.6 
9 *632:93 *632:106 8.585 
10 *632:106 *632:112 10.35 
11 *632:112 *1639:GATE 8.30833 
12 *632:112 *1643:GATE 4.74 
13 *632:106 *632:150 15.36 
14 *632:150 *632:166 19.76 
15 *632:166 *1712:A 1.6 
16 *632:166 *632:179 11.365 
17 *632:179 *1635:GATE 13.655 
18 *632:179 *1637:GATE 2.395 
19 *632:150 *1641:GATE 3.775 
*END

*D_NET *633 0.00338316
*CONN
*I *1803:A I *D sky130_fd_sc_hd__buf_2
*I *1801:A I *D sky130_fd_sc_hd__buf_2
*I *1802:A I *D sky130_fd_sc_hd__buf_2
*I *1647:GATE I *D sky130_fd_sc_hd__dlxtp_1
*I *1627:GATE I *D sky130_fd_sc_hd__dlxtp_1
*I *1628:GATE I *D sky130_fd_sc_hd__dlxtp_1
*I *1804:X O *D sky130_fd_sc_hd__clkbuf_2
*CAP
1 *1803:A 6.93648e-06
2 *1801:A 3.45886e-05
3 *1802:A 2.01864e-05
4 *1647:GATE 0
5 *1627:GATE 0.000144482
6 *1628:GATE 3.77548e-05
7 *1804:X 0.000118897
8 *633:46 0.000166346
9 *633:27 0.000550295
10 *633:16 0.000470783
11 *633:10 0.000319923
12 *1627:GATE *638:34 4.82919e-05
13 *1627:GATE *669:28 5.13708e-05
14 *633:10 *1522:A0 0.000107032
15 *633:16 *1522:A0 0.000128074
16 *633:16 *668:16 9.50189e-06
17 *633:27 *669:28 1.26248e-05
18 *1533:S *1627:GATE 2.3192e-05
19 *1595:D *1627:GATE 5.93727e-05
20 *1595:GATE *633:27 4.82299e-05
21 *1628:D *633:16 6.74282e-06
22 *1647:D *1802:A 8.40269e-05
23 *1804:A *1627:GATE 7.81763e-05
24 *1804:A *1803:A 4.89295e-05
25 *1804:A *633:46 9.74218e-05
26 *1966:A *633:10 0.000100742
27 *1966:A *633:16 3.69766e-05
28 *1989:A *1801:A 0.000118081
29 *229:101 *1801:A 0.000118081
30 *270:16 *633:16 7.1242e-05
31 *489:28 *633:46 4.78726e-05
32 *625:34 *1802:A 8.40269e-05
33 *632:8 *1803:A 4.89295e-05
34 *632:8 *633:10 8.40269e-05
*RES
1 *1804:X *633:10 5.775 
2 *633:10 *633:16 4.775 
3 *633:16 *1628:GATE 2.215 
4 *633:16 *633:27 4.865 
5 *633:27 *1627:GATE 6.705 
6 *633:27 *633:46 4.19 
7 *633:46 *1647:GATE 1.6 
8 *633:46 *1802:A 2.395 
9 *633:10 *1801:A 4.74 
10 *1804:X *1803:A 3.65 
*END

*D_NET *634 0.00863756
*CONN
*I *1598:D I *D sky130_fd_sc_hd__dlxtp_1
*I *1689:A I *D sky130_fd_sc_hd__buf_1
*I *1630:D I *D sky130_fd_sc_hd__dlxtp_1
*I *1850:X O *D sky130_fd_sc_hd__buf_1
*CAP
1 *1598:D 7.2378e-05
2 *1689:A 0
3 *1630:D 0
4 *1850:X 0.00207105
5 *634:33 0.000187531
6 *634:26 0.0021862
7 *1496:B *634:26 9.0444e-05
8 *1496:C *634:26 8.23457e-05
9 *1549:B *634:26 8.43862e-05
10 *1555:B *634:26 0.000104025
11 *1598:GATE *1598:D 0.000121643
12 *1661:D *634:26 5.20335e-05
13 *1677:D *634:26 0.000141774
14 *1767:A *634:26 0.000112143
15 *1787:A *634:26 0.000270035
16 *1961:A *634:26 0.000311406
17 *1984:A *634:26 0.000473269
18 *1986:A *634:26 0
19 *1988:A *1598:D 8.63543e-05
20 *1988:A *634:26 1.56428e-05
21 *1988:A *634:33 0.000175257
22 *2014:A *634:26 0.000485723
23 *398:8 *634:26 0.00012214
24 *494:28 *1598:D 2.14005e-05
25 *526:32 *634:26 0.000121019
26 *548:44 *634:26 4.66108e-05
27 *581:53 *634:26 0.000528489
28 *585:89 *1598:D 3.6355e-05
29 *585:89 *634:26 4.66108e-05
30 *585:89 *634:33 0.000444821
31 *616:26 *634:26 7.81547e-05
32 *622:46 *634:26 4.37874e-05
33 *624:28 *634:26 2.45351e-05
*RES
1 *1850:X *634:26 40.97 
2 *634:26 *1630:D 1.6 
3 *634:26 *634:33 4.245 
4 *634:33 *1689:A 1.6 
5 *634:33 *1598:D 3.775 
*END

*D_NET *635 0.00585349
*CONN
*I *1620:GATE I *D sky130_fd_sc_hd__dlxtp_1
*I *1800:A I *D sky130_fd_sc_hd__buf_2
*I *1619:GATE I *D sky130_fd_sc_hd__dlxtp_1
*I *1851:X O *D sky130_fd_sc_hd__buf_1
*CAP
1 *1620:GATE 0
2 *1800:A 0.000129204
3 *1619:GATE 0.000174665
4 *1851:X 0.000866514
5 *635:18 0.000391405
6 *635:12 0.00095405
7 *1800:A *1587:GATE 4.66474e-05
8 *1800:A *660:36 0.000197682
9 *635:18 *1587:GATE 0.000153004
10 *635:18 *1588:GATE 8.7152e-06
11 *635:18 *660:36 9.17274e-05
12 *1480:A1 *635:18 0
13 *1504:B *635:12 0.00120539
14 *1619:D *1619:GATE 3.74161e-05
15 *1710:A *1619:GATE 0.000132654
16 *484:18 *1619:GATE 4.65641e-05
17 *489:28 *1800:A 5.8477e-05
18 *551:12 *635:12 0.000612388
19 *555:32 *635:12 0.000163204
20 *613:51 *1619:GATE 0.000230429
21 *614:46 *635:12 0.000107973
22 *614:61 *635:12 5.95275e-05
23 *614:61 *635:18 4.66108e-05
24 *619:50 *635:12 0.000125285
25 *631:18 *1800:A 0
26 *631:22 *1800:A 1.39525e-05
*RES
1 *1851:X *635:12 19.345 
2 *635:12 *635:18 4.34 
3 *635:18 *1619:GATE 7.62 
4 *635:18 *1800:A 6.81 
5 *635:12 *1620:GATE 1.6 
*END

*D_NET *636 0.00508408
*CONN
*I *1714:A I *D sky130_fd_sc_hd__clkbuf_1
*I *1587:GATE I *D sky130_fd_sc_hd__dlxtp_1
*I *1588:GATE I *D sky130_fd_sc_hd__dlxtp_1
*I *1852:X O *D sky130_fd_sc_hd__buf_1
*CAP
1 *1714:A 1.7082e-05
2 *1587:GATE 0.000194051
3 *1588:GATE 1.0402e-05
4 *1852:X 0.00067579
5 *636:14 0.000616703
6 *636:10 0.00110512
7 *1756:A *1714:A 3.14002e-05
8 *1756:A *636:10 0.000104132
9 *1800:A *1587:GATE 4.66474e-05
10 *67:15 *1714:A 1.87674e-05
11 *67:15 *636:10 0.000106691
12 *461:36 *636:10 0.000795896
13 *484:18 *1587:GATE 6.58339e-05
14 *489:28 *1587:GATE 0.000201671
15 *492:30 *1587:GATE 0
16 *492:30 *636:14 0
17 *518:24 *636:10 0
18 *552:56 *1587:GATE 0.000105018
19 *552:56 *636:14 0.000681068
20 *613:44 *636:10 2.63322e-05
21 *613:51 *1587:GATE 0.000119756
22 *635:18 *1587:GATE 0.000153004
23 *635:18 *1588:GATE 8.7152e-06
*RES
1 *1852:X *636:10 13.8225 
2 *636:10 *636:14 1.52853 
3 *636:14 *1588:GATE 4.3325 
4 *636:14 *1587:GATE 7.92203 
5 *636:10 *1714:A 4.0875 
*END

*D_NET *637 0.00446011
*CONN
*I *1491:A1 I *D sky130_fd_sc_hd__o21ba_1
*I *1479:A0 I *D sky130_fd_sc_hd__mux4_1
*I *1853:X O *D sky130_fd_sc_hd__buf_1
*CAP
1 *1491:A1 0.000174471
2 *1479:A0 0.000910807
3 *1853:X 0.00023817
4 *637:12 0.00132345
5 *1491:A1 *1490:A_N 0.000180112
6 *1491:A1 *638:20 1.76922e-05
7 *637:12 *1527:A0 5.8023e-05
8 *1450:A *1491:A1 4.87465e-06
9 *1479:A2 *1479:A0 5.40146e-05
10 *1479:A3 *1479:A0 3.1835e-05
11 *1479:S0 *1479:A0 6.34018e-05
12 *1490:B *1491:A1 1.12643e-05
13 *1491:B1_N *1491:A1 0.000122537
14 *1493:A1 *637:12 0.000153124
15 *1735:A *1479:A0 0.00012657
16 *1975:A *637:12 4.77757e-05
17 *1988:A *1479:A0 6.37306e-06
18 *2000:A *637:12 4.17004e-05
19 *2003:A *637:12 2.97897e-05
20 *229:33 *1491:A1 0.000421317
21 *534:28 *637:12 1.69587e-05
22 *585:128 *1479:A0 0.000339899
23 *585:128 *1491:A1 2.49909e-05
24 *585:128 *637:12 4.93919e-05
25 *625:71 *637:12 3.60738e-06
26 *630:86 *637:12 7.9642e-06
*RES
1 *1853:X *637:12 9.98 
2 *637:12 *1479:A0 14.515 
3 *637:12 *1491:A1 7.03375 
*END

*D_NET *638 0.0133726
*CONN
*I *1480:A0 I *D sky130_fd_sc_hd__mux4_1
*I *1485:A1 I *D sky130_fd_sc_hd__o21ba_1
*I *1854:X O *D sky130_fd_sc_hd__buf_1
*CAP
1 *1480:A0 0
2 *1485:A1 0.000157607
3 *1854:X 0.00125894
4 *638:34 0.00133732
5 *638:20 0.00243865
6 *1485:A1 *1483:A1 0.00034356
7 *1485:A1 *649:30 0.00034189
8 *1485:A1 *660:36 1.03572e-05
9 *638:20 *1490:A_N 0.000233565
10 *638:34 *1522:A0 4.99619e-05
11 *638:34 *660:36 0.000179958
12 N4BEG[14] *638:20 2.18287e-05
13 *1450:A *638:20 7.9642e-06
14 *1469:S *638:20 0.000126944
15 *1480:A1 *1485:A1 0.000154229
16 *1490:B *638:20 6.03947e-06
17 *1491:A1 *638:20 1.76922e-05
18 *1491:B1_N *638:20 2.10582e-05
19 *1533:S *638:34 9.53682e-05
20 *1627:GATE *638:34 4.82919e-05
21 *1686:A *638:34 0.000194694
22 *1697:A *638:34 0.000175322
23 *1765:A *638:34 4.97182e-05
24 *1775:A *638:34 0.000123225
25 *1954:A *638:34 1.81185e-05
26 *1988:A *638:20 0.000206701
27 *1990:A *638:34 0.000832153
28 *1997:A *638:20 0.000216285
29 *270:16 *638:34 0.0004462
30 *460:27 *638:34 8.77516e-05
31 *508:30 *1485:A1 6.01496e-05
32 *508:30 *638:34 6.60257e-06
33 *515:48 *638:34 0.000158066
34 *543:24 *638:20 4.05106e-05
35 *563:34 *638:34 0.000513248
36 *568:52 *638:20 0.000346179
37 *585:128 *638:20 0.000647973
38 *585:128 *638:34 0.000268049
39 *585:137 *638:34 0.000359958
40 *590:95 *638:34 0.00106485
41 *590:118 *638:34 0.000301041
42 *592:48 *638:20 0.000274759
43 *626:43 *638:34 0.00012984
*RES
1 *1854:X *638:20 31.59 
2 *638:20 *638:34 35.795 
3 *638:34 *1485:A1 8.955 
4 *638:34 *1480:A0 3.6 
*END

*D_NET *639 0.00351112
*CONN
*I *1481:A0 I *D sky130_fd_sc_hd__mux4_1
*I *1855:X O *D sky130_fd_sc_hd__clkbuf_1
*CAP
1 *1481:A0 0.000782233
2 *1855:X 0.000782233
3 N4BEG[11] *1481:A0 0.000109551
4 N4BEG[12] *1481:A0 0.000418861
5 N4BEG[7] *1481:A0 5.07419e-05
6 *1469:S *1481:A0 9.80032e-06
7 *1481:A1 *1481:A0 7.9642e-06
8 *1594:D *1481:A0 2.51429e-05
9 *1608:D *1481:A0 1.83756e-05
10 *1640:D *1481:A0 0.00011651
11 *1708:A *1481:A0 4.66108e-05
12 *1853:A *1481:A0 8.64421e-05
13 *1855:A *1481:A0 1.67131e-05
14 *1975:A *1481:A0 0.000203267
15 *1977:A *1481:A0 3.94472e-05
16 *587:147 *1481:A0 0.00044674
17 *630:86 *1481:A0 0.00035049
*RES
1 *1855:X *1481:A0 24.66 
*END

*D_NET *640 0.0045609
*CONN
*I *1601:D I *D sky130_fd_sc_hd__dlxtp_1
*I *1633:D I *D sky130_fd_sc_hd__dlxtp_1
*I *1692:A I *D sky130_fd_sc_hd__clkbuf_2
*I *1868:X O *D sky130_fd_sc_hd__buf_1
*CAP
1 *1601:D 0.000195339
2 *1633:D 0.00031783
3 *1692:A 0
4 *1868:X 0.000437
5 *640:19 0.000537267
6 *640:12 0.000461098
7 *1601:D *651:14 0.000162325
8 *1633:D *655:52 0.000337688
9 *640:12 *662:22 2.10433e-05
10 *1476:S *1601:D 0.000116115
11 *1601:GATE *1633:D 0.000259899
12 *1738:A *1601:D 0.000100139
13 *1879:A *640:12 6.6924e-05
14 *1890:A *640:12 8.61961e-05
15 *1910:A *640:12 4.13879e-05
16 *463:20 *1601:D 0.000361673
17 *504:26 *1633:D 7.44696e-05
18 *504:26 *640:12 0.000148191
19 *504:26 *640:19 1.56428e-05
20 *526:32 *640:12 0.000436099
21 *614:40 *640:12 0.00038457
22 *629:22 *1601:D 0
*RES
1 *1868:X *640:12 16.745 
2 *640:12 *1692:A 1.6 
3 *640:12 *640:19 0.45 
4 *640:19 *1633:D 8.065 
5 *640:19 *1601:D 11.165 
*END

*D_NET *641 0.00440548
*CONN
*I *1482:A0 I *D sky130_fd_sc_hd__mux4_1
*I *1856:X O *D sky130_fd_sc_hd__clkbuf_1
*CAP
1 *1482:A0 0.000953632
2 *1856:X 0.000953632
3 *1482:A0 *1492:A1 5.06382e-06
4 *1482:A0 *677:30 0.000396994
5 *1467:A1 *1482:A0 0.000338638
6 *1467:S *1482:A0 0.000458425
7 *1482:A1 *1482:A0 4.91032e-05
8 *1610:D *1482:A0 5.51063e-06
9 *1624:D *1482:A0 0.000110043
10 *1624:GATE *1482:A0 0.000211953
11 *1642:GATE *1482:A0 0
12 *515:48 *1482:A0 3.57582e-05
13 *515:54 *1482:A0 3.29581e-05
14 *534:28 *1482:A0 7.83434e-05
15 *543:24 *1482:A0 0
16 *578:55 *1482:A0 0.000166686
17 *581:108 *1482:A0 0.000119866
18 *586:76 *1482:A0 0
19 *589:120 *1482:A0 6.0837e-05
20 *625:34 *1482:A0 0.000428034
*RES
1 *1856:X *1482:A0 32.575 
*END

*D_NET *642 0.00146346
*CONN
*I *1463:A0 I *D sky130_fd_sc_hd__mux2_1
*I *1858:X O *D sky130_fd_sc_hd__clkbuf_1
*CAP
1 *1463:A0 0.000307776
2 *1858:X 0.000307776
3 *1463:A0 *686:28 3.87203e-05
4 *1463:S *1463:A0 2.49909e-05
5 *1872:A *1463:A0 0.000128016
6 *1991:A *1463:A0 0.000349181
7 *1993:A *1463:A0 8.4778e-05
8 *229:101 *1463:A0 0.000157172
9 *583:118 *1463:A0 4.94012e-05
10 *626:86 *1463:A0 1.56477e-05
*RES
1 *1858:X *1463:A0 14.4 
*END

*D_NET *643 0.0111008
*CONN
*I *1464:A0 I *D sky130_fd_sc_hd__mux2_1
*I *1859:X O *D sky130_fd_sc_hd__clkbuf_1
*CAP
1 *1464:A0 0.00188968
2 *1859:X 0.00188968
3 *1464:A0 *1465:A0 2.49909e-05
4 *1464:A0 *1522:A0 0.000105826
5 *1464:A0 *1529:A0 2.5787e-05
6 *1464:A0 *645:34 8.23457e-05
7 *1464:A0 *673:28 0.00035817
8 *1464:A0 *673:43 1.453e-05
9 *1524:A1 *1464:A0 8.23457e-05
10 *1524:S *1464:A0 0.000272177
11 *1856:A *1464:A0 0
12 *1859:A *1464:A0 4.66108e-05
13 *1860:A *1464:A0 1.34594e-05
14 *1861:A *1464:A0 4.0843e-05
15 *1869:A *1464:A0 0.00047313
16 *1913:A *1464:A0 0.000229356
17 *1966:A *1464:A0 0.00232085
18 *1971:A *1464:A0 6.88241e-05
19 *1976:A *1464:A0 0.000145336
20 *1989:A *1464:A0 0.000318252
21 *1999:A *1464:A0 5.74791e-05
22 *229:101 *1464:A0 0.000441014
23 *229:131 *1464:A0 0.00104515
24 *534:28 *1464:A0 0.000169949
25 *603:14 *1464:A0 0.000985032
*RES
1 *1859:X *1464:A0 27.8913 
*END

*D_NET *644 0.000439581
*CONN
*I *1465:A0 I *D sky130_fd_sc_hd__mux2_1
*I *1860:X O *D sky130_fd_sc_hd__clkbuf_1
*CAP
1 *1465:A0 9.90764e-05
2 *1860:X 9.90764e-05
3 *1464:A0 *1465:A0 2.49909e-05
4 *1465:S *1465:A0 2.98807e-05
5 *1856:A *1465:A0 4.68773e-05
6 *1999:A *1465:A0 0.00013968
*RES
1 *1860:X *1465:A0 9.285 
*END

*D_NET *645 0.0133071
*CONN
*I *1466:A0 I *D sky130_fd_sc_hd__mux2_1
*I *1861:X O *D sky130_fd_sc_hd__buf_1
*CAP
1 *1466:A0 0.000123336
2 *1861:X 0.00267999
3 *645:34 0.00280333
4 *645:34 *1451:A0 3.1562e-06
5 *645:34 *1459:A0 0.000118286
6 *645:34 *1522:A0 0.000658521
7 *645:34 *1527:A0 0.00161591
8 *645:34 *669:28 0.000212041
9 *645:34 *682:50 0.000263632
10 *645:34 *686:28 1.72766e-05
11 *1464:A0 *645:34 8.23457e-05
12 *1466:A1 *1466:A0 0.000217784
13 *1470:A1 *645:34 4.78145e-05
14 *1473:A1 *645:34 5.30022e-05
15 *1473:S *645:34 4.82863e-05
16 *1484:B *645:34 1.23247e-05
17 *1524:A1 *645:34 4.08514e-05
18 *1525:A1 *1466:A0 4.89295e-05
19 *1607:D *645:34 0.000208707
20 *1611:GATE *645:34 4.7878e-05
21 *1648:GATE *645:34 7.75514e-05
22 *1780:A *645:34 0.00010661
23 *1862:A *645:34 5.36281e-05
24 *1913:A *645:34 0
25 *1917:A *645:34 9.4556e-05
26 *1945:A *645:34 0.000762812
27 *1966:A *645:34 0
28 *1981:A *645:34 0.000333731
29 *1991:A *645:34 1.76833e-05
30 *1999:A *645:34 0.00029933
31 *466:44 *645:34 0.000361888
32 *471:46 *645:34 0.000343191
33 *486:26 *645:34 5.10302e-05
34 *515:48 *645:34 0.000332386
35 *528:20 *645:34 0.000448201
36 *583:118 *645:34 4.41506e-05
37 *584:125 *1466:A0 0.000211398
38 *584:125 *645:34 1.2026e-05
39 *628:108 *645:34 9.02902e-05
40 *630:26 *645:34 0.000363221
*RES
1 *1861:X *645:34 48.434 
2 *645:34 *1466:A0 7.5 
*END

*D_NET *646 0.00249292
*CONN
*I *1467:A0 I *D sky130_fd_sc_hd__mux2_1
*I *1492:A1 I *D sky130_fd_sc_hd__mux2_1
*I *1862:X O *D sky130_fd_sc_hd__clkbuf_1
*CAP
1 *1467:A0 8.10783e-05
2 *1492:A1 0.000169792
3 *1862:X 0.000302047
4 *646:8 0.000552917
5 *1467:A0 *677:30 0.0001249
6 *1492:A1 *1492:A0 0.000335791
7 *646:8 *1473:A0 0.000231055
8 *646:8 *1492:A0 6.28498e-05
9 *646:8 *1530:A0 7.87605e-06
10 *646:8 *649:30 4.56119e-05
11 *646:8 *675:42 6.54935e-05
12 *1467:S *1492:A1 0.000102789
13 *1482:A0 *1492:A1 5.06382e-06
14 *1747:A *1492:A1 4.78726e-05
15 *1865:A *646:8 0.000115887
16 *1883:A *646:8 0.000105903
17 *1885:A *646:8 3.63701e-06
18 *1989:A *1492:A1 0
19 *270:16 *1492:A1 9.50342e-06
20 *466:44 *646:8 0.000122849
*RES
1 *1862:X *646:8 10.59 
2 *646:8 *1492:A1 7.785 
3 *646:8 *1467:A0 4.74 
*END

*D_NET *647 0.0114425
*CONN
*I *1468:A0 I *D sky130_fd_sc_hd__mux2_1
*I *1486:A1 I *D sky130_fd_sc_hd__mux2_1
*I *1863:X O *D sky130_fd_sc_hd__buf_1
*CAP
1 *1468:A0 1.36534e-05
2 *1486:A1 3.35635e-05
3 *1863:X 0.0024343
4 *647:22 0.00248152
5 *1486:A1 *1521:A0 9.21068e-05
6 *647:22 *1452:A0 3.52773e-05
7 *647:22 *1520:A0 0.000385667
8 *647:22 *1521:A0 0.0015687
9 *647:22 *1530:A0 8.5867e-05
10 *647:22 *648:38 4.66108e-05
11 *647:22 *668:16 0.000147039
12 *647:22 *675:42 0.000377973
13 *647:22 *679:38 0.000574736
14 *647:22 *682:50 1.92057e-05
15 *647:22 *687:26 7.15795e-05
16 FrameStrobe_O[5] *647:22 0.000102635
17 *1884:A *647:22 0.00030822
18 *1888:A *647:22 0.000119035
19 *1917:A *647:22 0.000284948
20 *1918:A *647:22 0.000644173
21 *1933:A *647:22 4.82172e-06
22 *1934:A *1468:A0 4.66108e-05
23 *1936:A *1486:A1 9.21068e-05
24 *1936:A *647:22 0.00102335
25 *1954:A *647:22 0.000219136
26 *508:30 *647:22 9.48284e-05
27 *510:20 *1468:A0 4.66108e-05
28 *582:30 *647:22 7.40726e-05
29 *617:53 *647:22 1.41429e-05
*RES
1 *1863:X *647:22 26.5978 
2 *647:22 *1486:A1 4.725 
3 *647:22 *1468:A0 4.05 
*END

*D_NET *648 0.00916045
*CONN
*I *1489:A0 I *D sky130_fd_sc_hd__mux4_1
*I *1469:A0 I *D sky130_fd_sc_hd__mux2_1
*I *1864:X O *D sky130_fd_sc_hd__buf_1
*CAP
1 *1489:A0 0
2 *1469:A0 0.000376394
3 *1864:X 0.00135289
4 *648:38 0.00172929
5 *1469:A0 *1489:A1 8.40269e-05
6 *648:38 *1489:A1 0.00102001
7 *648:38 *1490:A_N 4.61701e-06
8 *648:38 *1516:A0 0.000107727
9 *648:38 *1524:A0 3.82018e-05
10 *648:38 *1530:A0 0.000410447
11 *648:38 *650:16 0.000816297
12 *1456:A1 *648:38 0.000457889
13 *1469:A1 *1469:A0 4.99619e-05
14 *1473:S *648:38 7.11581e-05
15 *1489:S0 *648:38 0.000159697
16 *1493:A1 *1469:A0 5.63007e-05
17 *1493:A2 *1469:A0 0.000132684
18 *1493:B1 *1469:A0 7.53976e-05
19 *1493:B2 *1469:A0 1.18246e-05
20 *1494:A2 *648:38 8.40269e-05
21 *1494:B1 *1469:A0 0.000141452
22 *1494:B1 *648:38 3.63267e-05
23 *1773:A *648:38 7.00889e-06
24 *1783:A *648:38 5.98222e-05
25 *1862:A *648:38 3.71063e-05
26 *1863:A *648:38 1.71775e-05
27 *1865:A *648:38 0
28 *1883:A *648:38 0
29 *1884:A *648:38 8.6328e-05
30 *1953:A *1469:A0 8.18626e-05
31 *2003:A *1469:A0 7.04613e-05
32 *271:28 *648:38 1.7635e-05
33 *515:48 *648:38 0.000293772
34 *534:28 *1469:A0 0.000120663
35 *563:34 *648:38 0.000341406
36 *625:71 *1469:A0 0.000269303
37 *625:92 *1469:A0 0.00047687
38 *632:40 *648:38 1.78126e-05
39 *647:22 *648:38 4.66108e-05
*RES
1 *1864:X *648:38 41.505 
2 *648:38 *1469:A0 13.21 
3 *648:38 *1489:A0 1.6 
*END

*D_NET *649 0.00948786
*CONN
*I *1483:A0 I *D sky130_fd_sc_hd__mux4_1
*I *1470:A0 I *D sky130_fd_sc_hd__mux2_1
*I *1865:X O *D sky130_fd_sc_hd__buf_1
*CAP
1 *1483:A0 0
2 *1470:A0 0.000545371
3 *1865:X 0.00167923
4 *649:30 0.0022246
5 *1470:A0 *652:28 4.66742e-05
6 *1470:A0 *684:26 4.43871e-06
7 *1470:A0 *684:42 0.000266151
8 *649:30 *1453:A0 0
9 *649:30 *1454:A0 0.000591302
10 *649:30 *1456:A0 0.000160256
11 *649:30 *1483:A1 0.000188429
12 *649:30 *1527:A0 0.000236049
13 *649:30 *1531:A0 8.7152e-06
14 *649:30 *660:36 0.000232105
15 *1470:S *1470:A0 0.000195068
16 *1485:A1 *649:30 0.00034189
17 *1485:A2 *649:30 4.66108e-05
18 *1487:A2 *649:30 0.000124007
19 *1488:A2 *1470:A0 3.35563e-05
20 *1519:A1 *1470:A0 6.87336e-05
21 *1533:S *649:30 1.7635e-05
22 *1607:D *1470:A0 0.000177428
23 *1607:GATE *1470:A0 0.000146165
24 *1741:A *649:30 1.52835e-05
25 *1989:A *649:30 0.000169535
26 *2026:A *649:30 0.000226038
27 *275:27 *649:30 0.000187612
28 *466:44 *649:30 0.000247312
29 *474:20 *1470:A0 3.12433e-05
30 *491:38 *649:30 0.000270415
31 *543:24 *649:30 0.000267846
32 *603:14 *649:30 0.000473584
33 *619:50 *649:30 0.000218959
34 *630:16 *649:30 0
35 *646:8 *649:30 4.56119e-05
*RES
1 *1865:X *649:30 28.2275 
2 *649:30 *1470:A0 18.87 
3 *649:30 *1483:A0 1.6 
*END

*D_NET *650 0.00505833
*CONN
*I *1471:A0 I *D sky130_fd_sc_hd__mux2_1
*I *1490:A_N I *D sky130_fd_sc_hd__nand2b_1
*I *1866:X O *D sky130_fd_sc_hd__clkbuf_1
*CAP
1 *1471:A0 0.000428419
2 *1490:A_N 0.000299357
3 *1866:X 0.000284813
4 *650:16 0.00101259
5 *1471:A0 *1516:A0 2.50235e-05
6 *650:16 *1522:A0 6.58916e-05
7 *1450:A *1471:A0 8.69417e-06
8 *1450:A *1490:A_N 0.00023085
9 *1460:A1 *1471:A0 5.90239e-06
10 *1463:A1 *650:16 0.000108706
11 *1471:S *1471:A0 2.99518e-06
12 *1489:S0 *1490:A_N 2.5424e-05
13 *1491:A1 *1490:A_N 0.000180112
14 *1491:B1_N *1490:A_N 0.000122231
15 *1494:A1 *1490:A_N 2.53771e-05
16 *1494:A1 *650:16 0.000221937
17 *1494:B1 *650:16 4.82919e-05
18 *1539:A *1471:A0 6.76938e-05
19 *1697:A *1471:A0 0.000165627
20 *1781:A *1490:A_N 8.52883e-05
21 *1781:A *650:16 1.14169e-05
22 *1808:A *1471:A0 0
23 *1867:A *650:16 8.49205e-05
24 *1991:A *650:16 3.31786e-05
25 *229:33 *1490:A_N 1.85659e-05
26 *270:30 *1471:A0 5.62392e-05
27 *563:34 *650:16 0.000270415
28 *578:32 *1471:A0 4.89295e-05
29 *578:55 *1471:A0 4.89295e-05
30 *590:95 *1471:A0 1.60335e-05
31 *638:20 *1490:A_N 0.000233565
32 *648:38 *1490:A_N 4.61701e-06
33 *648:38 *650:16 0.000816297
*RES
1 *1866:X *650:16 15.485 
2 *650:16 *1490:A_N 13.025 
3 *650:16 *1471:A0 12.47 
*END

*D_NET *651 0.0030231
*CONN
*I *1693:A I *D sky130_fd_sc_hd__clkbuf_2
*I *1634:D I *D sky130_fd_sc_hd__dlxtp_1
*I *1602:D I *D sky130_fd_sc_hd__dlxtp_1
*I *1879:X O *D sky130_fd_sc_hd__buf_1
*CAP
1 *1693:A 7.19949e-05
2 *1634:D 0
3 *1602:D 0
4 *1879:X 0.000509359
5 *651:21 0.000232321
6 *651:14 0.000669685
7 *651:14 *684:26 1.88904e-05
8 *1475:A1 *651:14 0
9 *1475:S *651:21 6.13596e-05
10 *1554:B *651:14 6.90044e-05
11 *1557:A *651:14 4.80285e-05
12 *1559:B1 *651:14 3.1562e-06
13 *1601:D *651:14 0.000162325
14 *1601:GATE *651:14 4.40812e-05
15 *1602:GATE *651:14 1.83847e-05
16 *1602:GATE *651:21 2.96334e-05
17 *1632:GATE *1693:A 0.000134539
18 *1634:GATE *651:21 3.96284e-05
19 *1738:A *651:14 3.62718e-05
20 *1958:A *1693:A 7.0176e-05
21 *471:20 *651:14 0.000153448
22 *482:28 *651:14 4.82919e-05
23 *482:28 *651:21 0.000243655
24 *613:24 *651:14 0.000132658
25 *618:18 *1693:A 4.66108e-05
26 *618:18 *651:21 4.66108e-05
27 *625:160 *651:14 2.75538e-05
28 *629:22 *651:14 8.97903e-05
29 *630:148 *1693:A 1.19928e-05
30 *630:148 *651:21 3.64998e-06
*RES
1 *1879:X *651:14 16.325 
2 *651:14 *1602:D 1.6 
3 *651:14 *651:21 4.245 
4 *651:21 *1634:D 1.6 
5 *651:21 *1693:A 7.685 
*END

*D_NET *652 0.0131988
*CONN
*I *1484:A_N I *D sky130_fd_sc_hd__nand2b_1
*I *1472:A0 I *D sky130_fd_sc_hd__mux2_1
*I *1867:X O *D sky130_fd_sc_hd__buf_1
*CAP
1 *1484:A_N 0
2 *1472:A0 0.0014645
3 *1867:X 0.00189345
4 *652:36 0.0020762
5 *652:28 0.00250514
6 *1472:A0 *1486:A0 8.10105e-05
7 *1472:A0 *1523:A0 4.23612e-05
8 *1472:A0 *1605:D 4.65515e-05
9 *652:28 *1522:A0 0.000381088
10 *652:28 *673:28 0
11 *652:28 *684:26 0.000763376
12 *652:28 *684:42 2.32688e-05
13 *652:36 *1483:A2 1.10377e-05
14 *1451:A1 *652:28 0.000215597
15 *1454:A1 *652:28 5.68852e-05
16 *1470:A0 *652:28 4.66742e-05
17 *1472:S *1472:A0 0.000199629
18 *1484:B *652:36 6.00081e-05
19 *1486:S *1472:A0 2.75145e-05
20 *1487:B2 *652:36 5.4354e-05
21 *1488:A2 *652:36 2.79551e-05
22 *1518:S *652:28 0.000225372
23 *1605:GATE *1472:A0 4.41506e-05
24 *1607:GATE *652:28 0.000265556
25 *1624:D *652:28 0.000196738
26 *1624:GATE *652:28 8.64421e-05
27 *1642:GATE *652:28 4.60061e-05
28 *1742:A *1472:A0 0.000149341
29 *1744:A *652:28 4.82863e-05
30 *1780:A *1472:A0 4.91952e-05
31 *1799:A *652:28 8.63479e-05
32 *1924:A *652:28 0.000161815
33 *1991:A *1472:A0 8.34281e-06
34 *1991:A *652:36 8.49205e-05
35 *275:27 *652:36 0.000117584
36 *509:32 *1472:A0 0.000312793
37 *528:20 *652:28 0.000228447
38 *560:24 *652:28 5.99988e-05
39 *615:22 *652:28 9.27495e-05
40 *620:42 *652:28 0.000332556
41 *627:107 *652:28 0.000122331
42 *627:124 *652:28 0.00050324
*RES
1 *1867:X *652:28 49.695 
2 *652:28 *652:36 8.175 
3 *652:36 *1472:A0 22.705 
4 *652:36 *1484:A_N 1.6 
*END

*D_NET *653 0.00259992
*CONN
*I *1473:A0 I *D sky130_fd_sc_hd__mux2_1
*I *1492:A0 I *D sky130_fd_sc_hd__mux2_1
*I *1869:X O *D sky130_fd_sc_hd__clkbuf_1
*CAP
1 *1473:A0 9.9724e-05
2 *1492:A0 0.00015782
3 *1869:X 0.000293531
4 *653:8 0.000551075
5 *1473:A0 *675:42 0.000221175
6 *1492:A0 *675:42 0.000401002
7 *1492:A1 *1492:A0 0.000335791
8 *229:101 *653:8 0.000163549
9 *632:40 *653:8 8.23457e-05
10 *646:8 *1473:A0 0.000231055
11 *646:8 *1492:A0 6.28498e-05
*RES
1 *1869:X *653:8 7.155 
2 *653:8 *1492:A0 8.55 
3 *653:8 *1473:A0 6.51 
*END

*D_NET *654 0.0160622
*CONN
*I *1486:A0 I *D sky130_fd_sc_hd__mux2_1
*I *1474:A0 I *D sky130_fd_sc_hd__mux2_1
*I *701:DIODE I *D sky130_fd_sc_hd__diode_2
*I *700:DIODE I *D sky130_fd_sc_hd__diode_2
*I *1870:X O *D sky130_fd_sc_hd__buf_1
*CAP
1 *1486:A0 4.50235e-05
2 *1474:A0 7.01267e-05
3 *701:DIODE 7.67399e-05
4 *700:DIODE 0.000244994
5 *1870:X 0.00327613
6 *654:34 0.00348271
7 *700:DIODE *684:42 7.64501e-05
8 *1474:A0 *684:42 0.00019637
9 *654:34 *662:22 0.000863016
10 *654:34 *686:32 6.87585e-05
11 *1472:A0 *1486:A0 8.10105e-05
12 *1474:S *1474:A0 4.66742e-05
13 *1486:S *654:34 4.36398e-05
14 *1517:A1 *701:DIODE 6.45236e-05
15 *1517:A1 *654:34 4.18203e-05
16 *1644:D *654:34 0.000128887
17 *1939:A *701:DIODE 2.67022e-05
18 *1939:A *654:34 1.38716e-05
19 *1987:A *654:34 0.00128722
20 *1991:A *654:34 1.72069e-05
21 *1992:A *654:34 6.59891e-05
22 *2000:A *654:34 0.00371112
23 *2002:A *654:34 0.00140379
24 *273:14 *654:34 0.000162357
25 *273:24 *654:34 0.000171143
26 *509:32 *1486:A0 0.000198939
27 *537:52 *654:34 1.08758e-05
28 *537:75 *654:34 3.57349e-05
29 *630:42 *654:34 3.92756e-05
30 *632:40 *654:34 0.000111108
*RES
1 *1870:X *654:34 19.4861 
2 *654:34 *700:DIODE 5.775 
3 *654:34 *701:DIODE 4.47 
4 *700:DIODE *1474:A0 5.03 
5 *701:DIODE *1486:A0 5.03 
*END

*D_NET *655 0.0156123
*CONN
*I *1475:A0 I *D sky130_fd_sc_hd__mux2_1
*I *1871:X O *D sky130_fd_sc_hd__buf_1
*CAP
1 *1475:A0 0
2 *1871:X 0.00114078
3 *655:52 0.00168736
4 *655:42 0.00282813
5 *655:42 *658:18 0.000601209
6 N2BEG[4] *655:52 0
7 N4BEG[10] *655:42 9.10305e-05
8 N4BEG[11] *655:42 0.000132484
9 N4BEG[13] *655:42 0.000191232
10 NN4BEG[0] *655:42 8.37239e-05
11 NN4BEG[1] *655:42 4.66474e-05
12 NN4BEG[2] *655:42 0.00010918
13 NN4BEG[3] *655:42 2.30515e-05
14 NN4BEG[4] *655:42 0.000195731
15 NN4BEG[6] *655:42 0.000118081
16 NN4BEG[7] *655:42 6.07575e-06
17 NN4BEG[8] *655:42 0.000128208
18 *1633:D *655:52 0.000337688
19 *1754:A *655:42 0.000203552
20 *1854:A *655:42 8.23535e-05
21 *1954:A *655:52 0
22 *1958:A *655:52 0.000924403
23 *1960:A *655:52 0
24 *1962:A *655:52 0
25 *1989:A *655:42 0.000150587
26 *1990:A *655:42 7.00115e-05
27 *1991:A *655:42 0.000275929
28 *2000:A *655:42 8.52534e-05
29 *2001:A *655:42 0.000179438
30 *462:20 *655:52 0.00070798
31 *478:26 *655:42 7.00115e-05
32 *504:26 *655:52 3.1562e-06
33 *504:30 *655:52 0.00170418
34 *529:32 *655:42 0.000539647
35 *537:26 *655:52 2.66935e-05
36 *582:18 *655:52 0.00286853
37 *587:75 *655:52 0
*RES
1 *1871:X *655:42 39.025 
2 *655:42 *655:52 49.375 
3 *655:52 *1475:A0 1.6 
*END

*D_NET *656 0.0167359
*CONN
*I *1476:A0 I *D sky130_fd_sc_hd__mux2_1
*I *1872:X O *D sky130_fd_sc_hd__buf_1
*CAP
1 *1476:A0 0.00365185
2 *1872:X 0.00365185
3 *1476:A0 *1489:A1 5.66369e-05
4 *1476:A0 *1489:A2 4.66474e-05
5 *1476:A0 *1526:A0 0.00334589
6 *1476:A0 *1527:A0 5.08019e-05
7 *1476:A0 *1530:A0 0.000298584
8 *1476:A0 *673:28 0.000524983
9 *1476:A0 *684:26 0.0027358
10 *1475:A1 *1476:A0 5.48905e-05
11 *1476:S *1476:A0 2.52797e-05
12 *1479:S1 *1476:A0 0.000608298
13 *1612:GATE *1476:A0 0.000151008
14 *1659:CLK *1476:A0 8.7152e-06
15 *1738:A *1476:A0 0
16 *1743:A *1476:A0 7.96104e-06
17 *1867:A *1476:A0 0.000129723
18 *1870:A *1476:A0 8.53307e-05
19 *1952:A *1476:A0 4.27883e-06
20 *1969:A *1476:A0 4.66108e-05
21 *1993:A *1476:A0 0.000614192
22 *2000:A *1476:A0 0.000135368
23 *2002:A *1476:A0 8.4774e-05
24 *2026:A *1476:A0 3.59531e-06
25 *229:71 *1476:A0 0
26 *421:10 *1476:A0 8.35395e-05
27 *585:89 *1476:A0 8.00149e-05
28 *621:22 *1476:A0 0
29 *626:10 *1476:A0 2.53191e-06
30 *626:86 *1476:A0 0.00013127
31 *629:22 *1476:A0 0.000115518
*RES
1 *1872:X *1476:A0 34.4162 
*END

*D_NET *657 0.0133455
*CONN
*I *1477:A0 I *D sky130_fd_sc_hd__mux2_1
*I *1873:X O *D sky130_fd_sc_hd__buf_1
*CAP
1 *1477:A0 0.00254423
2 *1873:X 0.00254423
3 *1477:A0 *1528:A0 0.000200656
4 N2BEGb[6] *1477:A0 7.77704e-05
5 N2BEGb[7] *1477:A0 2.25816e-05
6 *697:DIODE *1477:A0 1.17036e-05
7 *1614:D *1477:A0 3.72899e-05
8 *1703:A *1477:A0 0.00013757
9 *1769:A *1477:A0 3.85204e-05
10 *1867:A *1477:A0 3.05422e-05
11 *1871:A *1477:A0 0.000131603
12 *1966:A *1477:A0 0.00178778
13 *1969:A *1477:A0 0.0016993
14 *1979:A *1477:A0 2.44501e-05
15 *1981:A *1477:A0 0.000621135
16 *1989:A *1477:A0 5.99242e-05
17 *1990:A *1477:A0 6.04686e-05
18 *1995:A *1477:A0 0.00114286
19 *462:20 *1477:A0 1.44493e-05
20 *537:75 *1477:A0 3.82072e-05
21 *559:48 *1477:A0 0.00143514
22 *603:14 *1477:A0 0
23 *617:53 *1477:A0 0.000685059
*RES
1 *1873:X *1477:A0 20.1483 
*END

*D_NET *658 0.0101831
*CONN
*I *1478:A0 I *D sky130_fd_sc_hd__mux2_1
*I *1874:X O *D sky130_fd_sc_hd__clkbuf_1
*CAP
1 *1478:A0 0.000259439
2 *1874:X 0.0013916
3 *658:18 0.00165104
4 *658:18 *1460:A0 0.000131694
5 N2BEGb[3] *658:18 2.45089e-05
6 N2BEGb[4] *658:18 3.82072e-05
7 N2BEGb[5] *658:18 0.000526434
8 N4BEG[2] *658:18 0.00041614
9 N4BEG[5] *658:18 5.78621e-05
10 NN4BEG[12] *658:18 0.000330658
11 NN4BEG[13] *658:18 0.000247646
12 *1460:A1 *658:18 6.79319e-05
13 *1855:A *658:18 1.67908e-05
14 *1983:A *1478:A0 9.17274e-05
15 *1986:A *1478:A0 0.000151117
16 *1986:A *658:18 1.32077e-05
17 *1989:A *658:18 4.66474e-05
18 *1991:A *658:18 0.000130374
19 *1993:A *658:18 0.000381177
20 *504:30 *658:18 0.00237317
21 *515:24 *658:18 0.00111351
22 *559:48 *1478:A0 0.000121019
23 *655:42 *658:18 0.000601209
*RES
1 *1874:X *658:18 49.6375 
2 *658:18 *1478:A0 7.6425 
*END

*D_NET *659 0.0162451
*CONN
*I *1530:A0 I *D sky130_fd_sc_hd__mux2_1
*I *1875:X O *D sky130_fd_sc_hd__buf_1
*CAP
1 *1530:A0 0.00276441
2 *1875:X 0.00276441
3 *1530:A0 *1452:A0 8.62371e-05
4 *1530:A0 *1524:A0 1.66925e-05
5 *1530:A0 *1531:A0 0.000285585
6 *1530:A0 *662:22 0.00245656
7 *1530:A0 *673:28 0.000368844
8 *1530:A0 *675:42 0.000506999
9 *1530:A0 *684:26 1.78103e-05
10 *1456:A1 *1530:A0 0.000242554
11 *1473:S *1530:A0 0.000125244
12 *1476:A0 *1530:A0 0.000298584
13 *1527:A1 *1530:A0 0.000456645
14 *1569:A *1530:A0 0.0002699
15 *1617:GATE *1530:A0 4.2145e-05
16 *1747:A *1530:A0 9.33998e-05
17 *1807:A *1530:A0 0.000266295
18 *1865:A *1530:A0 0.00013637
19 *1883:A *1530:A0 2.70428e-05
20 *1885:A *1530:A0 5.8678e-05
21 *1886:A *1530:A0 1.42697e-05
22 *1888:A *1530:A0 0
23 *1984:A *1530:A0 0.000391163
24 *1991:A *1530:A0 0.000787934
25 *2026:A *1530:A0 4.84095e-05
26 *515:48 *1530:A0 0.000108585
27 *521:38 *1530:A0 0.000532024
28 *531:50 *1530:A0 0.000829202
29 *551:30 *1530:A0 0.000303612
30 *586:76 *1530:A0 9.90349e-05
31 *627:34 *1530:A0 0.00125052
32 *632:40 *1530:A0 9.17274e-05
33 *646:8 *1530:A0 7.87605e-06
34 *647:22 *1530:A0 8.5867e-05
35 *648:38 *1530:A0 0.000410447
*RES
1 *1875:X *1530:A0 43.8594 
*END

*D_NET *660 0.00841807
*CONN
*I *1457:A0 I *D sky130_fd_sc_hd__mux2_1
*I *1876:X O *D sky130_fd_sc_hd__clkbuf_1
*CAP
1 *1457:A0 0.000552916
2 *1876:X 0.00137884
3 *660:36 0.00193176
4 *660:36 *1451:A0 0.000120655
5 *660:36 *1458:A0 0.00104991
6 *660:36 *1460:A0 4.82919e-05
7 *660:36 *686:28 3.64998e-06
8 *1457:A1 *1457:A0 1.56428e-05
9 *1461:A1 *660:36 0.000229706
10 *1462:S *660:36 2.76356e-05
11 *1480:A1 *660:36 0.000113905
12 *1485:A1 *660:36 1.03572e-05
13 *1519:A1 *1457:A0 3.64998e-06
14 *1711:A *1457:A0 0.000274451
15 *1800:A *660:36 0.000197682
16 *1954:A *660:36 0.000126656
17 *466:44 *660:36 5.38986e-06
18 *489:46 *1457:A0 2.8585e-06
19 *508:30 *660:36 0.000933548
20 *571:22 *660:36 0.000136951
21 *614:61 *1457:A0 0.000112253
22 *614:68 *1457:A0 2.75145e-05
23 *631:18 *660:36 0.000566812
24 *631:22 *660:36 4.32457e-05
25 *635:18 *660:36 9.17274e-05
26 *638:34 *660:36 0.000179958
27 *649:30 *660:36 0.000232105
*RES
1 *1876:X *660:36 46.075 
2 *660:36 *1457:A0 8.605 
*END

*D_NET *661 0.00618466
*CONN
*I *1458:A0 I *D sky130_fd_sc_hd__mux2_1
*I *1877:X O *D sky130_fd_sc_hd__clkbuf_1
*CAP
1 *1458:A0 0.0013668
2 *1877:X 0.0013668
3 *1458:A0 *1461:A0 2.61225e-05
4 *1458:A0 *1483:A1 0
5 *1458:A1 *1458:A0 0.000880618
6 *1461:A1 *1458:A0 4.0062e-05
7 *1462:S *1458:A0 0.000108669
8 *1480:A1 *1458:A0 0.000174557
9 *1595:D *1458:A0 2.96344e-05
10 *1647:D *1458:A0 0
11 *1764:A *1458:A0 0.000113372
12 *1972:A *1458:A0 9.45795e-05
13 *67:15 *1458:A0 0
14 *229:109 *1458:A0 0.000221768
15 *461:36 *1458:A0 4.99619e-05
16 *491:38 *1458:A0 0.00033264
17 *560:24 *1458:A0 0
18 *579:84 *1458:A0 4.82863e-05
19 *588:97 *1458:A0 4.18862e-05
20 *613:44 *1458:A0 0.000179214
21 *619:50 *1458:A0 4.31657e-05
22 *632:93 *1458:A0 1.661e-05
23 *660:36 *1458:A0 0.00104991
*RES
1 *1877:X *1458:A0 38.4 
*END

*D_NET *662 0.0308349
*CONN
*I *1603:D I *D sky130_fd_sc_hd__dlxtp_1
*I *1694:A I *D sky130_fd_sc_hd__clkbuf_1
*I *1635:D I *D sky130_fd_sc_hd__dlxtp_1
*I *1890:X O *D sky130_fd_sc_hd__clkbuf_2
*CAP
1 *1603:D 0.000157917
2 *1694:A 6.76546e-05
3 *1635:D 0
4 *1890:X 0.00607204
5 *662:26 7.82321e-05
6 *662:22 0.00624053
7 *662:22 *673:28 0.000141266
8 *695:DIODE *662:22 0.00142126
9 *1451:A1 *662:22 0.000301074
10 *1488:B1 *662:22 9.60294e-05
11 *1530:A0 *662:22 0.00245656
12 *1535:A2 *662:22 0.000489437
13 *1566:B *662:22 0.000149685
14 *1744:A *662:22 0.000269386
15 *1879:A *662:22 4.81263e-05
16 *1901:A *662:22 0.0001651
17 *1934:A *1603:D 0.000146332
18 *1934:A *662:26 2.53191e-06
19 *1968:A *662:22 0.000181176
20 *1984:A *662:22 0.0013088
21 *1987:A *662:22 0.000112432
22 *1991:A *662:22 0.00225812
23 *2000:A *662:22 0.000633801
24 *2002:A *662:22 0.00180681
25 *2021:A *1694:A 0.000259485
26 *2022:A *1694:A 0.000347917
27 *273:24 *662:22 7.96104e-06
28 *415:32 *662:22 4.62771e-05
29 *458:61 *662:22 0.000611788
30 *471:20 *662:22 0.000318585
31 *510:20 *1603:D 0
32 *510:20 *662:26 9.5799e-06
33 *527:12 *1603:D 1.75088e-05
34 *531:50 *662:22 0.00135972
35 *581:16 *662:22 2.70958e-05
36 *589:77 *662:22 0.000780238
37 *622:127 *662:22 0.000906498
38 *622:151 *662:22 0.000653842
39 *640:12 *662:22 2.10433e-05
40 *654:34 *662:22 0.000863016
*RES
1 *1890:X *662:22 27.5879 
2 *662:22 *662:26 2.2325 
3 *662:26 *1635:D 1.6 
4 *662:26 *1694:A 4.81 
5 *662:22 *1603:D 6.1575 
*END

*D_NET *663 0.0054891
*CONN
*I *1459:A0 I *D sky130_fd_sc_hd__mux2_1
*I *1878:X O *D sky130_fd_sc_hd__clkbuf_1
*CAP
1 *1459:A0 0.00147305
2 *1878:X 0.00147305
3 *1459:A0 *1460:A0 1.83847e-05
4 *1459:A0 *1461:A0 9.27255e-06
5 *1459:A0 *1462:A0 5.07892e-05
6 *1459:A0 *686:28 0.000164008
7 UserCLKo *1459:A0 4.82863e-05
8 *696:DIODE *1459:A0 0.000573498
9 *1459:S *1459:A0 0.000113255
10 *1618:GATE *1459:A0 3.69837e-05
11 *1752:A *1459:A0 0.000272852
12 *1755:A *1459:A0 4.13375e-05
13 *1878:A *1459:A0 1.85674e-05
14 *1880:A *1459:A0 7.45026e-05
15 *1881:A *1459:A0 3.09164e-05
16 *1905:A *1459:A0 0.000158066
17 *1908:A *1459:A0 0.000318717
18 *1974:A *1459:A0 3.23663e-05
19 *470:30 *1459:A0 0.000462917
20 *645:34 *1459:A0 0.000118286
*RES
1 *1878:X *1459:A0 34.83 
*END

*D_NET *664 0.00757213
*CONN
*I *1460:A0 I *D sky130_fd_sc_hd__mux2_1
*I *1880:X O *D sky130_fd_sc_hd__clkbuf_1
*CAP
1 *1460:A0 0.00217347
2 *1880:X 0.00217347
3 *1460:A0 *1451:A0 2.5957e-05
4 *1460:A0 *1454:A0 1.88656e-05
5 *1460:A0 *1456:A0 8.49205e-05
6 *1460:A0 *1461:A0 0.000119762
7 *1460:A0 *1524:A0 0.000750055
8 *1460:A0 *1695:A 8.96156e-05
9 *1460:A0 *675:42 0.000104059
10 NN4BEG[15] *1460:A0 0.000161467
11 *1459:A0 *1460:A0 1.83847e-05
12 *1465:S *1460:A0 2.49909e-05
13 *1524:A1 *1460:A0 1.74678e-05
14 *1604:GATE *1460:A0 2.62017e-05
15 *1616:D *1460:A0 3.30017e-05
16 *1858:A *1460:A0 1.39456e-05
17 *1866:A *1460:A0 0.00026705
18 *1870:A *1460:A0 0.000150787
19 *1872:A *1460:A0 8.6777e-06
20 *1877:A *1460:A0 7.60965e-05
21 *1878:A *1460:A0 4.59815e-05
22 *1887:A *1460:A0 5.83121e-06
23 *1892:A *1460:A0 0.000357755
24 *1954:A *1460:A0 0
25 *1991:A *1460:A0 5.05437e-05
26 *1993:A *1460:A0 0.000321936
27 *583:118 *1460:A0 2.8585e-06
28 *587:147 *1460:A0 0.000268993
29 *658:18 *1460:A0 0.000131694
30 *660:36 *1460:A0 4.82919e-05
*RES
1 *1880:X *1460:A0 45.58 
*END

*D_NET *665 0.000906132
*CONN
*I *1461:A0 I *D sky130_fd_sc_hd__mux2_1
*I *1881:X O *D sky130_fd_sc_hd__clkbuf_1
*CAP
1 *1461:A0 0.000238095
2 *1881:X 0.000238095
3 *1458:A0 *1461:A0 2.61225e-05
4 *1459:A0 *1461:A0 9.27255e-06
5 *1460:A0 *1461:A0 0.000119762
6 *1954:A *1461:A0 0.000144595
7 *1972:A *1461:A0 4.01221e-05
8 *1974:A *1461:A0 8.57024e-05
9 *470:30 *1461:A0 4.36573e-06
*RES
1 *1881:X *1461:A0 11.265 
*END

*D_NET *666 0.00210966
*CONN
*I *1462:A0 I *D sky130_fd_sc_hd__mux2_1
*I *1882:X O *D sky130_fd_sc_hd__clkbuf_1
*CAP
1 *1462:A0 0.000476613
2 *1882:X 0.000476613
3 *1462:A0 *677:30 0.000229541
4 *1462:A0 *686:28 7.79931e-05
5 *1459:A0 *1462:A0 5.07892e-05
6 *1626:GATE *1462:A0 0.000170347
7 *1752:A *1462:A0 1.95873e-05
8 *1880:A *1462:A0 3.02513e-05
9 *1974:A *1462:A0 8.40213e-05
10 *470:30 *1462:A0 0.000203974
11 *547:24 *1462:A0 0.000289925
*RES
1 *1882:X *1462:A0 17.235 
*END

*D_NET *667 0.0129141
*CONN
*I *1531:A0 I *D sky130_fd_sc_hd__mux2_1
*I *1883:X O *D sky130_fd_sc_hd__buf_1
*CAP
1 *1531:A0 0.00254667
2 *1883:X 0.00254667
3 *1531:A0 *1452:A0 0.000108283
4 *1531:A0 *1524:A0 0.000248892
5 *1531:A0 *1528:A0 0.00149021
6 *1531:A0 *675:42 0.000256795
7 *697:DIODE *1531:A0 4.60198e-05
8 *1530:A0 *1531:A0 0.000285585
9 *1531:S *1531:A0 1.39456e-05
10 *1617:GATE *1531:A0 0.000143849
11 *1865:A *1531:A0 6.60257e-06
12 *1885:A *1531:A0 1.7635e-05
13 *1966:A *1531:A0 0.00149308
14 *1967:A *1531:A0 3.86479e-05
15 *1976:A *1531:A0 0.000303583
16 *1994:A *1531:A0 0.000167562
17 *488:28 *1531:A0 0.000991943
18 *537:52 *1531:A0 0.00048826
19 *582:30 *1531:A0 0.000284478
20 *587:147 *1531:A0 0.000145914
21 *617:28 *1531:A0 1.98863e-05
22 *617:53 *1531:A0 0.00052431
23 *625:71 *1531:A0 0.000736581
24 *649:30 *1531:A0 8.7152e-06
*RES
1 *1883:X *1531:A0 17.589 
*END

*D_NET *668 0.00904973
*CONN
*I *1532:A0 I *D sky130_fd_sc_hd__mux2_1
*I *1489:A1 I *D sky130_fd_sc_hd__mux4_1
*I *1884:X O *D sky130_fd_sc_hd__clkbuf_1
*CAP
1 *1532:A0 0.00010948
2 *1489:A1 0.00142008
3 *1884:X 0.000577721
4 *668:16 0.00210728
5 *1532:A0 *1522:A0 5.8023e-05
6 *668:16 *1451:A0 1.55092e-05
7 *668:16 *1452:A0 4.43871e-06
8 *668:16 *1453:A0 0.000562206
9 *668:16 *1522:A0 9.76422e-06
10 *668:16 *669:28 0.000124225
11 *668:16 *675:42 8.87067e-05
12 *1467:A1 *1489:A1 8.58007e-05
13 *1467:A1 *1532:A0 4.00646e-05
14 *1469:A0 *1489:A1 8.40269e-05
15 *1476:A0 *1489:A1 5.66369e-05
16 *1489:S0 *1489:A1 2.08217e-05
17 *1493:B1 *1489:A1 8.40269e-05
18 *1642:GATE *1532:A0 0.000164128
19 *1747:A *1489:A1 0.000153816
20 *1783:A *1489:A1 4.25093e-05
21 *1867:A *1489:A1 5.78621e-05
22 *1884:A *668:16 1.91597e-05
23 *1888:A *668:16 1.61733e-05
24 *1966:A *668:16 0.000210042
25 *1971:A *1489:A1 0.00067696
26 *1976:A *1489:A1 0.000682469
27 *270:16 *668:16 6.83447e-05
28 *543:24 *1489:A1 1.07563e-05
29 *563:34 *1489:A1 0.000247083
30 *563:34 *668:16 7.50662e-05
31 *633:16 *668:16 9.50189e-06
32 *647:22 *668:16 0.000147039
33 *648:38 *1489:A1 0.00102001
*RES
1 *1884:X *668:16 17.27 
2 *668:16 *1489:A1 24.5918 
3 *668:16 *1532:A0 8 
*END

*D_NET *669 0.00626777
*CONN
*I *1533:A0 I *D sky130_fd_sc_hd__mux2_1
*I *1483:A1 I *D sky130_fd_sc_hd__mux4_1
*I *1885:X O *D sky130_fd_sc_hd__clkbuf_1
*CAP
1 *1533:A0 0
2 *1483:A1 0.000344935
3 *1885:X 0.00106861
4 *669:28 0.00141355
5 *669:28 *1451:A0 9.20976e-05
6 *669:28 *1453:A0 4.77719e-05
7 *669:28 *1456:A0 0.000446184
8 *669:28 *1522:A0 0.000288933
9 *669:28 *1524:A0 4.24744e-05
10 *669:28 *1527:A0 3.94806e-05
11 *669:28 *682:50 1.91934e-05
12 *669:28 *686:28 7.96104e-06
13 *1458:A0 *1483:A1 0
14 *1480:S1 *669:28 1.88218e-05
15 *1485:A1 *1483:A1 0.00034356
16 *1485:A2 *1483:A1 0.000238736
17 *1595:D *669:28 4.40653e-05
18 *1595:GATE *669:28 5.83121e-06
19 *1627:GATE *669:28 5.13708e-05
20 *1648:D *669:28 1.17735e-05
21 *1648:GATE *669:28 4.27276e-05
22 *1764:A *1483:A1 3.53918e-05
23 *1804:A *1483:A1 0
24 *1804:A *669:28 0
25 *1888:A *669:28 8.6076e-05
26 *67:15 *1483:A1 1.37515e-05
27 *229:101 *669:28 0.000139037
28 *275:27 *1483:A1 0.000120655
29 *474:20 *1483:A1 0.000119575
30 *491:38 *1483:A1 7.39166e-05
31 *547:24 *1483:A1 0.000492537
32 *586:76 *1483:A1 1.52837e-05
33 *586:76 *669:28 8.22439e-06
34 *619:50 *669:28 5.79231e-05
35 *633:27 *669:28 1.26248e-05
36 *645:34 *669:28 0.000212041
37 *649:30 *1483:A1 0.000188429
38 *668:16 *669:28 0.000124225
*RES
1 *1885:X *669:28 25.7109 
2 *669:28 *1483:A1 14.13 
3 *669:28 *1533:A0 3.6 
*END

*D_NET *670 0.00393682
*CONN
*I *1451:A0 I *D sky130_fd_sc_hd__mux2_1
*I *1886:X O *D sky130_fd_sc_hd__clkbuf_1
*CAP
1 *1451:A0 0.000919025
2 *1886:X 0.000919025
3 *1451:A0 *1452:A0 2.85364e-05
4 *1451:A0 *1529:A0 0.000200559
5 *1451:A0 *675:42 4.3142e-05
6 *1451:A0 *686:28 7.17091e-05
7 *1451:A1 *1451:A0 8.40269e-05
8 *1460:A0 *1451:A0 2.5957e-05
9 *1462:S *1451:A0 3.95409e-05
10 *1615:D *1451:A0 4.82919e-05
11 *1626:D *1451:A0 0.000746173
12 *1648:D *1451:A0 9.93805e-05
13 *1648:GATE *1451:A0 0.000100155
14 *1685:A *1451:A0 4.66108e-05
15 *1908:A *1451:A0 0.000307049
16 *489:28 *1451:A0 1.56428e-05
17 *582:45 *1451:A0 1.05827e-05
18 *645:34 *1451:A0 3.1562e-06
19 *660:36 *1451:A0 0.000120655
20 *668:16 *1451:A0 1.55092e-05
21 *669:28 *1451:A0 9.20976e-05
*RES
1 *1886:X *1451:A0 25.425 
*END

*D_NET *671 0.0126569
*CONN
*I *1452:A0 I *D sky130_fd_sc_hd__mux2_1
*I *1887:X O *D sky130_fd_sc_hd__clkbuf_1
*CAP
1 *1452:A0 0.00218225
2 *1887:X 0.00218225
3 *1452:A0 *1454:A0 4.09223e-05
4 *1452:A0 *1520:A0 0.00315183
5 *1452:A0 *1524:A0 9.79957e-05
6 *1452:A0 *675:42 3.3298e-05
7 N4BEG[10] *1452:A0 8.69417e-06
8 N4BEG[3] *1452:A0 4.12356e-05
9 N4BEG[9] *1452:A0 2.11651e-05
10 *1451:A0 *1452:A0 2.85364e-05
11 *1530:A0 *1452:A0 8.62371e-05
12 *1531:A0 *1452:A0 0.000108283
13 *1865:A *1452:A0 0.000134926
14 *1887:A *1452:A0 3.03775e-05
15 *1954:A *1452:A0 0.000202526
16 *1966:A *1452:A0 0.000289749
17 *1976:A *1452:A0 0.00100124
18 *2000:A *1452:A0 0.000256505
19 *488:28 *1452:A0 1.38851e-05
20 *537:52 *1452:A0 5.84786e-05
21 *583:52 *1452:A0 0.000297214
22 *583:77 *1452:A0 0.000771013
23 *625:71 *1452:A0 0.00157859
24 *647:22 *1452:A0 3.52773e-05
25 *668:16 *1452:A0 4.43871e-06
*RES
1 *1887:X *1452:A0 17.2331 
*END

*D_NET *672 0.00485815
*CONN
*I *1453:A0 I *D sky130_fd_sc_hd__mux2_1
*I *1888:X O *D sky130_fd_sc_hd__clkbuf_1
*CAP
1 *1453:A0 0.00105914
2 *1888:X 0.00105914
3 *1482:A1 *1453:A0 8.40213e-05
4 *1532:S *1453:A0 0.000128349
5 *1624:GATE *1453:A0 0
6 *1642:GATE *1453:A0 0.000784693
7 *1741:A *1453:A0 0
8 *229:101 *1453:A0 8.73147e-06
9 *270:16 *1453:A0 3.49093e-05
10 *563:34 *1453:A0 0.000197437
11 *581:108 *1453:A0 0.000189159
12 *619:50 *1453:A0 0.000511776
13 *627:124 *1453:A0 2.32997e-05
14 *630:16 *1453:A0 0.000167512
15 *649:30 *1453:A0 0
16 *668:16 *1453:A0 0.000562206
17 *669:28 *1453:A0 4.77719e-05
*RES
1 *1888:X *1453:A0 29.43 
*END

*D_NET *673 0.019987
*CONN
*I *1695:A I *D sky130_fd_sc_hd__buf_1
*I *1604:D I *D sky130_fd_sc_hd__dlxtp_1
*I *1636:D I *D sky130_fd_sc_hd__dlxtp_1
*I *1901:X O *D sky130_fd_sc_hd__buf_1
*CAP
1 *1695:A 0.000196805
2 *1604:D 0
3 *1636:D 1.83028e-05
4 *1901:X 0.00347077
5 *673:43 0.000304419
6 *673:28 0.00359669
7 *1695:A *1524:A0 6.97034e-05
8 *673:28 *1527:A0 4.13893e-05
9 *673:28 *684:26 0.00582445
10 *1460:A0 *1695:A 8.96156e-05
11 *1464:A0 *673:28 0.00035817
12 *1464:A0 *673:43 1.453e-05
13 *1471:S *673:28 4.61701e-06
14 *1476:A0 *673:28 0.000524983
15 *1524:S *673:43 0.000108706
16 *1530:A0 *673:28 0.000368844
17 *1566:B *673:28 6.28203e-05
18 *1581:D *673:28 9.68083e-06
19 *1604:GATE *1695:A 8.49205e-05
20 *1617:GATE *673:28 3.92756e-05
21 *1901:A *673:28 2.40647e-05
22 *1979:A *673:28 0.000536625
23 *1984:A *673:28 0.000246025
24 *229:33 *673:28 0
25 *270:30 *673:28 0.00128296
26 *471:20 *673:28 1.21441e-05
27 *528:20 *1636:D 1.56428e-05
28 *528:20 *673:28 0
29 *543:24 *673:28 8.05328e-05
30 *560:24 *673:28 0.000158573
31 *583:118 *673:43 0.000105897
32 *585:128 *673:28 0.000136939
33 *613:24 *673:28 1.92979e-05
34 *622:127 *673:28 0.000295941
35 *622:151 *673:28 0.000272421
36 *625:34 *673:28 6.66145e-05
37 *625:34 *673:43 1.01911e-05
38 *625:71 *673:43 1.07797e-05
39 *627:34 *673:28 0.00133581
40 *630:26 *1636:D 4.66108e-05
41 *652:28 *673:28 0
42 *662:22 *673:28 0.000141266
*RES
1 *1901:X *673:28 27.7665 
2 *673:28 *1636:D 4.05 
3 *673:28 *673:43 4.34 
4 *673:43 *1604:D 1.6 
5 *673:43 *1695:A 5.155 
*END

*D_NET *674 0.00678904
*CONN
*I *1454:A0 I *D sky130_fd_sc_hd__mux2_1
*I *1889:X O *D sky130_fd_sc_hd__clkbuf_1
*CAP
1 *1454:A0 0.00277544
2 *1889:X 0.00277544
3 *1454:A0 *1520:A0 9.11608e-05
4 *1454:A0 *675:42 0.000242887
5 *1452:A0 *1454:A0 4.09223e-05
6 *1454:A1 *1454:A0 2.49909e-05
7 *1460:A0 *1454:A0 1.88656e-05
8 *1501:B *1454:A0 4.66108e-05
9 *1924:A *1454:A0 7.67805e-05
10 *518:24 *1454:A0 1.66925e-05
11 *552:56 *1454:A0 4.93163e-05
12 *619:50 *1454:A0 3.86439e-05
13 *649:30 *1454:A0 0.000591302
*RES
1 *1889:X *1454:A0 15.3708 
*END

*D_NET *675 0.0139371
*CONN
*I *1455:A0 I *D sky130_fd_sc_hd__mux2_1
*I *1891:X O *D sky130_fd_sc_hd__buf_1
*CAP
1 *1455:A0 0
2 *1891:X 0.00282034
3 *675:42 0.00282034
4 *675:42 *1456:A0 0
5 *675:42 *1520:A0 1.26484e-05
6 *1451:A0 *675:42 4.3142e-05
7 *1452:A0 *675:42 3.3298e-05
8 *1454:A0 *675:42 0.000242887
9 *1454:A1 *675:42 0.000397445
10 *1460:A0 *675:42 0.000104059
11 *1473:A0 *675:42 0.000221175
12 *1492:A0 *675:42 0.000401002
13 *1505:C *675:42 4.81484e-06
14 *1513:B *675:42 2.2684e-05
15 *1530:A0 *675:42 0.000506999
16 *1531:A0 *675:42 0.000256795
17 *1668:CLK *675:42 2.99445e-05
18 *1747:A *675:42 9.0444e-05
19 *1765:A *675:42 7.68904e-05
20 *1951:A *675:42 2.97032e-05
21 *2004:A *675:42 7.82985e-05
22 *232:26 *675:42 1.52662e-05
23 *233:10 *675:42 8.6712e-06
24 *246:14 *675:42 0.000156749
25 *246:37 *675:42 9.23767e-05
26 *270:16 *675:42 1.52507e-05
27 *270:30 *675:42 7.27402e-06
28 *430:14 *675:42 0.000308436
29 *515:48 *675:42 0.000119296
30 *538:40 *675:42 0.000165561
31 *543:24 *675:42 0.000148487
32 *578:55 *675:42 0.000711784
33 *582:30 *675:42 0.000570175
34 *584:90 *675:42 0.000972366
35 *586:76 *675:42 6.83488e-05
36 *612:20 *675:42 0.00163293
37 *614:40 *675:42 0.000128582
38 *632:40 *675:42 9.044e-05
39 *646:8 *675:42 6.54935e-05
40 *647:22 *675:42 0.000377973
41 *668:16 *675:42 8.87067e-05
*RES
1 *1891:X *675:42 49.0013 
2 *675:42 *1455:A0 3.6 
*END

*D_NET *676 0.00693686
*CONN
*I *1456:A0 I *D sky130_fd_sc_hd__mux2_1
*I *1892:X O *D sky130_fd_sc_hd__clkbuf_1
*CAP
1 *1456:A0 0.00175699
2 *1892:X 0.00175699
3 *1456:A0 *686:28 1.26595e-05
4 *1454:A1 *1456:A0 0.000234085
5 *1460:A0 *1456:A0 8.49205e-05
6 *1482:A2 *1456:A0 5.05066e-06
7 *1482:S1 *1456:A0 0
8 *1501:B *1456:A0 0.000277291
9 *1533:S *1456:A0 3.79776e-05
10 *1615:GATE *1456:A0 4.43871e-06
11 *1616:GATE *1456:A0 7.42729e-05
12 *1626:D *1456:A0 3.79595e-05
13 *1648:D *1456:A0 0
14 *1685:A *1456:A0 1.7635e-05
15 *1732:A *1456:A0 0.000150918
16 *1760:A *1456:A0 8.52883e-05
17 *1804:A *1456:A0 0.000801791
18 *1917:A *1456:A0 6.65895e-05
19 *1918:A *1456:A0 1.88904e-05
20 *1954:A *1456:A0 9.82856e-06
21 *1972:A *1456:A0 1.50624e-05
22 *67:15 *1456:A0 0.000349761
23 *484:18 *1456:A0 0.000384726
24 *489:28 *1456:A0 8.6777e-06
25 *518:24 *1456:A0 0
26 *563:34 *1456:A0 0.000109184
27 *588:97 *1456:A0 2.94308e-05
28 *649:30 *1456:A0 0.000160256
29 *669:28 *1456:A0 0.000446184
30 *675:42 *1456:A0 0
*RES
1 *1892:X *1456:A0 46.48 
*END

*D_NET *677 0.00901089
*CONN
*I *1514:A0 I *D sky130_fd_sc_hd__mux2_1
*I *1489:A2 I *D sky130_fd_sc_hd__mux4_1
*I *1893:X O *D sky130_fd_sc_hd__buf_1
*CAP
1 *1514:A0 0
2 *1489:A2 0.000272177
3 *1893:X 0.00173174
4 *677:30 0.00200392
5 *677:30 *1518:A0 7.98851e-05
6 *677:30 *1522:A0 7.96104e-06
7 *677:30 *686:28 4.29016e-05
8 *1461:A1 *677:30 8.23457e-05
9 *1462:A0 *677:30 0.000229541
10 *1467:A0 *677:30 0.0001249
11 *1467:S *677:30 1.91051e-05
12 *1476:A0 *1489:A2 4.66474e-05
13 *1482:A0 *677:30 0.000396994
14 *1494:B1 *1489:A2 0.000182774
15 *1647:D *677:30 8.66113e-05
16 *1706:A *677:30 0.000119762
17 *1783:A *1489:A2 0.000101877
18 *1804:A *677:30 9.17274e-05
19 *1866:A *677:30 0.000120655
20 *1867:A *1489:A2 4.7878e-05
21 *1896:A *677:30 9.29751e-06
22 *1904:A *677:30 6.73491e-05
23 *1907:A *677:30 6.73491e-05
24 *1908:A *677:30 0
25 *1974:A *677:30 0.000120655
26 *1989:A *677:30 0.000111656
27 *2005:A *677:30 0.000237249
28 *229:71 *1489:A2 0.000276141
29 *229:71 *677:30 1.91597e-05
30 *229:101 *677:30 0.000411078
31 *229:109 *677:30 4.66108e-05
32 *466:44 *677:30 4.16388e-05
33 *470:30 *677:30 0.000400895
34 *489:28 *677:30 9.044e-05
35 *508:30 *677:30 0.000134729
36 *625:34 *677:30 2.19562e-06
37 *632:40 *1489:A2 0.000140444
38 *632:40 *677:30 0.000849904
39 *632:93 *677:30 0.000194694
*RES
1 *1893:X *677:30 44.94 
2 *677:30 *1489:A2 12.2525 
3 *677:30 *1514:A0 1.6 
*END

*D_NET *678 0.00636173
*CONN
*I *1524:A0 I *D sky130_fd_sc_hd__mux2_1
*I *1894:X O *D sky130_fd_sc_hd__clkbuf_1
*CAP
1 *1524:A0 0.00159439
2 *1894:X 0.00159439
3 *1524:A0 *1526:A0 8.23457e-05
4 *1452:A0 *1524:A0 9.79957e-05
5 *1460:A0 *1524:A0 0.000750055
6 *1461:S *1524:A0 9.5929e-05
7 *1524:S *1524:A0 4.69904e-05
8 *1530:A0 *1524:A0 1.66925e-05
9 *1531:A0 *1524:A0 0.000248892
10 *1616:D *1524:A0 0.000236648
11 *1616:GATE *1524:A0 4.57347e-05
12 *1695:A *1524:A0 6.97034e-05
13 *1753:A *1524:A0 5.28702e-05
14 *1883:A *1524:A0 0.000135782
15 *1885:A *1524:A0 0.000158536
16 *1888:A *1524:A0 4.80285e-05
17 *1896:A *1524:A0 6.07575e-06
18 *1902:A *1524:A0 1.61831e-05
19 *1909:A *1524:A0 0.000209062
20 *1918:A *1524:A0 0.000272542
21 *1972:A *1524:A0 0.00035782
22 *1981:A *1524:A0 3.45254e-05
23 *625:71 *1524:A0 0.00010986
24 *648:38 *1524:A0 3.82018e-05
25 *669:28 *1524:A0 4.24744e-05
*RES
1 *1894:X *1524:A0 35.3176 
*END

*D_NET *679 0.00870347
*CONN
*I *1525:A0 I *D sky130_fd_sc_hd__mux2_1
*I *1895:X O *D sky130_fd_sc_hd__clkbuf_1
*CAP
1 *1525:A0 0
2 *1895:X 0.00208665
3 *679:38 0.00208665
4 *679:38 *1519:A0 0
5 *679:38 *1521:A0 0.000164343
6 *679:38 *1526:A0 4.66108e-05
7 *679:38 *1637:D 0
8 *679:38 *693:20 0.000763098
9 FrameStrobe_O[5] *679:38 2.77165e-05
10 *697:DIODE *679:38 0
11 *1525:S *679:38 6.28765e-05
12 *1894:A *679:38 4.66108e-05
13 *1896:A *679:38 6.97498e-05
14 *1916:A *679:38 0
15 *1917:A *679:38 5.49337e-05
16 *1918:A *679:38 0.000868776
17 *1919:A *679:38 0.000758996
18 *1934:A *679:38 0
19 *1935:A *679:38 1.88602e-05
20 *1938:A *679:38 6.1357e-05
21 *1944:A *679:38 3.82018e-05
22 *1945:A *679:38 0.00012438
23 *1946:A *679:38 3.82018e-05
24 *1948:A *679:38 1.7635e-05
25 *1949:A *679:38 3.09774e-05
26 *2020:A *679:38 0.00036686
27 *497:16 *679:38 0.000249318
28 *509:32 *679:38 0.000145927
29 *527:12 *679:38 0
30 *632:179 *679:38 0
31 *647:22 *679:38 0.000574736
*RES
1 *1895:X *679:38 48.4933 
2 *679:38 *1525:A0 1.6 
*END

*D_NET *680 0.0228826
*CONN
*I *1526:A0 I *D sky130_fd_sc_hd__mux2_1
*I *1896:X O *D sky130_fd_sc_hd__buf_1
*CAP
1 *1526:A0 0.0044768
2 *1896:X 0.0044768
3 *1526:A0 *1527:A0 0.00175728
4 *1526:A0 *1529:A0 0.00114251
5 *1526:A0 *684:26 9.37527e-06
6 *1526:A0 *685:20 0.000210502
7 *1476:A0 *1526:A0 0.00334589
8 *1490:B *1526:A0 1.17533e-05
9 *1493:B1 *1526:A0 0.00110134
10 *1515:A1 *1526:A0 0.000215926
11 *1524:A0 *1526:A0 8.23457e-05
12 *1595:D *1526:A0 0.000121838
13 *1645:D *1526:A0 0.000144233
14 *1894:A *1526:A0 6.1357e-05
15 *1896:A *1526:A0 4.57041e-05
16 *1897:A *1526:A0 0.000365413
17 *1961:A *1526:A0 0
18 *1964:A *1526:A0 0.000108647
19 *1974:A *1526:A0 0.000228771
20 *1976:A *1526:A0 0.000842909
21 *1989:A *1526:A0 0.000175716
22 *229:150 *1526:A0 9.97934e-05
23 *270:30 *1526:A0 4.76516e-05
24 *538:40 *1526:A0 0.00300932
25 *589:77 *1526:A0 0.000120846
26 *590:95 *1526:A0 0.000633304
27 *679:38 *1526:A0 4.66108e-05
*RES
1 *1896:X *1526:A0 36.1023 
*END

*D_NET *681 0.0228314
*CONN
*I *1527:A0 I *D sky130_fd_sc_hd__mux2_1
*I *1897:X O *D sky130_fd_sc_hd__buf_1
*CAP
1 *1527:A0 0.00416536
2 *1897:X 0.00416536
3 *1527:A0 *1529:A0 0.00256195
4 *1527:A0 *682:50 2.58293e-06
5 *1527:A0 *684:26 6.89185e-05
6 *1527:A0 *687:26 8.66454e-06
7 *1476:A0 *1527:A0 5.08019e-05
8 *1479:A1 *1527:A0 0.0011316
9 *1526:A0 *1527:A0 0.00175728
10 *1526:S *1527:A0 9.82856e-06
11 *1527:S *1527:A0 7.4027e-05
12 *1966:A *1527:A0 0.00114019
13 *1971:A *1527:A0 4.79229e-05
14 *1979:A *1527:A0 0.000540823
15 *1989:A *1527:A0 4.7383e-05
16 *1991:A *1527:A0 0.000176157
17 *2000:A *1527:A0 0.000257385
18 *229:33 *1527:A0 1.53034e-05
19 *229:101 *1527:A0 0.000128016
20 *229:150 *1527:A0 8.7152e-06
21 *270:30 *1527:A0 0.00076542
22 *462:20 *1527:A0 0
23 *466:44 *1527:A0 0.00088269
24 *492:30 *1527:A0 0.000366912
25 *585:89 *1527:A0 0.000192789
26 *585:128 *1527:A0 0.000293367
27 *587:46 *1527:A0 2.64841e-05
28 *603:14 *1527:A0 0.000511649
29 *621:22 *1527:A0 0.000698583
30 *626:86 *1527:A0 0.000492586
31 *630:42 *1527:A0 0.000251784
32 *637:12 *1527:A0 5.8023e-05
33 *645:34 *1527:A0 0.00161591
34 *649:30 *1527:A0 0.000236049
35 *669:28 *1527:A0 3.94806e-05
36 *673:28 *1527:A0 4.13893e-05
*RES
1 *1897:X *1527:A0 34.1461 
*END

*D_NET *682 0.0214365
*CONN
*I *1528:A0 I *D sky130_fd_sc_hd__mux2_1
*I *1898:X O *D sky130_fd_sc_hd__buf_1
*CAP
1 *1528:A0 0.0015829
2 *1898:X 0.00292114
3 *682:50 0.00450404
4 *682:50 *1522:A0 0.00123943
5 N1BEG[3] *1528:A0 1.92979e-05
6 N2BEGb[6] *1528:A0 7.78544e-05
7 N2BEGb[7] *1528:A0 3.92756e-05
8 N4BEG[11] *1528:A0 4.04634e-05
9 NN4BEG[0] *682:50 7.16821e-05
10 NN4BEG[3] *682:50 1.23015e-05
11 NN4BEG[9] *682:50 8.53113e-06
12 *1460:A1 *682:50 6.17211e-05
13 *1477:A0 *1528:A0 0.000200656
14 *1514:S *682:50 8.57024e-05
15 *1520:S *682:50 0.000104162
16 *1527:A0 *682:50 2.58293e-06
17 *1528:A1 *1528:A0 0.00062709
18 *1531:A0 *1528:A0 0.00149021
19 *1612:D *682:50 4.66108e-05
20 *1614:D *682:50 0.000119756
21 *1649:D *682:50 5.70461e-06
22 *1754:A *682:50 0.000113832
23 *1853:A *682:50 0
24 *1867:A *682:50 1.7635e-05
25 *1870:A *682:50 3.24882e-05
26 *1917:A *682:50 0.0015787
27 *1964:A *1528:A0 2.10433e-05
28 *1966:A *1528:A0 9.64365e-05
29 *1966:A *682:50 6.64482e-05
30 *1969:A *682:50 0.000843413
31 *1981:A *682:50 0.000877548
32 *1989:A *682:50 0.000267208
33 *1990:A *682:50 1.43749e-05
34 *1996:A *1528:A0 1.9488e-05
35 *2003:A *682:50 3.07207e-05
36 *271:28 *682:50 3.82581e-05
37 *537:52 *1528:A0 2.86265e-06
38 *537:75 *682:50 9.94071e-05
39 *559:48 *1528:A0 5.62863e-05
40 *580:95 *1528:A0 8.82051e-05
41 *587:75 *1528:A0 4.29035e-05
42 *587:92 *1528:A0 1.23792e-05
43 *587:147 *1528:A0 8.4499e-05
44 *587:147 *682:50 9.20382e-05
45 *592:48 *1528:A0 0.000994022
46 *592:75 *682:50 0.00010163
47 *617:28 *1528:A0 0.000279502
48 *617:53 *682:50 0.00200205
49 *645:34 *682:50 0.000263632
50 *647:22 *682:50 1.92057e-05
51 *669:28 *682:50 1.91934e-05
*RES
1 *1898:X *682:50 45.2374 
2 *682:50 *1528:A0 16.1363 
*END

*D_NET *683 0.0200076
*CONN
*I *1529:A0 I *D sky130_fd_sc_hd__mux2_1
*I *1899:X O *D sky130_fd_sc_hd__buf_1
*CAP
1 *1529:A0 0.00425152
2 *1899:X 0.00425152
3 *1529:A0 *1519:A0 9.80032e-06
4 *1529:A0 *1522:A0 0.000322413
5 *1529:A0 *686:28 0
6 *1451:A0 *1529:A0 0.000200559
7 *1451:S *1529:A0 0.000189288
8 *1464:A0 *1529:A0 2.5787e-05
9 *1490:B *1529:A0 0.00041352
10 *1493:B1 *1529:A0 0.000623467
11 *1526:A0 *1529:A0 0.00114251
12 *1527:A0 *1529:A0 0.00256195
13 *1595:D *1529:A0 0.000211327
14 *1752:A *1529:A0 6.83447e-05
15 *1763:A *1529:A0 7.29226e-05
16 *1899:A *1529:A0 0.000123225
17 *1908:A *1529:A0 0.000286598
18 *1971:A *1529:A0 2.15702e-05
19 *1974:A *1529:A0 4.46543e-05
20 *1976:A *1529:A0 0.000228071
21 *1989:A *1529:A0 0.000923206
22 *2005:A *1529:A0 5.3715e-05
23 *461:24 *1529:A0 1.88904e-05
24 *489:28 *1529:A0 7.64325e-05
25 *504:26 *1529:A0 7.00889e-06
26 *534:28 *1529:A0 0.00246877
27 *547:24 *1529:A0 0.000461242
28 *585:89 *1529:A0 8.57024e-05
29 *589:77 *1529:A0 0.000320558
30 *589:120 *1529:A0 0.000437243
31 *590:95 *1529:A0 6.27135e-05
32 *616:26 *1529:A0 1.7635e-05
33 *630:142 *1529:A0 2.54431e-05
*RES
1 *1899:X *1529:A0 36.5131 
*END

*D_NET *684 0.0285049
*CONN
*I *1637:D I *D sky130_fd_sc_hd__dlxtp_1
*I *1605:D I *D sky130_fd_sc_hd__dlxtp_1
*I *1696:A I *D sky130_fd_sc_hd__clkbuf_1
*I *1910:X O *D sky130_fd_sc_hd__clkbuf_2
*CAP
1 *1637:D 0.000120154
2 *1605:D 3.31639e-05
3 *1696:A 0.0001232
4 *1910:X 0.00498575
5 *684:57 0.000204154
6 *684:42 0.00180414
7 *684:26 0.00661585
8 *684:42 *1517:A0 0.000237333
9 *700:DIODE *684:42 7.64501e-05
10 *1456:A1 *684:26 8.49595e-05
11 *1470:A0 *684:26 4.43871e-06
12 *1470:A0 *684:42 0.000266151
13 *1470:S *684:42 4.40028e-05
14 *1472:A0 *1605:D 4.65515e-05
15 *1474:A0 *684:42 0.00019637
16 *1474:A1 *684:42 4.66108e-05
17 *1474:S *684:42 0.000269532
18 *1476:A0 *684:26 0.0027358
19 *1479:S1 *684:26 0.00020846
20 *1517:A1 *684:42 0.000235238
21 *1517:S *684:42 1.43253e-05
22 *1523:A1 *1637:D 4.85494e-05
23 *1526:A0 *684:26 9.37527e-06
24 *1527:A0 *684:26 6.89185e-05
25 *1530:A0 *684:26 1.78103e-05
26 *1547:B1 *684:26 0.000231157
27 *1607:D *684:42 9.18265e-05
28 *1607:GATE *684:26 1.65709e-05
29 *1607:GATE *684:42 5.05437e-05
30 *1624:D *684:26 7.31796e-05
31 *1624:GATE *684:26 3.51072e-05
32 *1637:GATE *1637:D 1.16578e-05
33 *1642:GATE *684:26 4.41506e-05
34 *1740:A *684:42 0.000154984
35 *1742:A *1605:D 0.000122325
36 *1744:A *684:26 2.65028e-05
37 *1744:A *684:42 7.41253e-05
38 *1924:A *684:26 8.53919e-05
39 *1934:A *1637:D 0.000124633
40 *1934:A *684:57 0.000137571
41 *1979:A *684:26 6.9768e-05
42 *1987:A *684:26 8.7152e-06
43 *2024:A *1637:D 0.000117815
44 *2026:A *684:26 0.00070922
45 *270:30 *684:26 8.68997e-05
46 *460:16 *684:26 0.000305824
47 *509:32 *1637:D 2.59981e-05
48 *509:32 *1696:A 1.83847e-05
49 *509:32 *684:57 7.44375e-05
50 *527:12 *684:42 8.49603e-05
51 *531:50 *684:26 9.50342e-06
52 *548:68 *684:26 5.34541e-05
53 *585:128 *684:26 6.17964e-05
54 *613:24 *684:26 8.88799e-05
55 *627:107 *684:26 0.000120655
56 *629:22 *684:26 0.000261582
57 *651:14 *684:26 1.88904e-05
58 *652:28 *684:26 0.000763376
59 *652:28 *684:42 2.32688e-05
60 *673:28 *684:26 0.00582445
61 *679:38 *1637:D 0
*RES
1 *1910:X *684:26 48.8381 
2 *684:26 *684:42 27.815 
3 *684:42 *1696:A 3.715 
4 *684:42 *684:57 3.635 
5 *684:57 *1605:D 4.74 
6 *684:57 *1637:D 6.735 
*END

*D_NET *685 0.00433202
*CONN
*I *1483:A2 I *D sky130_fd_sc_hd__mux4_1
*I *1515:A0 I *D sky130_fd_sc_hd__mux2_1
*I *1900:X O *D sky130_fd_sc_hd__clkbuf_1
*CAP
1 *1483:A2 0.000111405
2 *1515:A0 2.39831e-05
3 *1900:X 0.000731877
4 *685:20 0.000867265
5 *1483:A2 *1517:A0 8.7152e-06
6 *1483:A2 *687:26 0.000132645
7 *685:20 *1521:A0 4.04231e-05
8 *685:20 *687:26 0.000257507
9 *1451:A1 *685:20 0.000675457
10 *1487:A2 *1483:A2 0.000120655
11 *1487:A2 *1515:A0 4.82863e-05
12 *1488:B1 *1483:A2 8.23457e-05
13 *1515:A1 *685:20 0.000223713
14 *1519:A1 *1483:A2 4.32771e-05
15 *1526:A0 *685:20 0.000210502
16 *1645:D *685:20 0.000116165
17 *1974:A *685:20 0.000254224
18 *275:27 *1483:A2 2.20665e-05
19 *508:30 *685:20 0.000194979
20 *586:93 *685:20 0.000155491
21 *652:36 *1483:A2 1.10377e-05
*RES
1 *1900:X *685:20 26.46 
2 *685:20 *1515:A0 2.05 
3 *685:20 *1483:A2 8.57375 
*END

*D_NET *686 0.00931823
*CONN
*I *1489:A3 I *D sky130_fd_sc_hd__mux4_1
*I *1516:A0 I *D sky130_fd_sc_hd__mux2_1
*I *1902:X O *D sky130_fd_sc_hd__buf_1
*CAP
1 *1489:A3 0
2 *1516:A0 0.000147922
3 *1902:X 0.00253427
4 *686:32 0.000262265
5 *686:28 0.00264862
6 *686:28 *1518:A0 0.000249299
7 *1451:A0 *686:28 7.17091e-05
8 *1456:A0 *686:28 1.26595e-05
9 *1459:A0 *686:28 0.000164008
10 *1460:A1 *1516:A0 0.000207963
11 *1460:A1 *686:32 0.000209782
12 *1462:A0 *686:28 7.79931e-05
13 *1462:S *686:28 8.81023e-05
14 *1463:A0 *686:28 3.87203e-05
15 *1463:S *686:28 8.40213e-05
16 *1471:A0 *1516:A0 2.50235e-05
17 *1493:B1 *686:28 4.98732e-05
18 *1494:A1 *1516:A0 8.40269e-05
19 *1529:A0 *686:28 0
20 *1614:D *686:28 1.83847e-05
21 *1614:GATE *686:28 6.80019e-05
22 *1615:D *686:28 2.11084e-05
23 *1648:GATE *686:28 2.65814e-06
24 *1685:A *686:28 1.83756e-05
25 *1751:A *686:28 3.23663e-05
26 *1752:A *686:28 0.000191232
27 *1869:A *686:28 4.41506e-05
28 *1908:A *686:28 5.11597e-05
29 *1992:A *686:32 3.59531e-06
30 *229:33 *1516:A0 4.77719e-05
31 *229:54 *1516:A0 4.82919e-05
32 *229:101 *686:28 0.000240832
33 *466:44 *686:28 0.000821551
34 *470:30 *686:28 0.000344448
35 *489:28 *686:28 4.66108e-05
36 *571:26 *686:28 2.96155e-05
37 *626:86 *686:28 6.33103e-05
38 *632:40 *686:32 2.0231e-05
39 *645:34 *686:28 1.72766e-05
40 *648:38 *1516:A0 0.000107727
41 *654:34 *686:32 6.87585e-05
42 *660:36 *686:28 3.64998e-06
43 *669:28 *686:28 7.96104e-06
44 *677:30 *686:28 4.29016e-05
*RES
1 *1902:X *686:28 49.435 
2 *686:28 *686:32 4.655 
3 *686:32 *1516:A0 7.05 
4 *686:32 *1489:A3 3.6 
*END

*D_NET *687 0.00681907
*CONN
*I *1483:A3 I *D sky130_fd_sc_hd__mux4_1
*I *1517:A0 I *D sky130_fd_sc_hd__mux2_1
*I *1903:X O *D sky130_fd_sc_hd__clkbuf_1
*CAP
1 *1483:A3 0
2 *1517:A0 0.000590948
3 *1903:X 0.000918427
4 *687:26 0.00150938
5 *687:26 *1519:A0 0.000278306
6 *687:26 *1520:A0 0.000134926
7 UserCLKo *687:26 0.000382546
8 *1451:A1 *687:26 0
9 *1470:A1 *1517:A0 0.000269521
10 *1470:S *1517:A0 0.000234358
11 *1483:A2 *1517:A0 8.7152e-06
12 *1483:A2 *687:26 0.000132645
13 *1487:C1 *1517:A0 0.000146942
14 *1488:A2 *1517:A0 0.000235155
15 *1488:B1 *1517:A0 0.000298938
16 *1488:B1 *687:26 0.000104176
17 *1515:A1 *687:26 7.83485e-05
18 *1515:S *687:26 0.000291577
19 *1517:S *1517:A0 4.66108e-05
20 *1519:A1 *1517:A0 0
21 *1519:A1 *687:26 0
22 *1527:A0 *687:26 8.66454e-06
23 *1607:D *1517:A0 0.000282706
24 *1744:A *1517:A0 1.7635e-05
25 *1750:A *687:26 0
26 *1897:A *687:26 4.58993e-05
27 *1913:A *1517:A0 6.02564e-05
28 *1913:A *687:26 0
29 *1974:A *687:26 6.71767e-05
30 *229:150 *687:26 0.000108799
31 *632:106 *687:26 0
32 *647:22 *687:26 7.15795e-05
33 *684:42 *1517:A0 0.000237333
34 *685:20 *687:26 0.000257507
*RES
1 *1903:X *687:26 22.4828 
2 *687:26 *1517:A0 20.995 
3 *687:26 *1483:A3 3.6 
*END

*D_NET *688 0.00444424
*CONN
*I *1518:A0 I *D sky130_fd_sc_hd__mux2_1
*I *1904:X O *D sky130_fd_sc_hd__clkbuf_1
*CAP
1 *1518:A0 0.00129189
2 *1904:X 0.00129189
3 *1518:A0 *1522:A0 1.88656e-05
4 *1458:A1 *1518:A0 4.66108e-05
5 *1470:A1 *1518:A0 0.000355234
6 *1485:A2 *1518:A0 4.66474e-05
7 *1704:A *1518:A0 5.42681e-05
8 *1734:A *1518:A0 9.39554e-05
9 *1902:A *1518:A0 2.75229e-05
10 *1904:A *1518:A0 7.00889e-06
11 *1909:A *1518:A0 1.12578e-05
12 *2005:A *1518:A0 0.000168635
13 *275:16 *1518:A0 0.00029832
14 *474:20 *1518:A0 0
15 *490:36 *1518:A0 0.000276962
16 *548:68 *1518:A0 8.25335e-05
17 *625:12 *1518:A0 4.34623e-05
18 *677:30 *1518:A0 7.98851e-05
19 *686:28 *1518:A0 0.000249299
*RES
1 *1904:X *1518:A0 30.81 
*END

*D_NET *689 0.00663509
*CONN
*I *1519:A0 I *D sky130_fd_sc_hd__mux2_1
*I *1905:X O *D sky130_fd_sc_hd__clkbuf_1
*CAP
1 *1519:A0 0.00125552
2 *1905:X 0.00125552
3 *1519:A0 *1520:A0 4.66108e-05
4 UserCLKo *1519:A0 4.36573e-06
5 *697:DIODE *1519:A0 4.53578e-05
6 *1529:A0 *1519:A0 9.80032e-06
7 *1763:A *1519:A0 4.99619e-05
8 *1895:A *1519:A0 0.000132114
9 *1898:A *1519:A0 4.99619e-05
10 *1899:A *1519:A0 0.000122158
11 *1906:A *1519:A0 1.19928e-05
12 *1920:A *1519:A0 0.0011444
13 *1942:A *1519:A0 1.09281e-05
14 *1947:A *1519:A0 3.34653e-05
15 *496:20 *1519:A0 0.00103462
16 *511:22 *1519:A0 0.000110911
17 *527:12 *1519:A0 0.00033333
18 *550:16 *1519:A0 0.000121023
19 *628:150 *1519:A0 3.57349e-05
20 *628:162 *1519:A0 0.000236918
21 *632:179 *1519:A0 0.00031209
22 *679:38 *1519:A0 0
23 *687:26 *1519:A0 0.000278306
*RES
1 *1905:X *1519:A0 42.91 
*END

*D_NET *690 0.012292
*CONN
*I *1520:A0 I *D sky130_fd_sc_hd__mux2_1
*I *1906:X O *D sky130_fd_sc_hd__clkbuf_1
*CAP
1 *1520:A0 0.00284781
2 *1906:X 0.00284781
3 NN4BEG[3] *1520:A0 1.1071e-05
4 NN4BEG[5] *1520:A0 2.53191e-06
5 UserCLKo *1520:A0 1.79536e-05
6 *697:DIODE *1520:A0 0
7 *1452:A0 *1520:A0 0.00315183
8 *1454:A0 *1520:A0 9.11608e-05
9 *1519:A0 *1520:A0 4.66108e-05
10 *1520:A1 *1520:A0 0.000198671
11 *1895:A *1520:A0 8.41703e-06
12 *1906:A *1520:A0 0.000283403
13 *1954:A *1520:A0 0.00139964
14 *1972:A *1520:A0 9.70043e-06
15 *1974:A *1520:A0 0
16 *2002:A *1520:A0 0.000206015
17 *508:30 *1520:A0 0.00029001
18 *571:22 *1520:A0 6.68625e-06
19 *583:118 *1520:A0 0.000339466
20 *647:22 *1520:A0 0.000385667
21 *675:42 *1520:A0 1.26484e-05
22 *687:26 *1520:A0 0.000134926
*RES
1 *1906:X *1520:A0 19.4981 
*END

*D_NET *691 0.00828009
*CONN
*I *1521:A0 I *D sky130_fd_sc_hd__mux2_1
*I *1907:X O *D sky130_fd_sc_hd__clkbuf_1
*CAP
1 *1521:A0 0.00120074
2 *1907:X 0.00120074
3 *1521:A0 *693:20 8.34281e-06
4 FrameStrobe_O[4] *1521:A0 1.91597e-05
5 *1474:A1 *1521:A0 0.000181441
6 *1486:A1 *1521:A0 9.21068e-05
7 *1486:S *1521:A0 1.79483e-05
8 *1525:A1 *1521:A0 7.06865e-05
9 *1746:A *1521:A0 3.42142e-05
10 *1918:A *1521:A0 0.00135128
11 *1928:A *1521:A0 4.82919e-05
12 *1931:A *1521:A0 0.000251338
13 *1932:A *1521:A0 0.000121811
14 *1933:A *1521:A0 0.000869502
15 *1935:A *1521:A0 0.000162465
16 *1936:A *1521:A0 0.000264938
17 *1939:A *1521:A0 7.79931e-05
18 *1942:A *1521:A0 3.86814e-05
19 *1945:A *1521:A0 0.00012438
20 *1949:A *1521:A0 8.61608e-05
21 *1974:A *1521:A0 3.85204e-05
22 *2021:A *1521:A0 0.000245886
23 *647:22 *1521:A0 0.0015687
24 *679:38 *1521:A0 0.000164343
25 *685:20 *1521:A0 4.04231e-05
*RES
1 *1907:X *1521:A0 46.1437 
*END

*D_NET *692 0.00925435
*CONN
*I *1522:A0 I *D sky130_fd_sc_hd__mux2_1
*I *1908:X O *D sky130_fd_sc_hd__clkbuf_1
*CAP
1 *1522:A0 0.00180111
2 *1908:X 0.00180111
3 *1451:S *1522:A0 4.82863e-05
4 *1460:A1 *1522:A0 8.67465e-06
5 *1464:A0 *1522:A0 0.000105826
6 *1467:A1 *1522:A0 5.90993e-05
7 *1493:B1 *1522:A0 8.00808e-05
8 *1494:A1 *1522:A0 0.000119762
9 *1494:B1 *1522:A0 4.99619e-05
10 *1518:A0 *1522:A0 1.88656e-05
11 *1529:A0 *1522:A0 0.000322413
12 *1532:A0 *1522:A0 5.8023e-05
13 *1532:S *1522:A0 4.77757e-05
14 *1867:A *1522:A0 8.65905e-05
15 *1966:A *1522:A0 3.65646e-05
16 *1989:A *1522:A0 4.76459e-05
17 *1990:A *1522:A0 5.38986e-06
18 *229:71 *1522:A0 0.00015639
19 *270:16 *1522:A0 1.7309e-05
20 *421:10 *1522:A0 8.65961e-05
21 *534:28 *1522:A0 0.000192125
22 *563:34 *1522:A0 0.00116512
23 *590:95 *1522:A0 2.97004e-06
24 *633:10 *1522:A0 0.000107032
25 *633:16 *1522:A0 0.000128074
26 *638:34 *1522:A0 4.99619e-05
27 *645:34 *1522:A0 0.000658521
28 *650:16 *1522:A0 6.58916e-05
29 *652:28 *1522:A0 0.000381088
30 *668:16 *1522:A0 9.76422e-06
31 *669:28 *1522:A0 0.000288933
32 *677:30 *1522:A0 7.96104e-06
33 *682:50 *1522:A0 0.00123943
*RES
1 *1908:X *1522:A0 39.8449 
*END

*D_NET *693 0.00957467
*CONN
*I *1523:A0 I *D sky130_fd_sc_hd__mux2_1
*I *1909:X O *D sky130_fd_sc_hd__clkbuf_1
*CAP
1 *1523:A0 0.000411236
2 *1909:X 0.00176972
3 *693:20 0.00218096
4 *1472:A0 *1523:A0 4.23612e-05
5 *1472:S *1523:A0 9.27255e-06
6 *1521:A0 *693:20 8.34281e-06
7 *1523:S *1523:A0 0.000417203
8 *1896:A *693:20 0.000342778
9 *1916:A *693:20 7.9642e-06
10 *1946:A *693:20 0
11 *1947:A *693:20 0.000666979
12 *1949:A *693:20 0.000243675
13 *496:20 *693:20 0.00094339
14 *497:16 *693:20 0.000244211
15 *511:22 *693:20 0.00152348
16 *679:38 *693:20 0.000763098
*RES
1 *1909:X *693:20 46.485 
2 *693:20 *1523:A0 6.88 
*END

*D_NET *694 0.0137228
*CONN
*I *2018:A I *D sky130_fd_sc_hd__buf_2
*I *1680:X O *D sky130_fd_sc_hd__buf_1
*CAP
1 *2018:A 8.27417e-05
2 *1680:X 0.000714105
3 *694:22 0.00122499
4 *694:18 0.00185635
5 *1575:C *694:18 1.47446e-05
6 *1589:GATE *694:18 0.000281703
7 *1680:A *694:18 0.000131469
8 *1718:A *694:22 0.00111568
9 *1721:A *694:22 0.00223281
10 *1723:A *2018:A 0
11 *1724:A *694:22 0.000425972
12 *1730:A *2018:A 0.000158391
13 *1731:A *694:22 0.00204456
14 *1851:A *694:18 0.00016567
15 *1852:A *694:18 0.000237249
16 *2029:A *694:22 0.00128155
17 *461:36 *694:18 0.000350486
18 *472:14 *694:18 3.77036e-05
19 *472:14 *694:22 0.000969363
20 *488:28 *694:22 0.00012905
21 *492:30 *694:22 0.000109836
22 *570:24 *694:18 0
23 *570:35 *694:18 0.000158394
*RES
1 *1680:X *694:18 19.625 
2 *694:18 *694:22 49.37 
3 *694:22 *2018:A 5.49 
*END
