*SPEF "ieee 1481-1999"
*DESIGN "S_EF_DAC8"
*DATE "08:22:26 Wednesday May 14, 2025"
*VENDOR "The OpenROAD Project"
*PROGRAM "OpenROAD"
*VERSION "87af90f72f3f9be1fdfa1d886f0dd8d8b8f34694"
*DESIGN_FLOW "NAME_SCOPE LOCAL" "PIN_CAP NONE"
*DIVIDER /
*DELIMITER :
*BUS_DELIMITER []
*T_UNIT 1 NS
*C_UNIT 1 PF
*R_UNIT 1 OHM
*L_UNIT 1 HENRY

*NAME_MAP
*1 net197
*2 ENABLE_top
*3 FrameData[0]
*4 FrameData[10]
*5 FrameData[11]
*6 FrameData[12]
*7 FrameData[13]
*8 FrameData[14]
*9 FrameData[15]
*10 FrameData[16]
*11 FrameData[17]
*12 FrameData[18]
*13 FrameData[19]
*14 FrameData[1]
*15 FrameData[20]
*16 FrameData[21]
*17 FrameData[22]
*18 FrameData[23]
*19 FrameData[24]
*20 FrameData[25]
*21 FrameData[26]
*22 FrameData[27]
*23 FrameData[28]
*24 FrameData[29]
*25 FrameData[2]
*26 FrameData[30]
*27 FrameData[31]
*28 FrameData[3]
*29 FrameData[4]
*30 FrameData[5]
*31 FrameData[6]
*32 FrameData[7]
*33 FrameData[8]
*34 FrameData[9]
*35 FrameData_O[0]
*36 FrameData_O[10]
*37 FrameData_O[11]
*38 FrameData_O[12]
*39 FrameData_O[13]
*40 FrameData_O[14]
*41 FrameData_O[15]
*42 FrameData_O[16]
*43 FrameData_O[17]
*44 FrameData_O[18]
*45 FrameData_O[19]
*46 FrameData_O[1]
*47 FrameData_O[20]
*48 FrameData_O[21]
*49 FrameData_O[22]
*50 FrameData_O[23]
*51 FrameData_O[24]
*52 FrameData_O[25]
*53 FrameData_O[26]
*54 FrameData_O[27]
*55 FrameData_O[28]
*56 FrameData_O[29]
*57 FrameData_O[2]
*58 FrameData_O[30]
*59 FrameData_O[31]
*60 FrameData_O[3]
*61 FrameData_O[4]
*62 FrameData_O[5]
*63 FrameData_O[6]
*64 FrameData_O[7]
*65 FrameData_O[8]
*66 FrameData_O[9]
*67 FrameStrobe[0]
*68 FrameStrobe[10]
*69 FrameStrobe[11]
*70 FrameStrobe[12]
*71 FrameStrobe[13]
*72 FrameStrobe[14]
*73 FrameStrobe[15]
*74 FrameStrobe[16]
*75 FrameStrobe[17]
*76 FrameStrobe[18]
*77 FrameStrobe[19]
*78 FrameStrobe[1]
*79 FrameStrobe[2]
*80 FrameStrobe[3]
*81 FrameStrobe[4]
*82 FrameStrobe[5]
*83 FrameStrobe[6]
*84 FrameStrobe[7]
*85 FrameStrobe[8]
*86 FrameStrobe[9]
*87 FrameStrobe_O[0]
*88 FrameStrobe_O[10]
*89 FrameStrobe_O[11]
*90 FrameStrobe_O[12]
*91 FrameStrobe_O[13]
*92 FrameStrobe_O[14]
*93 FrameStrobe_O[15]
*94 FrameStrobe_O[16]
*95 FrameStrobe_O[17]
*96 FrameStrobe_O[18]
*97 FrameStrobe_O[19]
*98 FrameStrobe_O[1]
*99 FrameStrobe_O[2]
*100 FrameStrobe_O[3]
*101 FrameStrobe_O[4]
*102 FrameStrobe_O[5]
*103 FrameStrobe_O[6]
*104 FrameStrobe_O[7]
*105 FrameStrobe_O[8]
*106 FrameStrobe_O[9]
*107 N1BEG[0]
*108 N1BEG[1]
*109 N1BEG[2]
*110 N1BEG[3]
*111 N2BEG[0]
*112 N2BEG[1]
*113 N2BEG[2]
*114 N2BEG[3]
*115 N2BEG[4]
*116 N2BEG[5]
*117 N2BEG[6]
*118 N2BEG[7]
*119 N2BEGb[0]
*120 N2BEGb[1]
*121 N2BEGb[2]
*122 N2BEGb[3]
*123 N2BEGb[4]
*124 N2BEGb[5]
*125 N2BEGb[6]
*126 N2BEGb[7]
*127 N4BEG[0]
*128 N4BEG[10]
*129 N4BEG[11]
*130 N4BEG[12]
*131 N4BEG[13]
*132 N4BEG[14]
*133 N4BEG[15]
*134 N4BEG[1]
*135 N4BEG[2]
*136 N4BEG[3]
*137 N4BEG[4]
*138 N4BEG[5]
*139 N4BEG[6]
*140 N4BEG[7]
*141 N4BEG[8]
*142 N4BEG[9]
*143 NN4BEG[0]
*144 NN4BEG[10]
*145 NN4BEG[11]
*146 NN4BEG[12]
*147 NN4BEG[13]
*148 NN4BEG[14]
*149 NN4BEG[15]
*150 NN4BEG[1]
*151 NN4BEG[2]
*152 NN4BEG[3]
*153 NN4BEG[4]
*154 NN4BEG[5]
*155 NN4BEG[6]
*156 NN4BEG[7]
*157 NN4BEG[8]
*158 NN4BEG[9]
*159 S1END[0]
*160 S1END[1]
*161 S1END[2]
*162 S1END[3]
*163 S2END[0]
*164 S2END[1]
*165 S2END[2]
*166 S2END[3]
*167 S2END[4]
*168 S2END[5]
*169 S2END[6]
*170 S2END[7]
*171 S2MID[0]
*172 S2MID[1]
*173 S2MID[2]
*174 S2MID[3]
*175 S2MID[4]
*176 S2MID[5]
*177 S2MID[6]
*178 S2MID[7]
*179 S4END[0]
*180 S4END[10]
*181 S4END[11]
*182 S4END[12]
*183 S4END[13]
*184 S4END[14]
*185 S4END[15]
*186 S4END[1]
*187 S4END[2]
*188 S4END[3]
*189 S4END[4]
*190 S4END[5]
*191 S4END[6]
*192 S4END[7]
*193 S4END[8]
*194 S4END[9]
*195 SS4END[0]
*196 SS4END[10]
*197 SS4END[11]
*198 SS4END[12]
*199 SS4END[13]
*200 SS4END[14]
*201 SS4END[15]
*202 SS4END[1]
*203 SS4END[2]
*204 SS4END[3]
*205 SS4END[4]
*206 SS4END[5]
*207 SS4END[6]
*208 SS4END[7]
*209 SS4END[8]
*210 SS4END[9]
*211 UserCLK
*212 UserCLKo
*213 VALUE_top0
*214 VALUE_top1
*215 VALUE_top2
*216 VALUE_top3
*217 VALUE_top4
*218 VALUE_top5
*219 VALUE_top6
*220 VALUE_top7
*223 Inst_S_EF_DAC8_ConfigMem\.Inst_frame0_bit0\.Q
*224 Inst_S_EF_DAC8_ConfigMem\.Inst_frame0_bit1\.Q
*225 Inst_S_EF_DAC8_ConfigMem\.Inst_frame0_bit10\.Q
*226 Inst_S_EF_DAC8_ConfigMem\.Inst_frame0_bit11\.Q
*227 Inst_S_EF_DAC8_ConfigMem\.Inst_frame0_bit12\.Q
*228 Inst_S_EF_DAC8_ConfigMem\.Inst_frame0_bit13\.Q
*229 Inst_S_EF_DAC8_ConfigMem\.Inst_frame0_bit14\.Q
*230 Inst_S_EF_DAC8_ConfigMem\.Inst_frame0_bit15\.Q
*231 Inst_S_EF_DAC8_ConfigMem\.Inst_frame0_bit16\.Q
*232 Inst_S_EF_DAC8_ConfigMem\.Inst_frame0_bit17\.Q
*233 Inst_S_EF_DAC8_ConfigMem\.Inst_frame0_bit18\.Q
*234 Inst_S_EF_DAC8_ConfigMem\.Inst_frame0_bit19\.Q
*235 Inst_S_EF_DAC8_ConfigMem\.Inst_frame0_bit2\.Q
*236 Inst_S_EF_DAC8_ConfigMem\.Inst_frame0_bit20\.Q
*237 Inst_S_EF_DAC8_ConfigMem\.Inst_frame0_bit21\.Q
*238 Inst_S_EF_DAC8_ConfigMem\.Inst_frame0_bit22\.Q
*239 Inst_S_EF_DAC8_ConfigMem\.Inst_frame0_bit23\.Q
*240 Inst_S_EF_DAC8_ConfigMem\.Inst_frame0_bit24\.Q
*241 Inst_S_EF_DAC8_ConfigMem\.Inst_frame0_bit25\.Q
*242 Inst_S_EF_DAC8_ConfigMem\.Inst_frame0_bit26\.Q
*243 Inst_S_EF_DAC8_ConfigMem\.Inst_frame0_bit27\.Q
*244 Inst_S_EF_DAC8_ConfigMem\.Inst_frame0_bit28\.Q
*245 Inst_S_EF_DAC8_ConfigMem\.Inst_frame0_bit29\.Q
*246 Inst_S_EF_DAC8_ConfigMem\.Inst_frame0_bit3\.Q
*247 Inst_S_EF_DAC8_ConfigMem\.Inst_frame0_bit30\.Q
*248 Inst_S_EF_DAC8_ConfigMem\.Inst_frame0_bit31\.Q
*249 Inst_S_EF_DAC8_ConfigMem\.Inst_frame0_bit4\.Q
*250 Inst_S_EF_DAC8_ConfigMem\.Inst_frame0_bit5\.Q
*251 Inst_S_EF_DAC8_ConfigMem\.Inst_frame0_bit6\.Q
*252 Inst_S_EF_DAC8_ConfigMem\.Inst_frame0_bit7\.Q
*253 Inst_S_EF_DAC8_ConfigMem\.Inst_frame0_bit8\.Q
*254 Inst_S_EF_DAC8_ConfigMem\.Inst_frame0_bit9\.Q
*255 Inst_S_EF_DAC8_ConfigMem\.Inst_frame1_bit14\.Q
*256 Inst_S_EF_DAC8_ConfigMem\.Inst_frame1_bit15\.Q
*257 Inst_S_EF_DAC8_ConfigMem\.Inst_frame1_bit16\.Q
*258 Inst_S_EF_DAC8_ConfigMem\.Inst_frame1_bit17\.Q
*259 Inst_S_EF_DAC8_ConfigMem\.Inst_frame1_bit18\.Q
*260 Inst_S_EF_DAC8_ConfigMem\.Inst_frame1_bit19\.Q
*261 Inst_S_EF_DAC8_ConfigMem\.Inst_frame1_bit20\.Q
*262 Inst_S_EF_DAC8_ConfigMem\.Inst_frame1_bit21\.Q
*263 Inst_S_EF_DAC8_ConfigMem\.Inst_frame1_bit22\.Q
*264 Inst_S_EF_DAC8_ConfigMem\.Inst_frame1_bit23\.Q
*265 Inst_S_EF_DAC8_ConfigMem\.Inst_frame1_bit24\.Q
*266 Inst_S_EF_DAC8_ConfigMem\.Inst_frame1_bit25\.Q
*267 Inst_S_EF_DAC8_ConfigMem\.Inst_frame1_bit26\.Q
*268 Inst_S_EF_DAC8_ConfigMem\.Inst_frame1_bit27\.Q
*269 Inst_S_EF_DAC8_ConfigMem\.Inst_frame1_bit28\.Q
*270 Inst_S_EF_DAC8_ConfigMem\.Inst_frame1_bit29\.Q
*271 Inst_S_EF_DAC8_ConfigMem\.Inst_frame1_bit30\.Q
*272 Inst_S_EF_DAC8_ConfigMem\.Inst_frame1_bit31\.Q
*273 Inst_S_EF_DAC8_switch_matrix\.N2BEG0
*274 Inst_S_EF_DAC8_switch_matrix\.N2BEG1
*275 Inst_S_EF_DAC8_switch_matrix\.N2BEG2
*276 Inst_S_EF_DAC8_switch_matrix\.N2BEG3
*277 Inst_S_EF_DAC8_switch_matrix\.N2BEG4
*278 Inst_S_EF_DAC8_switch_matrix\.N2BEG5
*279 Inst_S_EF_DAC8_switch_matrix\.N2BEG6
*280 Inst_S_EF_DAC8_switch_matrix\.N2BEG7
*281 Inst_S_EF_DAC8_switch_matrix\.N2BEGb0
*282 Inst_S_EF_DAC8_switch_matrix\.N2BEGb1
*283 Inst_S_EF_DAC8_switch_matrix\.N2BEGb2
*284 Inst_S_EF_DAC8_switch_matrix\.N2BEGb3
*285 Inst_S_EF_DAC8_switch_matrix\.N2BEGb4
*286 Inst_S_EF_DAC8_switch_matrix\.N2BEGb5
*287 Inst_S_EF_DAC8_switch_matrix\.N2BEGb6
*288 Inst_S_EF_DAC8_switch_matrix\.N2BEGb7
*289 _000_
*290 _001_
*291 net1
*292 net10
*293 net100
*294 net101
*295 net102
*296 net103
*297 net104
*298 net105
*299 net106
*300 net107
*301 net108
*302 net109
*303 net11
*304 net110
*305 net111
*306 net112
*307 net113
*308 net114
*309 net115
*310 net116
*311 net117
*312 net118
*313 net119
*314 net12
*315 net120
*316 net121
*317 net122
*318 net123
*319 net124
*320 net125
*321 net126
*322 net127
*323 net128
*324 net129
*325 net13
*326 net130
*327 net131
*328 net132
*329 net133
*330 net134
*331 net135
*332 net136
*333 net137
*334 net138
*335 net139
*336 net14
*337 net140
*338 net141
*339 net142
*340 net143
*341 net144
*342 net145
*343 net146
*344 net147
*345 net148
*346 net149
*347 net15
*348 net150
*349 net151
*350 net152
*351 net153
*352 net154
*353 net155
*354 net156
*355 net157
*356 net158
*357 net159
*358 net16
*359 net160
*360 net161
*361 net162
*362 net163
*363 net164
*364 net165
*365 net166
*366 net167
*367 net168
*368 net169
*369 net17
*370 net170
*371 net171
*372 net172
*373 net173
*374 net174
*375 net175
*376 net176
*377 net177
*378 net178
*379 net179
*380 net18
*381 net180
*382 net181
*383 net182
*384 net183
*385 net184
*386 net185
*387 net186
*388 net187
*389 net188
*390 net189
*391 net19
*392 net190
*393 net191
*394 net192
*395 net193
*396 net194
*397 net195
*398 net196
*399 net2
*400 net20
*401 net21
*402 net22
*403 net23
*404 net24
*405 net25
*406 net26
*407 net27
*408 net28
*409 net29
*410 net3
*411 net30
*412 net31
*413 net32
*414 net33
*415 net34
*416 net35
*417 net36
*418 net37
*419 net38
*420 net39
*421 net4
*422 net40
*423 net41
*424 net42
*425 net43
*426 net44
*427 net45
*428 net46
*429 net47
*430 net48
*431 net49
*432 net5
*433 net50
*434 net51
*435 net52
*436 net53
*437 net54
*438 net55
*439 net56
*440 net57
*441 net58
*442 net59
*443 net6
*444 net60
*445 net61
*446 net62
*447 net63
*448 net64
*449 net65
*450 net66
*451 net67
*452 net68
*453 net69
*454 net7
*455 net70
*456 net71
*457 net72
*458 net73
*459 net74
*460 net75
*461 net76
*462 net77
*463 net78
*464 net79
*465 net8
*466 net80
*467 net81
*468 net82
*469 net83
*470 net84
*471 net85
*472 net86
*473 net87
*474 net88
*475 net89
*476 net9
*477 net90
*478 net91
*479 net92
*480 net93
*481 net94
*482 net95
*483 net96
*484 net97
*485 net98
*486 net99
*487 ANTENNA_1
*488 ANTENNA_10
*489 ANTENNA_11
*490 ANTENNA_12
*491 ANTENNA_13
*492 ANTENNA_14
*493 ANTENNA_2
*494 ANTENNA_3
*495 ANTENNA_4
*496 ANTENNA_5
*497 ANTENNA_6
*498 ANTENNA_7
*499 ANTENNA_8
*500 ANTENNA_9
*501 FILLER_0_101
*502 FILLER_0_104
*503 FILLER_0_107
*504 FILLER_0_110
*505 FILLER_0_113
*506 FILLER_0_116
*507 FILLER_0_119
*508 FILLER_0_122
*509 FILLER_0_125
*510 FILLER_0_128
*511 FILLER_0_131
*512 FILLER_0_134
*513 FILLER_0_137
*514 FILLER_0_141
*515 FILLER_0_144
*516 FILLER_0_147
*517 FILLER_0_150
*518 FILLER_0_153
*519 FILLER_0_156
*520 FILLER_0_159
*521 FILLER_0_162
*522 FILLER_0_165
*523 FILLER_0_169
*524 FILLER_0_172
*525 FILLER_0_175
*526 FILLER_0_178
*527 FILLER_0_181
*528 FILLER_0_184
*529 FILLER_0_187
*530 FILLER_0_190
*531 FILLER_0_193
*532 FILLER_0_197
*533 FILLER_0_200
*534 FILLER_0_203
*535 FILLER_0_206
*536 FILLER_0_209
*537 FILLER_0_212
*538 FILLER_0_215
*539 FILLER_0_218
*540 FILLER_0_221
*541 FILLER_0_225
*542 FILLER_0_228
*543 FILLER_0_231
*544 FILLER_0_234
*545 FILLER_0_237
*546 FILLER_0_240
*547 FILLER_0_243
*548 FILLER_0_246
*549 FILLER_0_249
*550 FILLER_0_253
*551 FILLER_0_256
*552 FILLER_0_259
*553 FILLER_0_262
*554 FILLER_0_265
*555 FILLER_0_268
*556 FILLER_0_27
*557 FILLER_0_271
*558 FILLER_0_274
*559 FILLER_0_277
*560 FILLER_0_281
*561 FILLER_0_284
*562 FILLER_0_287
*563 FILLER_0_290
*564 FILLER_0_293
*565 FILLER_0_296
*566 FILLER_0_299
*567 FILLER_0_302
*568 FILLER_0_305
*569 FILLER_0_309
*570 FILLER_0_312
*571 FILLER_0_315
*572 FILLER_0_318
*573 FILLER_0_33
*574 FILLER_0_339
*575 FILLER_0_36
*576 FILLER_0_41
*577 FILLER_0_44
*578 FILLER_0_47
*579 FILLER_0_53
*580 FILLER_0_57
*581 FILLER_0_60
*582 FILLER_0_65
*583 FILLER_0_68
*584 FILLER_0_71
*585 FILLER_0_77
*586 FILLER_0_80
*587 FILLER_0_83
*588 FILLER_0_89
*589 FILLER_0_92
*590 FILLER_0_95
*591 FILLER_10_138
*592 FILLER_10_148
*593 FILLER_10_195
*594 FILLER_10_218
*595 FILLER_10_22
*596 FILLER_10_221
*597 FILLER_10_25
*598 FILLER_10_253
*599 FILLER_10_256
*600 FILLER_10_259
*601 FILLER_10_29
*602 FILLER_10_305
*603 FILLER_10_313
*604 FILLER_10_316
*605 FILLER_10_319
*606 FILLER_10_32
*607 FILLER_10_322
*608 FILLER_10_325
*609 FILLER_10_328
*610 FILLER_10_35
*611 FILLER_10_38
*612 FILLER_10_41
*613 FILLER_10_44
*614 FILLER_10_47
*615 FILLER_10_85
*616 FILLER_10_92
*617 FILLER_11_113
*618 FILLER_11_160
*619 FILLER_11_187
*620 FILLER_11_194
*621 FILLER_11_200
*622 FILLER_11_222
*623 FILLER_11_250
*624 FILLER_11_26
*625 FILLER_11_297
*626 FILLER_11_307
*627 FILLER_11_32
*628 FILLER_11_321
*629 FILLER_11_324
*630 FILLER_11_327
*631 FILLER_11_35
*632 FILLER_11_57
*633 FILLER_11_85
*634 FILLER_11_94
*635 FILLER_1_102
*636 FILLER_1_105
*637 FILLER_1_108
*638 FILLER_1_111
*639 FILLER_1_113
*640 FILLER_1_116
*641 FILLER_1_126
*642 FILLER_1_149
*643 FILLER_1_165
*644 FILLER_1_202
*645 FILLER_1_205
*646 FILLER_1_220
*647 FILLER_1_223
*648 FILLER_1_243
*649 FILLER_1_246
*650 FILLER_1_249
*651 FILLER_1_26
*652 FILLER_1_264
*653 FILLER_1_287
*654 FILLER_1_29
*655 FILLER_1_290
*656 FILLER_1_293
*657 FILLER_1_296
*658 FILLER_1_299
*659 FILLER_1_302
*660 FILLER_1_305
*661 FILLER_1_308
*662 FILLER_1_311
*663 FILLER_1_314
*664 FILLER_1_317
*665 FILLER_1_32
*666 FILLER_1_320
*667 FILLER_1_323
*668 FILLER_1_326
*669 FILLER_1_329
*670 FILLER_1_337
*671 FILLER_1_35
*672 FILLER_1_38
*673 FILLER_1_41
*674 FILLER_1_44
*675 FILLER_1_48
*676 FILLER_1_52
*677 FILLER_1_55
*678 FILLER_1_57
*679 FILLER_1_60
*680 FILLER_1_63
*681 FILLER_1_66
*682 FILLER_1_69
*683 FILLER_1_72
*684 FILLER_1_75
*685 FILLER_1_78
*686 FILLER_1_81
*687 FILLER_1_84
*688 FILLER_1_87
*689 FILLER_1_90
*690 FILLER_1_93
*691 FILLER_1_96
*692 FILLER_1_99
*693 FILLER_2_100
*694 FILLER_2_103
*695 FILLER_2_106
*696 FILLER_2_123
*697 FILLER_2_136
*698 FILLER_2_139
*699 FILLER_2_165
*700 FILLER_2_194
*701 FILLER_2_197
*702 FILLER_2_201
*703 FILLER_2_22
*704 FILLER_2_220
*705 FILLER_2_223
*706 FILLER_2_246
*707 FILLER_2_25
*708 FILLER_2_268
*709 FILLER_2_274
*710 FILLER_2_29
*711 FILLER_2_306
*712 FILLER_2_312
*713 FILLER_2_315
*714 FILLER_2_318
*715 FILLER_2_321
*716 FILLER_2_324
*717 FILLER_2_327
*718 FILLER_2_330
*719 FILLER_2_333
*720 FILLER_2_35
*721 FILLER_2_62
*722 FILLER_2_65
*723 FILLER_2_68
*724 FILLER_2_71
*725 FILLER_2_76
*726 FILLER_2_79
*727 FILLER_2_82
*728 FILLER_2_85
*729 FILLER_2_88
*730 FILLER_2_91
*731 FILLER_2_94
*732 FILLER_2_97
*733 FILLER_3_13
*734 FILLER_3_146
*735 FILLER_3_151
*736 FILLER_3_16
*737 FILLER_3_165
*738 FILLER_3_19
*739 FILLER_3_202
*740 FILLER_3_205
*741 FILLER_3_208
*742 FILLER_3_211
*743 FILLER_3_214
*744 FILLER_3_217
*745 FILLER_3_22
*746 FILLER_3_223
*747 FILLER_3_225
*748 FILLER_3_228
*749 FILLER_3_233
*750 FILLER_3_236
*751 FILLER_3_239
*752 FILLER_3_25
*753 FILLER_3_253
*754 FILLER_3_256
*755 FILLER_3_261
*756 FILLER_3_264
*757 FILLER_3_274
*758 FILLER_3_277
*759 FILLER_3_28
*760 FILLER_3_281
*761 FILLER_3_286
*762 FILLER_3_289
*763 FILLER_3_292
*764 FILLER_3_295
*765 FILLER_3_298
*766 FILLER_3_301
*767 FILLER_3_304
*768 FILLER_3_307
*769 FILLER_3_31
*770 FILLER_3_310
*771 FILLER_3_315
*772 FILLER_3_318
*773 FILLER_3_321
*774 FILLER_3_324
*775 FILLER_3_327
*776 FILLER_3_330
*777 FILLER_3_333
*778 FILLER_3_34
*779 FILLER_3_37
*780 FILLER_3_40
*781 FILLER_3_43
*782 FILLER_3_47
*783 FILLER_3_50
*784 FILLER_3_53
*785 FILLER_3_60
*786 FILLER_3_63
*787 FILLER_3_66
*788 FILLER_3_69
*789 FILLER_3_72
*790 FILLER_3_75
*791 FILLER_3_80
*792 FILLER_3_83
*793 FILLER_3_89
*794 FILLER_3_92
*795 FILLER_3_95
*796 FILLER_3_98
*797 FILLER_4_12
*798 FILLER_4_126
*799 FILLER_4_139
*800 FILLER_4_15
*801 FILLER_4_153
*802 FILLER_4_156
*803 FILLER_4_159
*804 FILLER_4_162
*805 FILLER_4_165
*806 FILLER_4_168
*807 FILLER_4_171
*808 FILLER_4_18
*809 FILLER_4_193
*810 FILLER_4_197
*811 FILLER_4_21
*812 FILLER_4_224
*813 FILLER_4_227
*814 FILLER_4_230
*815 FILLER_4_233
*816 FILLER_4_236
*817 FILLER_4_239
*818 FILLER_4_24
*819 FILLER_4_256
*820 FILLER_4_259
*821 FILLER_4_262
*822 FILLER_4_265
*823 FILLER_4_27
*824 FILLER_4_278
*825 FILLER_4_281
*826 FILLER_4_284
*827 FILLER_4_287
*828 FILLER_4_29
*829 FILLER_4_290
*830 FILLER_4_293
*831 FILLER_4_296
*832 FILLER_4_299
*833 FILLER_4_302
*834 FILLER_4_305
*835 FILLER_4_309
*836 FILLER_4_312
*837 FILLER_4_315
*838 FILLER_4_318
*839 FILLER_4_32
*840 FILLER_4_321
*841 FILLER_4_324
*842 FILLER_4_327
*843 FILLER_4_330
*844 FILLER_4_333
*845 FILLER_4_336
*846 FILLER_4_35
*847 FILLER_4_38
*848 FILLER_4_41
*849 FILLER_4_44
*850 FILLER_4_47
*851 FILLER_4_50
*852 FILLER_4_53
*853 FILLER_4_56
*854 FILLER_4_59
*855 FILLER_4_62
*856 FILLER_4_65
*857 FILLER_4_68
*858 FILLER_4_71
*859 FILLER_4_74
*860 FILLER_4_80
*861 FILLER_4_83
*862 FILLER_4_85
*863 FILLER_4_88
*864 FILLER_4_91
*865 FILLER_5_107
*866 FILLER_5_110
*867 FILLER_5_113
*868 FILLER_5_116
*869 FILLER_5_119
*870 FILLER_5_13
*871 FILLER_5_145
*872 FILLER_5_16
*873 FILLER_5_160
*874 FILLER_5_163
*875 FILLER_5_166
*876 FILLER_5_19
*877 FILLER_5_190
*878 FILLER_5_193
*879 FILLER_5_196
*880 FILLER_5_221
*881 FILLER_5_237
*882 FILLER_5_24
*883 FILLER_5_240
*884 FILLER_5_243
*885 FILLER_5_246
*886 FILLER_5_27
*887 FILLER_5_272
*888 FILLER_5_275
*889 FILLER_5_278
*890 FILLER_5_281
*891 FILLER_5_284
*892 FILLER_5_287
*893 FILLER_5_290
*894 FILLER_5_293
*895 FILLER_5_296
*896 FILLER_5_299
*897 FILLER_5_30
*898 FILLER_5_303
*899 FILLER_5_306
*900 FILLER_5_309
*901 FILLER_5_312
*902 FILLER_5_315
*903 FILLER_5_320
*904 FILLER_5_323
*905 FILLER_5_326
*906 FILLER_5_329
*907 FILLER_5_33
*908 FILLER_5_332
*909 FILLER_5_335
*910 FILLER_5_36
*911 FILLER_5_39
*912 FILLER_5_42
*913 FILLER_5_45
*914 FILLER_5_48
*915 FILLER_5_51
*916 FILLER_5_54
*917 FILLER_5_57
*918 FILLER_5_60
*919 FILLER_5_63
*920 FILLER_5_66
*921 FILLER_5_69
*922 FILLER_5_72
*923 FILLER_6_100
*924 FILLER_6_103
*925 FILLER_6_129
*926 FILLER_6_132
*927 FILLER_6_135
*928 FILLER_6_138
*929 FILLER_6_141
*930 FILLER_6_176
*931 FILLER_6_19
*932 FILLER_6_212
*933 FILLER_6_215
*934 FILLER_6_218
*935 FILLER_6_231
*936 FILLER_6_234
*937 FILLER_6_237
*938 FILLER_6_24
*939 FILLER_6_240
*940 FILLER_6_243
*941 FILLER_6_246
*942 FILLER_6_249
*943 FILLER_6_27
*944 FILLER_6_286
*945 FILLER_6_289
*946 FILLER_6_29
*947 FILLER_6_293
*948 FILLER_6_296
*949 FILLER_6_299
*950 FILLER_6_302
*951 FILLER_6_305
*952 FILLER_6_309
*953 FILLER_6_312
*954 FILLER_6_315
*955 FILLER_6_318
*956 FILLER_6_32
*957 FILLER_6_321
*958 FILLER_6_324
*959 FILLER_6_327
*960 FILLER_6_330
*961 FILLER_6_333
*962 FILLER_6_336
*963 FILLER_6_35
*964 FILLER_6_38
*965 FILLER_6_41
*966 FILLER_6_44
*967 FILLER_6_47
*968 FILLER_6_50
*969 FILLER_6_53
*970 FILLER_6_56
*971 FILLER_6_59
*972 FILLER_6_62
*973 FILLER_6_65
*974 FILLER_6_68
*975 FILLER_6_71
*976 FILLER_6_74
*977 FILLER_6_77
*978 FILLER_6_80
*979 FILLER_6_83
*980 FILLER_6_85
*981 FILLER_6_88
*982 FILLER_6_91
*983 FILLER_6_97
*984 FILLER_7_110
*985 FILLER_7_113
*986 FILLER_7_116
*987 FILLER_7_119
*988 FILLER_7_133
*989 FILLER_7_136
*990 FILLER_7_143
*991 FILLER_7_16
*992 FILLER_7_19
*993 FILLER_7_193
*994 FILLER_7_196
*995 FILLER_7_199
*996 FILLER_7_202
*997 FILLER_7_205
*998 FILLER_7_208
*999 FILLER_7_211
*1000 FILLER_7_214
*1001 FILLER_7_217
*1002 FILLER_7_22
*1003 FILLER_7_220
*1004 FILLER_7_223
*1005 FILLER_7_240
*1006 FILLER_7_243
*1007 FILLER_7_246
*1008 FILLER_7_25
*1009 FILLER_7_271
*1010 FILLER_7_274
*1011 FILLER_7_277
*1012 FILLER_7_28
*1013 FILLER_7_281
*1014 FILLER_7_284
*1015 FILLER_7_287
*1016 FILLER_7_290
*1017 FILLER_7_293
*1018 FILLER_7_296
*1019 FILLER_7_299
*1020 FILLER_7_302
*1021 FILLER_7_305
*1022 FILLER_7_308
*1023 FILLER_7_31
*1024 FILLER_7_311
*1025 FILLER_7_314
*1026 FILLER_7_317
*1027 FILLER_7_320
*1028 FILLER_7_325
*1029 FILLER_7_328
*1030 FILLER_7_331
*1031 FILLER_7_334
*1032 FILLER_7_337
*1033 FILLER_7_34
*1034 FILLER_7_37
*1035 FILLER_7_40
*1036 FILLER_7_43
*1037 FILLER_7_46
*1038 FILLER_7_49
*1039 FILLER_7_52
*1040 FILLER_7_55
*1041 FILLER_7_57
*1042 FILLER_7_60
*1043 FILLER_7_63
*1044 FILLER_7_66
*1045 FILLER_7_69
*1046 FILLER_7_72
*1047 FILLER_7_75
*1048 FILLER_7_78
*1049 FILLER_7_81
*1050 FILLER_7_84
*1051 FILLER_7_87
*1052 FILLER_7_90
*1053 FILLER_7_93
*1054 FILLER_8_113
*1055 FILLER_8_139
*1056 FILLER_8_16
*1057 FILLER_8_19
*1058 FILLER_8_195
*1059 FILLER_8_197
*1060 FILLER_8_200
*1061 FILLER_8_203
*1062 FILLER_8_206
*1063 FILLER_8_209
*1064 FILLER_8_212
*1065 FILLER_8_215
*1066 FILLER_8_218
*1067 FILLER_8_22
*1068 FILLER_8_221
*1069 FILLER_8_25
*1070 FILLER_8_256
*1071 FILLER_8_278
*1072 FILLER_8_281
*1073 FILLER_8_284
*1074 FILLER_8_287
*1075 FILLER_8_29
*1076 FILLER_8_290
*1077 FILLER_8_293
*1078 FILLER_8_296
*1079 FILLER_8_299
*1080 FILLER_8_302
*1081 FILLER_8_305
*1082 FILLER_8_309
*1083 FILLER_8_312
*1084 FILLER_8_315
*1085 FILLER_8_318
*1086 FILLER_8_32
*1087 FILLER_8_321
*1088 FILLER_8_324
*1089 FILLER_8_327
*1090 FILLER_8_330
*1091 FILLER_8_333
*1092 FILLER_8_336
*1093 FILLER_8_35
*1094 FILLER_8_38
*1095 FILLER_8_41
*1096 FILLER_8_44
*1097 FILLER_8_47
*1098 FILLER_8_71
*1099 FILLER_8_74
*1100 FILLER_8_77
*1101 FILLER_8_80
*1102 FILLER_8_83
*1103 FILLER_9_110
*1104 FILLER_9_128
*1105 FILLER_9_14
*1106 FILLER_9_160
*1107 FILLER_9_17
*1108 FILLER_9_181
*1109 FILLER_9_186
*1110 FILLER_9_191
*1111 FILLER_9_195
*1112 FILLER_9_198
*1113 FILLER_9_20
*1114 FILLER_9_201
*1115 FILLER_9_207
*1116 FILLER_9_210
*1117 FILLER_9_213
*1118 FILLER_9_216
*1119 FILLER_9_23
*1120 FILLER_9_26
*1121 FILLER_9_284
*1122 FILLER_9_29
*1123 FILLER_9_32
*1124 FILLER_9_329
*1125 FILLER_9_337
*1126 FILLER_9_35
*1127 FILLER_9_38
*1128 FILLER_9_41
*1129 FILLER_9_44
*1130 FILLER_9_47
*1131 FILLER_9_50
*1132 FILLER_9_53
*1133 FILLER_9_57
*1134 FILLER_9_60
*1135 FILLER_9_65
*1136 FILLER_9_70
*1137 FILLER_9_73
*1138 FILLER_9_88
*1139 PHY_EDGE_ROW_0_Left_12
*1140 PHY_EDGE_ROW_0_Right_0
*1141 PHY_EDGE_ROW_10_Left_22
*1142 PHY_EDGE_ROW_10_Right_10
*1143 PHY_EDGE_ROW_11_Left_23
*1144 PHY_EDGE_ROW_11_Right_11
*1145 PHY_EDGE_ROW_1_Left_13
*1146 PHY_EDGE_ROW_1_Right_1
*1147 PHY_EDGE_ROW_2_Left_14
*1148 PHY_EDGE_ROW_2_Right_2
*1149 PHY_EDGE_ROW_3_Left_15
*1150 PHY_EDGE_ROW_3_Right_3
*1151 PHY_EDGE_ROW_4_Left_16
*1152 PHY_EDGE_ROW_4_Right_4
*1153 PHY_EDGE_ROW_5_Left_17
*1154 PHY_EDGE_ROW_5_Right_5
*1155 PHY_EDGE_ROW_6_Left_18
*1156 PHY_EDGE_ROW_6_Right_6
*1157 PHY_EDGE_ROW_7_Left_19
*1158 PHY_EDGE_ROW_7_Right_7
*1159 PHY_EDGE_ROW_8_Left_20
*1160 PHY_EDGE_ROW_8_Right_8
*1161 PHY_EDGE_ROW_9_Left_21
*1162 PHY_EDGE_ROW_9_Right_9
*1163 S_EF_DAC8_191
*1164 TAP_TAPCELL_ROW_0_24
*1165 TAP_TAPCELL_ROW_0_25
*1166 TAP_TAPCELL_ROW_0_26
*1167 TAP_TAPCELL_ROW_0_27
*1168 TAP_TAPCELL_ROW_0_28
*1169 TAP_TAPCELL_ROW_0_29
*1170 TAP_TAPCELL_ROW_0_30
*1171 TAP_TAPCELL_ROW_0_31
*1172 TAP_TAPCELL_ROW_0_32
*1173 TAP_TAPCELL_ROW_0_33
*1174 TAP_TAPCELL_ROW_0_34
*1175 TAP_TAPCELL_ROW_0_35
*1176 TAP_TAPCELL_ROW_10_90
*1177 TAP_TAPCELL_ROW_10_91
*1178 TAP_TAPCELL_ROW_10_92
*1179 TAP_TAPCELL_ROW_10_93
*1180 TAP_TAPCELL_ROW_10_94
*1181 TAP_TAPCELL_ROW_10_95
*1182 TAP_TAPCELL_ROW_11_100
*1183 TAP_TAPCELL_ROW_11_101
*1184 TAP_TAPCELL_ROW_11_102
*1185 TAP_TAPCELL_ROW_11_103
*1186 TAP_TAPCELL_ROW_11_104
*1187 TAP_TAPCELL_ROW_11_105
*1188 TAP_TAPCELL_ROW_11_106
*1189 TAP_TAPCELL_ROW_11_107
*1190 TAP_TAPCELL_ROW_11_96
*1191 TAP_TAPCELL_ROW_11_97
*1192 TAP_TAPCELL_ROW_11_98
*1193 TAP_TAPCELL_ROW_11_99
*1194 TAP_TAPCELL_ROW_1_36
*1195 TAP_TAPCELL_ROW_1_37
*1196 TAP_TAPCELL_ROW_1_38
*1197 TAP_TAPCELL_ROW_1_39
*1198 TAP_TAPCELL_ROW_1_40
*1199 TAP_TAPCELL_ROW_1_41
*1200 TAP_TAPCELL_ROW_2_42
*1201 TAP_TAPCELL_ROW_2_43
*1202 TAP_TAPCELL_ROW_2_44
*1203 TAP_TAPCELL_ROW_2_45
*1204 TAP_TAPCELL_ROW_2_46
*1205 TAP_TAPCELL_ROW_2_47
*1206 TAP_TAPCELL_ROW_3_48
*1207 TAP_TAPCELL_ROW_3_49
*1208 TAP_TAPCELL_ROW_3_50
*1209 TAP_TAPCELL_ROW_3_51
*1210 TAP_TAPCELL_ROW_3_52
*1211 TAP_TAPCELL_ROW_3_53
*1212 TAP_TAPCELL_ROW_4_54
*1213 TAP_TAPCELL_ROW_4_55
*1214 TAP_TAPCELL_ROW_4_56
*1215 TAP_TAPCELL_ROW_4_57
*1216 TAP_TAPCELL_ROW_4_58
*1217 TAP_TAPCELL_ROW_4_59
*1218 TAP_TAPCELL_ROW_5_60
*1219 TAP_TAPCELL_ROW_5_61
*1220 TAP_TAPCELL_ROW_5_62
*1221 TAP_TAPCELL_ROW_5_63
*1222 TAP_TAPCELL_ROW_5_64
*1223 TAP_TAPCELL_ROW_5_65
*1224 TAP_TAPCELL_ROW_6_66
*1225 TAP_TAPCELL_ROW_6_67
*1226 TAP_TAPCELL_ROW_6_68
*1227 TAP_TAPCELL_ROW_6_69
*1228 TAP_TAPCELL_ROW_6_70
*1229 TAP_TAPCELL_ROW_6_71
*1230 TAP_TAPCELL_ROW_7_72
*1231 TAP_TAPCELL_ROW_7_73
*1232 TAP_TAPCELL_ROW_7_74
*1233 TAP_TAPCELL_ROW_7_75
*1234 TAP_TAPCELL_ROW_7_76
*1235 TAP_TAPCELL_ROW_7_77
*1236 TAP_TAPCELL_ROW_8_78
*1237 TAP_TAPCELL_ROW_8_79
*1238 TAP_TAPCELL_ROW_8_80
*1239 TAP_TAPCELL_ROW_8_81
*1240 TAP_TAPCELL_ROW_8_82
*1241 TAP_TAPCELL_ROW_8_83
*1242 TAP_TAPCELL_ROW_9_84
*1243 TAP_TAPCELL_ROW_9_85
*1244 TAP_TAPCELL_ROW_9_86
*1245 TAP_TAPCELL_ROW_9_87
*1246 TAP_TAPCELL_ROW_9_88
*1247 TAP_TAPCELL_ROW_9_89
*1248 _002_
*1249 _003_
*1250 _004_
*1251 _005_
*1252 _006_
*1253 _007_
*1254 _008_
*1255 _009_
*1256 _010_
*1257 _011_
*1258 _012_
*1259 _013_
*1260 _014_
*1261 _015_
*1262 _016_
*1263 _017_
*1264 _018_
*1265 _019_
*1266 _020_
*1267 _021_
*1268 _022_
*1269 _023_
*1270 _024_
*1271 _025_
*1272 _026_
*1273 _027_
*1274 _028_
*1275 _029_
*1276 _030_
*1277 _031_
*1278 _032_
*1279 _033_
*1280 _034_
*1281 _035_
*1282 _036_
*1283 _037_
*1284 _038_
*1285 _039_
*1286 _040_
*1287 _041_
*1288 _042_
*1289 _043_
*1290 _044_
*1291 _045_
*1292 _046_
*1293 _047_
*1294 _048_
*1295 _049_
*1296 _050_
*1297 _051_
*1298 _052_
*1299 _053_
*1300 _054_
*1301 _055_
*1302 _056_
*1303 _057_
*1304 _058_
*1305 _059_
*1306 _060_
*1307 _061_
*1308 _062_
*1309 _063_
*1310 _064_
*1311 _065_
*1312 _066_
*1313 _067_
*1314 _068_
*1315 _069_
*1316 _070_
*1317 _071_
*1318 _072_
*1319 _073_
*1320 _074_
*1321 _075_
*1322 _076_
*1323 _077_
*1324 _078_
*1325 _080_
*1326 _081_
*1327 _082_
*1328 _083_
*1329 _084_
*1330 _085_
*1331 _086_
*1332 _087_
*1333 _088_
*1334 _089_
*1335 _090_
*1336 _091_
*1337 _092_
*1338 _093_
*1339 _094_
*1340 _095_
*1341 _096_
*1342 _097_
*1343 _098_
*1344 _099_
*1345 _100_
*1346 _101_
*1347 _102_
*1348 _103_
*1349 _104_
*1350 _105_
*1351 _106_
*1352 _107_
*1353 _108_
*1354 _109_
*1355 _110_
*1356 _111_
*1357 _112_
*1358 _113_
*1359 _114_
*1360 _115_
*1361 _116_
*1362 _117_
*1363 _118_
*1364 _119_
*1365 _120_
*1366 _121_
*1367 _122_
*1368 _123_
*1369 _124_
*1370 _125_
*1371 _126_
*1372 _127_
*1373 _128_
*1374 _129_
*1375 _130_
*1376 _131_
*1377 _132_
*1378 _133_
*1379 _134_
*1380 _135_
*1381 _136_
*1382 _137_
*1383 _138_
*1384 _139_
*1385 _140_
*1386 _141_
*1387 _142_
*1388 _143_
*1389 _144_
*1390 _145_
*1391 _146_
*1392 _147_
*1393 _148_
*1394 _149_
*1395 _150_
*1396 _151_
*1397 _152_
*1398 _153_
*1399 _154_
*1400 _155_
*1401 _156_
*1402 _157_
*1403 _158_
*1404 _159_
*1405 _160_
*1406 _161_
*1407 _162_
*1408 _163_
*1409 _164_
*1410 _165_
*1411 _166_
*1412 _167_
*1413 _168_
*1414 _169_
*1415 _170_
*1416 _171_
*1417 _172_
*1418 _173_
*1419 _174_
*1420 _175_
*1421 _176_
*1422 _177_
*1423 _178_
*1424 _179_
*1425 _180_
*1426 _181_
*1427 _182_
*1428 _183_
*1429 _184_
*1430 fanout20
*1431 fanout21
*1432 fanout22
*1433 fanout23
*1434 fanout24
*1435 fanout25
*1436 input1
*1437 input10
*1438 input11
*1439 input12
*1440 input13
*1441 input14
*1442 input15
*1443 input16
*1444 input17
*1445 input18
*1446 input19
*1447 input2
*1448 input20
*1449 input21
*1450 input22
*1451 input23
*1452 input24
*1453 input25
*1454 input26
*1455 input27
*1456 input28
*1457 input29
*1458 input3
*1459 input30
*1460 input31
*1461 input32
*1462 input33
*1463 input34
*1464 input35
*1465 input36
*1466 input37
*1467 input38
*1468 input39
*1469 input4
*1470 input40
*1471 input41
*1472 input42
*1473 input43
*1474 input44
*1475 input45
*1476 input46
*1477 input47
*1478 input48
*1479 input49
*1480 input5
*1481 input50
*1482 input51
*1483 input52
*1484 input53
*1485 input54
*1486 input55
*1487 input56
*1488 input57
*1489 input58
*1490 input59
*1491 input6
*1492 input60
*1493 input61
*1494 input62
*1495 input63
*1496 input64
*1497 input65
*1498 input66
*1499 input67
*1500 input68
*1501 input69
*1502 input7
*1503 input70
*1504 input71
*1505 input72
*1506 input73
*1507 input74
*1508 input75
*1509 input76
*1510 input8
*1511 input9
*1512 output100
*1513 output101
*1514 output102
*1515 output103
*1516 output104
*1517 output105
*1518 output106
*1519 output107
*1520 output108
*1521 output109
*1522 output110
*1523 output111
*1524 output112
*1525 output113
*1526 output114
*1527 output115
*1528 output116
*1529 output117
*1530 output118
*1531 output119
*1532 output120
*1533 output121
*1534 output122
*1535 output123
*1536 output124
*1537 output125
*1538 output126
*1539 output127
*1540 output128
*1541 output129
*1542 output130
*1543 output131
*1544 output132
*1545 output133
*1546 output134
*1547 output135
*1548 output136
*1549 output137
*1550 output138
*1551 output139
*1552 output140
*1553 output141
*1554 output142
*1555 output143
*1556 output144
*1557 output145
*1558 output146
*1559 output147
*1560 output148
*1561 output149
*1562 output150
*1563 output151
*1564 output152
*1565 output153
*1566 output154
*1567 output155
*1568 output156
*1569 output157
*1570 output158
*1571 output159
*1572 output160
*1573 output161
*1574 output162
*1575 output163
*1576 output164
*1577 output165
*1578 output166
*1579 output167
*1580 output168
*1581 output169
*1582 output170
*1583 output171
*1584 output172
*1585 output173
*1586 output174
*1587 output175
*1588 output176
*1589 output177
*1590 output178
*1591 output179
*1592 output180
*1593 output181
*1594 output182
*1595 output183
*1596 output184
*1597 output185
*1598 output186
*1599 output187
*1600 output188
*1601 output189
*1602 output190
*1603 output77
*1604 output78
*1605 output79
*1606 output80
*1607 output81
*1608 output82
*1609 output83
*1610 output84
*1611 output85
*1612 output86
*1613 output87
*1614 output88
*1615 output89
*1616 output90
*1617 output91
*1618 output92
*1619 output93
*1620 output94
*1621 output95
*1622 output96
*1623 output97
*1624 output98
*1625 output99

*PORTS
Co O
ENABLE_top O
FrameData[0] I
FrameData[10] I
FrameData[11] I
FrameData[12] I
FrameData[13] I
FrameData[14] I
FrameData[15] I
FrameData[16] I
FrameData[17] I
FrameData[18] I
FrameData[19] I
FrameData[1] I
FrameData[20] I
FrameData[21] I
FrameData[22] I
FrameData[23] I
FrameData[24] I
FrameData[25] I
FrameData[26] I
FrameData[27] I
FrameData[28] I
FrameData[29] I
FrameData[2] I
FrameData[30] I
FrameData[31] I
FrameData[3] I
FrameData[4] I
FrameData[5] I
FrameData[6] I
FrameData[7] I
FrameData[8] I
FrameData[9] I
FrameData_O[0] O
FrameData_O[10] O
FrameData_O[11] O
FrameData_O[12] O
FrameData_O[13] O
FrameData_O[14] O
FrameData_O[15] O
FrameData_O[16] O
FrameData_O[17] O
FrameData_O[18] O
FrameData_O[19] O
FrameData_O[1] O
FrameData_O[20] O
FrameData_O[21] O
FrameData_O[22] O
FrameData_O[23] O
FrameData_O[24] O
FrameData_O[25] O
FrameData_O[26] O
FrameData_O[27] O
FrameData_O[28] O
FrameData_O[29] O
FrameData_O[2] O
FrameData_O[30] O
FrameData_O[31] O
FrameData_O[3] O
FrameData_O[4] O
FrameData_O[5] O
FrameData_O[6] O
FrameData_O[7] O
FrameData_O[8] O
FrameData_O[9] O
FrameStrobe[0] I
FrameStrobe[10] I
FrameStrobe[11] I
FrameStrobe[12] I
FrameStrobe[13] I
FrameStrobe[14] I
FrameStrobe[15] I
FrameStrobe[16] I
FrameStrobe[17] I
FrameStrobe[18] I
FrameStrobe[19] I
FrameStrobe[1] I
FrameStrobe[2] I
FrameStrobe[3] I
FrameStrobe[4] I
FrameStrobe[5] I
FrameStrobe[6] I
FrameStrobe[7] I
FrameStrobe[8] I
FrameStrobe[9] I
FrameStrobe_O[0] O
FrameStrobe_O[10] O
FrameStrobe_O[11] O
FrameStrobe_O[12] O
FrameStrobe_O[13] O
FrameStrobe_O[14] O
FrameStrobe_O[15] O
FrameStrobe_O[16] O
FrameStrobe_O[17] O
FrameStrobe_O[18] O
FrameStrobe_O[19] O
FrameStrobe_O[1] O
FrameStrobe_O[2] O
FrameStrobe_O[3] O
FrameStrobe_O[4] O
FrameStrobe_O[5] O
FrameStrobe_O[6] O
FrameStrobe_O[7] O
FrameStrobe_O[8] O
FrameStrobe_O[9] O
N1BEG[0] O
N1BEG[1] O
N1BEG[2] O
N1BEG[3] O
N2BEG[0] O
N2BEG[1] O
N2BEG[2] O
N2BEG[3] O
N2BEG[4] O
N2BEG[5] O
N2BEG[6] O
N2BEG[7] O
N2BEGb[0] O
N2BEGb[1] O
N2BEGb[2] O
N2BEGb[3] O
N2BEGb[4] O
N2BEGb[5] O
N2BEGb[6] O
N2BEGb[7] O
N4BEG[0] O
N4BEG[10] O
N4BEG[11] O
N4BEG[12] O
N4BEG[13] O
N4BEG[14] O
N4BEG[15] O
N4BEG[1] O
N4BEG[2] O
N4BEG[3] O
N4BEG[4] O
N4BEG[5] O
N4BEG[6] O
N4BEG[7] O
N4BEG[8] O
N4BEG[9] O
NN4BEG[0] O
NN4BEG[10] O
NN4BEG[11] O
NN4BEG[12] O
NN4BEG[13] O
NN4BEG[14] O
NN4BEG[15] O
NN4BEG[1] O
NN4BEG[2] O
NN4BEG[3] O
NN4BEG[4] O
NN4BEG[5] O
NN4BEG[6] O
NN4BEG[7] O
NN4BEG[8] O
NN4BEG[9] O
S1END[0] I
S1END[1] I
S1END[2] I
S1END[3] I
S2END[0] I
S2END[1] I
S2END[2] I
S2END[3] I
S2END[4] I
S2END[5] I
S2END[6] I
S2END[7] I
S2MID[0] I
S2MID[1] I
S2MID[2] I
S2MID[3] I
S2MID[4] I
S2MID[5] I
S2MID[6] I
S2MID[7] I
S4END[0] I
S4END[10] I
S4END[11] I
S4END[12] I
S4END[13] I
S4END[14] I
S4END[15] I
S4END[1] I
S4END[2] I
S4END[3] I
S4END[4] I
S4END[5] I
S4END[6] I
S4END[7] I
S4END[8] I
S4END[9] I
SS4END[0] I
SS4END[10] I
SS4END[11] I
SS4END[12] I
SS4END[13] I
SS4END[14] I
SS4END[15] I
SS4END[1] I
SS4END[2] I
SS4END[3] I
SS4END[4] I
SS4END[5] I
SS4END[6] I
SS4END[7] I
SS4END[8] I
SS4END[9] I
UserCLK I
UserCLKo O
VALUE_top0 O
VALUE_top1 O
VALUE_top2 O
VALUE_top3 O
VALUE_top4 O
VALUE_top5 O
VALUE_top6 O
VALUE_top7 O

*D_NET *1 0.00455174
*CONN
*P Co O
*I *1163:LO O *D sky130_fd_sc_hd__conb_1
*CAP
1 Co 0.000902776
2 *1163:LO 0.000902776
3 Co NN4BEG[13] 0.000429955
4 Co NN4BEG[14] 0.000229344
5 Co NN4BEG[15] 0.000203225
6 Co *1253:A0 1.85668e-05
7 Co *1260:A0 1.83136e-05
8 Co *1260:A1 2.59355e-05
9 Co *1463:A 0
10 Co *1464:A 0.000242036
11 Co *1465:A 2.34027e-05
12 Co *1593:A 5.90048e-05
13 Co *159:19 0.000203225
14 Co *246:26 3.60513e-05
15 Co *343:30 0.000113055
16 Co *374:20 0.000293061
17 Co *403:86 0.000179194
18 Co *463:40 0.000564369
19 Co *463:56 0.000107449
*RES
1 *1163:LO Co 46.6214 
*END

*D_NET *2 0.00139721
*CONN
*P ENABLE_top O
*I *1603:X O *D sky130_fd_sc_hd__buf_2
*CAP
1 ENABLE_top 0.000649082
2 *1603:X 0.000649082
3 ENABLE_top *1559:A 0
4 ENABLE_top *415:14 9.90431e-05
*RES
1 *1603:X ENABLE_top 24.8536 
*END

*D_NET *3 0.00238013
*CONN
*P FrameData[0] I
*I *1436:A I *D sky130_fd_sc_hd__dlymetal6s2s_1
*CAP
1 FrameData[0] 0.00073782
2 *1436:A 0.00073782
3 *1436:A VALUE_top0 0.000482948
4 *1436:A VALUE_top1 1.83136e-05
5 *1436:A *1439:A 0.000304185
6 *1436:A *1455:A 9.90431e-05
7 *1436:A *414:10 0
*RES
1 FrameData[0] *1436:A 29.2576 
*END

*D_NET *4 0.00152154
*CONN
*P FrameData[10] I
*I *1447:A I *D sky130_fd_sc_hd__buf_1
*CAP
1 FrameData[10] 0.000341554
2 *1447:A 0.000341554
3 *1447:A VALUE_top0 1.01912e-05
4 *1447:A *1458:A 0.000268314
5 *1447:A *1459:A 0
6 *1447:A *1460:A 2.33863e-05
7 *1447:A *1461:A 0.000536544
8 *1447:A *1469:A 0
9 *1447:A *1595:A 0
*RES
1 FrameData[10] *1447:A 23.0771 
*END

*D_NET *5 0.00175366
*CONN
*P FrameData[11] I
*I *1458:A I *D sky130_fd_sc_hd__buf_1
*CAP
1 FrameData[11] 0.000473126
2 *1458:A 0.000473126
3 *1458:A *1459:A 0
4 *1458:A *1469:A 0.000342717
5 *1458:A *1480:A 0.00019638
6 *1458:A *1491:A 0
7 *1458:A *1510:A 0
8 *1458:A *421:10 0
9 *1458:A *432:26 0
10 *1447:A *1458:A 0.000268314
*RES
1 FrameData[11] *1458:A 25.0778 
*END

*D_NET *6 0.0014316
*CONN
*P FrameData[12] I
*I *1469:A I *D sky130_fd_sc_hd__buf_1
*CAP
1 FrameData[12] 0.000297509
2 *1469:A 0.000297509
3 *1469:A *1461:A 0
4 *1469:A *1480:A 0.000493869
5 *1469:A *1510:A 0
6 *1447:A *1469:A 0
7 *1458:A *1469:A 0.000342717
*RES
1 FrameData[12] *1469:A 22.7015 
*END

*D_NET *7 0.00126136
*CONN
*P FrameData[13] I
*I *1480:A I *D sky130_fd_sc_hd__buf_1
*CAP
1 FrameData[13] 0.000176257
2 *1480:A 0.000176257
3 *1480:A *1461:A 0
4 *1480:A *1491:A 0.0002186
5 *1458:A *1480:A 0.00019638
6 *1469:A *1480:A 0.000493869
*RES
1 FrameData[13] *1480:A 21.3794 
*END

*D_NET *8 0.000990141
*CONN
*P FrameData[14] I
*I *1491:A I *D sky130_fd_sc_hd__dlymetal6s2s_1
*CAP
1 FrameData[14] 0.000303327
2 *1491:A 0.000303327
3 *1491:A *1502:A 0.000113626
4 *1491:A *1510:A 5.12608e-05
5 *1458:A *1491:A 0
6 *1480:A *1491:A 0.0002186
*RES
1 FrameData[14] *1491:A 21.683 
*END

*D_NET *9 0.00105003
*CONN
*P FrameData[15] I
*I *1502:A I *D sky130_fd_sc_hd__dlymetal6s2s_1
*CAP
1 FrameData[15] 0.000411388
2 *1502:A 0.000411388
3 *1502:A *1437:A 0
4 *1502:A *1510:A 0.000113626
5 *1491:A *1502:A 0.000113626
*RES
1 FrameData[15] *1502:A 24.2519 
*END

*D_NET *10 0.00199639
*CONN
*P FrameData[16] I
*I *1510:A I *D sky130_fd_sc_hd__buf_1
*CAP
1 FrameData[16] 0.000770788
2 *1510:A 0.000770788
3 *1510:A *1405:A 1.77009e-05
4 *1510:A *1440:A 0
5 *1510:A *1511:A 0.000272231
6 *1510:A *432:26 0
7 *1458:A *1510:A 0
8 *1469:A *1510:A 0
9 *1491:A *1510:A 5.12608e-05
10 *1502:A *1510:A 0.000113626
*RES
1 FrameData[16] *1510:A 20.1243 
*END

*D_NET *11 0.00207483
*CONN
*P FrameData[17] I
*I *1511:A I *D sky130_fd_sc_hd__buf_1
*CAP
1 FrameData[17] 0.000498363
2 *1511:A 0.000498363
3 *1511:A *1437:A 0.000488238
4 *1511:A *1438:A 0
5 *1511:A *1440:A 0
6 *1511:A *292:6 0.000317633
7 *1510:A *1511:A 0.000272231
*RES
1 FrameData[17] *1511:A 26.6307 
*END

*D_NET *12 0.00112342
*CONN
*P FrameData[18] I
*I *1437:A I *D sky130_fd_sc_hd__dlymetal6s2s_1
*CAP
1 FrameData[18] 0.00023515
2 *1437:A 0.00023515
3 *1437:A *1438:A 0.000113626
4 *1437:A *1440:A 5.12608e-05
5 *1502:A *1437:A 0
6 *1511:A *1437:A 0.000488238
*RES
1 FrameData[18] *1437:A 21.683 
*END

*D_NET *13 0.00113833
*CONN
*P FrameData[19] I
*I *1438:A I *D sky130_fd_sc_hd__dlymetal6s2s_1
*CAP
1 FrameData[19] 0.00038411
2 *1438:A 0.00038411
3 *1438:A *1440:A 0.000256482
4 *1438:A *1442:A 0
5 *1438:A *1443:A 0
6 *1437:A *1438:A 0.000113626
7 *1511:A *1438:A 0
*RES
1 FrameData[19] *1438:A 24.2519 
*END

*D_NET *14 0.00303631
*CONN
*P FrameData[1] I
*I *1439:A I *D sky130_fd_sc_hd__dlymetal6s2s_1
*CAP
1 FrameData[1] 0.00041908
2 *1439:A 0.00041908
3 *1439:A VALUE_top0 0.000536849
4 *1439:A *1451:A 0.000780613
5 *1439:A *1454:A 0.000226985
6 *1439:A *1456:A 0.00018372
7 *1439:A *415:12 0.000165802
8 *1436:A *1439:A 0.000304185
*RES
1 FrameData[1] *1439:A 30.9706 
*END

*D_NET *15 0.00176973
*CONN
*P FrameData[20] I
*I *1440:A I *D sky130_fd_sc_hd__buf_1
*CAP
1 FrameData[20] 0.000481962
2 *1440:A 0.000481962
3 *1440:A *1441:A 0.000323941
4 *1440:A *303:14 0.00017412
5 *1437:A *1440:A 5.12608e-05
6 *1438:A *1440:A 0.000256482
7 *1510:A *1440:A 0
8 *1511:A *1440:A 0
*RES
1 FrameData[20] *1440:A 24.5605 
*END

*D_NET *16 0.00187413
*CONN
*P FrameData[21] I
*I *1441:A I *D sky130_fd_sc_hd__buf_1
*CAP
1 FrameData[21] 0.000525177
2 *1441:A 0.000525177
3 *1441:A *1442:A 0.000499838
4 *1441:A *1445:A 0
5 *1440:A *1441:A 0.000323941
*RES
1 FrameData[21] *1441:A 25.257 
*END

*D_NET *17 0.0015336
*CONN
*P FrameData[22] I
*I *1442:A I *D sky130_fd_sc_hd__clkbuf_2
*CAP
1 FrameData[22] 0.000268474
2 *1442:A 0.000268474
3 *1442:A *1443:A 0.000496811
4 *1442:A *1445:A 0
5 *1442:A *358:20 0
6 *1438:A *1442:A 0
7 *1441:A *1442:A 0.000499838
*RES
1 FrameData[22] *1442:A 23.3628 
*END

*D_NET *18 0.00118207
*CONN
*P FrameData[23] I
*I *1443:A I *D sky130_fd_sc_hd__clkbuf_2
*CAP
1 FrameData[23] 0.000231373
2 *1443:A 0.000231373
3 *1443:A *1444:A 0.000222517
4 *1438:A *1443:A 0
5 *1442:A *1443:A 0.000496811
*RES
1 FrameData[23] *1443:A 21.4866 
*END

*D_NET *19 0.00111198
*CONN
*P FrameData[24] I
*I *1444:A I *D sky130_fd_sc_hd__dlymetal6s2s_1
*CAP
1 FrameData[24] 0.00025881
2 *1444:A 0.00025881
3 *1444:A *1445:A 0.000316617
4 *1444:A *1446:A 5.52302e-05
5 *1444:A *1449:A 0
6 *1443:A *1444:A 0.000222517
*RES
1 FrameData[24] *1444:A 21.683 
*END

*D_NET *20 0.00188837
*CONN
*P FrameData[25] I
*I *1445:A I *D sky130_fd_sc_hd__buf_1
*CAP
1 FrameData[25] 0.000325318
2 *1445:A 0.000325318
3 *1445:A *1446:A 0.000796464
4 *1445:A *369:16 0.000124653
5 *1441:A *1445:A 0
6 *1442:A *1445:A 0
7 *1444:A *1445:A 0.000316617
*RES
1 FrameData[25] *1445:A 24.0433 
*END

*D_NET *21 0.00241685
*CONN
*P FrameData[26] I
*I *1446:A I *D sky130_fd_sc_hd__buf_1
*CAP
1 FrameData[26] 0.000533933
2 *1446:A 0.000533933
3 *1446:A *1448:A 0.000375849
4 *1446:A *369:16 3.91204e-05
5 *1446:A *380:8 8.23193e-05
6 *1444:A *1446:A 5.52302e-05
7 *1445:A *1446:A 0.000796464
*RES
1 FrameData[26] *1446:A 26.6333 
*END

*D_NET *22 0.00267761
*CONN
*P FrameData[27] I
*I *1448:A I *D sky130_fd_sc_hd__buf_1
*CAP
1 FrameData[27] 0.00039132
2 *1448:A 0.00039132
3 *1448:A *1449:A 0.000275747
4 *1448:A *1450:A 0.000324801
5 *1448:A *1453:A 0.000918577
6 *1446:A *1448:A 0.000375849
*RES
1 FrameData[27] *1448:A 27.2583 
*END

*D_NET *23 0.00125157
*CONN
*P FrameData[28] I
*I *1449:A I *D sky130_fd_sc_hd__dlymetal6s2s_1
*CAP
1 FrameData[28] 0.000278091
2 *1449:A 0.000278091
3 *1449:A *1450:A 0.000317643
4 *1449:A *1453:A 0.000101994
5 *1444:A *1449:A 0
6 *1448:A *1449:A 0.000275747
*RES
1 FrameData[28] *1449:A 22.5937 
*END

*D_NET *24 0.00218108
*CONN
*P FrameData[29] I
*I *1450:A I *D sky130_fd_sc_hd__dlymetal6s2s_1
*CAP
1 FrameData[29] 0.000542292
2 *1450:A 0.000542292
3 *1450:A *1452:A 0.000349983
4 *1450:A *1453:A 0.000104072
5 *1450:A *407:10 0
6 *1448:A *1450:A 0.000324801
7 *1449:A *1450:A 0.000317643
*RES
1 FrameData[29] *1450:A 26.954 
*END

*D_NET *25 0.00365394
*CONN
*P FrameData[2] I
*I *1451:A I *D sky130_fd_sc_hd__buf_1
*CAP
1 FrameData[2] 0.00111841
2 *1451:A 0.00111841
3 *1451:A *1454:A 0.000259901
4 *1451:A *1455:A 3.75452e-05
5 *1451:A *1456:A 0.000163652
6 *1451:A *1457:A 2.11419e-05
7 *1451:A *314:12 2.89016e-05
8 *1451:A *415:12 0.000125367
9 *1439:A *1451:A 0.000780613
*RES
1 FrameData[2] *1451:A 35.8603 
*END

*D_NET *26 0.002762
*CONN
*P FrameData[30] I
*I *1452:A I *D sky130_fd_sc_hd__buf_1
*CAP
1 FrameData[30] 0.00100104
2 *1452:A 0.00100104
3 *1452:A *1453:A 0.000300268
4 *1452:A *406:10 0
5 *1452:A *408:14 0.000109671
6 *1450:A *1452:A 0.000349983
*RES
1 FrameData[30] *1452:A 26.1084 
*END

*D_NET *27 0.00352441
*CONN
*P FrameData[31] I
*I *1453:A I *D sky130_fd_sc_hd__buf_1
*CAP
1 FrameData[31] 0.00104975
2 *1453:A 0.00104975
3 *1453:A *407:10 0
4 *1448:A *1453:A 0.000918577
5 *1449:A *1453:A 0.000101994
6 *1450:A *1453:A 0.000104072
7 *1452:A *1453:A 0.000300268
*RES
1 FrameData[31] *1453:A 35.7206 
*END

*D_NET *28 0.00303022
*CONN
*P FrameData[3] I
*I *1454:A I *D sky130_fd_sc_hd__buf_1
*CAP
1 FrameData[3] 0.000821264
2 *1454:A 0.000821264
3 *1454:A VALUE_top0 9.2376e-05
4 *1454:A *1455:A 0.000286504
5 *1454:A *1457:A 6.76703e-05
6 *1454:A *1459:A 0.000156777
7 *1454:A *1460:A 0.00016743
8 *1454:A *1461:A 1.24029e-05
9 *1454:A *416:22 2.27416e-05
10 *1454:A *417:24 9.49022e-05
11 *1439:A *1454:A 0.000226985
12 *1451:A *1454:A 0.000259901
*RES
1 FrameData[3] *1454:A 35.4515 
*END

*D_NET *29 0.00115864
*CONN
*P FrameData[4] I
*I *1455:A I *D sky130_fd_sc_hd__dlymetal6s2s_1
*CAP
1 FrameData[4] 0.000304155
2 *1455:A 0.000304155
3 *1455:A *1456:A 0.000113626
4 *1455:A *1457:A 1.36077e-05
5 *1455:A *1459:A 0
6 *1436:A *1455:A 9.90431e-05
7 *1451:A *1455:A 3.75452e-05
8 *1454:A *1455:A 0.000286504
*RES
1 FrameData[4] *1455:A 21.683 
*END

*D_NET *30 0.00130474
*CONN
*P FrameData[5] I
*I *1456:A I *D sky130_fd_sc_hd__dlymetal6s2s_1
*CAP
1 FrameData[5] 0.000330702
2 *1456:A 0.000330702
3 *1456:A *1457:A 0.000182344
4 *1439:A *1456:A 0.00018372
5 *1451:A *1456:A 0.000163652
6 *1455:A *1456:A 0.000113626
*RES
1 FrameData[5] *1456:A 24.2519 
*END

*D_NET *31 0.00275617
*CONN
*P FrameData[6] I
*I *1457:A I *D sky130_fd_sc_hd__buf_1
*CAP
1 FrameData[6] 0.000776311
2 *1457:A 0.000776311
3 *1457:A *1459:A 0.000700446
4 *1457:A *1460:A 0.000176887
5 *1457:A *417:24 4.14508e-05
6 *1451:A *1457:A 2.11419e-05
7 *1454:A *1457:A 6.76703e-05
8 *1455:A *1457:A 1.36077e-05
9 *1456:A *1457:A 0.000182344
*RES
1 FrameData[6] *1457:A 30.7168 
*END

*D_NET *32 0.00222301
*CONN
*P FrameData[7] I
*I *1459:A I *D sky130_fd_sc_hd__buf_1
*CAP
1 FrameData[7] 0.000482784
2 *1459:A 0.000482784
3 *1459:A VALUE_top0 0.000137834
4 *1459:A *1460:A 0.000262383
5 *1459:A *1595:A 0
6 *1447:A *1459:A 0
7 *1454:A *1459:A 0.000156777
8 *1455:A *1459:A 0
9 *1457:A *1459:A 0.000700446
10 *1458:A *1459:A 0
*RES
1 FrameData[7] *1459:A 25.4362 
*END

*D_NET *33 0.00118257
*CONN
*P FrameData[8] I
*I *1460:A I *D sky130_fd_sc_hd__dlymetal6s2s_1
*CAP
1 FrameData[8] 0.000219431
2 *1460:A 0.000219431
3 *1460:A *1461:A 0.000113626
4 *1447:A *1460:A 2.33863e-05
5 *1454:A *1460:A 0.00016743
6 *1457:A *1460:A 0.000176887
7 *1459:A *1460:A 0.000262383
*RES
1 FrameData[8] *1460:A 22.3603 
*END

*D_NET *34 0.00191551
*CONN
*P FrameData[9] I
*I *1461:A I *D sky130_fd_sc_hd__buf_1
*CAP
1 FrameData[9] 0.000504838
2 *1461:A 0.000504838
3 *1461:A VALUE_top0 0.000186669
4 *1461:A *399:18 5.65955e-05
5 *1447:A *1461:A 0.000536544
6 *1454:A *1461:A 1.24029e-05
7 *1460:A *1461:A 0.000113626
8 *1469:A *1461:A 0
9 *1480:A *1461:A 0
*RES
1 FrameData[9] *1461:A 27.8054 
*END

*D_NET *35 0.00278636
*CONN
*P FrameData_O[0] O
*I *1604:X O *D sky130_fd_sc_hd__buf_2
*CAP
1 FrameData_O[0] 0.00102506
2 *1604:X 0.00102506
3 FrameData_O[0] FrameData_O[1] 0.000534045
4 FrameData_O[0] FrameData_O[2] 0
5 FrameData_O[0] FrameData_O[6] 2.04825e-05
6 FrameData_O[0] *1375:A 0
7 FrameData_O[0] *1519:A 0.00014341
8 FrameData_O[0] *1521:A 1.71615e-05
9 FrameData_O[0] *77:19 0
10 FrameData_O[0] *305:34 2.11419e-05
*RES
1 *1604:X FrameData_O[0] 28.8877 
*END

*D_NET *36 0.00173886
*CONN
*P FrameData_O[10] O
*I *1605:X O *D sky130_fd_sc_hd__buf_2
*CAP
1 FrameData_O[10] 0.000428136
2 *1605:X 0.000428136
3 FrameData_O[10] FrameData_O[11] 0.000394843
4 FrameData_O[10] FrameData_O[14] 0
5 FrameData_O[10] FrameData_O[6] 0
6 FrameData_O[10] FrameData_O[9] 0.000406569
7 FrameData_O[10] *487:DIODE 5.33005e-05
8 FrameData_O[10] *1520:A 2.01732e-05
9 FrameData_O[10] *304:28 7.69776e-06
*RES
1 *1605:X FrameData_O[10] 19.5484 
*END

*D_NET *37 0.00136006
*CONN
*P FrameData_O[11] O
*I *1606:X O *D sky130_fd_sc_hd__buf_2
*CAP
1 FrameData_O[11] 0.000298634
2 *1606:X 0.000298634
3 FrameData_O[11] FrameData_O[12] 0.000272329
4 FrameData_O[11] FrameData_O[13] 2.314e-05
5 FrameData_O[11] *77:19 7.24849e-05
6 FrameData_O[10] FrameData_O[11] 0.000394843
*RES
1 *1606:X FrameData_O[11] 19.2595 
*END

*D_NET *38 0.00149619
*CONN
*P FrameData_O[12] O
*I *1607:X O *D sky130_fd_sc_hd__buf_2
*CAP
1 FrameData_O[12] 0.000475766
2 *1607:X 0.000475766
3 FrameData_O[12] FrameData_O[13] 0.000272329
4 FrameData_O[11] FrameData_O[12] 0.000272329
*RES
1 *1607:X FrameData_O[12] 22.4521 
*END

*D_NET *39 0.00125793
*CONN
*P FrameData_O[13] O
*I *1608:X O *D sky130_fd_sc_hd__buf_2
*CAP
1 FrameData_O[13] 0.000266598
2 *1608:X 0.000266598
3 FrameData_O[13] FrameData_O[14] 0.000406569
4 FrameData_O[13] *77:19 2.26973e-05
5 FrameData_O[11] FrameData_O[13] 2.314e-05
6 FrameData_O[12] FrameData_O[13] 0.000272329
*RES
1 *1608:X FrameData_O[13] 18.6524 
*END

*D_NET *40 0.00170296
*CONN
*P FrameData_O[14] O
*I *1609:X O *D sky130_fd_sc_hd__buf_2
*CAP
1 FrameData_O[14] 0.000416231
2 *1609:X 0.000416231
3 FrameData_O[14] FrameData_O[15] 0.000394843
4 FrameData_O[14] FrameData_O[18] 0
5 FrameData_O[14] *304:28 7.69776e-06
6 FrameData_O[14] *473:22 2.26866e-05
7 FrameData_O[14] *477:26 3.87074e-05
8 FrameData_O[10] FrameData_O[14] 0
9 FrameData_O[13] FrameData_O[14] 0.000406569
*RES
1 *1609:X FrameData_O[14] 19.5484 
*END

*D_NET *41 0.00130191
*CONN
*P FrameData_O[15] O
*I *1610:X O *D sky130_fd_sc_hd__buf_2
*CAP
1 FrameData_O[15] 0.000280423
2 *1610:X 0.000280423
3 FrameData_O[15] FrameData_O[16] 0.000272329
4 FrameData_O[15] FrameData_O[17] 2.63018e-05
5 FrameData_O[15] *77:19 4.75911e-05
6 FrameData_O[14] FrameData_O[15] 0.000394843
*RES
1 *1610:X FrameData_O[15] 18.956 
*END

*D_NET *42 0.00151965
*CONN
*P FrameData_O[16] O
*I *1611:X O *D sky130_fd_sc_hd__buf_2
*CAP
1 FrameData_O[16] 0.000461615
2 *1611:X 0.000461615
3 FrameData_O[16] FrameData_O[17] 0.000272329
4 FrameData_O[16] *1612:A 5.17614e-05
5 FrameData_O[15] FrameData_O[16] 0.000272329
*RES
1 *1611:X FrameData_O[16] 22.4521 
*END

*D_NET *43 0.00125537
*CONN
*P FrameData_O[17] O
*I *1612:X O *D sky130_fd_sc_hd__buf_2
*CAP
1 FrameData_O[17] 0.000265688
2 *1612:X 0.000265688
3 FrameData_O[17] FrameData_O[18] 0.000402662
4 FrameData_O[17] *77:19 2.26973e-05
5 FrameData_O[15] FrameData_O[17] 2.63018e-05
6 FrameData_O[16] FrameData_O[17] 0.000272329
*RES
1 *1612:X FrameData_O[17] 18.6524 
*END

*D_NET *44 0.00153837
*CONN
*P FrameData_O[18] O
*I *1613:X O *D sky130_fd_sc_hd__buf_2
*CAP
1 FrameData_O[18] 0.000349021
2 *1613:X 0.000349021
3 FrameData_O[18] FrameData_O[19] 0.000394843
4 FrameData_O[18] FrameData_O[23] 0
5 FrameData_O[18] *1612:A 2.22043e-05
6 FrameData_O[18] *304:28 2.06178e-05
7 FrameData_O[14] FrameData_O[18] 0
8 FrameData_O[17] FrameData_O[18] 0.000402662
*RES
1 *1613:X FrameData_O[18] 18.9407 
*END

*D_NET *45 0.00129649
*CONN
*P FrameData_O[19] O
*I *1614:X O *D sky130_fd_sc_hd__buf_2
*CAP
1 FrameData_O[19] 0.000284439
2 *1614:X 0.000284439
3 FrameData_O[19] FrameData_O[20] 0.000272329
4 FrameData_O[19] FrameData_O[21] 2.63018e-05
5 FrameData_O[19] *1614:A 1.31516e-05
6 FrameData_O[19] *77:19 2.09826e-05
7 FrameData_O[18] FrameData_O[19] 0.000394843
*RES
1 *1614:X FrameData_O[19] 18.956 
*END

*D_NET *46 0.00289751
*CONN
*P FrameData_O[1] O
*I *1615:X O *D sky130_fd_sc_hd__buf_2
*CAP
1 FrameData_O[1] 0.00069686
2 *1615:X 0.00069686
3 FrameData_O[1] FrameData_O[2] 0.000663805
4 FrameData_O[1] FrameData_O[3] 4.97413e-05
5 FrameData_O[1] *487:DIODE 3.88551e-05
6 FrameData_O[1] *1374:A 0.000166976
7 FrameData_O[1] *1375:A 0
8 FrameData_O[1] *299:44 5.03671e-05
9 FrameData_O[0] FrameData_O[1] 0.000534045
*RES
1 *1615:X FrameData_O[1] 23.6645 
*END

*D_NET *47 0.00148737
*CONN
*P FrameData_O[20] O
*I *1616:X O *D sky130_fd_sc_hd__buf_2
*CAP
1 FrameData_O[20] 0.000416624
2 *1616:X 0.000416624
3 FrameData_O[20] FrameData_O[21] 0.000272329
4 FrameData_O[20] *1614:A 0
5 FrameData_O[20] *1617:A 0.00010946
6 FrameData_O[19] FrameData_O[20] 0.000272329
*RES
1 *1616:X FrameData_O[20] 23.1843 
*END

*D_NET *48 0.00136813
*CONN
*P FrameData_O[21] O
*I *1617:X O *D sky130_fd_sc_hd__buf_2
*CAP
1 FrameData_O[21] 0.000309099
2 *1617:X 0.000309099
3 FrameData_O[21] FrameData_O[22] 0.000402662
4 FrameData_O[21] *1614:A 4.86429e-05
5 FrameData_O[19] FrameData_O[21] 2.63018e-05
6 FrameData_O[20] FrameData_O[21] 0.000272329
*RES
1 *1617:X FrameData_O[21] 19.5631 
*END

*D_NET *49 0.00129517
*CONN
*P FrameData_O[22] O
*I *1618:X O *D sky130_fd_sc_hd__buf_2
*CAP
1 FrameData_O[22] 0.000244576
2 *1618:X 0.000244576
3 FrameData_O[22] FrameData_O[23] 0.000394843
4 FrameData_O[22] *1614:A 8.50795e-06
5 FrameData_O[21] FrameData_O[22] 0.000402662
*RES
1 *1618:X FrameData_O[22] 18.6524 
*END

*D_NET *50 0.00181066
*CONN
*P FrameData_O[23] O
*I *1619:X O *D sky130_fd_sc_hd__buf_2
*CAP
1 FrameData_O[23] 0.000456747
2 *1619:X 0.000456747
3 FrameData_O[23] FrameData_O[24] 0.000222517
4 FrameData_O[23] FrameData_O[25] 4.94407e-05
5 FrameData_O[23] FrameData_O[26] 0
6 FrameData_O[23] FrameData_O[27] 0
7 FrameData_O[23] *1612:A 0.000117421
8 FrameData_O[23] *1614:A 0.00011294
9 FrameData_O[18] FrameData_O[23] 0
10 FrameData_O[22] FrameData_O[23] 0.000394843
*RES
1 *1619:X FrameData_O[23] 20.1549 
*END

*D_NET *51 0.00116938
*CONN
*P FrameData_O[24] O
*I *1620:X O *D sky130_fd_sc_hd__buf_2
*CAP
1 FrameData_O[24] 0.000335693
2 *1620:X 0.000335693
3 FrameData_O[24] FrameData_O[25] 0.00021861
4 FrameData_O[24] FrameData_O[28] 5.68636e-05
5 FrameData_O[23] FrameData_O[24] 0.000222517
*RES
1 *1620:X FrameData_O[24] 21.4866 
*END

*D_NET *52 0.00145464
*CONN
*P FrameData_O[25] O
*I *1621:X O *D sky130_fd_sc_hd__buf_2
*CAP
1 FrameData_O[25] 0.000352392
2 *1621:X 0.000352392
3 FrameData_O[25] FrameData_O[26] 0.000441231
4 FrameData_O[25] FrameData_O[27] 2.70899e-05
5 FrameData_O[25] FrameData_O[28] 0
6 FrameData_O[25] *1614:A 1.34792e-05
7 FrameData_O[23] FrameData_O[25] 4.94407e-05
8 FrameData_O[24] FrameData_O[25] 0.00021861
*RES
1 *1621:X FrameData_O[25] 20.1702 
*END

*D_NET *53 0.00245821
*CONN
*P FrameData_O[26] O
*I *1622:X O *D sky130_fd_sc_hd__buf_2
*CAP
1 FrameData_O[26] 0.000611195
2 *1622:X 0.000611195
3 FrameData_O[26] FrameData_O[27] 0.000457987
4 FrameData_O[26] *1513:A 0.000310671
5 FrameData_O[26] *1621:A 2.59355e-05
6 FrameData_O[23] FrameData_O[26] 0
7 FrameData_O[25] FrameData_O[26] 0.000441231
*RES
1 *1622:X FrameData_O[26] 24.903 
*END

*D_NET *54 0.00223894
*CONN
*P FrameData_O[27] O
*I *1623:X O *D sky130_fd_sc_hd__buf_2
*CAP
1 FrameData_O[27] 0.000570355
2 *1623:X 0.000570355
3 FrameData_O[27] FrameData_O[28] 0.000245833
4 FrameData_O[27] FrameData_O[29] 5.92192e-05
5 FrameData_O[27] *1614:A 0.00016065
6 FrameData_O[27] *1620:A 0.000147455
7 FrameData_O[23] FrameData_O[27] 0
8 FrameData_O[25] FrameData_O[27] 2.70899e-05
9 FrameData_O[26] FrameData_O[27] 0.000457987
*RES
1 *1623:X FrameData_O[27] 23.2072 
*END

*D_NET *55 0.00209487
*CONN
*P FrameData_O[28] O
*I *1624:X O *D sky130_fd_sc_hd__buf_2
*CAP
1 FrameData_O[28] 0.00076039
2 *1624:X 0.00076039
3 FrameData_O[28] FrameData_O[29] 0.000245833
4 FrameData_O[28] *1614:A 0
5 FrameData_O[28] *1618:A 2.55587e-05
6 FrameData_O[24] FrameData_O[28] 5.68636e-05
7 FrameData_O[25] FrameData_O[28] 0
8 FrameData_O[27] FrameData_O[28] 0.000245833
*RES
1 *1624:X FrameData_O[28] 28.2551 
*END

*D_NET *56 0.00281778
*CONN
*P FrameData_O[29] O
*I *1625:X O *D sky130_fd_sc_hd__buf_2
*CAP
1 FrameData_O[29] 0.000784685
2 *1625:X 0.000784685
3 FrameData_O[29] FrameData_O[30] 0.000552448
4 FrameData_O[29] FrameData_O[31] 0.000203443
5 FrameData_O[29] *1614:A 0
6 FrameData_O[29] *356:14 0.000187469
7 FrameData_O[27] FrameData_O[29] 5.92192e-05
8 FrameData_O[28] FrameData_O[29] 0.000245833
*RES
1 *1625:X FrameData_O[29] 23.7672 
*END

*D_NET *57 0.00249942
*CONN
*P FrameData_O[2] O
*I *1512:X O *D sky130_fd_sc_hd__buf_2
*CAP
1 FrameData_O[2] 0.000479111
2 *1512:X 0.000479111
3 FrameData_O[2] FrameData_O[3] 0.000663805
4 FrameData_O[2] *1375:A 0.00021359
5 FrameData_O[0] FrameData_O[2] 0
6 FrameData_O[1] FrameData_O[2] 0.000663805
*RES
1 *1512:X FrameData_O[2] 21.8737 
*END

*D_NET *58 0.00209403
*CONN
*P FrameData_O[30] O
*I *1513:X O *D sky130_fd_sc_hd__buf_2
*CAP
1 FrameData_O[30] 0.000428695
2 *1513:X 0.000428695
3 FrameData_O[30] FrameData_O[31] 0.00055719
4 FrameData_O[30] *495:DIODE 0.000127007
5 FrameData_O[29] FrameData_O[30] 0.000552448
*RES
1 *1513:X FrameData_O[30] 22.1205 
*END

*D_NET *59 0.00239709
*CONN
*P FrameData_O[31] O
*I *1514:X O *D sky130_fd_sc_hd__buf_2
*CAP
1 FrameData_O[31] 0.000781242
2 *1514:X 0.000781242
3 FrameData_O[31] *356:14 7.3973e-05
4 FrameData_O[29] FrameData_O[31] 0.000203443
5 FrameData_O[30] FrameData_O[31] 0.00055719
*RES
1 *1514:X FrameData_O[31] 23.6951 
*END

*D_NET *60 0.00261939
*CONN
*P FrameData_O[3] O
*I *1515:X O *D sky130_fd_sc_hd__buf_2
*CAP
1 FrameData_O[3] 0.000609042
2 *1515:X 0.000609042
3 FrameData_O[3] FrameData_O[4] 0.00024974
4 FrameData_O[3] FrameData_O[5] 3.58329e-05
5 FrameData_O[3] FrameData_O[6] 0
6 FrameData_O[3] *487:DIODE 0.000140317
7 FrameData_O[3] *1375:A 1.37595e-05
8 FrameData_O[3] *299:44 0.000114136
9 FrameData_O[3] *305:34 0.00013398
10 FrameData_O[1] FrameData_O[3] 4.97413e-05
11 FrameData_O[2] FrameData_O[3] 0.000663805
*RES
1 *1515:X FrameData_O[3] 20.9477 
*END

*D_NET *61 0.00241914
*CONN
*P FrameData_O[4] O
*I *1516:X O *D sky130_fd_sc_hd__buf_2
*CAP
1 FrameData_O[4] 0.000655377
2 *1516:X 0.000655377
3 FrameData_O[4] FrameData_O[5] 0.000245833
4 FrameData_O[4] FrameData_O[7] 0
5 FrameData_O[4] FrameData_O[8] 0.000459526
6 FrameData_O[4] *1516:A 0.00015329
7 FrameData_O[4] *77:19 0
8 FrameData_O[3] FrameData_O[4] 0.00024974
*RES
1 *1516:X FrameData_O[4] 30.0229 
*END

*D_NET *62 0.0012422
*CONN
*P FrameData_O[5] O
*I *1517:X O *D sky130_fd_sc_hd__buf_2
*CAP
1 FrameData_O[5] 0.000267998
2 *1517:X 0.000267998
3 FrameData_O[5] FrameData_O[6] 0.000401838
4 FrameData_O[5] *77:19 2.26973e-05
5 FrameData_O[3] FrameData_O[5] 3.58329e-05
6 FrameData_O[4] FrameData_O[5] 0.000245833
*RES
1 *1517:X FrameData_O[5] 18.6524 
*END

*D_NET *63 0.00154928
*CONN
*P FrameData_O[6] O
*I *1518:X O *D sky130_fd_sc_hd__buf_2
*CAP
1 FrameData_O[6] 0.000359069
2 *1518:X 0.000359069
3 FrameData_O[6] FrameData_O[7] 0.000390112
4 FrameData_O[6] *1521:A 9.60337e-06
5 FrameData_O[6] *305:34 9.11102e-06
6 FrameData_O[0] FrameData_O[6] 2.04825e-05
7 FrameData_O[10] FrameData_O[6] 0
8 FrameData_O[3] FrameData_O[6] 0
9 FrameData_O[5] FrameData_O[6] 0.000401838
*RES
1 *1518:X FrameData_O[6] 18.9407 
*END

*D_NET *64 0.00133056
*CONN
*P FrameData_O[7] O
*I *1519:X O *D sky130_fd_sc_hd__buf_2
*CAP
1 FrameData_O[7] 0.000301061
2 *1519:X 0.000301061
3 FrameData_O[7] FrameData_O[8] 0.000267598
4 FrameData_O[7] FrameData_O[9] 2.314e-05
5 FrameData_O[7] *77:19 4.75911e-05
6 FrameData_O[4] FrameData_O[7] 0
7 FrameData_O[6] FrameData_O[7] 0.000390112
*RES
1 *1519:X FrameData_O[7] 18.956 
*END

*D_NET *65 0.00178314
*CONN
*P FrameData_O[8] O
*I *1520:X O *D sky130_fd_sc_hd__buf_2
*CAP
1 FrameData_O[8] 0.000394211
2 *1520:X 0.000394211
3 FrameData_O[8] FrameData_O[9] 0.000267598
4 FrameData_O[4] FrameData_O[8] 0.000459526
5 FrameData_O[7] FrameData_O[8] 0.000267598
*RES
1 *1520:X FrameData_O[8] 22.4521 
*END

*D_NET *66 0.00128863
*CONN
*P FrameData_O[9] O
*I *1521:X O *D sky130_fd_sc_hd__buf_2
*CAP
1 FrameData_O[9] 0.000284315
2 *1521:X 0.000284315
3 FrameData_O[9] *77:19 2.26973e-05
4 FrameData_O[10] FrameData_O[9] 0.000406569
5 FrameData_O[7] FrameData_O[9] 2.314e-05
6 FrameData_O[8] FrameData_O[9] 0.000267598
*RES
1 *1521:X FrameData_O[9] 18.6524 
*END

*D_NET *67 0.0272745
*CONN
*P FrameStrobe[0] I
*I *1435:A I *D sky130_fd_sc_hd__dlymetal6s2s_1
*I *1433:A I *D sky130_fd_sc_hd__dlymetal6s2s_1
*I *1434:A I *D sky130_fd_sc_hd__clkbuf_2
*CAP
1 FrameStrobe[0] 0.00247028
2 *1435:A 0.00025679
3 *1433:A 0.000927487
4 *1434:A 6.13388e-05
5 *67:79 0.00114286
6 *67:38 0.00330505
7 *67:13 0.00182016
8 *67:11 0.0027376
9 *1433:A NN4BEG[15] 0
10 *1433:A *1465:A 0.000118028
11 *1433:A *1575:A 0.000875004
12 *1433:A *231:22 2.84026e-05
13 *1433:A *293:12 0.000496449
14 *1433:A *310:30 4.01462e-06
15 *1433:A *349:22 0.000463631
16 *1433:A *375:16 0.000245632
17 *1433:A *377:28 0.000147807
18 *1433:A *382:32 5.33005e-05
19 *1433:A *426:26 0.000185767
20 *1433:A *456:44 3.43988e-06
21 *1433:A *461:28 4.73891e-05
22 *1434:A *279:14 1.21258e-05
23 *1434:A *404:10 2.84109e-05
24 *1435:A *1265:A2 0.00051015
25 *1435:A *1338:A 5.33005e-05
26 *1435:A *1401:A 6.42095e-05
27 *1435:A *1402:A 5.33005e-05
28 *1435:A *261:30 0.000178847
29 *1435:A *445:24 0.000238062
30 *67:11 *291:22 0.000301754
31 *67:11 *347:64 0.000546785
32 *67:11 *415:14 0.00161667
33 *67:11 *443:34 0.000247471
34 *67:13 *291:22 0.000134665
35 *67:13 *399:26 0
36 *67:13 *419:22 0.000379788
37 *67:13 *445:68 1.38247e-05
38 *67:38 *1422:A 0.000137983
39 *67:38 *298:26 0.00126344
40 *67:38 *302:24 0.000192712
41 *67:38 *376:28 0.000191285
42 *67:38 *404:10 0.000148907
43 *67:38 *415:22 0.000134246
44 *67:38 *418:22 0.000641866
45 *67:38 *419:22 3.16583e-05
46 *67:38 *445:68 4.27466e-05
47 *67:38 *470:22 5.6372e-05
48 *67:38 *471:26 2.83129e-05
49 *67:38 *477:26 0.000650228
50 *67:38 *483:36 0
51 *67:79 *1468:A 1.61405e-05
52 *67:79 *1489:A 0.00041911
53 *67:79 *1490:A 1.3807e-05
54 *67:79 *1492:A 0.000153551
55 *67:79 *1575:A 0.000109407
56 *67:79 *343:28 0.000126327
57 *67:79 *349:22 0.000132869
58 *67:79 *367:12 8.80241e-05
59 *67:79 *429:22 0.000171945
60 *67:79 *449:12 3.10819e-05
61 *67:79 *450:12 5.33005e-05
62 *67:79 *453:24 0.00105723
63 *67:79 *466:24 0.00051292
64 *67:79 *479:26 4.15592e-05
65 *67:79 *479:30 0.00105765
*RES
1 FrameStrobe[0] *67:11 46.3393 
2 *67:11 *67:13 5.28571 
3 *67:13 *1434:A 14.7464 
4 *67:13 *67:38 18.0317 
5 *67:38 *1433:A 29.8498 
6 *67:38 *67:79 45.8068 
7 *67:79 *1435:A 21.3179 
*END

*D_NET *68 0.00471696
*CONN
*P FrameStrobe[10] I
*I *1367:A I *D sky130_fd_sc_hd__clkbuf_1
*CAP
1 FrameStrobe[10] 0.00106642
2 *1367:A 0
3 *68:15 0.00106642
4 *68:15 *71:29 0.000544725
5 *68:15 *84:13 0.00113878
6 *68:15 *299:36 0
7 *68:15 *300:12 0.000316215
8 *68:15 *302:24 0.000103646
9 *68:15 *330:18 4.25619e-05
10 *68:15 *344:12 2.58775e-05
11 *68:15 *443:40 0.000412317
*RES
1 FrameStrobe[10] *68:15 42.3929 
2 *68:15 *1367:A 9.3 
*END

*D_NET *69 0.00421282
*CONN
*P FrameStrobe[11] I
*I *1368:A I *D sky130_fd_sc_hd__clkbuf_1
*CAP
1 FrameStrobe[11] 0.00135848
2 *1368:A 0.00135848
3 *1368:A *1258:S0 0.000309273
4 *1368:A *1293:D 5.33005e-05
5 *1368:A *1293:GATE 5.33005e-05
6 *1368:A *1307:D 0
7 *1368:A *1315:D 0.000231332
8 *1368:A *1364:A 5.03772e-05
9 *1368:A *1429:A 0
10 *1368:A *82:23 0.00022459
11 *1368:A *223:16 2.51343e-06
12 *1368:A *312:14 5.38444e-06
13 *1368:A *326:16 0.000226232
14 *1368:A *330:18 2.64931e-05
15 *1368:A *331:18 0.000116285
16 *1368:A *351:16 0.000196774
*RES
1 FrameStrobe[11] *1368:A 40.0143 
*END

*D_NET *70 0.00407308
*CONN
*P FrameStrobe[12] I
*I *1369:A I *D sky130_fd_sc_hd__clkbuf_1
*CAP
1 FrameStrobe[12] 0.00118922
2 *1369:A 0.00118922
3 *1369:A *491:DIODE 0.000848689
4 *1369:A *1359:A 9.58126e-05
5 *1369:A *1365:A 2.34423e-05
6 *1369:A *1366:A 0
7 *1369:A *1386:A 3.96741e-05
8 *1369:A *1534:A 0.000141729
9 *1369:A *1535:A 6.39003e-05
10 *1369:A *71:29 6.50277e-05
11 *1369:A *326:16 0
12 *1369:A *327:16 0.000147708
13 *1369:A *328:22 0.000198644
14 *1369:A *329:28 2.21972e-05
15 *1369:A *438:32 0
16 *1369:A *474:22 4.7812e-05
*RES
1 FrameStrobe[12] *1369:A 41.0143 
*END

*D_NET *71 0.00498326
*CONN
*P FrameStrobe[13] I
*I *1370:A I *D sky130_fd_sc_hd__clkbuf_1
*CAP
1 FrameStrobe[13] 0.00122262
2 *1370:A 5.81427e-05
3 *71:29 0.00128076
4 *1370:A *1271:S1 5.52302e-05
5 *1370:A *276:24 2.27416e-05
6 *71:29 *1271:A3 3.92116e-05
7 *71:29 *1271:S1 0.000143883
8 *71:29 *1359:A 0.000464085
9 *71:29 *1366:A 7.48833e-05
10 *71:29 *262:28 9.11048e-06
11 *71:29 *276:24 3.29157e-05
12 *71:29 *312:14 7.9517e-05
13 *71:29 *313:12 0.00042994
14 *71:29 *326:16 0.000133472
15 *71:29 *330:18 0.000104193
16 *71:29 *389:12 6.05161e-06
17 *71:29 *438:32 5.33005e-05
18 *71:29 *474:22 0.000163449
19 *1369:A *71:29 6.50277e-05
20 *68:15 *71:29 0.000544725
*RES
1 FrameStrobe[13] *71:29 46.9286 
2 *71:29 *1370:A 15.175 
*END

*D_NET *72 0.00308668
*CONN
*P FrameStrobe[14] I
*I *1371:A I *D sky130_fd_sc_hd__clkbuf_1
*CAP
1 FrameStrobe[14] 0.00115702
2 *1371:A 0.00115702
3 *1371:A *1372:A 0.000128154
4 *1371:A *1388:A 3.07555e-05
5 *1371:A *312:14 0.000219711
6 *1371:A *330:18 0
7 *1371:A *331:18 7.90803e-05
8 *1371:A *344:12 0
9 *1371:A *353:16 0.000314935
*RES
1 FrameStrobe[14] *1371:A 43.55 
*END

*D_NET *73 0.00202855
*CONN
*P FrameStrobe[15] I
*I *1372:A I *D sky130_fd_sc_hd__clkbuf_1
*CAP
1 FrameStrobe[15] 0.000937764
2 *1372:A 0.000937764
3 *1372:A *1519:A 0
4 *1372:A *300:22 0
5 *1372:A *311:14 0
6 *1372:A *316:18 2.4871e-05
7 *1372:A *318:16 0
8 *1372:A *353:16 0
9 *1371:A *1372:A 0.000128154
*RES
1 FrameStrobe[15] *1372:A 30.9786 
*END

*D_NET *74 0.00224469
*CONN
*P FrameStrobe[16] I
*I *1373:A I *D sky130_fd_sc_hd__clkbuf_1
*CAP
1 FrameStrobe[16] 0.000678005
2 *1373:A 0.000678005
3 *1373:A *300:22 0.000792986
4 *1373:A *302:24 0
5 *1373:A *470:28 9.56968e-05
*RES
1 FrameStrobe[16] *1373:A 29.9071 
*END

*D_NET *75 0.00267104
*CONN
*P FrameStrobe[17] I
*I *1374:A I *D sky130_fd_sc_hd__clkbuf_1
*CAP
1 FrameStrobe[17] 0.00112402
2 *1374:A 0.00112402
3 *1374:A *487:DIODE 0
4 *1374:A *1375:A 0
5 *1374:A *299:44 0
6 *1374:A *302:24 0
7 *1374:A *470:28 0
8 *1374:A *474:22 0.000245832
9 *1374:A *482:32 1.01912e-05
10 FrameData_O[1] *1374:A 0.000166976
*RES
1 FrameStrobe[17] *1374:A 36.3357 
*END

*D_NET *76 0.00447063
*CONN
*P FrameStrobe[18] I
*I *1375:A I *D sky130_fd_sc_hd__clkbuf_1
*CAP
1 FrameStrobe[18] 0.00125927
2 *1375:A 0.00125927
3 *1375:A *487:DIODE 0.000341641
4 *1375:A *1518:A 0.000629665
5 *1375:A *1521:A 0
6 *1375:A *299:44 0
7 *1375:A *473:22 0.000624791
8 *1375:A *477:26 0.00012864
9 FrameData_O[0] *1375:A 0
10 FrameData_O[1] *1375:A 0
11 FrameData_O[2] *1375:A 0.00021359
12 FrameData_O[3] *1375:A 1.37595e-05
13 *1374:A *1375:A 0
*RES
1 FrameStrobe[18] *1375:A 44.925 
*END

*D_NET *77 0.00539183
*CONN
*P FrameStrobe[19] I
*I *1376:A I *D sky130_fd_sc_hd__clkbuf_1
*CAP
1 FrameStrobe[19] 0.00184905
2 *1376:A 0
3 *77:19 0.00184905
4 *77:19 *1521:A 0.000311887
5 *77:19 *1608:A 0.000125724
6 *77:19 *1612:A 0
7 *77:19 *1614:A 3.34295e-05
8 *77:19 *1624:A 0.000219887
9 *77:19 *304:28 0.000447718
10 *77:19 *305:34 6.27272e-06
11 *77:19 *480:20 0.000269378
12 FrameData_O[0] *77:19 0
13 FrameData_O[11] *77:19 7.24849e-05
14 FrameData_O[13] *77:19 2.26973e-05
15 FrameData_O[15] *77:19 4.75911e-05
16 FrameData_O[17] *77:19 2.26973e-05
17 FrameData_O[19] *77:19 2.09826e-05
18 FrameData_O[4] *77:19 0
19 FrameData_O[5] *77:19 2.26973e-05
20 FrameData_O[7] *77:19 4.75911e-05
21 FrameData_O[9] *77:19 2.26973e-05
*RES
1 FrameStrobe[19] *77:19 44.0893 
2 *77:19 *1376:A 9.3 
*END

*D_NET *78 0.0167052
*CONN
*P FrameStrobe[1] I
*I *1431:A I *D sky130_fd_sc_hd__clkbuf_2
*I *1430:A I *D sky130_fd_sc_hd__clkbuf_2
*CAP
1 FrameStrobe[1] 0.000743237
2 *1431:A 0.00149126
3 *1430:A 0.00111655
4 *78:5 0.00335105
5 *1430:A *1255:A2 1.41295e-05
6 *1430:A *1255:S0 0.00027436
7 *1430:A *1270:A0 0.000337511
8 *1430:A *1276:D 0.000118698
9 *1430:A *1379:A 0.00011594
10 *1430:A *1423:A 0.000761316
11 *1430:A *1578:A 2.61935e-05
12 *1430:A *245:24 0.000258587
13 *1430:A *264:20 0.00076324
14 *1430:A *360:28 0.000346317
15 *1430:A *412:60 0
16 *1430:A *461:53 0.000409835
17 *1430:A *461:78 0.000208418
18 *1431:A *1278:D 2.01997e-05
19 *1431:A *1380:A 9.27826e-05
20 *1431:A *1423:A 0.00058305
21 *1431:A *257:20 0.00106401
22 *1431:A *264:20 9.32705e-05
23 *1431:A *274:32 0.00166631
24 *1431:A *399:26 8.29848e-05
25 *1431:A *407:48 9.68323e-05
26 *1431:A *418:22 0.00197787
27 *1431:A *436:60 9.59532e-06
28 *1431:A *456:82 3.66734e-05
29 *1431:A *461:28 5.093e-05
30 *78:5 *1380:A 7.99047e-05
31 *78:5 *420:30 0.000464568
32 *78:5 *456:82 4.96152e-05
*RES
1 FrameStrobe[1] *78:5 14.2054 
2 *78:5 *1430:A 41.1147 
3 *78:5 *1431:A 27.5439 
*END

*D_NET *79 0.0157593
*CONN
*P FrameStrobe[2] I
*I *1359:A I *D sky130_fd_sc_hd__clkbuf_1
*CAP
1 FrameStrobe[2] 0.000534798
2 *1359:A 0.000389364
3 *79:9 0.00164899
4 *79:7 0.00179443
5 *1359:A *1366:A 0.000357192
6 *1359:A *1534:A 5.05056e-05
7 *1359:A *1535:A 7.47077e-05
8 *1359:A *326:16 4.09583e-05
9 *1359:A *328:22 9.58126e-05
10 *1359:A *389:12 3.25078e-05
11 *1359:A *438:32 4.04359e-05
12 *79:9 *1519:A 0.000166358
13 *79:9 *80:11 0.0046415
14 *79:9 *211:9 0.00451576
15 *79:9 *299:36 0.000266634
16 *79:9 *314:14 9.76435e-06
17 *79:9 *379:24 0.000273261
18 *79:9 *393:18 0.000266428
19 *1369:A *1359:A 9.58126e-05
20 *71:29 *1359:A 0.000464085
*RES
1 FrameStrobe[2] *79:7 13.3929 
2 *79:7 *79:9 53.9286 
3 *79:9 *1359:A 28.7821 
*END

*D_NET *80 0.0133782
*CONN
*P FrameStrobe[3] I
*I *1360:A I *D sky130_fd_sc_hd__clkbuf_1
*I *500:DIODE I *D sky130_fd_sc_hd__diode_2
*CAP
1 FrameStrobe[3] 0.000501796
2 *1360:A 2.9238e-05
3 *500:DIODE 0.000514185
4 *80:11 0.00121933
5 *80:7 0.00123618
6 *500:DIODE *491:DIODE 0
7 *500:DIODE *1258:S0 0
8 *500:DIODE *1293:GATE 0.000164506
9 *500:DIODE *82:23 0.00012379
10 *500:DIODE *84:13 1.46883e-05
11 *500:DIODE *266:20 6.53083e-05
12 *500:DIODE *314:36 4.60513e-05
13 *500:DIODE *328:22 7.32272e-05
14 *500:DIODE *342:10 0.000143951
15 *500:DIODE *404:143 0.000139864
16 *1360:A *328:22 5.33005e-05
17 *80:7 *393:16 3.10885e-05
18 *80:7 *443:40 0
19 *80:11 *83:11 0.000118437
20 *80:11 *299:36 0.00286645
21 *80:11 *314:14 0.000763637
22 *80:11 *351:16 0.000569023
23 *80:11 *395:14 6.25878e-05
24 *79:9 *80:11 0.0046415
*RES
1 FrameStrobe[3] *80:7 13.0893 
2 *80:7 *80:11 48.5714 
3 *80:11 *500:DIODE 24.0857 
4 *500:DIODE *1360:A 19.1357 
*END

*D_NET *81 0.0112715
*CONN
*P FrameStrobe[4] I
*I *1361:A I *D sky130_fd_sc_hd__clkbuf_1
*I *491:DIODE I *D sky130_fd_sc_hd__diode_2
*CAP
1 FrameStrobe[4] 0.00227315
2 *1361:A 2.31407e-05
3 *491:DIODE 0.00229629
4 *491:DIODE *1271:A1 1.58163e-05
5 *491:DIODE *1386:A 0.000124657
6 *491:DIODE *82:23 0.00372302
7 *491:DIODE *84:13 0.000141789
8 *491:DIODE *342:10 3.98511e-05
9 *491:DIODE *353:16 0.000217782
10 *491:DIODE *353:26 0.000213244
11 *491:DIODE *390:12 0.000992194
12 *491:DIODE *414:12 0.000111104
13 *491:DIODE *472:32 0.00019419
14 *1361:A *1271:A1 5.65955e-05
15 *500:DIODE *491:DIODE 0
16 *1369:A *491:DIODE 0.000848689
*RES
1 FrameStrobe[4] *491:DIODE 43.4987 
2 *491:DIODE *1361:A 19.1357 
*END

*D_NET *82 0.0119192
*CONN
*P FrameStrobe[5] I
*I *1362:A I *D sky130_fd_sc_hd__clkbuf_1
*CAP
1 FrameStrobe[5] 0.00171206
2 *1362:A 0
3 *82:23 0.00171206
4 *82:23 *1258:S0 8.6229e-06
5 *82:23 *1293:D 8.96761e-05
6 *82:23 *1293:GATE 0.000119576
7 *82:23 *1307:D 4.98887e-05
8 *82:23 *1363:A 0.000168293
9 *82:23 *1386:A 5.43648e-05
10 *82:23 *342:10 0
11 *82:23 *342:12 0.000811062
12 *82:23 *353:16 0.00154154
13 *82:23 *353:26 0.00121466
14 *82:23 *404:143 9.54798e-06
15 *82:23 *414:12 0.000356419
16 *491:DIODE *82:23 0.00372302
17 *500:DIODE *82:23 0.00012379
18 *1368:A *82:23 0.00022459
*RES
1 FrameStrobe[5] *82:23 44.1323 
2 *82:23 *1362:A 9.3 
*END

*D_NET *83 0.00842286
*CONN
*P FrameStrobe[6] I
*I *1363:A I *D sky130_fd_sc_hd__clkbuf_1
*CAP
1 FrameStrobe[6] 0.00110193
2 *1363:A 0.000350256
3 *83:11 0.00145219
4 *1363:A *1258:S0 0.000325587
5 *1363:A *1293:D 9.13908e-05
6 *1363:A *1307:D 0.000776828
7 *83:11 *84:13 0.000664862
8 *83:11 *299:36 0.00265621
9 *83:11 *351:16 0.000197888
10 *83:11 *359:22 0.000203224
11 *83:11 *395:14 0.000315762
12 *83:11 *443:40 0
13 *80:11 *83:11 0.000118437
14 *82:23 *1363:A 0.000168293
*RES
1 FrameStrobe[6] *83:11 44.2143 
2 *83:11 *1363:A 24.2464 
*END

*D_NET *84 0.00640547
*CONN
*P FrameStrobe[7] I
*I *1364:A I *D sky130_fd_sc_hd__clkbuf_1
*CAP
1 FrameStrobe[7] 0.00130832
2 *1364:A 7.33778e-05
3 *84:13 0.00138169
4 *84:13 *299:36 3.59438e-05
5 *84:13 *302:24 0.000375961
6 *84:13 *342:10 0.000442872
7 *84:13 *443:40 0.00058068
8 *84:13 *472:32 0.000196128
9 *491:DIODE *84:13 0.000141789
10 *500:DIODE *84:13 1.46883e-05
11 *1368:A *1364:A 5.03772e-05
12 *68:15 *84:13 0.00113878
13 *83:11 *84:13 0.000664862
*RES
1 FrameStrobe[7] *84:13 47.8571 
2 *84:13 *1364:A 15.175 
*END

*D_NET *85 0.00702966
*CONN
*P FrameStrobe[8] I
*I *1365:A I *D sky130_fd_sc_hd__clkbuf_1
*CAP
1 FrameStrobe[8] 0.0015216
2 *1365:A 0.0015216
3 *1365:A *1293:D 0.00176922
4 *1365:A *1366:A 1.42791e-05
5 *1365:A *276:24 0.000133748
6 *1365:A *305:34 0.000243096
7 *1365:A *314:36 0.000487023
8 *1365:A *329:28 3.22785e-05
9 *1365:A *379:24 0
10 *1365:A *390:10 0
11 *1365:A *421:20 0.000104028
12 *1365:A *464:42 0.00117933
13 *1369:A *1365:A 2.34423e-05
*RES
1 FrameStrobe[8] *1365:A 40.4138 
*END

*D_NET *86 0.00613486
*CONN
*P FrameStrobe[9] I
*I *1366:A I *D sky130_fd_sc_hd__clkbuf_1
*CAP
1 FrameStrobe[9] 0.00105458
2 *1366:A 0.00105458
3 *1366:A *1519:A 0.000405064
4 *1366:A *302:24 0.00214273
5 *1366:A *351:16 0.000648616
6 *1366:A *359:22 0.000118028
7 *1366:A *390:10 9.23406e-05
8 *1366:A *414:26 0.000172564
9 *1359:A *1366:A 0.000357192
10 *1365:A *1366:A 1.42791e-05
11 *1369:A *1366:A 0
12 *71:29 *1366:A 7.48833e-05
*RES
1 FrameStrobe[9] *1366:A 37.5535 
*END

*D_NET *87 0.00295859
*CONN
*P FrameStrobe_O[0] O
*I *1522:X O *D sky130_fd_sc_hd__buf_2
*CAP
1 FrameStrobe_O[0] 0.00052918
2 *1522:X 0.00052918
3 FrameStrobe_O[0] FrameStrobe_O[1] 0.000188024
4 FrameStrobe_O[0] UserCLKo 0.00019718
5 FrameStrobe_O[0] *185:23 0.000662319
6 FrameStrobe_O[0] *310:50 0.000671257
7 FrameStrobe_O[0] *451:64 0.000181454
*RES
1 *1522:X FrameStrobe_O[0] 29.3179 
*END

*D_NET *88 0.00329669
*CONN
*P FrameStrobe_O[10] O
*I *1523:X O *D sky130_fd_sc_hd__buf_2
*CAP
1 FrameStrobe_O[10] 0.000802222
2 *1523:X 0.000802222
3 FrameStrobe_O[10] FrameStrobe_O[11] 0.000390271
4 FrameStrobe_O[10] FrameStrobe_O[14] 5.52302e-05
5 FrameStrobe_O[10] FrameStrobe_O[15] 0.000135028
6 FrameStrobe_O[10] FrameStrobe_O[16] 9.91086e-05
7 FrameStrobe_O[10] FrameStrobe_O[17] 0.000179194
8 FrameStrobe_O[10] FrameStrobe_O[9] 0.000415764
9 FrameStrobe_O[10] *1271:S1 5.27529e-05
10 FrameStrobe_O[10] *312:14 0.000164832
11 FrameStrobe_O[10] *361:12 1.86215e-05
12 FrameStrobe_O[10] *451:64 5.71472e-05
13 FrameStrobe_O[10] *481:26 0.0001243
*RES
1 *1523:X FrameStrobe_O[10] 42.9786 
*END

*D_NET *89 0.0028774
*CONN
*P FrameStrobe_O[11] O
*I *1524:X O *D sky130_fd_sc_hd__buf_2
*CAP
1 FrameStrobe_O[11] 0.000811357
2 *1524:X 0.000811357
3 FrameStrobe_O[11] FrameStrobe_O[12] 0.000244565
4 FrameStrobe_O[11] FrameStrobe_O[13] 0.000305291
5 FrameStrobe_O[11] FrameStrobe_O[9] 3.80299e-05
6 FrameStrobe_O[11] *198:21 0.000254689
7 FrameStrobe_O[11] *329:28 2.18417e-05
8 FrameStrobe_O[10] FrameStrobe_O[11] 0.000390271
*RES
1 *1524:X FrameStrobe_O[11] 31.6393 
*END

*D_NET *90 0.0039198
*CONN
*P FrameStrobe_O[12] O
*I *1525:X O *D sky130_fd_sc_hd__buf_2
*CAP
1 FrameStrobe_O[12] 0.00074269
2 *1525:X 0.00074269
3 FrameStrobe_O[12] FrameStrobe_O[13] 0.000242324
4 FrameStrobe_O[12] FrameStrobe_O[14] 5.33005e-05
5 FrameStrobe_O[12] FrameStrobe_O[18] 0.000492587
6 FrameStrobe_O[12] FrameStrobe_O[19] 0
7 FrameStrobe_O[12] *1259:A2 1.40306e-05
8 FrameStrobe_O[12] *1271:S1 4.69884e-05
9 FrameStrobe_O[12] *315:14 0.000136878
10 FrameStrobe_O[12] *349:22 0.000600696
11 FrameStrobe_O[12] *470:22 0.000603049
12 FrameStrobe_O[12] *479:36 0
13 FrameStrobe_O[11] FrameStrobe_O[12] 0.000244565
*RES
1 *1525:X FrameStrobe_O[12] 36.3182 
*END

*D_NET *91 0.00392342
*CONN
*P FrameStrobe_O[13] O
*I *1526:X O *D sky130_fd_sc_hd__buf_2
*CAP
1 FrameStrobe_O[13] 0.000862394
2 *1526:X 0.000862394
3 FrameStrobe_O[13] FrameStrobe_O[14] 0.000718438
4 FrameStrobe_O[13] FrameStrobe_O[16] 4.29481e-05
5 FrameStrobe_O[13] FrameStrobe_O[18] 0.000351631
6 FrameStrobe_O[13] FrameStrobe_O[9] 4.27437e-05
7 FrameStrobe_O[13] *1541:A 5.33005e-05
8 FrameStrobe_O[13] *198:21 9.21418e-06
9 FrameStrobe_O[13] *199:19 0.000432738
10 FrameStrobe_O[11] FrameStrobe_O[13] 0.000305291
11 FrameStrobe_O[12] FrameStrobe_O[13] 0.000242324
*RES
1 *1526:X FrameStrobe_O[13] 34.6571 
*END

*D_NET *92 0.00338447
*CONN
*P FrameStrobe_O[14] O
*I *1527:X O *D sky130_fd_sc_hd__buf_2
*CAP
1 FrameStrobe_O[14] 0.000864821
2 *1527:X 0.000864821
3 FrameStrobe_O[14] FrameStrobe_O[15] 0.00042671
4 FrameStrobe_O[14] FrameStrobe_O[8] 9.80173e-05
5 FrameStrobe_O[14] *1259:A2 2.32495e-05
6 FrameStrobe_O[14] *199:19 5.08972e-05
7 FrameStrobe_O[14] *331:18 0.000139515
8 FrameStrobe_O[14] *361:12 3.27002e-05
9 FrameStrobe_O[14] *451:64 5.67737e-05
10 FrameStrobe_O[10] FrameStrobe_O[14] 5.52302e-05
11 FrameStrobe_O[12] FrameStrobe_O[14] 5.33005e-05
12 FrameStrobe_O[13] FrameStrobe_O[14] 0.000718438
*RES
1 *1527:X FrameStrobe_O[14] 33.0143 
*END

*D_NET *93 0.00370715
*CONN
*P FrameStrobe_O[15] O
*I *1528:X O *D sky130_fd_sc_hd__buf_2
*CAP
1 FrameStrobe_O[15] 0.00112197
2 *1528:X 0.00112197
3 FrameStrobe_O[15] FrameStrobe_O[16] 0.000171221
4 FrameStrobe_O[15] FrameStrobe_O[17] 4.28249e-05
5 FrameStrobe_O[15] *300:22 5.48198e-05
6 FrameStrobe_O[15] *317:12 1.45697e-05
7 FrameStrobe_O[15] *318:16 5.25192e-06
8 FrameStrobe_O[15] *361:12 0.00050038
9 FrameStrobe_O[15] *470:28 3.89407e-05
10 FrameStrobe_O[15] *479:36 0
11 FrameStrobe_O[15] *481:26 7.3475e-05
12 FrameStrobe_O[10] FrameStrobe_O[15] 0.000135028
13 FrameStrobe_O[14] FrameStrobe_O[15] 0.00042671
*RES
1 *1528:X FrameStrobe_O[15] 44.1036 
*END

*D_NET *94 0.00245553
*CONN
*P FrameStrobe_O[16] O
*I *1529:X O *D sky130_fd_sc_hd__buf_2
*CAP
1 FrameStrobe_O[16] 0.000562529
2 *1529:X 0.000562529
3 FrameStrobe_O[16] FrameStrobe_O[17] 0.000411898
4 FrameStrobe_O[16] FrameStrobe_O[18] 1.65169e-05
5 FrameStrobe_O[16] *315:14 1.92905e-05
6 FrameStrobe_O[16] *361:12 0.000569489
7 FrameStrobe_O[10] FrameStrobe_O[16] 9.91086e-05
8 FrameStrobe_O[13] FrameStrobe_O[16] 4.29481e-05
9 FrameStrobe_O[15] FrameStrobe_O[16] 0.000171221
*RES
1 *1529:X FrameStrobe_O[16] 28.1214 
*END

*D_NET *95 0.00392307
*CONN
*P FrameStrobe_O[17] O
*I *1530:X O *D sky130_fd_sc_hd__buf_2
*CAP
1 FrameStrobe_O[17] 0.000646996
2 *1530:X 0.000646996
3 FrameStrobe_O[17] FrameStrobe_O[18] 0.000347908
4 FrameStrobe_O[17] *1267:A0 2.33059e-05
5 FrameStrobe_O[17] *1271:S1 0.000299335
6 FrameStrobe_O[17] *1514:A 0.000423694
7 FrameStrobe_O[17] *1622:A 0.0006966
8 FrameStrobe_O[17] *300:22 3.57844e-05
9 FrameStrobe_O[17] *317:12 0.000112655
10 FrameStrobe_O[17] *480:20 5.58754e-05
11 FrameStrobe_O[10] FrameStrobe_O[17] 0.000179194
12 FrameStrobe_O[15] FrameStrobe_O[17] 4.28249e-05
13 FrameStrobe_O[16] FrameStrobe_O[17] 0.000411898
*RES
1 *1530:X FrameStrobe_O[17] 35.623 
*END

*D_NET *96 0.00353494
*CONN
*P FrameStrobe_O[18] O
*I *1531:X O *D sky130_fd_sc_hd__buf_2
*CAP
1 FrameStrobe_O[18] 0.000713432
2 *1531:X 0.000713432
3 FrameStrobe_O[18] FrameStrobe_O[19] 1.11993e-05
4 FrameStrobe_O[18] *1271:S1 0.000311323
5 FrameStrobe_O[18] *1513:A 9.71197e-05
6 FrameStrobe_O[18] *1514:A 0.000287034
7 FrameStrobe_O[18] *315:14 0.000184323
8 FrameStrobe_O[18] *318:16 8.43535e-06
9 FrameStrobe_O[12] FrameStrobe_O[18] 0.000492587
10 FrameStrobe_O[13] FrameStrobe_O[18] 0.000351631
11 FrameStrobe_O[16] FrameStrobe_O[18] 1.65169e-05
12 FrameStrobe_O[17] FrameStrobe_O[18] 0.000347908
*RES
1 *1531:X FrameStrobe_O[18] 33.4429 
*END

*D_NET *97 0.00329449
*CONN
*P FrameStrobe_O[19] O
*I *1532:X O *D sky130_fd_sc_hd__buf_2
*CAP
1 FrameStrobe_O[19] 0.0010871
2 *1532:X 0.0010871
3 FrameStrobe_O[19] *1514:A 0.000376589
4 FrameStrobe_O[19] *318:16 0.00027107
5 FrameStrobe_O[19] *479:36 0.000461423
6 FrameStrobe_O[12] FrameStrobe_O[19] 0
7 FrameStrobe_O[18] FrameStrobe_O[19] 1.11993e-05
*RES
1 *1532:X FrameStrobe_O[19] 33.9071 
*END

*D_NET *98 0.00309097
*CONN
*P FrameStrobe_O[1] O
*I *1533:X O *D sky130_fd_sc_hd__buf_2
*CAP
1 FrameStrobe_O[1] 0.000721694
2 *1533:X 0.000721694
3 FrameStrobe_O[1] FrameStrobe_O[2] 0.000448101
4 FrameStrobe_O[1] *1494:A 0.000493077
5 FrameStrobe_O[1] *185:23 0.00051838
6 FrameStrobe_O[0] FrameStrobe_O[1] 0.000188024
*RES
1 *1533:X FrameStrobe_O[1] 30.175 
*END

*D_NET *99 0.00321277
*CONN
*P FrameStrobe_O[2] O
*I *1534:X O *D sky130_fd_sc_hd__buf_2
*CAP
1 FrameStrobe_O[2] 0.000719683
2 *1534:X 0.000719683
3 FrameStrobe_O[2] FrameStrobe_O[3] 0.000413153
4 FrameStrobe_O[2] *185:23 0.000127465
5 FrameStrobe_O[2] *327:16 2.93565e-05
6 FrameStrobe_O[2] *425:45 1.90936e-05
7 FrameStrobe_O[2] *452:22 1.90936e-05
8 FrameStrobe_O[2] *456:32 0.000128784
9 FrameStrobe_O[2] *463:18 0.0001419
10 FrameStrobe_O[2] *467:65 5.49489e-05
11 FrameStrobe_O[2] *480:20 0.00013639
12 FrameStrobe_O[2] *485:34 0.000255115
13 FrameStrobe_O[1] FrameStrobe_O[2] 0.000448101
*RES
1 *1534:X FrameStrobe_O[2] 37.8666 
*END

*D_NET *100 0.00340511
*CONN
*P FrameStrobe_O[3] O
*I *1535:X O *D sky130_fd_sc_hd__buf_2
*CAP
1 FrameStrobe_O[3] 0.000677836
2 *1535:X 0.000677836
3 FrameStrobe_O[3] FrameStrobe_O[4] 0.000426511
4 FrameStrobe_O[3] FrameStrobe_O[5] 0.00030355
5 FrameStrobe_O[3] FrameStrobe_O[8] 0.000116395
6 FrameStrobe_O[3] *1494:A 0.000214173
7 FrameStrobe_O[3] *322:60 0.00034425
8 FrameStrobe_O[3] *327:16 6.36135e-05
9 FrameStrobe_O[3] *458:26 2.58976e-05
10 FrameStrobe_O[3] *463:18 0.0001419
11 FrameStrobe_O[2] FrameStrobe_O[3] 0.000413153
*RES
1 *1535:X FrameStrobe_O[3] 41.8536 
*END

*D_NET *101 0.00398524
*CONN
*P FrameStrobe_O[4] O
*I *1536:X O *D sky130_fd_sc_hd__buf_2
*CAP
1 FrameStrobe_O[4] 0.000651693
2 *1536:X 0.000651693
3 FrameStrobe_O[4] FrameStrobe_O[5] 0.000251451
4 FrameStrobe_O[4] FrameStrobe_O[7] 0.000199434
5 FrameStrobe_O[4] FrameStrobe_O[8] 0.000584373
6 FrameStrobe_O[4] *197:21 1.30438e-05
7 FrameStrobe_O[4] *349:22 0.000372532
8 FrameStrobe_O[4] *451:64 0.000274392
9 FrameStrobe_O[4] *452:22 0.000184713
10 FrameStrobe_O[4] *470:22 0.000375405
11 FrameStrobe_O[3] FrameStrobe_O[4] 0.000426511
*RES
1 *1536:X FrameStrobe_O[4] 38.0114 
*END

*D_NET *102 0.00295525
*CONN
*P FrameStrobe_O[5] O
*I *1537:X O *D sky130_fd_sc_hd__buf_2
*CAP
1 FrameStrobe_O[5] 0.000666754
2 *1537:X 0.000666754
3 FrameStrobe_O[5] FrameStrobe_O[6] 0.000464406
4 FrameStrobe_O[5] FrameStrobe_O[7] 6.8445e-06
5 FrameStrobe_O[5] FrameStrobe_O[9] 2.67407e-05
6 FrameStrobe_O[5] *1494:A 1.98839e-05
7 FrameStrobe_O[5] *327:16 0.00042715
8 FrameStrobe_O[5] *329:28 2.84109e-05
9 FrameStrobe_O[5] *458:26 9.33009e-05
10 FrameStrobe_O[3] FrameStrobe_O[5] 0.00030355
11 FrameStrobe_O[4] FrameStrobe_O[5] 0.000251451
*RES
1 *1537:X FrameStrobe_O[5] 31.3893 
*END

*D_NET *103 0.00392558
*CONN
*P FrameStrobe_O[6] O
*I *1538:X O *D sky130_fd_sc_hd__buf_2
*CAP
1 FrameStrobe_O[6] 0.00102672
2 *1538:X 0.00102672
3 FrameStrobe_O[6] FrameStrobe_O[7] 0.000127717
4 FrameStrobe_O[6] *1535:A 2.84109e-05
5 FrameStrobe_O[6] *1536:A 4.43256e-05
6 FrameStrobe_O[6] *197:21 0.000869264
7 FrameStrobe_O[6] *328:22 0.000225521
8 FrameStrobe_O[6] *451:64 5.82676e-05
9 FrameStrobe_O[6] *452:22 1.3807e-05
10 FrameStrobe_O[6] *453:18 3.19834e-05
11 FrameStrobe_O[6] *456:32 8.44271e-06
12 FrameStrobe_O[6] *458:26 0
13 FrameStrobe_O[5] FrameStrobe_O[6] 0.000464406
*RES
1 *1538:X FrameStrobe_O[6] 35.1929 
*END

*D_NET *104 0.00309587
*CONN
*P FrameStrobe_O[7] O
*I *1539:X O *D sky130_fd_sc_hd__buf_2
*CAP
1 FrameStrobe_O[7] 0.000705281
2 *1539:X 0.000705281
3 FrameStrobe_O[7] FrameStrobe_O[8] 0.000264358
4 FrameStrobe_O[7] FrameStrobe_O[9] 0.000327688
5 FrameStrobe_O[7] *1494:A 6.05161e-06
6 FrameStrobe_O[7] *1622:A 0.000123106
7 FrameStrobe_O[7] *197:21 0.000623964
8 FrameStrobe_O[7] *438:32 6.14836e-06
9 FrameStrobe_O[4] FrameStrobe_O[7] 0.000199434
10 FrameStrobe_O[5] FrameStrobe_O[7] 6.8445e-06
11 FrameStrobe_O[6] FrameStrobe_O[7] 0.000127717
*RES
1 *1539:X FrameStrobe_O[7] 35.8124 
*END

*D_NET *105 0.00370566
*CONN
*P FrameStrobe_O[8] O
*I *1540:X O *D sky130_fd_sc_hd__buf_2
*CAP
1 FrameStrobe_O[8] 0.000821455
2 *1540:X 0.000821455
3 FrameStrobe_O[8] FrameStrobe_O[9] 0.000645411
4 FrameStrobe_O[8] *1537:A 3.31806e-05
5 FrameStrobe_O[8] *329:28 1.67506e-05
6 FrameStrobe_O[8] *451:64 0.000304267
7 FrameStrobe_O[14] FrameStrobe_O[8] 9.80173e-05
8 FrameStrobe_O[3] FrameStrobe_O[8] 0.000116395
9 FrameStrobe_O[4] FrameStrobe_O[8] 0.000584373
10 FrameStrobe_O[7] FrameStrobe_O[8] 0.000264358
*RES
1 *1540:X FrameStrobe_O[8] 34.6036 
*END

*D_NET *106 0.002856
*CONN
*P FrameStrobe_O[9] O
*I *1541:X O *D sky130_fd_sc_hd__buf_2
*CAP
1 FrameStrobe_O[9] 0.000583119
2 *1541:X 0.000583119
3 FrameStrobe_O[9] *1541:A 5.33005e-05
4 FrameStrobe_O[9] *329:28 0.000140088
5 FrameStrobe_O[10] FrameStrobe_O[9] 0.000415764
6 FrameStrobe_O[11] FrameStrobe_O[9] 3.80299e-05
7 FrameStrobe_O[13] FrameStrobe_O[9] 4.27437e-05
8 FrameStrobe_O[5] FrameStrobe_O[9] 2.67407e-05
9 FrameStrobe_O[7] FrameStrobe_O[9] 0.000327688
10 FrameStrobe_O[8] FrameStrobe_O[9] 0.000645411
*RES
1 *1541:X FrameStrobe_O[9] 31.1571 
*END

*D_NET *107 0.00260465
*CONN
*P N1BEG[0] O
*I *1542:X O *D sky130_fd_sc_hd__buf_2
*CAP
1 N1BEG[0] 0.000752723
2 *1542:X 0.000752723
3 N1BEG[0] N1BEG[1] 0.000461523
4 N1BEG[0] N2BEG[2] 7.83659e-05
5 N1BEG[0] *1544:A 0
6 N1BEG[0] *1548:A 0.000126439
7 N1BEG[0] *350:18 0.000399848
8 N1BEG[0] *412:16 3.30309e-05
*RES
1 *1542:X N1BEG[0] 30.175 
*END

*D_NET *108 0.0024434
*CONN
*P N1BEG[1] O
*I *1543:X O *D sky130_fd_sc_hd__buf_2
*CAP
1 N1BEG[1] 0.000343938
2 *1543:X 0.000343938
3 N1BEG[1] N1BEG[2] 0.000280398
4 N1BEG[1] N2BEG[2] 0.000191403
5 N1BEG[1] *369:16 9.90367e-05
6 N1BEG[1] *380:10 0.00010096
7 N1BEG[1] *391:16 0.000622199
8 N1BEG[0] N1BEG[1] 0.000461523
*RES
1 *1543:X N1BEG[1] 28.8 
*END

*D_NET *109 0.00317612
*CONN
*P N1BEG[2] O
*I *1544:X O *D sky130_fd_sc_hd__buf_2
*CAP
1 N1BEG[2] 0.000388837
2 *1544:X 0.000388837
3 N1BEG[2] N1BEG[3] 0.000195781
4 N1BEG[2] N2BEG[0] 0.000311183
5 N1BEG[2] *1543:A 0.000629089
6 N1BEG[2] *1548:A 0.0001399
7 N1BEG[2] *350:18 0.000233618
8 N1BEG[2] *391:16 0.000480434
9 N1BEG[2] *412:16 0.000128044
10 N1BEG[1] N1BEG[2] 0.000280398
*RES
1 *1544:X N1BEG[2] 31.5143 
*END

*D_NET *110 0.00245088
*CONN
*P N1BEG[3] O
*I *1545:X O *D sky130_fd_sc_hd__buf_2
*CAP
1 N1BEG[3] 0.000360621
2 *1545:X 0.000360621
3 N1BEG[3] N2BEG[0] 0.000537647
4 N1BEG[3] *1543:A 0.000764599
5 N1BEG[3] *1545:A 3.75052e-05
6 N1BEG[3] *369:16 9.60875e-05
7 N1BEG[3] *380:10 9.80173e-05
8 N1BEG[2] N1BEG[3] 0.000195781
*RES
1 *1545:X N1BEG[3] 28.8 
*END

*D_NET *111 0.00272157
*CONN
*P N2BEG[0] O
*I *1546:X O *D sky130_fd_sc_hd__buf_2
*CAP
1 N2BEG[0] 0.000530323
2 *1546:X 0.000530323
3 N2BEG[0] N2BEG[1] 0.000527767
4 N2BEG[0] N2BEG[2] 5.52238e-05
5 N2BEG[0] *1545:A 2.04825e-05
6 N2BEG[0] *1558:A 0.000137983
7 N2BEG[0] *350:18 1.54142e-05
8 N2BEG[0] *412:16 5.52238e-05
9 N1BEG[2] N2BEG[0] 0.000311183
10 N1BEG[3] N2BEG[0] 0.000537647
*RES
1 *1546:X N2BEG[0] 30.9786 
*END

*D_NET *112 0.00228631
*CONN
*P N2BEG[1] O
*I *1547:X O *D sky130_fd_sc_hd__buf_2
*CAP
1 N2BEG[1] 0.000382565
2 *1547:X 0.000382565
3 N2BEG[1] N2BEG[2] 0.000440905
4 N2BEG[1] *1545:A 0.000135583
5 N2BEG[1] *1552:A 0.00014576
6 N2BEG[1] *345:16 7.70602e-05
7 N2BEG[1] *369:16 9.60875e-05
8 N2BEG[1] *380:10 9.80173e-05
9 N2BEG[0] N2BEG[1] 0.000527767
*RES
1 *1547:X N2BEG[1] 28.8 
*END

*D_NET *113 0.00304699
*CONN
*P N2BEG[2] O
*I *1548:X O *D sky130_fd_sc_hd__buf_2
*CAP
1 N2BEG[2] 0.000754192
2 *1548:X 0.000754192
3 N2BEG[2] N2BEG[3] 0.000455242
4 N2BEG[2] *1548:A 0.000229626
5 N2BEG[2] *1552:A 8.50152e-05
6 N2BEG[2] *337:12 0
7 N2BEG[2] *412:16 2.8266e-06
8 N1BEG[0] N2BEG[2] 7.83659e-05
9 N1BEG[1] N2BEG[2] 0.000191403
10 N2BEG[0] N2BEG[2] 5.52238e-05
11 N2BEG[1] N2BEG[2] 0.000440905
*RES
1 *1548:X N2BEG[2] 40.9429 
*END

*D_NET *114 0.00233941
*CONN
*P N2BEG[3] O
*I *1549:X O *D sky130_fd_sc_hd__buf_2
*CAP
1 N2BEG[3] 0.000396957
2 *1549:X 0.000396957
3 N2BEG[3] N2BEG[4] 0.000376915
4 N2BEG[3] *1552:A 3.14964e-05
5 N2BEG[3] *345:16 6.85303e-05
6 N2BEG[3] *369:16 8.39516e-05
7 N2BEG[3] *380:10 9.90431e-05
8 N2BEG[3] *383:20 0.000430313
9 N2BEG[2] N2BEG[3] 0.000455242
*RES
1 *1549:X N2BEG[3] 28.8 
*END

*D_NET *115 0.00313007
*CONN
*P N2BEG[4] O
*I *1550:X O *D sky130_fd_sc_hd__buf_2
*CAP
1 N2BEG[4] 0.000511395
2 *1550:X 0.000511395
3 N2BEG[4] N2BEG[5] 0.000190489
4 N2BEG[4] *1565:A 1.58163e-05
5 N2BEG[4] *1569:A 0.000638393
6 N2BEG[4] *285:8 5.2064e-06
7 N2BEG[4] *341:16 2.29369e-05
8 N2BEG[4] *353:26 0.000276588
9 N2BEG[4] *383:20 0.000580939
10 N2BEG[3] N2BEG[4] 0.000376915
*RES
1 *1550:X N2BEG[4] 31.3357 
*END

*D_NET *116 0.00252941
*CONN
*P N2BEG[5] O
*I *1551:X O *D sky130_fd_sc_hd__buf_2
*CAP
1 N2BEG[5] 0.000417887
2 *1551:X 0.000417887
3 N2BEG[5] N2BEG[6] 0.000381909
4 N2BEG[5] N2BEGb[1] 3.25078e-05
5 N2BEG[5] N4BEG[1] 0.00030485
6 N2BEG[5] *1569:A 0.000634621
7 N2BEG[5] *353:26 0.00010047
8 N2BEG[5] *380:10 4.87953e-05
9 N2BEG[4] N2BEG[5] 0.000190489
*RES
1 *1551:X N2BEG[5] 28.4964 
*END

*D_NET *117 0.00341068
*CONN
*P N2BEG[6] O
*I *1552:X O *D sky130_fd_sc_hd__buf_2
*CAP
1 N2BEG[6] 0.000650047
2 *1552:X 0.000650047
3 N2BEG[6] N2BEG[7] 0.000557392
4 N2BEG[6] N2BEGb[0] 0.000470798
5 N2BEG[6] N2BEGb[4] 6.57914e-05
6 N2BEG[6] N4BEG[1] 0.000153187
7 N2BEG[6] *1552:A 0.000222666
8 N2BEG[6] *1558:A 5.81579e-05
9 N2BEG[6] *1569:A 0.000136958
10 N2BEG[6] *350:18 6.37237e-05
11 N2BEG[5] N2BEG[6] 0.000381909
*RES
1 *1552:X N2BEG[6] 33.6214 
*END

*D_NET *118 0.00228162
*CONN
*P N2BEG[7] O
*I *1553:X O *D sky130_fd_sc_hd__buf_2
*CAP
1 N2BEG[7] 0.000458166
2 *1553:X 0.000458166
3 N2BEG[7] N2BEGb[0] 0.000439365
4 N2BEG[7] N2BEGb[1] 3.69697e-05
5 N2BEG[7] N4BEG[1] 2.01326e-05
6 N2BEG[7] *373:20 0.00025967
7 N2BEG[7] *380:10 5.17614e-05
8 N2BEG[6] N2BEG[7] 0.000557392
*RES
1 *1553:X N2BEG[7] 28.4964 
*END

*D_NET *119 0.00319682
*CONN
*P N2BEGb[0] O
*I *1554:X O *D sky130_fd_sc_hd__buf_2
*CAP
1 N2BEGb[0] 0.000743825
2 *1554:X 0.000743825
3 N2BEGb[0] N2BEGb[1] 0.000258231
4 N2BEGb[0] N2BEGb[4] 2.58821e-05
5 N2BEGb[0] *1552:A 0.000412318
6 N2BEGb[0] *1561:A 2.59355e-05
7 N2BEGb[0] *373:20 7.6644e-05
8 N2BEG[6] N2BEGb[0] 0.000470798
9 N2BEG[7] N2BEGb[0] 0.000439365
*RES
1 *1554:X N2BEGb[0] 30.9964 
*END

*D_NET *120 0.00411601
*CONN
*P N2BEGb[1] O
*I *1555:X O *D sky130_fd_sc_hd__buf_2
*CAP
1 N2BEGb[1] 0.000987497
2 *1555:X 0.000987497
3 N2BEGb[1] N2BEGb[2] 0.000259105
4 N2BEGb[1] N2BEGb[4] 0.00010857
5 N2BEGb[1] N4BEG[1] 9.25014e-06
6 N2BEGb[1] N4BEG[2] 0.000479637
7 N2BEGb[1] *489:DIODE 5.52302e-05
8 N2BEGb[1] *1249:B 0.000264333
9 N2BEGb[1] *1552:A 0.00040276
10 N2BEGb[1] *1565:A 1.55885e-05
11 N2BEGb[1] *338:30 2.88045e-05
12 N2BEGb[1] *344:30 0.000116964
13 N2BEGb[1] *353:26 9.84204e-06
14 N2BEGb[1] *373:20 6.32262e-05
15 N2BEG[5] N2BEGb[1] 3.25078e-05
16 N2BEG[7] N2BEGb[1] 3.69697e-05
17 N2BEGb[0] N2BEGb[1] 0.000258231
*RES
1 *1555:X N2BEGb[1] 45.3536 
*END

*D_NET *121 0.00284675
*CONN
*P N2BEGb[2] O
*I *1556:X O *D sky130_fd_sc_hd__buf_2
*CAP
1 N2BEGb[2] 0.000568912
2 *1556:X 0.000568912
3 N2BEGb[2] N2BEGb[3] 0.000436795
4 N2BEGb[2] N2BEGb[7] 0.000351199
5 N2BEGb[2] N4BEG[2] 0.000476702
6 N2BEGb[2] *373:20 0
7 N2BEGb[2] *380:10 0.000185124
8 N2BEGb[1] N2BEGb[2] 0.000259105
*RES
1 *1556:X N2BEGb[2] 30.8179 
*END

*D_NET *122 0.00299261
*CONN
*P N2BEGb[3] O
*I *1557:X O *D sky130_fd_sc_hd__buf_2
*CAP
1 N2BEGb[3] 0.000566515
2 *1557:X 0.000566515
3 N2BEGb[3] N2BEGb[4] 0.000372834
4 N2BEGb[3] N2BEGb[7] 0.000355958
5 N2BEGb[3] *1249:A 6.28948e-05
6 N2BEGb[3] *1249:B 9.60875e-05
7 N2BEGb[3] *363:20 0.000254867
8 N2BEGb[3] *381:16 0.000280148
9 N2BEGb[2] N2BEGb[3] 0.000436795
*RES
1 *1557:X N2BEGb[3] 30.925 
*END

*D_NET *123 0.00335591
*CONN
*P N2BEGb[4] O
*I *1558:X O *D sky130_fd_sc_hd__buf_2
*CAP
1 N2BEGb[4] 0.000635689
2 *1558:X 0.000635689
3 N2BEGb[4] N2BEGb[5] 0.000349963
4 N2BEGb[4] N2BEGb[7] 5.8157e-05
5 N2BEGb[4] N4BEG[2] 5.33005e-05
6 N2BEGb[4] N4BEG[5] 0.00030854
7 N2BEGb[4] *489:DIODE 0.00018077
8 N2BEGb[4] *1558:A 5.04841e-06
9 N2BEGb[4] *1561:A 5.33005e-05
10 N2BEGb[4] *1569:A 0.000138881
11 N2BEGb[4] *363:20 0.00030826
12 N2BEGb[4] *381:16 5.52302e-05
13 N2BEG[6] N2BEGb[4] 6.57914e-05
14 N2BEGb[0] N2BEGb[4] 2.58821e-05
15 N2BEGb[1] N2BEGb[4] 0.00010857
16 N2BEGb[3] N2BEGb[4] 0.000372834
*RES
1 *1558:X N2BEGb[4] 33.5679 
*END

*D_NET *124 0.00294225
*CONN
*P N2BEGb[5] O
*I *1559:X O *D sky130_fd_sc_hd__buf_2
*CAP
1 N2BEGb[5] 0.000597538
2 *1559:X 0.000597538
3 N2BEGb[5] N2BEGb[6] 0.000780328
4 N2BEGb[5] N4BEG[5] 0.000303128
5 N2BEGb[5] *1249:B 9.58181e-05
6 N2BEGb[5] *1557:A 7.39225e-05
7 N2BEGb[5] *352:36 1.85502e-05
8 N2BEGb[5] *364:28 7.55747e-05
9 N2BEGb[5] *381:16 4.98937e-05
10 N2BEGb[4] N2BEGb[5] 0.000349963
*RES
1 *1559:X N2BEGb[5] 30.925 
*END

*D_NET *125 0.00329577
*CONN
*P N2BEGb[6] O
*I *1560:X O *D sky130_fd_sc_hd__buf_2
*CAP
1 N2BEGb[6] 0.000696331
2 *1560:X 0.000696331
3 N2BEGb[6] N2BEGb[7] 0.00023016
4 N2BEGb[6] N4BEG[0] 0
5 N2BEGb[6] *490:DIODE 9.58181e-05
6 N2BEGb[6] *1557:A 0.000564276
7 N2BEGb[6] *1560:A 9.41642e-05
8 N2BEGb[6] *1562:A 5.33005e-05
9 N2BEGb[6] *380:10 8.50568e-05
10 N2BEGb[5] N2BEGb[6] 0.000780328
*RES
1 *1560:X N2BEGb[6] 32.8536 
*END

*D_NET *126 0.00301934
*CONN
*P N2BEGb[7] O
*I *1561:X O *D sky130_fd_sc_hd__buf_2
*CAP
1 N2BEGb[7] 0.000607849
2 *1561:X 0.000607849
3 N2BEGb[7] N4BEG[0] 0.000187547
4 N2BEGb[7] N4BEG[5] 0.000111738
5 N2BEGb[7] *1557:A 8.75875e-05
6 N2BEGb[7] *354:40 0.000169561
7 N2BEGb[7] *391:20 0.000197914
8 N2BEGb[7] *407:12 5.38242e-05
9 N2BEGb[2] N2BEGb[7] 0.000351199
10 N2BEGb[3] N2BEGb[7] 0.000355958
11 N2BEGb[4] N2BEGb[7] 5.8157e-05
12 N2BEGb[6] N2BEGb[7] 0.00023016
*RES
1 *1561:X N2BEGb[7] 39.8357 
*END

*D_NET *127 0.00317829
*CONN
*P N4BEG[0] O
*I *1562:X O *D sky130_fd_sc_hd__buf_2
*CAP
1 N4BEG[0] 0.000859085
2 *1562:X 0.000859085
3 N4BEG[0] N4BEG[1] 0.000285814
4 N4BEG[0] N4BEG[3] 0.000140088
5 N4BEG[0] *1562:A 4.07667e-05
6 N4BEG[0] *1565:A 9.25014e-06
7 N4BEG[0] *1575:A 0.000289856
8 N4BEG[0] *1592:A 2.70899e-05
9 N4BEG[0] *354:40 0.000349103
10 N4BEG[0] *380:10 0.000130609
11 N4BEG[0] *453:38 0
12 N2BEGb[6] N4BEG[0] 0
13 N2BEGb[7] N4BEG[0] 0.000187547
*RES
1 *1562:X N4BEG[0] 32.0321 
*END

*D_NET *128 0.00285456
*CONN
*P N4BEG[10] O
*I *1563:X O *D sky130_fd_sc_hd__buf_2
*CAP
1 N4BEG[10] 0.000574851
2 *1563:X 0.000574851
3 N4BEG[10] N4BEG[11] 0.00033184
4 N4BEG[10] N4BEG[12] 5.52238e-05
5 N4BEG[10] N4BEG[8] 5.33005e-05
6 N4BEG[10] N4BEG[9] 0.000350631
7 N4BEG[10] *334:16 0.000294969
8 N4BEG[10] *380:10 0.00022581
9 N4BEG[10] *428:18 0.000393083
*RES
1 *1563:X N4BEG[10] 30.0321 
*END

*D_NET *129 0.00297809
*CONN
*P N4BEG[11] O
*I *1564:X O *D sky130_fd_sc_hd__buf_2
*CAP
1 N4BEG[11] 0.000582594
2 *1564:X 0.000582594
3 N4BEG[11] N4BEG[12] 0.000373915
4 N4BEG[11] N4BEG[9] 0.000107609
5 N4BEG[11] *1564:A 3.1367e-05
6 N4BEG[11] *1586:A 0.000496723
7 N4BEG[11] *339:16 0.000190547
8 N4BEG[11] *428:18 0.000280898
9 N4BEG[10] N4BEG[11] 0.00033184
*RES
1 *1564:X N4BEG[11] 30.5679 
*END

*D_NET *130 0.0026662
*CONN
*P N4BEG[12] O
*I *1565:X O *D sky130_fd_sc_hd__buf_2
*CAP
1 N4BEG[12] 0.000674842
2 *1565:X 0.000674842
3 N4BEG[12] N4BEG[13] 0.000260904
4 N4BEG[12] N4BEG[14] 9.80173e-05
5 N4BEG[12] *339:16 0.0002798
6 N4BEG[12] *380:10 3.68898e-05
7 N4BEG[12] *446:24 0.000211763
8 N4BEG[10] N4BEG[12] 5.52238e-05
9 N4BEG[11] N4BEG[12] 0.000373915
*RES
1 *1565:X N4BEG[12] 29.7286 
*END

*D_NET *131 0.0029236
*CONN
*P N4BEG[13] O
*I *1566:X O *D sky130_fd_sc_hd__buf_2
*CAP
1 N4BEG[13] 0.000511131
2 *1566:X 0.000511131
3 N4BEG[13] N4BEG[14] 0.000260904
4 N4BEG[13] N4BEG[8] 0.000364026
5 N4BEG[13] N4BEG[9] 0.000417266
6 N4BEG[13] *391:20 0.000392032
7 N4BEG[13] *453:38 0.000206204
8 N4BEG[12] N4BEG[13] 0.000260904
*RES
1 *1566:X N4BEG[13] 38.6036 
*END

*D_NET *132 0.00299627
*CONN
*P N4BEG[14] O
*I *1567:X O *D sky130_fd_sc_hd__buf_2
*CAP
1 N4BEG[14] 0.000559545
2 *1567:X 0.000559545
3 N4BEG[14] N4BEG[15] 0.000314773
4 N4BEG[14] NN4BEG[0] 5.33005e-05
5 N4BEG[14] *1588:A 0.000258999
6 N4BEG[14] *380:10 0.00027005
7 N4BEG[14] *408:24 0.000439056
8 N4BEG[14] *446:24 0.00018208
9 N4BEG[12] N4BEG[14] 9.80173e-05
10 N4BEG[13] N4BEG[14] 0.000260904
*RES
1 *1567:X N4BEG[14] 30.4429 
*END

*D_NET *133 0.00311379
*CONN
*P N4BEG[15] O
*I *1568:X O *D sky130_fd_sc_hd__buf_2
*CAP
1 N4BEG[15] 0.000605081
2 *1568:X 0.000605081
3 N4BEG[15] NN4BEG[0] 0.000315545
4 N4BEG[15] *408:24 0.000591282
5 N4BEG[15] *422:18 0.00010096
6 N4BEG[15] *437:28 2.30116e-06
7 N4BEG[15] *450:26 0.00057877
8 N4BEG[14] N4BEG[15] 0.000314773
*RES
1 *1568:X N4BEG[15] 30.925 
*END

*D_NET *134 0.00447093
*CONN
*P N4BEG[1] O
*I *1569:X O *D sky130_fd_sc_hd__buf_2
*CAP
1 N4BEG[1] 0.000829632
2 *1569:X 0.000829632
3 N4BEG[1] N4BEG[2] 0.000265461
4 N4BEG[1] N4BEG[3] 5.01876e-06
5 N4BEG[1] *489:DIODE 5.33005e-05
6 N4BEG[1] *1544:A 0.000503756
7 N4BEG[1] *1575:A 0.000105924
8 N4BEG[1] *1588:A 0.00100668
9 N4BEG[1] *365:22 6.28248e-05
10 N4BEG[1] *453:38 3.54716e-05
11 N2BEG[5] N4BEG[1] 0.00030485
12 N2BEG[6] N4BEG[1] 0.000153187
13 N2BEG[7] N4BEG[1] 2.01326e-05
14 N2BEGb[1] N4BEG[1] 9.25014e-06
15 N4BEG[0] N4BEG[1] 0.000285814
*RES
1 *1569:X N4BEG[1] 46.9429 
*END

*D_NET *135 0.0038295
*CONN
*P N4BEG[2] O
*I *1570:X O *D sky130_fd_sc_hd__buf_2
*CAP
1 N4BEG[2] 0.000854072
2 *1570:X 0.000854072
3 N4BEG[2] N4BEG[3] 0.000265461
4 N4BEG[2] *1569:A 9.67924e-05
5 N4BEG[2] *1575:A 6.35515e-05
6 N4BEG[2] *335:14 0
7 N4BEG[2] *349:22 0.000327686
8 N4BEG[2] *363:20 9.2762e-05
9 N2BEGb[1] N4BEG[2] 0.000479637
10 N2BEGb[2] N4BEG[2] 0.000476702
11 N2BEGb[4] N4BEG[2] 5.33005e-05
12 N4BEG[1] N4BEG[2] 0.000265461
*RES
1 *1570:X N4BEG[2] 35.0886 
*END

*D_NET *136 0.00312371
*CONN
*P N4BEG[3] O
*I *1571:X O *D sky130_fd_sc_hd__buf_2
*CAP
1 N4BEG[3] 0.000636513
2 *1571:X 0.000636513
3 N4BEG[3] N4BEG[4] 0.000364639
4 N4BEG[3] *1565:A 0.000139907
5 N4BEG[3] *1574:A 0.000129484
6 N4BEG[3] *1592:A 8.71598e-06
7 N4BEG[3] *380:10 0.000311377
8 N4BEG[3] *453:38 0.00048599
9 N4BEG[0] N4BEG[3] 0.000140088
10 N4BEG[1] N4BEG[3] 5.01876e-06
11 N4BEG[2] N4BEG[3] 0.000265461
*RES
1 *1571:X N4BEG[3] 31.3893 
*END

*D_NET *137 0.00318272
*CONN
*P N4BEG[4] O
*I *1572:X O *D sky130_fd_sc_hd__buf_2
*CAP
1 N4BEG[4] 0.00079952
2 *1572:X 0.00079952
3 N4BEG[4] N4BEG[5] 9.70609e-05
4 N4BEG[4] N4BEG[7] 7.93739e-05
5 N4BEG[4] *1544:A 4.87854e-05
6 N4BEG[4] *1574:A 0.00062168
7 N4BEG[4] *1577:A 8.61512e-05
8 N4BEG[4] *1588:A 9.41642e-05
9 N4BEG[4] *335:14 3.31377e-05
10 N4BEG[4] *354:40 0
11 N4BEG[4] *366:22 0.000124275
12 N4BEG[4] *458:26 3.44162e-05
13 N4BEG[3] N4BEG[4] 0.000364639
*RES
1 *1572:X N4BEG[4] 44.0111 
*END

*D_NET *138 0.00371615
*CONN
*P N4BEG[5] O
*I *1573:X O *D sky130_fd_sc_hd__buf_2
*CAP
1 N4BEG[5] 0.00056663
2 *1573:X 0.00056663
3 N4BEG[5] N4BEG[6] 0.000287665
4 N4BEG[5] *1574:A 0.000410014
5 N4BEG[5] *1577:A 4.23907e-05
6 N4BEG[5] *381:16 1.32552e-05
7 N4BEG[5] *391:20 6.64036e-05
8 N4BEG[5] *407:12 0.000722983
9 N4BEG[5] *453:38 0.000219711
10 N2BEGb[4] N4BEG[5] 0.00030854
11 N2BEGb[5] N4BEG[5] 0.000303128
12 N2BEGb[7] N4BEG[5] 0.000111738
13 N4BEG[4] N4BEG[5] 9.70609e-05
*RES
1 *1573:X N4BEG[5] 41.8893 
*END

*D_NET *139 0.00307277
*CONN
*P N4BEG[6] O
*I *1574:X O *D sky130_fd_sc_hd__buf_2
*CAP
1 N4BEG[6] 0.000533067
2 *1574:X 0.000533067
3 N4BEG[6] N4BEG[7] 0.000355393
4 N4BEG[6] N4BEG[8] 5.33005e-05
5 N4BEG[6] *1565:A 0.000181381
6 N4BEG[6] *1574:A 0
7 N4BEG[6] *1577:A 0.000374802
8 N4BEG[6] *335:14 0.000125917
9 N4BEG[6] *380:10 0.000266955
10 N4BEG[6] *441:22 0.000361221
11 N4BEG[5] N4BEG[6] 0.000287665
*RES
1 *1574:X N4BEG[6] 30.4429 
*END

*D_NET *140 0.00347771
*CONN
*P N4BEG[7] O
*I *1575:X O *D sky130_fd_sc_hd__buf_2
*CAP
1 N4BEG[7] 0.000731351
2 *1575:X 0.000731351
3 N4BEG[7] N4BEG[8] 0.000143164
4 N4BEG[7] N4BEG[9] 0.000159141
5 N4BEG[7] *1564:A 0.000608895
6 N4BEG[7] *1575:A 5.12625e-05
7 N4BEG[7] *1577:A 2.84026e-05
8 N4BEG[7] *1586:A 0.000376199
9 N4BEG[7] *366:22 4.68357e-05
10 N4BEG[7] *441:22 0.00016634
11 N4BEG[4] N4BEG[7] 7.93739e-05
12 N4BEG[6] N4BEG[7] 0.000355393
*RES
1 *1575:X N4BEG[7] 33.5321 
*END

*D_NET *141 0.0030552
*CONN
*P N4BEG[8] O
*I *1576:X O *D sky130_fd_sc_hd__buf_2
*CAP
1 N4BEG[8] 0.000614948
2 *1576:X 0.000614948
3 N4BEG[8] N4BEG[9] 0.000170566
4 N4BEG[8] *1564:A 0.000651605
5 N4BEG[8] *1566:A 2.07809e-05
6 N4BEG[8] *334:16 7.69264e-05
7 N4BEG[8] *380:10 6.10547e-05
8 N4BEG[8] *441:22 2.86374e-05
9 N4BEG[8] *453:38 1.90936e-05
10 N4BEG[8] *466:42 0.000182855
11 N4BEG[10] N4BEG[8] 5.33005e-05
12 N4BEG[13] N4BEG[8] 0.000364026
13 N4BEG[6] N4BEG[8] 5.33005e-05
14 N4BEG[7] N4BEG[8] 0.000143164
*RES
1 *1576:X N4BEG[8] 29.7286 
*END

*D_NET *142 0.00295773
*CONN
*P N4BEG[9] O
*I *1577:X O *D sky130_fd_sc_hd__buf_2
*CAP
1 N4BEG[9] 0.000614457
2 *1577:X 0.000614457
3 N4BEG[9] *1564:A 5.52238e-05
4 N4BEG[9] *1577:A 5.49489e-05
5 N4BEG[9] *1586:A 8.71079e-05
6 N4BEG[9] *334:16 0.000147114
7 N4BEG[9] *466:42 0.000179209
8 N4BEG[10] N4BEG[9] 0.000350631
9 N4BEG[11] N4BEG[9] 0.000107609
10 N4BEG[13] N4BEG[9] 0.000417266
11 N4BEG[7] N4BEG[9] 0.000159141
12 N4BEG[8] N4BEG[9] 0.000170566
*RES
1 *1577:X N4BEG[9] 31.0679 
*END

*D_NET *143 0.00294395
*CONN
*P NN4BEG[0] O
*I *1578:X O *D sky130_fd_sc_hd__buf_2
*CAP
1 NN4BEG[0] 0.000623749
2 *1578:X 0.000623749
3 NN4BEG[0] NN4BEG[1] 0.000270564
4 NN4BEG[0] NN4BEG[3] 9.60939e-05
5 NN4BEG[0] NN4BEG[6] 0.000490199
6 NN4BEG[0] *380:10 3.50327e-05
7 NN4BEG[0] *437:28 2.04825e-05
8 NN4BEG[0] *450:26 0.000415233
9 N4BEG[14] NN4BEG[0] 5.33005e-05
10 N4BEG[15] NN4BEG[0] 0.000315545
*RES
1 *1578:X NN4BEG[0] 29.7286 
*END

*D_NET *144 0.00202608
*CONN
*P NN4BEG[10] O
*I *1579:X O *D sky130_fd_sc_hd__buf_2
*CAP
1 NN4BEG[10] 0.000592931
2 *1579:X 0.000592931
3 NN4BEG[10] NN4BEG[11] 0.000359254
4 NN4BEG[10] NN4BEG[9] 0.000239216
5 NN4BEG[10] *423:18 9.83704e-05
6 NN4BEG[10] *437:28 0.000143375
*RES
1 *1579:X NN4BEG[10] 26.4786 
*END

*D_NET *145 0.00256454
*CONN
*P NN4BEG[11] O
*I *1580:X O *D sky130_fd_sc_hd__buf_2
*CAP
1 NN4BEG[11] 0.0006132
2 *1580:X 0.0006132
3 NN4BEG[11] NN4BEG[12] 0.000189071
4 NN4BEG[11] NN4BEG[8] 0
5 NN4BEG[11] *1463:A 0.000644745
6 NN4BEG[11] *347:38 4.82865e-05
7 NN4BEG[11] *423:18 9.67846e-05
8 NN4BEG[11] *437:28 0
9 NN4BEG[10] NN4BEG[11] 0.000359254
*RES
1 *1580:X NN4BEG[11] 28.4964 
*END

*D_NET *146 0.00203457
*CONN
*P NN4BEG[12] O
*I *1581:X O *D sky130_fd_sc_hd__buf_2
*CAP
1 NN4BEG[12] 0.000370031
2 *1581:X 0.000370031
3 NN4BEG[12] NN4BEG[13] 0.000226416
4 NN4BEG[12] *1463:A 0.000468229
5 NN4BEG[12] *1464:A 0.00041079
6 NN4BEG[11] NN4BEG[12] 0.000189071
*RES
1 *1581:X NN4BEG[12] 25.1214 
*END

*D_NET *147 0.00227118
*CONN
*P NN4BEG[13] O
*I *1582:X O *D sky130_fd_sc_hd__buf_2
*CAP
1 NN4BEG[13] 0.00044714
2 *1582:X 0.00044714
3 NN4BEG[13] NN4BEG[14] 0.000215239
4 NN4BEG[13] *1464:A 0.000409204
5 NN4BEG[13] *437:28 9.60875e-05
6 Co NN4BEG[13] 0.000429955
7 NN4BEG[12] NN4BEG[13] 0.000226416
*RES
1 *1582:X NN4BEG[13] 26.0679 
*END

*D_NET *148 0.00399251
*CONN
*P NN4BEG[14] O
*I *1583:X O *D sky130_fd_sc_hd__buf_2
*CAP
1 NN4BEG[14] 0.000708547
2 *1583:X 0.000708547
3 NN4BEG[14] NN4BEG[15] 0.000232082
4 NN4BEG[14] *1465:A 0.000174256
5 NN4BEG[14] *1475:A 9.22222e-06
6 NN4BEG[14] *1478:A 0.000246626
7 NN4BEG[14] *1581:A 3.31027e-05
8 NN4BEG[14] *293:12 0.000268166
9 NN4BEG[14] *377:28 5.65955e-05
10 NN4BEG[14] *378:38 6.09682e-05
11 NN4BEG[14] *426:26 6.05161e-06
12 NN4BEG[14] *428:18 0.000522845
13 NN4BEG[14] *450:16 0.000520922
14 Co NN4BEG[14] 0.000229344
15 NN4BEG[13] NN4BEG[14] 0.000215239
*RES
1 *1583:X NN4BEG[14] 43.2464 
*END

*D_NET *149 0.00225091
*CONN
*P NN4BEG[15] O
*I *1584:X O *D sky130_fd_sc_hd__buf_2
*CAP
1 NN4BEG[15] 0.00082196
2 *1584:X 0.00082196
3 NN4BEG[15] *1465:A 9.01724e-06
4 NN4BEG[15] *310:30 2.79814e-05
5 NN4BEG[15] *430:20 8.1808e-05
6 NN4BEG[15] *456:44 5.28738e-05
7 Co NN4BEG[15] 0.000203225
8 NN4BEG[14] NN4BEG[15] 0.000232082
9 *1433:A NN4BEG[15] 0
*RES
1 *1584:X NN4BEG[15] 27.9607 
*END

*D_NET *150 0.0031896
*CONN
*P NN4BEG[1] O
*I *1585:X O *D sky130_fd_sc_hd__buf_2
*CAP
1 NN4BEG[1] 0.000656248
2 *1585:X 0.000656248
3 NN4BEG[1] NN4BEG[2] 0.00064642
4 NN4BEG[1] NN4BEG[3] 6.0537e-05
5 NN4BEG[1] NN4BEG[4] 5.46971e-05
6 NN4BEG[1] NN4BEG[6] 0.000488107
7 NN4BEG[1] *1262:S0 6.35819e-05
8 NN4BEG[1] *422:18 9.80173e-05
9 NN4BEG[1] *437:28 0.000195178
10 NN4BEG[0] NN4BEG[1] 0.000270564
*RES
1 *1585:X NN4BEG[1] 30.925 
*END

*D_NET *151 0.00332306
*CONN
*P NN4BEG[2] O
*I *1586:X O *D sky130_fd_sc_hd__buf_2
*CAP
1 NN4BEG[2] 0.000965286
2 *1586:X 0.000965286
3 NN4BEG[2] NN4BEG[3] 0.000624704
4 NN4BEG[2] NN4BEG[4] 5.56626e-05
5 NN4BEG[2] *1586:A 4.58194e-05
6 NN4BEG[2] *385:24 1.98839e-05
7 NN4BEG[1] NN4BEG[2] 0.00064642
*RES
1 *1586:X NN4BEG[2] 32.6393 
*END

*D_NET *152 0.00323041
*CONN
*P NN4BEG[3] O
*I *1587:X O *D sky130_fd_sc_hd__buf_2
*CAP
1 NN4BEG[3] 0.00062786
2 *1587:X 0.00062786
3 NN4BEG[3] NN4BEG[4] 0.000760906
4 NN4BEG[3] NN4BEG[5] 9.71197e-05
5 NN4BEG[3] *380:10 0.000265453
6 NN4BEG[3] *407:16 6.98805e-05
7 NN4BEG[0] NN4BEG[3] 9.60939e-05
8 NN4BEG[1] NN4BEG[3] 6.0537e-05
9 NN4BEG[2] NN4BEG[3] 0.000624704
*RES
1 *1587:X NN4BEG[3] 31.5143 
*END

*D_NET *153 0.003198
*CONN
*P NN4BEG[4] O
*I *1588:X O *D sky130_fd_sc_hd__buf_2
*CAP
1 NN4BEG[4] 0.000705619
2 *1588:X 0.000705619
3 NN4BEG[4] NN4BEG[5] 0.000165536
4 NN4BEG[4] NN4BEG[6] 5.33005e-05
5 NN4BEG[4] NN4BEG[7] 2.59355e-05
6 NN4BEG[4] *361:26 0.000202453
7 NN4BEG[4] *385:24 0.000149394
8 NN4BEG[4] *407:16 0.00031888
9 NN4BEG[1] NN4BEG[4] 5.46971e-05
10 NN4BEG[2] NN4BEG[4] 5.56626e-05
11 NN4BEG[3] NN4BEG[4] 0.000760906
*RES
1 *1588:X NN4BEG[4] 40.4786 
*END

*D_NET *154 0.00317948
*CONN
*P NN4BEG[5] O
*I *1589:X O *D sky130_fd_sc_hd__buf_2
*CAP
1 NN4BEG[5] 0.000776734
2 *1589:X 0.000776734
3 NN4BEG[5] NN4BEG[6] 0.000250336
4 NN4BEG[5] NN4BEG[7] 0.000213372
5 NN4BEG[5] *1592:A 8.40344e-05
6 NN4BEG[5] *347:38 2.2595e-05
7 NN4BEG[5] *361:26 0.000682914
8 NN4BEG[5] *380:10 0.000110107
9 NN4BEG[5] *456:54 0
10 NN4BEG[3] NN4BEG[5] 9.71197e-05
11 NN4BEG[4] NN4BEG[5] 0.000165536
*RES
1 *1589:X NN4BEG[5] 31.0857 
*END

*D_NET *155 0.00384997
*CONN
*P NN4BEG[6] O
*I *1590:X O *D sky130_fd_sc_hd__buf_2
*CAP
1 NN4BEG[6] 0.000639321
2 *1590:X 0.000639321
3 NN4BEG[6] NN4BEG[7] 0.000250336
4 NN4BEG[6] *1577:A 0.000522703
5 NN4BEG[6] *349:22 0.000516342
6 NN4BEG[0] NN4BEG[6] 0.000490199
7 NN4BEG[1] NN4BEG[6] 0.000488107
8 NN4BEG[4] NN4BEG[6] 5.33005e-05
9 NN4BEG[5] NN4BEG[6] 0.000250336
*RES
1 *1590:X NN4BEG[6] 34.9597 
*END

*D_NET *156 0.00276705
*CONN
*P NN4BEG[7] O
*I *1591:X O *D sky130_fd_sc_hd__buf_2
*CAP
1 NN4BEG[7] 0.000815729
2 *1591:X 0.000815729
3 NN4BEG[7] NN4BEG[8] 0.000447753
4 NN4BEG[7] *1579:A 0.000136958
5 NN4BEG[7] *1592:A 2.44318e-05
6 NN4BEG[7] *385:24 2.87555e-06
7 NN4BEG[7] *386:30 8.25843e-06
8 NN4BEG[7] *456:54 2.56694e-05
9 NN4BEG[4] NN4BEG[7] 2.59355e-05
10 NN4BEG[5] NN4BEG[7] 0.000213372
11 NN4BEG[6] NN4BEG[7] 0.000250336
*RES
1 *1591:X NN4BEG[7] 29.6036 
*END

*D_NET *157 0.00283395
*CONN
*P NN4BEG[8] O
*I *1592:X O *D sky130_fd_sc_hd__buf_2
*CAP
1 NN4BEG[8] 0.000568652
2 *1592:X 0.000568652
3 NN4BEG[8] NN4BEG[9] 0.000626258
4 NN4BEG[8] *1579:A 4.33174e-05
5 NN4BEG[8] *1592:A 4.58194e-05
6 NN4BEG[8] *1593:A 5.33005e-05
7 NN4BEG[8] *385:24 0.000265178
8 NN4BEG[8] *437:28 5.20298e-05
9 NN4BEG[8] *456:54 0.000162986
10 NN4BEG[11] NN4BEG[8] 0
11 NN4BEG[7] NN4BEG[8] 0.000447753
*RES
1 *1592:X NN4BEG[8] 29.5857 
*END

*D_NET *158 0.00234321
*CONN
*P NN4BEG[9] O
*I *1593:X O *D sky130_fd_sc_hd__buf_2
*CAP
1 NN4BEG[9] 0.000658031
2 *1593:X 0.000658031
3 NN4BEG[9] *1579:A 0.0001399
4 NN4BEG[9] *1593:A 8.43535e-06
5 NN4BEG[9] *437:28 1.33343e-05
6 NN4BEG[10] NN4BEG[9] 0.000239216
7 NN4BEG[8] NN4BEG[9] 0.000626258
*RES
1 *1593:X NN4BEG[9] 27.9607 
*END

*D_NET *159 0.00661139
*CONN
*P S1END[0] I
*I *1462:A I *D sky130_fd_sc_hd__buf_1
*CAP
1 S1END[0] 0.0012073
2 *1462:A 0
3 *159:19 0.0012073
4 *159:19 *1463:A 0.000188414
5 *159:19 *1464:A 0.000186387
6 *159:19 *1467:A 0.000137983
7 *159:19 *1472:A 0.000178847
8 *159:19 *1473:A 0.000209448
9 *159:19 *1479:A 0.000269422
10 *159:19 *1484:A 2.86824e-05
11 *159:19 *293:14 0.0013985
12 *159:19 *310:30 0.000179582
13 *159:19 *343:30 0.000113073
14 *159:19 *368:26 5.87726e-05
15 *159:19 *391:38 5.32645e-05
16 *159:19 *429:22 5.05056e-05
17 *159:19 *433:34 2.06178e-05
18 *159:19 *446:14 0.000307657
19 *159:19 *453:24 1.40034e-05
20 *159:19 *466:30 0.000414301
21 *159:19 *479:30 0.000120993
22 *159:19 *485:34 6.31068e-05
23 Co *159:19 0.000203225
*RES
1 S1END[0] *159:19 45.9107 
2 *159:19 *1462:A 9.3 
*END

*D_NET *160 0.00439658
*CONN
*P S1END[1] I
*I *1463:A I *D sky130_fd_sc_hd__buf_1
*CAP
1 S1END[1] 0.000845542
2 *1463:A 0.000845542
3 *1463:A *1464:A 0.000216297
4 *1463:A *1569:A 0.000296731
5 *1463:A *1593:A 0.000191901
6 *1463:A *347:38 5.49489e-05
7 *1463:A *349:22 0.000589
8 *1463:A *385:24 0
9 *1463:A *424:26 5.52302e-05
10 Co *1463:A 0
11 NN4BEG[11] *1463:A 0.000644745
12 NN4BEG[12] *1463:A 0.000468229
13 *159:19 *1463:A 0.000188414
*RES
1 S1END[1] *1463:A 36.9253 
*END

*D_NET *161 0.00395682
*CONN
*P S1END[2] I
*I *1464:A I *D sky130_fd_sc_hd__buf_1
*CAP
1 S1END[2] 0.000615108
2 *1464:A 0.000615108
3 *1464:A *1465:A 0.000201987
4 *1464:A *1593:A 0.000180066
5 *1464:A *293:12 5.33072e-05
6 *1464:A *310:30 9.90431e-05
7 *1464:A *343:30 5.12758e-05
8 *1464:A *391:20 0.0004385
9 *1464:A *391:38 1.38208e-05
10 *1464:A *437:28 0.000223885
11 Co *1464:A 0.000242036
12 NN4BEG[12] *1464:A 0.00041079
13 NN4BEG[13] *1464:A 0.000409204
14 *1463:A *1464:A 0.000216297
15 *159:19 *1464:A 0.000186387
*RES
1 S1END[2] *1464:A 42.4964 
*END

*D_NET *162 0.00436207
*CONN
*P S1END[3] I
*I *1465:A I *D sky130_fd_sc_hd__buf_1
*CAP
1 S1END[3] 0.000997045
2 *1465:A 0.000997045
3 *1465:A *1475:A 0.000149014
4 *1465:A *1478:A 0.000196377
5 *1465:A *1575:A 0.000167745
6 *1465:A *293:12 8.51213e-05
7 *1465:A *310:30 4.73891e-05
8 *1465:A *347:38 9.66977e-05
9 *1465:A *349:22 0.000506243
10 *1465:A *376:28 0.000178306
11 *1465:A *424:26 1.32056e-05
12 *1465:A *430:20 1.26641e-05
13 *1465:A *463:40 0.000388525
14 Co *1465:A 2.34027e-05
15 NN4BEG[14] *1465:A 0.000174256
16 NN4BEG[15] *1465:A 9.01724e-06
17 *1433:A *1465:A 0.000118028
18 *1464:A *1465:A 0.000201987
*RES
1 S1END[3] *1465:A 37.1919 
*END

*D_NET *163 0.00230393
*CONN
*P S2END[0] I
*I *1466:A I *D sky130_fd_sc_hd__buf_1
*CAP
1 S2END[0] 0.000492554
2 *1466:A 0.000492554
3 *1466:A *1467:A 0.000216517
4 *1466:A *1468:A 0
5 *1466:A *1483:A 0.000234309
6 *1466:A *391:38 0.000394164
7 *1466:A *426:26 5.49544e-05
8 *1466:A *479:26 0.000418876
*RES
1 S2END[0] *1466:A 26.2643 
*END

*D_NET *164 0.00265508
*CONN
*P S2END[1] I
*I *1467:A I *D sky130_fd_sc_hd__buf_1
*CAP
1 S2END[1] 0.000570638
2 *1467:A 0.000570638
3 *1467:A *1468:A 0.000608164
4 *1467:A *1470:A 0.000393953
5 *1467:A *454:96 1.72894e-05
6 *1467:A *479:30 0.0001399
7 *1466:A *1467:A 0.000216517
8 *159:19 *1467:A 0.000137983
*RES
1 S2END[1] *1467:A 36.8714 
*END

*D_NET *165 0.00220564
*CONN
*P S2END[2] I
*I *1468:A I *D sky130_fd_sc_hd__buf_1
*CAP
1 S2END[2] 0.000565229
2 *1468:A 0.000565229
3 *1468:A *1470:A 0.000231267
4 *1468:A *423:18 2.15178e-05
5 *1468:A *425:14 0.000157329
6 *1468:A *479:26 4.07675e-05
7 *1466:A *1468:A 0
8 *1467:A *1468:A 0.000608164
9 *67:79 *1468:A 1.61405e-05
*RES
1 S2END[2] *1468:A 26.2643 
*END

*D_NET *166 0.00287429
*CONN
*P S2END[3] I
*I *1470:A I *D sky130_fd_sc_hd__buf_1
*CAP
1 S2END[3] 0.000672632
2 *1470:A 0.000672632
3 *1470:A *1347:A 4.26825e-05
4 *1470:A *1471:A 0.000431298
5 *1470:A *428:12 2.27416e-05
6 *1470:A *454:96 0.000349708
7 *1470:A *459:24 4.15592e-05
8 *1470:A *466:24 1.58163e-05
9 *1467:A *1470:A 0.000393953
10 *1468:A *1470:A 0.000231267
*RES
1 S2END[3] *1470:A 29.8714 
*END

*D_NET *167 0.00225859
*CONN
*P S2END[4] I
*I *1471:A I *D sky130_fd_sc_hd__buf_1
*CAP
1 S2END[4] 0.00050813
2 *1471:A 0.00050813
3 *1471:A *1347:A 2.11419e-05
4 *1471:A *1472:A 0.000132409
5 *1471:A *322:42 0.000617441
6 *1471:A *459:24 4.00349e-05
7 *1470:A *1471:A 0.000431298
*RES
1 S2END[4] *1471:A 26.2643 
*END

*D_NET *168 0.00355224
*CONN
*P S2END[5] I
*I *1472:A I *D sky130_fd_sc_hd__buf_1
*CAP
1 S2END[5] 0.000572689
2 *1472:A 0.000572689
3 *1472:A *1473:A 0.000211476
4 *1472:A *1474:A 0.000444689
5 *1472:A *1485:A 0.0001399
6 *1472:A *1487:A 0.000444689
7 *1472:A *293:14 8.41815e-05
8 *1472:A *322:42 0.000183521
9 *1472:A *429:22 5.52302e-05
10 *1472:A *446:14 5.33005e-05
11 *1472:A *479:30 0.000478619
12 *1471:A *1472:A 0.000132409
13 *159:19 *1472:A 0.000178847
*RES
1 S2END[5] *1472:A 40.0321 
*END

*D_NET *169 0.00279887
*CONN
*P S2END[6] I
*I *1473:A I *D sky130_fd_sc_hd__buf_1
*CAP
1 S2END[6] 0.000654627
2 *1473:A 0.000654627
3 *1473:A *1474:A 0.000106271
4 *1473:A *295:30 8.8676e-05
5 *1473:A *322:42 3.25854e-05
6 *1473:A *420:14 5.35475e-05
7 *1473:A *428:12 0.000179219
8 *1473:A *466:30 0.000608391
9 *1472:A *1473:A 0.000211476
10 *159:19 *1473:A 0.000209448
*RES
1 S2END[6] *1473:A 29.1214 
*END

*D_NET *170 0.00327835
*CONN
*P S2END[7] I
*I *1474:A I *D sky130_fd_sc_hd__buf_1
*CAP
1 S2END[7] 0.000671393
2 *1474:A 0.000671393
3 *1474:A *1484:A 0.000722537
4 *1474:A *1485:A 9.98007e-05
5 *1474:A *1486:A 1.64618e-05
6 *1474:A *1487:A 0.000106175
7 *1474:A *322:42 9.58593e-05
8 *1474:A *367:14 0.000266486
9 *1474:A *436:34 1.77511e-05
10 *1474:A *448:34 1.90936e-05
11 *1474:A *485:34 4.04359e-05
12 *1472:A *1474:A 0.000444689
13 *1473:A *1474:A 0.000106271
*RES
1 S2END[7] *1474:A 40.175 
*END

*D_NET *171 0.00381204
*CONN
*P S2MID[0] I
*I *1475:A I *D sky130_fd_sc_hd__buf_1
*CAP
1 S2MID[0] 0.000746719
2 *1475:A 0.000746719
3 *1475:A *1349:A 0.000262228
4 *1475:A *1476:A 0.00100864
5 *1475:A *1477:A 1.46231e-05
6 *1475:A *1478:A 0.000597937
7 *1475:A *293:12 0.000149721
8 *1475:A *347:38 8.99655e-05
9 *1475:A *426:26 3.72472e-05
10 NN4BEG[14] *1475:A 9.22222e-06
11 *1465:A *1475:A 0.000149014
*RES
1 S2MID[0] *1475:A 32.8179 
*END

*D_NET *172 0.00368094
*CONN
*P S2MID[1] I
*I *1476:A I *D sky130_fd_sc_hd__buf_1
*CAP
1 S2MID[1] 0.000841836
2 *1476:A 0.000841836
3 *1476:A *1349:A 1.21258e-05
4 *1476:A *1477:A 0.000318185
5 *1476:A *1479:A 0.000444007
6 *1476:A *303:51 6.61017e-05
7 *1476:A *426:26 7.69697e-05
8 *1476:A *436:34 9.25014e-06
9 *1476:A *448:34 4.37992e-05
10 *1476:A *454:45 1.81886e-05
11 *1475:A *1476:A 0.00100864
*RES
1 S2MID[1] *1476:A 33.425 
*END

*D_NET *173 0.00335174
*CONN
*P S2MID[2] I
*I *1477:A I *D sky130_fd_sc_hd__buf_1
*CAP
1 S2MID[2] 0.000908394
2 *1477:A 0.000908394
3 *1477:A *1346:A 3.39145e-05
4 *1477:A *1349:A 9.34953e-05
5 *1477:A *1478:A 0.000151661
6 *1477:A *1479:A 0.000443939
7 *1477:A *1481:A 0
8 *1477:A *293:12 2.03591e-05
9 *1477:A *303:51 1.81818e-05
10 *1477:A *336:57 1.89507e-06
11 *1477:A *436:34 9.60875e-05
12 *1477:A *438:32 2.21972e-05
13 *1477:A *439:16 1.77227e-05
14 *1477:A *448:34 4.21517e-05
15 *1477:A *454:45 1.64031e-05
16 *1477:A *461:28 0
17 *1477:A *481:24 0.000244136
18 *1475:A *1477:A 1.46231e-05
19 *1476:A *1477:A 0.000318185
*RES
1 S2MID[2] *1477:A 33.3536 
*END

*D_NET *174 0.00309417
*CONN
*P S2MID[3] I
*I *1478:A I *D sky130_fd_sc_hd__buf_1
*CAP
1 S2MID[3] 0.000551883
2 *1478:A 0.000551883
3 *1478:A *1479:A 0.000151661
4 *1478:A *293:12 6.5198e-05
5 *1478:A *361:14 0.000309266
6 *1478:A *378:38 8.26157e-05
7 *1478:A *426:26 8.45391e-05
8 *1478:A *466:30 0.000104523
9 NN4BEG[14] *1478:A 0.000246626
10 *1465:A *1478:A 0.000196377
11 *1475:A *1478:A 0.000597937
12 *1477:A *1478:A 0.000151661
*RES
1 S2MID[3] *1478:A 38.6839 
*END

*D_NET *175 0.00287044
*CONN
*P S2MID[4] I
*I *1479:A I *D sky130_fd_sc_hd__buf_1
*CAP
1 S2MID[4] 0.00051345
2 *1479:A 0.00051345
3 *1479:A *1481:A 0.000188291
4 *1479:A *310:30 0.000270646
5 *1479:A *354:26 7.55769e-05
6 *1476:A *1479:A 0.000444007
7 *1477:A *1479:A 0.000443939
8 *1478:A *1479:A 0.000151661
9 *159:19 *1479:A 0.000269422
*RES
1 S2MID[4] *1479:A 37.4429 
*END

*D_NET *176 0.00266405
*CONN
*P S2MID[5] I
*I *1481:A I *D sky130_fd_sc_hd__clkbuf_1
*CAP
1 S2MID[5] 0.000723345
2 *1481:A 0.000723345
3 *1481:A *1482:A 0.000217929
4 *1481:A *310:42 0.000121242
5 *1481:A *354:26 7.40526e-05
6 *1481:A *362:24 9.91691e-05
7 *1481:A *406:26 0.00024762
8 *1481:A *426:26 2.2351e-05
9 *1481:A *440:12 8.12568e-05
10 *1481:A *461:28 4.41457e-05
11 *1481:A *463:38 0.000121306
12 *1477:A *1481:A 0
13 *1479:A *1481:A 0.000188291
*RES
1 S2MID[5] *1481:A 28.9429 
*END

*D_NET *177 0.00244973
*CONN
*P S2MID[6] I
*I *1482:A I *D sky130_fd_sc_hd__clkbuf_1
*CAP
1 S2MID[6] 0.00053834
2 *1482:A 0.00053834
3 *1482:A *1347:A 1.94945e-05
4 *1482:A *1483:A 0.000323791
5 *1482:A *310:42 0.000119656
6 *1482:A *362:24 9.71526e-05
7 *1482:A *406:26 4.60232e-06
8 *1482:A *426:26 0.00014051
9 *1482:A *440:12 0.000138854
10 *1482:A *441:12 0.000161264
11 *1482:A *463:38 0.000149797
12 *1481:A *1482:A 0.000217929
*RES
1 S2MID[6] *1482:A 27.0857 
*END

*D_NET *178 0.00211273
*CONN
*P S2MID[7] I
*I *1483:A I *D sky130_fd_sc_hd__clkbuf_1
*CAP
1 S2MID[7] 0.000491234
2 *1483:A 0.000491234
3 *1483:A *1347:A 2.11419e-05
4 *1483:A *391:38 0.000395811
5 *1483:A *441:12 0.000155212
6 *1466:A *1483:A 0.000234309
7 *1482:A *1483:A 0.000323791
*RES
1 S2MID[7] *1483:A 25.7286 
*END

*D_NET *179 0.00323002
*CONN
*P S4END[0] I
*I *1484:A I *D sky130_fd_sc_hd__buf_1
*CAP
1 S4END[0] 0.00091834
2 *1484:A 0.00091834
3 *1484:A *1485:A 0.000203004
4 *1484:A *1486:A 6.35448e-05
5 *1484:A *368:26 4.70958e-05
6 *1484:A *430:20 0.000185445
7 *1484:A *454:96 9.41642e-05
8 *1484:A *466:30 4.88638e-05
9 *1474:A *1484:A 0.000722537
10 *159:19 *1484:A 2.86824e-05
*RES
1 S4END[0] *1484:A 40.0143 
*END

*D_NET *180 0.00483896
*CONN
*P S4END[10] I
*I *1402:A I *D sky130_fd_sc_hd__buf_1
*CAP
1 S4END[10] 0.000911988
2 *1402:A 0.000911988
3 *1402:A *1401:A 0.00119166
4 *1402:A *1403:A 0.000117449
5 *1402:A *1505:A 2.89016e-05
6 *1402:A *1506:A 0.000654191
7 *1402:A *261:30 1.38323e-05
8 *1402:A *261:40 7.64678e-05
9 *1402:A *322:42 5.25675e-05
10 *1402:A *354:26 0.000301036
11 *1402:A *367:14 4.4873e-05
12 *1402:A *405:10 8.28647e-05
13 *1402:A *445:24 4.3825e-05
14 *1402:A *461:10 0.000344813
15 *1402:A *462:14 9.20464e-06
16 *1435:A *1402:A 5.33005e-05
*RES
1 S4END[10] *1402:A 48.5143 
*END

*D_NET *181 0.00490393
*CONN
*P S4END[11] I
*I *1401:A I *D sky130_fd_sc_hd__buf_1
*CAP
1 S4END[11] 0.000974598
2 *1401:A 0.000974598
3 *1401:A *1400:A 9.85427e-05
4 *1401:A *1504:A 0.000694244
5 *1401:A *1506:A 4.60232e-06
6 *1401:A *366:22 9.55323e-06
7 *1401:A *367:14 0.000137561
8 *1401:A *405:10 5.05056e-05
9 *1401:A *445:24 0.000180777
10 *1401:A *460:76 0.00017827
11 *1401:A *461:10 0.000344813
12 *1402:A *1401:A 0.00119166
13 *1435:A *1401:A 6.42095e-05
*RES
1 S4END[11] *1401:A 48.0143 
*END

*D_NET *182 0.00716239
*CONN
*P S4END[12] I
*I *1400:A I *D sky130_fd_sc_hd__buf_1
*CAP
1 S4END[12] 0.00141035
2 *1400:A 0.00141035
3 *1400:A *1269:A0 0.000120227
4 *1400:A *1398:A 5.33005e-05
5 *1400:A *1399:A 8.66236e-05
6 *1400:A *1494:A 0
7 *1400:A *1505:A 0.000123228
8 *1400:A *198:21 6.53397e-05
9 *1400:A *199:19 2.06112e-05
10 *1400:A *200:19 0
11 *1400:A *228:24 0.000130893
12 *1400:A *322:42 2.53281e-05
13 *1400:A *322:60 0.000151842
14 *1400:A *333:22 0.000110946
15 *1400:A *349:22 0.00149314
16 *1400:A *362:24 5.52302e-05
17 *1400:A *367:12 0.000262803
18 *1400:A *425:45 0.0004557
19 *1400:A *452:32 1.65046e-05
20 *1400:A *464:10 9.62495e-05
21 *1400:A *464:26 5.29812e-05
22 *1400:A *466:24 2.45832e-05
23 *1400:A *467:10 9.80415e-05
24 *1400:A *475:36 0.000799569
25 *1401:A *1400:A 9.85427e-05
*RES
1 S4END[12] *1400:A 43.2238 
*END

*D_NET *183 0.00562034
*CONN
*P S4END[13] I
*I *1399:A I *D sky130_fd_sc_hd__buf_1
*CAP
1 S4END[13] 0.000819394
2 *1399:A 0.000819394
3 *1399:A *1273:A0 0.000379736
4 *1399:A *1398:A 0.000214865
5 *1399:A *1404:A 9.23883e-05
6 *1399:A *1508:A 0.000720058
7 *1399:A *1509:A 0.000667861
8 *1399:A *322:60 3.97677e-05
9 *1399:A *362:24 4.26807e-05
10 *1399:A *363:20 2.42135e-05
11 *1399:A *367:12 0.000359234
12 *1399:A *453:18 0.000193878
13 *1399:A *453:24 0.000897155
14 *1399:A *461:28 8.25996e-05
15 *1399:A *463:38 0.000180496
16 *1400:A *1399:A 8.66236e-05
*RES
1 S4END[13] *1399:A 48.925 
*END

*D_NET *184 0.00742316
*CONN
*P S4END[14] I
*I *1398:A I *D sky130_fd_sc_hd__buf_1
*CAP
1 S4END[14] 0.0014839
2 *1398:A 0.0014839
3 *1398:A *1263:A2 0.000301438
4 *1398:A *1301:D 3.08382e-06
5 *1398:A *1337:A 0.000150236
6 *1398:A *1338:A 6.52495e-05
7 *1398:A *1404:A 0.000281417
8 *1398:A *1493:A 0
9 *1398:A *185:23 0.000182135
10 *1398:A *333:22 0.000516596
11 *1398:A *362:24 0.000107725
12 *1398:A *429:22 7.50314e-05
13 *1398:A *445:32 1.90936e-05
14 *1398:A *456:32 5.62475e-05
15 *1398:A *463:18 0.00012263
16 *1398:A *466:24 2.04825e-05
17 *1398:A *473:14 0.000109035
18 *1398:A *474:18 4.96884e-05
19 *1398:A *484:40 0.00106198
20 *1398:A *486:28 0.00106512
21 *1399:A *1398:A 0.000214865
22 *1400:A *1398:A 5.33005e-05
*RES
1 S4END[14] *1398:A 45.8252 
*END

*D_NET *185 0.00767938
*CONN
*P S4END[15] I
*I *1397:A I *D sky130_fd_sc_hd__buf_1
*CAP
1 S4END[15] 0.00131414
2 *1397:A 7.19887e-05
3 *185:23 0.00138613
4 *1397:A UserCLKo 0.000307535
5 *1397:A *1617:A 0.000305618
6 *185:23 *1261:A2 8.6229e-06
7 *185:23 *1267:S0 2.22674e-05
8 *185:23 *1386:A 2.40398e-05
9 *185:23 *1493:A 0.00018018
10 *185:23 *266:20 0.000142563
11 *185:23 *293:14 3.97677e-05
12 *185:23 *310:42 0.00148595
13 *185:23 *310:50 5.66471e-06
14 *185:23 *327:16 0
15 *185:23 *361:14 0.000810103
16 *185:23 *460:76 6.057e-07
17 *185:23 *485:34 8.3907e-05
18 FrameStrobe_O[0] *185:23 0.000662319
19 FrameStrobe_O[1] *185:23 0.00051838
20 FrameStrobe_O[2] *185:23 0.000127465
21 *1398:A *185:23 0.000182135
*RES
1 S4END[15] *185:23 49.7857 
2 *185:23 *1397:A 12.3 
*END

*D_NET *186 0.00359635
*CONN
*P S4END[1] I
*I *1485:A I *D sky130_fd_sc_hd__clkbuf_1
*CAP
1 S4END[1] 0.000801805
2 *1485:A 0.000801805
3 *1485:A *1486:A 0.000297347
4 *1485:A *1488:A 0.000356335
5 *1485:A *1489:A 0.000507171
6 *1485:A *293:14 0.000304394
7 *1485:A *368:26 5.25192e-06
8 *1485:A *442:28 0
9 *1485:A *479:30 7.95355e-05
10 *1472:A *1485:A 0.0001399
11 *1474:A *1485:A 9.98007e-05
12 *1484:A *1485:A 0.000203004
*RES
1 S4END[1] *1485:A 42.5679 
*END

*D_NET *187 0.00367992
*CONN
*P S4END[2] I
*I *1486:A I *D sky130_fd_sc_hd__buf_1
*CAP
1 S4END[2] 0.000825875
2 *1486:A 0.000825875
3 *1486:A *1487:A 0.000815777
4 *1486:A *1488:A 0.000620533
5 *1486:A *367:14 0.0001399
6 *1486:A *368:26 1.03483e-05
7 *1486:A *436:42 4.36402e-05
8 *1486:A *444:34 2.06178e-05
9 *1474:A *1486:A 1.64618e-05
10 *1484:A *1486:A 6.35448e-05
11 *1485:A *1486:A 0.000297347
*RES
1 S4END[2] *1486:A 42.6036 
*END

*D_NET *188 0.00247163
*CONN
*P S4END[3] I
*I *1487:A I *D sky130_fd_sc_hd__dlymetal6s2s_1
*CAP
1 S4END[3] 0.00045758
2 *1487:A 0.00045758
3 *1487:A *1488:A 8.13099e-05
4 *1487:A *429:22 5.52238e-05
5 *1487:A *446:14 5.33005e-05
6 *1472:A *1487:A 0.000444689
7 *1474:A *1487:A 0.000106175
8 *1486:A *1487:A 0.000815777
*RES
1 S4END[3] *1487:A 26.2643 
*END

*D_NET *189 0.00401224
*CONN
*P S4END[4] I
*I *1488:A I *D sky130_fd_sc_hd__buf_1
*CAP
1 S4END[4] 0.000860231
2 *1488:A 0.000860231
3 *1488:A *1403:A 9.95912e-06
4 *1488:A *1489:A 0.000198971
5 *1488:A *1622:A 0.000150398
6 *1488:A *368:26 8.08476e-06
7 *1488:A *442:28 0.000181211
8 *1488:A *445:24 9.99853e-05
9 *1488:A *448:34 3.94895e-05
10 *1488:A *454:96 6.35864e-05
11 *1488:A *459:24 0.00034188
12 *1488:A *460:34 0.000140029
13 *1485:A *1488:A 0.000356335
14 *1486:A *1488:A 0.000620533
15 *1487:A *1488:A 8.13099e-05
*RES
1 S4END[4] *1488:A 41.9429 
*END

*D_NET *190 0.00418579
*CONN
*P S4END[5] I
*I *1489:A I *D sky130_fd_sc_hd__buf_1
*CAP
1 S4END[5] 0.000855273
2 *1489:A 0.000855273
3 *1489:A *1490:A 0.000320454
4 *1489:A *343:28 1.26922e-05
5 *1489:A *429:22 0.000477479
6 *1489:A *445:24 5.43317e-05
7 *1489:A *449:12 8.6229e-06
8 *1489:A *454:96 0.000224802
9 *1489:A *460:34 0.000178425
10 *1489:A *468:20 7.31843e-05
11 *1485:A *1489:A 0.000507171
12 *1488:A *1489:A 0.000198971
13 *67:79 *1489:A 0.00041911
*RES
1 S4END[5] *1489:A 44.4964 
*END

*D_NET *191 0.00345235
*CONN
*P S4END[6] I
*I *1490:A I *D sky130_fd_sc_hd__clkbuf_1
*CAP
1 S4END[6] 0.000837279
2 *1490:A 0.000837279
3 *1490:A *1403:A 0.000137222
4 *1490:A *1492:A 0.000171234
5 *1490:A *294:32 4.15526e-05
6 *1490:A *322:42 2.70189e-05
7 *1490:A *333:22 6.07019e-05
8 *1490:A *343:28 6.57104e-05
9 *1490:A *349:22 0.000383349
10 *1490:A *367:12 0
11 *1490:A *449:12 1.8783e-05
12 *1490:A *450:12 0.00026846
13 *1490:A *468:20 7.47122e-05
14 *1490:A *475:36 0.000194791
15 *1489:A *1490:A 0.000320454
16 *67:79 *1490:A 1.3807e-05
*RES
1 S4END[6] *1490:A 36.0292 
*END

*D_NET *192 0.00250775
*CONN
*P S4END[7] I
*I *1492:A I *D sky130_fd_sc_hd__dlymetal6s2s_1
*CAP
1 S4END[7] 0.000587055
2 *1492:A 0.000587055
3 *1492:A *1403:A 0
4 *1492:A *1404:A 0.000207425
5 *1492:A *1622:A 9.85424e-06
6 *1492:A *343:28 0.000411285
7 *1492:A *429:22 0.000135028
8 *1492:A *442:28 0.000245258
9 *1490:A *1492:A 0.000171234
10 *67:79 *1492:A 0.000153551
*RES
1 S4END[7] *1492:A 27.0857 
*END

*D_NET *193 0.00473142
*CONN
*P S4END[8] I
*I *1404:A I *D sky130_fd_sc_hd__buf_1
*CAP
1 S4END[8] 0.000884371
2 *1404:A 0.000884371
3 *1404:A *1254:A1 0.000557004
4 *1404:A *1265:A0 0.000219711
5 *1404:A *1337:A 0.000135028
6 *1404:A *1403:A 0.000215607
7 *1404:A *293:14 0.000241474
8 *1404:A *333:22 0.000473872
9 *1404:A *367:12 6.39167e-05
10 *1404:A *479:30 0.000474832
11 *1398:A *1404:A 0.000281417
12 *1399:A *1404:A 9.23883e-05
13 *1492:A *1404:A 0.000207425
*RES
1 S4END[8] *1404:A 46.5321 
*END

*D_NET *194 0.00376227
*CONN
*P S4END[9] I
*I *1403:A I *D sky130_fd_sc_hd__buf_1
*CAP
1 S4END[9] 0.000816869
2 *1403:A 0.000816869
3 *1403:A *1265:A0 0.000308595
4 *1403:A *1622:A 0.000320813
5 *1403:A *265:18 5.31101e-05
6 *1403:A *322:42 0
7 *1403:A *368:26 0.000250249
8 *1403:A *447:10 1.84018e-05
9 *1403:A *450:12 0.000269978
10 *1403:A *460:34 0.000198599
11 *1403:A *468:20 0.000228545
12 *1402:A *1403:A 0.000117449
13 *1404:A *1403:A 0.000215607
14 *1488:A *1403:A 9.95912e-06
15 *1490:A *1403:A 0.000137222
16 *1492:A *1403:A 0
*RES
1 S4END[9] *1403:A 33.5857 
*END

*D_NET *195 0.00208493
*CONN
*P SS4END[0] I
*I *1493:A I *D sky130_fd_sc_hd__buf_1
*CAP
1 SS4END[0] 0.000589568
2 *1493:A 0.000589568
3 *1493:A *1500:A 0.000244161
4 *1493:A *1501:A 2.58896e-05
5 *1493:A *1509:A 2.75217e-05
6 *1493:A *365:22 0.000235806
7 *1493:A *456:32 0.000117913
8 *1493:A *463:18 7.43179e-05
9 *1398:A *1493:A 0
10 *185:23 *1493:A 0.00018018
*RES
1 SS4END[0] *1493:A 26.3893 
*END

*D_NET *196 0.00474551
*CONN
*P SS4END[10] I
*I *1494:A I *D sky130_fd_sc_hd__buf_1
*CAP
1 SS4END[10] 0.00113841
2 *1494:A 0.00113841
3 *1494:A *1505:A 0.000142163
4 *1494:A *1506:A 6.72205e-05
5 *1494:A *1507:A 1.21289e-05
6 *1494:A *1509:A 0.000112643
7 *1494:A *197:21 0.000139863
8 *1494:A *198:21 1.60269e-05
9 *1494:A *322:60 0.000379437
10 *1494:A *362:24 0.000568872
11 *1494:A *452:22 2.59355e-05
12 *1494:A *466:24 0.000271228
13 FrameStrobe_O[1] *1494:A 0.000493077
14 FrameStrobe_O[3] *1494:A 0.000214173
15 FrameStrobe_O[5] *1494:A 1.98839e-05
16 FrameStrobe_O[7] *1494:A 6.05161e-06
17 *1400:A *1494:A 0
*RES
1 SS4END[10] *1494:A 39.7464 
*END

*D_NET *197 0.00495581
*CONN
*P SS4END[11] I
*I *1495:A I *D sky130_fd_sc_hd__buf_1
*CAP
1 SS4END[11] 0.00108702
2 *1495:A 0
3 *197:21 0.00108702
4 *197:21 *1505:A 7.49615e-05
5 *197:21 *1514:A 0
6 *197:21 *1534:A 8.6229e-06
7 *197:21 *1535:A 0.000167586
8 *197:21 *198:21 0.00013794
9 *197:21 *329:28 0
10 *197:21 *354:26 0.000201636
11 *197:21 *361:14 0.00022827
12 *197:21 *452:22 0.000169951
13 *197:21 *453:18 3.09595e-05
14 *197:21 *456:32 6.2411e-05
15 *197:21 *467:65 5.33005e-05
16 FrameStrobe_O[4] *197:21 1.30438e-05
17 FrameStrobe_O[6] *197:21 0.000869264
18 FrameStrobe_O[7] *197:21 0.000623964
19 *1494:A *197:21 0.000139863
*RES
1 SS4END[11] *197:21 42 
2 *197:21 *1495:A 9.3 
*END

*D_NET *198 0.00608787
*CONN
*P SS4END[12] I
*I *1496:A I *D sky130_fd_sc_hd__buf_1
*CAP
1 SS4END[12] 0.00138114
2 *1496:A 0
3 *198:21 0.00138114
4 *198:21 *1259:S1 2.93759e-05
5 *198:21 *1514:A 0.000254416
6 *198:21 *199:19 0.00181872
7 *198:21 *294:34 0.0001317
8 *198:21 *322:60 8.6229e-06
9 *198:21 *456:32 0.000182149
10 *198:21 *467:65 0.000391277
11 *198:21 *479:36 2.61099e-05
12 FrameStrobe_O[11] *198:21 0.000254689
13 FrameStrobe_O[13] *198:21 9.21418e-06
14 *1400:A *198:21 6.53397e-05
15 *1494:A *198:21 1.60269e-05
16 *197:21 *198:21 0.00013794
*RES
1 SS4END[12] *198:21 48.9821 
2 *198:21 *1496:A 9.3 
*END

*D_NET *199 0.00647687
*CONN
*P SS4END[13] I
*I *1497:A I *D sky130_fd_sc_hd__buf_1
*CAP
1 SS4END[13] 0.00101619
2 *1497:A 0
3 *199:19 0.00101619
4 *199:19 *1259:S1 9.93586e-05
5 *199:19 *1505:A 0.00027621
6 *199:19 *1514:A 8.44271e-06
7 *199:19 *1540:A 0.000167335
8 *199:19 *200:19 9.61096e-05
9 *199:19 *331:18 1.77947e-05
10 *199:19 *467:65 2.14658e-05
11 *199:19 *479:36 0.0014348
12 FrameStrobe_O[13] *199:19 0.000432738
13 FrameStrobe_O[14] *199:19 5.08972e-05
14 *1400:A *199:19 2.06112e-05
15 *198:21 *199:19 0.00181872
*RES
1 SS4END[13] *199:19 46.3929 
2 *199:19 *1497:A 9.3 
*END

*D_NET *200 0.00602425
*CONN
*P SS4END[14] I
*I *1498:A I *D sky130_fd_sc_hd__buf_1
*CAP
1 SS4END[14] 0.00146969
2 *1498:A 0
3 *200:19 0.00146969
4 *200:19 UserCLKo 1.00037e-05
5 *200:19 *1263:A2 0.000166012
6 *200:19 *1301:GATE 0.000119347
7 *200:19 *1499:A 0.000721555
8 *200:19 *1505:A 0.000665222
9 *200:19 *1534:A 0.000122935
10 *200:19 *228:24 1.90936e-05
11 *200:19 *297:48 0.000772257
12 *200:19 *354:18 0.000145421
13 *200:19 *425:45 5.73428e-05
14 *200:19 *452:32 4.75345e-05
15 *200:19 *455:18 0.000121419
16 *200:19 *484:40 2.06112e-05
17 *1400:A *200:19 0
18 *199:19 *200:19 9.61096e-05
*RES
1 SS4END[14] *200:19 44.3571 
2 *200:19 *1498:A 9.3 
*END

*D_NET *201 0.00356922
*CONN
*P SS4END[15] I
*I *1499:A I *D sky130_fd_sc_hd__dlymetal6s2s_1
*CAP
1 SS4END[15] 0.000566065
2 *1499:A 0.000566065
3 *1499:A UserCLKo 0.000157284
4 *1499:A *1522:A 9.71197e-05
5 *1499:A *310:50 5.33005e-05
6 *1499:A *354:18 0.000800077
7 *1499:A *451:64 0.000428566
8 *1499:A *453:18 0.000123959
9 *1499:A *456:32 5.52302e-05
10 *200:19 *1499:A 0.000721555
*RES
1 SS4END[15] *1499:A 32.3893 
*END

*D_NET *202 0.00236598
*CONN
*P SS4END[1] I
*I *1500:A I *D sky130_fd_sc_hd__buf_1
*CAP
1 SS4END[1] 0.000585313
2 *1500:A 0.000585313
3 *1500:A *1501:A 0.000512128
4 *1500:A *1509:A 0.000342022
5 *1500:A *459:24 7.55747e-05
6 *1500:A *460:76 2.14658e-05
7 *1493:A *1500:A 0.000244161
*RES
1 SS4END[1] *1500:A 27.7464 
*END

*D_NET *203 0.00269226
*CONN
*P SS4END[2] I
*I *1501:A I *D sky130_fd_sc_hd__buf_1
*CAP
1 SS4END[2] 0.00063581
2 *1501:A 0.00063581
3 *1501:A *1503:A 0.000313355
4 *1501:A *1509:A 5.25862e-06
5 *1501:A *366:22 0.00021954
6 *1501:A *442:28 4.43126e-05
7 *1501:A *459:24 7.55747e-05
8 *1501:A *460:76 0.000224583
9 *1493:A *1501:A 2.58896e-05
10 *1500:A *1501:A 0.000512128
*RES
1 SS4END[2] *1501:A 29.3 
*END

*D_NET *204 0.00219709
*CONN
*P SS4END[3] I
*I *1503:A I *D sky130_fd_sc_hd__dlymetal6s2s_1
*CAP
1 SS4END[3] 0.000494769
2 *1503:A 0.000494769
3 *1503:A *1504:A 0.000653441
4 *1503:A *366:22 0.000198599
5 *1503:A *442:28 4.21517e-05
6 *1501:A *1503:A 0.000313355
*RES
1 SS4END[3] *1503:A 26.3893 
*END

*D_NET *205 0.00301357
*CONN
*P SS4END[4] I
*I *1504:A I *D sky130_fd_sc_hd__clkbuf_1
*CAP
1 SS4END[4] 0.000601765
2 *1504:A 0.000601765
3 *1504:A *1505:A 0.000102868
4 *1504:A *1506:A 0.000218404
5 *1504:A *1507:A 0.000135028
6 *1504:A *460:76 6.05161e-06
7 *1401:A *1504:A 0.000694244
8 *1503:A *1504:A 0.000653441
*RES
1 SS4END[4] *1504:A 29.55 
*END

*D_NET *206 0.00388561
*CONN
*P SS4END[5] I
*I *1505:A I *D sky130_fd_sc_hd__dlymetal6s2s_1
*CAP
1 SS4END[5] 0.000999234
2 *1505:A 0.000999234
3 *1505:A *1506:A 0.000100571
4 *1505:A *354:26 4.21005e-05
5 *1505:A *425:45 0.000233795
6 *1505:A *466:24 9.71197e-05
7 *1400:A *1505:A 0.000123228
8 *1402:A *1505:A 2.89016e-05
9 *1494:A *1505:A 0.000142163
10 *1504:A *1505:A 0.000102868
11 *197:21 *1505:A 7.49615e-05
12 *199:19 *1505:A 0.00027621
13 *200:19 *1505:A 0.000665222
*RES
1 SS4END[5] *1505:A 46.0857 
*END

*D_NET *207 0.0030248
*CONN
*P SS4END[6] I
*I *1506:A I *D sky130_fd_sc_hd__buf_1
*CAP
1 SS4END[6] 0.000664975
2 *1506:A 0.000664975
3 *1506:A *1507:A 0.00041745
4 *1506:A *261:40 0.000232416
5 *1401:A *1506:A 4.60232e-06
6 *1402:A *1506:A 0.000654191
7 *1494:A *1506:A 6.72205e-05
8 *1504:A *1506:A 0.000218404
9 *1505:A *1506:A 0.000100571
*RES
1 SS4END[6] *1506:A 30.0857 
*END

*D_NET *208 0.0031089
*CONN
*P SS4END[7] I
*I *1507:A I *D sky130_fd_sc_hd__dlymetal6s2s_1
*CAP
1 SS4END[7] 0.000646077
2 *1507:A 0.000646077
3 *1507:A *1508:A 0.000248264
4 *1507:A *261:40 0.000274292
5 *1507:A *453:18 0.0004094
6 *1507:A *462:14 0.000105471
7 *1507:A *464:10 7.48091e-05
8 *1507:A *466:24 0.0001399
9 *1494:A *1507:A 1.21289e-05
10 *1504:A *1507:A 0.000135028
11 *1506:A *1507:A 0.00041745
*RES
1 SS4END[7] *1507:A 31.0857 
*END

*D_NET *209 0.00318982
*CONN
*P SS4END[8] I
*I *1508:A I *D sky130_fd_sc_hd__buf_1
*CAP
1 SS4END[8] 0.000606972
2 *1508:A 0.000606972
3 *1508:A *1509:A 0.000259384
4 *1508:A *451:64 0.000137437
5 *1508:A *453:18 0.000610734
6 *1399:A *1508:A 0.000720058
7 *1507:A *1508:A 0.000248264
*RES
1 SS4END[8] *1508:A 31.175 
*END

*D_NET *210 0.0043706
*CONN
*P SS4END[9] I
*I *1509:A I *D sky130_fd_sc_hd__buf_1
*CAP
1 SS4END[9] 0.000769886
2 *1509:A 0.000769886
3 *1509:A *1265:A2 8.44271e-06
4 *1509:A *294:34 0.000166605
5 *1509:A *322:60 1.21258e-05
6 *1509:A *362:24 0.000355407
7 *1509:A *365:22 0.000528299
8 *1509:A *461:28 0.000345257
9 *1399:A *1509:A 0.000667861
10 *1493:A *1509:A 2.75217e-05
11 *1494:A *1509:A 0.000112643
12 *1500:A *1509:A 0.000342022
13 *1501:A *1509:A 5.25862e-06
14 *1508:A *1509:A 0.000259384
*RES
1 SS4END[9] *1509:A 44.2821 
*END

*D_NET *211 0.0158978
*CONN
*P UserCLK I
*I *1429:A I *D sky130_fd_sc_hd__buf_2
*CAP
1 UserCLK 0.00053564
2 *1429:A 0.000356821
3 *211:9 0.00433364
4 *211:7 0.00451246
5 *1429:A *1271:A1 3.10885e-05
6 *1429:A *1315:D 4.60232e-06
7 *1429:A *364:10 0.000338726
8 *1429:A *464:42 3.09726e-05
9 *211:9 *1519:A 0.000172737
10 *211:9 *379:24 0.000467841
11 *211:9 *393:18 0.000597481
12 *1368:A *1429:A 0
13 *79:9 *211:9 0.00451576
*RES
1 UserCLK *211:7 13.6964 
2 *211:7 *211:9 57.625 
3 *211:9 *1429:A 24.8 
*END

*D_NET *212 0.00537335
*CONN
*P UserCLKo O
*I *1594:X O *D sky130_fd_sc_hd__buf_1
*CAP
1 UserCLKo 0.00088193
2 *1594:X 0.00088193
3 UserCLKo *1261:A2 0.000308699
4 UserCLKo *1261:S0 0.000348207
5 UserCLKo *1301:D 6.47782e-05
6 UserCLKo *1301:GATE 1.11775e-05
7 UserCLKo *1617:A 8.08521e-05
8 UserCLKo *266:20 4.60232e-06
9 UserCLKo *310:50 0.000736198
10 UserCLKo *354:18 0.00114875
11 UserCLKo *457:14 9.66977e-05
12 UserCLKo *460:76 0.000102405
13 UserCLKo *484:40 1.67149e-05
14 UserCLKo *485:34 1.84099e-05
15 FrameStrobe_O[0] UserCLKo 0.00019718
16 *1397:A UserCLKo 0.000307535
17 *1499:A UserCLKo 0.000157284
18 *200:19 UserCLKo 1.00037e-05
*RES
1 *1594:X UserCLKo 40.7464 
*END

*D_NET *213 0.00295861
*CONN
*P VALUE_top0 O
*I *1595:X O *D sky130_fd_sc_hd__buf_2
*CAP
1 VALUE_top0 0.000755874
2 *1595:X 0.000755874
3 VALUE_top0 *1595:A 0
4 VALUE_top0 *414:10 0
5 VALUE_top0 *418:22 0
6 *1436:A VALUE_top0 0.000482948
7 *1439:A VALUE_top0 0.000536849
8 *1447:A VALUE_top0 1.01912e-05
9 *1454:A VALUE_top0 9.2376e-05
10 *1459:A VALUE_top0 0.000137834
11 *1461:A VALUE_top0 0.000186669
*RES
1 *1595:X VALUE_top0 32.9607 
*END

*D_NET *214 0.00206398
*CONN
*P VALUE_top1 O
*I *1596:X O *D sky130_fd_sc_hd__buf_2
*CAP
1 VALUE_top1 0.000973255
2 *1596:X 0.000973255
3 VALUE_top1 *1595:A 0
4 VALUE_top1 *415:14 9.91549e-05
5 *1436:A VALUE_top1 1.83136e-05
*RES
1 *1596:X VALUE_top1 28.9607 
*END

*D_NET *215 0.0016923
*CONN
*P VALUE_top2 O
*I *1597:X O *D sky130_fd_sc_hd__buf_2
*CAP
1 VALUE_top2 0.000730907
2 *1597:X 0.000730907
3 VALUE_top2 *314:12 0
4 VALUE_top2 *415:14 0.000230482
*RES
1 *1597:X VALUE_top2 26.7464 
*END

*D_NET *216 0.00132558
*CONN
*P VALUE_top3 O
*I *1598:X O *D sky130_fd_sc_hd__buf_2
*CAP
1 VALUE_top3 0.00061327
2 *1598:X 0.00061327
3 VALUE_top3 *1597:A 0
4 VALUE_top3 *415:14 9.90431e-05
5 VALUE_top3 *419:12 0
*RES
1 *1598:X VALUE_top3 24.8536 
*END

*D_NET *217 0.00133207
*CONN
*P VALUE_top4 O
*I *1599:X O *D sky130_fd_sc_hd__buf_2
*CAP
1 VALUE_top4 0.000616511
2 *1599:X 0.000616511
3 VALUE_top4 *1599:A 0
4 VALUE_top4 *415:14 9.90431e-05
*RES
1 *1599:X VALUE_top4 24.8536 
*END

*D_NET *218 0.00134039
*CONN
*P VALUE_top5 O
*I *1600:X O *D sky130_fd_sc_hd__buf_2
*CAP
1 VALUE_top5 0.000620672
2 *1600:X 0.000620672
3 VALUE_top5 *1551:A 0
4 VALUE_top5 *1599:A 0
5 VALUE_top5 *353:26 0
6 VALUE_top5 *415:14 9.90431e-05
*RES
1 *1600:X VALUE_top5 24.8536 
*END

*D_NET *219 0.00137013
*CONN
*P VALUE_top6 O
*I *1601:X O *D sky130_fd_sc_hd__buf_2
*CAP
1 VALUE_top6 0.000635684
2 *1601:X 0.000635684
3 VALUE_top6 *1551:A 0
4 VALUE_top6 *397:16 0
5 VALUE_top6 *415:14 9.87672e-05
*RES
1 *1601:X VALUE_top6 24.8536 
*END

*D_NET *220 0.00141826
*CONN
*P VALUE_top7 O
*I *1602:X O *D sky130_fd_sc_hd__buf_2
*CAP
1 VALUE_top7 0.000660114
2 *1602:X 0.000660114
3 VALUE_top7 *415:14 9.80289e-05
*RES
1 *1602:X VALUE_top7 24.8536 
*END

*D_NET *223 0.00552813
*CONN
*I *1265:S1 I *D sky130_fd_sc_hd__mux4_1
*I *1293:Q O *D sky130_fd_sc_hd__dlxtp_1
*CAP
1 *1265:S1 0.000679785
2 *1293:Q 0.000899257
3 *223:16 0.00157904
4 *1265:S1 *1258:A3 9.22976e-06
5 *1265:S1 *1312:GATE 0.000139056
6 *1265:S1 *1414:A 9.78828e-05
7 *1265:S1 *269:22 0.000662523
8 *1265:S1 *405:10 0.000187234
9 *1265:S1 *445:42 0.000511438
10 *1265:S1 *445:68 1.67506e-05
11 *1265:S1 *451:16 0.00044723
12 *223:16 *1258:A2 2.64807e-05
13 *223:16 *1258:S0 4.34749e-05
14 *223:16 *1258:S1 3.56584e-05
15 *223:16 *1265:S0 8.39471e-05
16 *223:16 *1271:A1 0
17 *223:16 *1273:A0 2.67601e-05
18 *223:16 *276:24 4.31591e-05
19 *223:16 *464:42 3.67123e-05
20 *1368:A *223:16 2.51343e-06
*RES
1 *1293:Q *223:16 34.1036 
2 *223:16 *1265:S1 30.3179 
*END

*D_NET *224 0.00424005
*CONN
*I *1265:S0 I *D sky130_fd_sc_hd__mux4_1
*I *1294:Q O *D sky130_fd_sc_hd__dlxtp_1
*CAP
1 *1265:S0 0.000956985
2 *1294:Q 0.000956985
3 *1265:S0 *1258:S1 0.000263714
4 *1265:S0 *1271:A1 1.74352e-05
5 *1265:S0 *1273:A0 9.00272e-05
6 *1265:S0 *1306:D 0.000139204
7 *1265:S0 *238:18 9.49984e-05
8 *1265:S0 *276:24 1.97756e-05
9 *1265:S0 *389:12 0.000138881
10 *1265:S0 *464:26 0.000309266
11 *1265:S0 *467:38 0.000697334
12 *1265:S0 *478:32 0.000471494
13 *223:16 *1265:S0 8.39471e-05
*RES
1 *1294:Q *1265:S0 48.8679 
*END

*D_NET *225 0.00352294
*CONN
*I *1260:S0 I *D sky130_fd_sc_hd__mux4_1
*I *1303:Q O *D sky130_fd_sc_hd__dlxtp_1
*CAP
1 *1260:S0 0.000874639
2 *1303:Q 0.000874639
3 *1260:S0 *1260:A2 2.3541e-05
4 *1260:S0 *1260:S1 1.33251e-05
5 *1260:S0 *1268:S0 0.000428445
6 *1260:S0 *1288:D 0
7 *1260:S0 *1288:GATE 5.88326e-05
8 *1260:S0 *1328:A 6.05626e-05
9 *1260:S0 *1342:A 0.000327116
10 *1260:S0 *300:10 7.44888e-05
11 *1260:S0 *374:20 0.00025974
12 *1260:S0 *403:86 5.49489e-05
13 *1260:S0 *409:45 8.29126e-05
14 *1260:S0 *426:26 8.72897e-05
15 *1260:S0 *476:41 1.90936e-05
16 *1260:S0 *483:36 0.000283369
*RES
1 *1303:Q *1260:S0 46.0821 
*END

*D_NET *226 0.00381464
*CONN
*I *1260:S1 I *D sky130_fd_sc_hd__mux4_1
*I *1304:Q O *D sky130_fd_sc_hd__dlxtp_1
*CAP
1 *1260:S1 0.00111417
2 *1304:Q 0.00111417
3 *1260:S1 *1252:S1 0.000136024
4 *1260:S1 *1280:D 0.000254712
5 *1260:S1 *1304:GATE 5.80467e-05
6 *1260:S1 *1319:D 3.08382e-06
7 *1260:S1 *1335:A 6.81786e-05
8 *1260:S1 *1355:A 0.000438284
9 *1260:S1 *292:43 2.06178e-05
10 *1260:S1 *303:51 0.000134673
11 *1260:S1 *400:61 0.000302597
12 *1260:S1 *426:26 5.90357e-05
13 *1260:S1 *435:18 9.77159e-05
14 *1260:S0 *1260:S1 1.33251e-05
*RES
1 *1304:Q *1260:S1 47.7786 
*END

*D_NET *227 0.00743849
*CONN
*I *1259:S0 I *D sky130_fd_sc_hd__mux4_1
*I *1305:Q O *D sky130_fd_sc_hd__dlxtp_1
*CAP
1 *1259:S0 0.000275559
2 *1305:Q 0.00112915
3 *227:14 0.00140471
4 *1259:S0 *1396:A 1.08192e-05
5 *1259:S0 *1531:A 0.000660169
6 *1259:S0 *470:28 0.000750143
7 *227:14 *1316:GATE 0.000220024
8 *227:14 *1394:A 0.000314729
9 *227:14 *1396:A 0.000294816
10 *227:14 *238:18 0.000682557
11 *227:14 *239:26 5.38242e-05
12 *227:14 *306:34 0.000768659
13 *227:14 *327:16 0.000121027
14 *227:14 *353:16 0.00043187
15 *227:14 *473:22 0.000320437
*RES
1 *1305:Q *227:14 46.4786 
2 *227:14 *1259:S0 28.1393 
*END

*D_NET *228 0.00987916
*CONN
*I *1259:S1 I *D sky130_fd_sc_hd__mux4_1
*I *1306:Q O *D sky130_fd_sc_hd__dlxtp_1
*CAP
1 *1259:S1 0.00128541
2 *1306:Q 0.00101874
3 *228:24 0.00230415
4 *1259:S1 *1259:A2 3.47641e-06
5 *1259:S1 *1259:A3 0.000102483
6 *1259:S1 *1386:A 9.41642e-05
7 *1259:S1 *1388:A 5.52302e-05
8 *1259:S1 *1396:A 4.19624e-06
9 *1259:S1 *1532:A 6.47471e-05
10 *1259:S1 *296:26 0.000823828
11 *1259:S1 *442:90 7.37829e-05
12 *1259:S1 *452:22 0.000225808
13 *1259:S1 *455:18 0.000221219
14 *1259:S1 *456:32 0.000394042
15 *1259:S1 *467:65 0.000214519
16 *1259:S1 *486:28 0.000296256
17 *228:24 *1263:A2 1.74909e-05
18 *228:24 *296:26 0.000205494
19 *228:24 *351:16 0.000186456
20 *228:24 *354:18 1.90936e-05
21 *228:24 *447:47 0.000210961
22 *228:24 *452:22 0.000143833
23 *228:24 *452:32 0.000531565
24 *228:24 *464:26 0.000898034
25 *228:24 *484:40 0.00020546
26 *1400:A *228:24 0.000130893
27 *198:21 *1259:S1 2.93759e-05
28 *199:19 *1259:S1 9.93586e-05
29 *200:19 *228:24 1.90936e-05
*RES
1 *1306:Q *228:24 45.0624 
2 *228:24 *1259:S1 44.6071 
*END

*D_NET *229 0.00393899
*CONN
*I *1258:S0 I *D sky130_fd_sc_hd__mux4_2
*I *1307:Q O *D sky130_fd_sc_hd__dlxtp_1
*CAP
1 *1258:S0 0.00126038
2 *1307:Q 0.00126038
3 *1258:S0 *1261:S0 9.82379e-05
4 *1258:S0 *1301:D 1.90936e-05
5 *1258:S0 *1301:GATE 2.95495e-05
6 *1258:S0 *1307:D 0.000201238
7 *1258:S0 *1308:GATE 3.64858e-05
8 *1258:S0 *266:20 0.000140041
9 *1258:S0 *314:36 4.60513e-05
10 *1258:S0 *404:128 0.000160572
11 *500:DIODE *1258:S0 0
12 *1363:A *1258:S0 0.000325587
13 *1368:A *1258:S0 0.000309273
14 *82:23 *1258:S0 8.6229e-06
15 *223:16 *1258:S0 4.34749e-05
*RES
1 *1307:Q *1258:S0 39.5589 
*END

*D_NET *230 0.00359905
*CONN
*I *1258:S1 I *D sky130_fd_sc_hd__mux4_2
*I *1308:Q O *D sky130_fd_sc_hd__dlxtp_1
*CAP
1 *1258:S1 0.000944395
2 *1308:Q 0.000944395
3 *1258:S1 *1258:A2 6.24939e-05
4 *1258:S1 *1258:A3 0.000382138
5 *1258:S1 *1263:S1 0.000339092
6 *1258:S1 *1308:D 0.00017224
7 *1258:S1 *238:18 9.49984e-05
8 *1258:S1 *258:18 0.000242642
9 *1258:S1 *405:12 9.90819e-06
10 *1258:S1 *478:32 0.000107382
11 *1265:S0 *1258:S1 0.000263714
12 *223:16 *1258:S1 3.56584e-05
*RES
1 *1308:Q *1258:S1 45.85 
*END

*D_NET *231 0.00512302
*CONN
*I *1257:S0 I *D sky130_fd_sc_hd__mux4_1
*I *1309:Q O *D sky130_fd_sc_hd__dlxtp_1
*CAP
1 *1257:S0 0
2 *1309:Q 0.00137506
3 *231:22 0.00137506
4 *231:22 *1299:D 1.09115e-05
5 *231:22 *1300:GATE 0.000290054
6 *231:22 *1339:A 5.33433e-05
7 *231:22 *1345:A 2.84109e-05
8 *231:22 *1380:A 0.000357287
9 *231:22 *246:26 0.00034319
10 *231:22 *336:57 2.56694e-05
11 *231:22 *375:16 0.000219289
12 *231:22 *380:26 0
13 *231:22 *382:32 0.000212765
14 *231:22 *402:20 5.85405e-05
15 *231:22 *402:49 0.000173643
16 *231:22 *402:53 0.000206233
17 *231:22 *403:10 0.000183477
18 *231:22 *448:52 7.3101e-05
19 *231:22 *448:70 8.01839e-05
20 *231:22 *475:36 2.84026e-05
21 *1433:A *231:22 2.84026e-05
*RES
1 *1309:Q *231:22 44.175 
2 *231:22 *1257:S0 9.3 
*END

*D_NET *232 0.00421652
*CONN
*I *1257:S1 I *D sky130_fd_sc_hd__mux4_1
*I *1310:Q O *D sky130_fd_sc_hd__dlxtp_1
*CAP
1 *1257:S1 0.00132184
2 *1310:Q 0.00132184
3 *1257:S1 *1313:GATE 4.10926e-05
4 *1257:S1 *1318:GATE 2.59355e-05
5 *1257:S1 *1593:A 5.33005e-05
6 *1257:S1 *241:20 0.000221822
7 *1257:S1 *360:28 9.66977e-05
8 *1257:S1 *380:26 0.000632912
9 *1257:S1 *380:45 3.63775e-05
10 *1257:S1 *384:14 0.00023031
11 *1257:S1 *448:70 0.000234401
*RES
1 *1310:Q *1257:S1 45.6714 
*END

*D_NET *233 0.00574488
*CONN
*I *1256:S0 I *D sky130_fd_sc_hd__mux4_1
*I *1311:Q O *D sky130_fd_sc_hd__dlxtp_1
*CAP
1 *1256:S0 0
2 *1311:Q 0.00174925
3 *233:24 0.00174925
4 *233:24 *1256:A0 2.59355e-05
5 *233:24 *1273:A2 1.73191e-05
6 *233:24 *1289:D 0.000261055
7 *233:24 *1289:GATE 0
8 *233:24 *1428:A 0.000265554
9 *233:24 *234:20 0.00048787
10 *233:24 *258:18 6.23766e-05
11 *233:24 *265:18 0.000630008
12 *233:24 *379:24 0.000369525
13 *233:24 *401:28 0.000126732
14 *233:24 *436:60 0
*RES
1 *1311:Q *233:24 47.55 
2 *233:24 *1256:S0 9.3 
*END

*D_NET *234 0.0084158
*CONN
*I *1256:S1 I *D sky130_fd_sc_hd__mux4_1
*I *1312:Q O *D sky130_fd_sc_hd__dlxtp_1
*CAP
1 *1256:S1 0.000906241
2 *1312:Q 0.00106335
3 *234:20 0.00196959
4 *1256:S1 *1256:A1 0.000112835
5 *1256:S1 *1256:A3 0.000104976
6 *1256:S1 *1285:D 4.43299e-05
7 *1256:S1 *1289:D 2.30043e-05
8 *1256:S1 *1356:A 0.000144042
9 *1256:S1 *299:34 3.91702e-05
10 *1256:S1 *344:14 0.000788063
11 *1256:S1 *444:34 1.90936e-05
12 *1256:S1 *460:34 0.000125648
13 *1256:S1 *472:32 0.000132809
14 *234:20 *1252:A2 0.00074611
15 *234:20 *1273:A2 3.06466e-05
16 *234:20 *1286:D 3.69047e-06
17 *234:20 *1308:D 8.40933e-05
18 *234:20 *265:18 1.82896e-05
19 *234:20 *266:20 8.64088e-05
20 *234:20 *292:84 0.00014443
21 *234:20 *306:20 0.000397502
22 *234:20 *427:61 0.000306068
23 *234:20 *449:12 0.000460938
24 *234:20 *449:14 0.000176614
25 *233:24 *234:20 0.00048787
*RES
1 *1312:Q *234:20 45.8714 
2 *234:20 *1256:S1 38.1571 
*END

*D_NET *235 0.00349249
*CONN
*I *1264:S1 I *D sky130_fd_sc_hd__mux4_1
*I *1295:Q O *D sky130_fd_sc_hd__dlxtp_1
*CAP
1 *1264:S1 0.000678204
2 *1295:Q 0.000678204
3 *1264:S1 *1253:A2 0.00012116
4 *1264:S1 *1272:A3 2.11419e-05
5 *1264:S1 *1272:S0 5.62126e-05
6 *1264:S1 *1300:GATE 0.000365658
7 *1264:S1 *1380:A 7.09161e-05
8 *1264:S1 *358:40 0
9 *1264:S1 *402:49 0.000182266
10 *1264:S1 *402:53 0.000402733
11 *1264:S1 *409:45 2.17647e-05
12 *1264:S1 *424:26 0.000672101
13 *1264:S1 *459:83 0.000222125
*RES
1 *1295:Q *1264:S1 44.6536 
*END

*D_NET *236 0.000790848
*CONN
*I *1255:S0 I *D sky130_fd_sc_hd__mux4_1
*I *1313:Q O *D sky130_fd_sc_hd__dlxtp_1
*CAP
1 *1255:S0 0.000181622
2 *1313:Q 0.000181622
3 *1255:S0 *1276:D 0.000115338
4 *1255:S0 *360:28 2.06178e-05
5 *1255:S0 *413:26 1.72894e-05
6 *1430:A *1255:S0 0.00027436
*RES
1 *1313:Q *1255:S0 31.9036 
*END

*D_NET *237 0.00125608
*CONN
*I *1255:S1 I *D sky130_fd_sc_hd__mux4_1
*I *1314:Q O *D sky130_fd_sc_hd__dlxtp_1
*CAP
1 *1255:S1 0.000320306
2 *1314:Q 0.000320306
3 *1255:S1 *1255:A2 2.79421e-05
4 *1255:S1 *1314:GATE 0.000294526
5 *1255:S1 *348:12 0.000293002
*RES
1 *1314:Q *1255:S1 33.4393 
*END

*D_NET *238 0.00745428
*CONN
*I *1254:S0 I *D sky130_fd_sc_hd__mux4_1
*I *1315:Q O *D sky130_fd_sc_hd__dlxtp_1
*CAP
1 *1254:S0 0.00039805
2 *1315:Q 0.00167553
3 *238:18 0.00207358
4 *1254:S0 *1254:A3 0.000597147
5 *1254:S0 *1305:D 8.15376e-05
6 *1254:S0 *1305:GATE 6.86792e-05
7 *1254:S0 *1406:A 0.000304587
8 *1254:S0 *239:26 4.47945e-05
9 *1254:S0 *306:34 0.000342302
10 *1254:S0 *474:18 0.000306921
11 *238:18 *1271:A3 0.000118537
12 *238:18 *1329:A 4.16984e-05
13 *238:18 *1388:A 0.000185002
14 *238:18 *404:143 5.3231e-05
15 *238:18 *405:36 0.000142383
16 *238:18 *405:49 7.49387e-06
17 *238:18 *467:38 9.60939e-05
18 *238:18 *473:14 2.88018e-06
19 *238:18 *473:22 4.12893e-05
20 *1258:S1 *238:18 9.49984e-05
21 *1265:S0 *238:18 9.49984e-05
22 *227:14 *238:18 0.000682557
*RES
1 *1315:Q *238:18 49.8 
2 *238:18 *1254:S0 20.5143 
*END

*D_NET *239 0.0053803
*CONN
*I *1254:S1 I *D sky130_fd_sc_hd__mux4_1
*I *1316:Q O *D sky130_fd_sc_hd__dlxtp_1
*CAP
1 *1254:S1 0
2 *1316:Q 0.00181217
3 *239:26 0.00181217
4 *239:26 *1254:A2 7.24874e-05
5 *239:26 *1254:A3 3.25659e-05
6 *239:26 *1305:D 0.000453549
7 *239:26 *1394:A 0.000478632
8 *239:26 *1406:A 0.000133001
9 *239:26 *306:20 2.69575e-05
10 *239:26 *306:30 0.000224583
11 *239:26 *306:34 7.99636e-05
12 *239:26 *351:16 5.33005e-05
13 *239:26 *371:28 9.41642e-05
14 *239:26 *404:55 8.1341e-06
15 *1254:S0 *239:26 4.47945e-05
16 *227:14 *239:26 5.38242e-05
*RES
1 *1316:Q *239:26 45.4786 
2 *239:26 *1254:S1 9.3 
*END

*D_NET *240 0.00213248
*CONN
*I *1253:S0 I *D sky130_fd_sc_hd__mux4_1
*I *1317:Q O *D sky130_fd_sc_hd__dlxtp_1
*CAP
1 *1253:S0 0.000722818
2 *1317:Q 0.000722818
3 *1253:S0 *1253:A2 0.00030417
4 *1253:S0 *1253:A3 7.87978e-05
5 *1253:S0 *1272:A0 8.49085e-06
6 *1253:S0 *1272:S0 0.000104433
7 *1253:S0 *1277:GATE 0
8 *1253:S0 *1296:GATE 4.96113e-05
9 *1253:S0 *1331:A 9.66977e-05
10 *1253:S0 *400:53 4.46426e-05
11 *1253:S0 *420:30 0
12 *1253:S0 *444:64 0
13 *1253:S0 *463:58 0
*RES
1 *1317:Q *1253:S0 40.0286 
*END

*D_NET *241 0.00393792
*CONN
*I *1253:S1 I *D sky130_fd_sc_hd__mux4_1
*I *1318:Q O *D sky130_fd_sc_hd__dlxtp_1
*CAP
1 *1253:S1 0
2 *1318:Q 0.000950845
3 *241:20 0.000950845
4 *241:20 *1253:A0 0.000872816
5 *241:20 *1253:A1 0.000304931
6 *241:20 *1253:A2 3.81798e-05
7 *241:20 *1253:A3 9.06387e-05
8 *241:20 *1277:GATE 4.88515e-05
9 *241:20 *1380:A 2.69575e-05
10 *241:20 *1422:A 0.00012465
11 *241:20 *380:26 0.000221822
12 *241:20 *459:83 8.55586e-05
13 *1257:S1 *241:20 0.000221822
*RES
1 *1318:Q *241:20 47.2286 
2 *241:20 *1253:S1 9.3 
*END

*D_NET *242 0.00262212
*CONN
*I *1252:S0 I *D sky130_fd_sc_hd__mux4_1
*I *1319:Q O *D sky130_fd_sc_hd__dlxtp_1
*CAP
1 *1252:S0 0.000766008
2 *1319:Q 0.000766008
3 *1252:S0 *1252:A1 0.000263051
4 *1252:S0 *1252:S1 2.54558e-06
5 *1252:S0 *1303:GATE 0.000250376
6 *1252:S0 *1319:D 8.43535e-06
7 *1252:S0 *1335:A 9.66977e-05
8 *1252:S0 *1390:A 0.000385277
9 *1252:S0 *399:26 7.50942e-05
10 *1252:S0 *464:42 8.6229e-06
*RES
1 *1319:Q *1252:S0 39.7786 
*END

*D_NET *243 0.00371859
*CONN
*I *1252:S1 I *D sky130_fd_sc_hd__mux4_1
*I *1320:Q O *D sky130_fd_sc_hd__dlxtp_1
*CAP
1 *1252:S1 0.0012795
2 *1320:Q 0.0012795
3 *1252:S1 *1252:A1 1.03037e-05
4 *1252:S1 *1254:A0 2.64262e-06
5 *1252:S1 *1319:D 0.000307897
6 *1252:S1 *1319:GATE 2.83324e-05
7 *1252:S1 *1320:D 2.95944e-05
8 *1252:S1 *1335:A 9.35114e-06
9 *1252:S1 *1356:A 0.00030122
10 *1252:S1 *309:26 0.000136682
11 *1252:S1 *472:32 0.000194994
12 *1252:S0 *1252:S1 2.54558e-06
13 *1260:S1 *1252:S1 0.000136024
*RES
1 *1320:Q *1252:S1 45.35 
*END

*D_NET *244 0.00325415
*CONN
*I *1251:S0 I *D sky130_fd_sc_hd__mux4_1
*I *1321:Q O *D sky130_fd_sc_hd__dlxtp_1
*CAP
1 *1251:S0 0.000593174
2 *1321:Q 0.000593174
3 *1251:S0 *1270:A0 0.000305039
4 *1251:S0 *1274:S0 0.000560731
5 *1251:S0 *1383:A 0.000136951
6 *1251:S0 *247:43 0.000259823
7 *1251:S0 *335:14 0.0001413
8 *1251:S0 *336:20 0.000424029
9 *1251:S0 *336:57 7.50658e-05
10 *1251:S0 *339:16 9.60939e-05
11 *1251:S0 *355:14 6.877e-05
*RES
1 *1321:Q *1251:S0 42.4393 
*END

*D_NET *245 0.00362205
*CONN
*I *1251:S1 I *D sky130_fd_sc_hd__mux4_1
*I *1322:Q O *D sky130_fd_sc_hd__dlxtp_1
*CAP
1 *1251:S1 0
2 *1322:Q 0.00114396
3 *245:24 0.00114396
4 *245:24 *1251:A2 3.34832e-05
5 *245:24 *1255:A2 0.00014124
6 *245:24 *1292:GATE 3.2416e-05
7 *245:24 *1427:A 3.97677e-05
8 *245:24 *1578:A 7.83659e-05
9 *245:24 *255:26 6.0038e-05
10 *245:24 *325:22 0.000135028
11 *245:24 *348:12 1.68315e-05
12 *245:24 *408:24 5.18176e-05
13 *245:24 *408:44 0
14 *245:24 *410:14 2.26973e-05
15 *245:24 *424:32 0.000463867
16 *1430:A *245:24 0.000258587
*RES
1 *1322:Q *245:24 43.8 
2 *245:24 *1251:S1 9.3 
*END

*D_NET *246 0.00355181
*CONN
*I *1264:S0 I *D sky130_fd_sc_hd__mux4_1
*I *1296:Q O *D sky130_fd_sc_hd__dlxtp_1
*CAP
1 *1264:S0 0
2 *1296:Q 0.000766601
3 *246:26 0.000766601
4 *246:26 *1253:A0 6.62312e-05
5 *246:26 *1253:A1 0.000606879
6 *246:26 *1257:A1 0.00017754
7 *246:26 *1279:D 0.000109401
8 *246:26 *1331:A 9.58181e-05
9 *246:26 *1422:A 0.000181146
10 *246:26 *303:24 9.58126e-05
11 *246:26 *310:30 7.51735e-05
12 *246:26 *403:10 4.54227e-05
13 *246:26 *403:26 4.13097e-05
14 *246:26 *430:28 5.96516e-05
15 *246:26 *463:56 8.49829e-05
16 Co *246:26 3.60513e-05
17 *231:22 *246:26 0.00034319
*RES
1 *1296:Q *246:26 44.8536 
2 *246:26 *1264:S0 9.3 
*END

*D_NET *247 0.010081
*CONN
*I *1250:A1 I *D sky130_fd_sc_hd__a22o_1
*I *1249:A I *D sky130_fd_sc_hd__nor2_1
*I *1323:Q O *D sky130_fd_sc_hd__dlxtp_1
*CAP
1 *1250:A1 0
2 *1249:A 0.00115439
3 *1323:Q 0
4 *247:43 0.00123075
5 *247:4 0.00238514
6 *1249:A *1249:B 9.54798e-06
7 *1249:A *1556:A 3.91115e-05
8 *1249:A *325:22 0.00072717
9 *1249:A *340:38 0.000678145
10 *1249:A *345:16 0.000110718
11 *1249:A *346:18 0.000317207
12 *1249:A *369:16 2.28188e-05
13 *1249:A *373:20 0
14 *1249:A *381:16 1.496e-05
15 *1249:A *383:20 4.42332e-05
16 *1249:A *446:62 0
17 *1249:A *453:60 0.00072977
18 *247:43 *1250:B1 0.000529789
19 *247:43 *1262:A2 9.5592e-05
20 *247:43 *1274:S0 9.89915e-05
21 *247:43 *1277:D 0
22 *247:43 *1377:A 0.000350046
23 *247:43 *1423:A 0
24 *247:43 *248:18 6.8646e-06
25 *247:43 *292:16 7.46506e-05
26 *247:43 *325:22 4.08637e-05
27 *247:43 *338:30 3.37219e-05
28 *247:43 *355:14 0.00063398
29 *247:43 *392:16 0
30 *247:43 *454:14 0.00020546
31 *247:43 *458:40 0.000140341
32 *247:43 *461:78 8.40344e-05
33 *247:43 *466:66 0
34 N2BEGb[3] *1249:A 6.28948e-05
35 *1251:S0 *247:43 0.000259823
*RES
1 *1323:Q *247:4 9.3 
2 *247:4 *1249:A 40.6594 
3 *247:4 *247:43 40.9767 
4 *247:43 *1250:A1 9.3 
*END

*D_NET *248 0.00868696
*CONN
*I *1248:B I *D sky130_fd_sc_hd__or2_1
*I *1249:B I *D sky130_fd_sc_hd__nor2_1
*I *1324:Q O *D sky130_fd_sc_hd__dlxtp_1
*CAP
1 *1248:B 0.000343289
2 *1249:B 0.00120444
3 *1324:Q 0.000863636
4 *248:18 0.00241136
5 *1248:B *1262:A3 1.21258e-05
6 *1248:B *1556:A 5.20359e-06
7 *1248:B *422:18 5.04841e-06
8 *1248:B *428:22 7.48091e-05
9 *1248:B *446:28 3.14163e-05
10 *1248:B *446:30 1.39726e-05
11 *1249:B *1262:A2 1.03449e-05
12 *1249:B *1262:A3 6.68086e-05
13 *1249:B *1556:A 3.5488e-05
14 *1249:B *1557:A 5.33005e-05
15 *1249:B *1559:A 5.07619e-05
16 *1249:B *1565:A 0.000312178
17 *1249:B *290:12 1.90936e-05
18 *1249:B *338:30 0.000107093
19 *1249:B *341:16 5.33005e-05
20 *1249:B *344:30 3.84112e-05
21 *1249:B *345:16 3.64915e-05
22 *1249:B *358:20 0.000380737
23 *1249:B *383:20 8.40344e-05
24 *1249:B *465:20 0.000131884
25 *248:18 *1274:A1 4.46618e-05
26 *248:18 *1277:D 4.09375e-05
27 *248:18 *1291:D 0.000159576
28 *248:18 *1323:D 0.000132945
29 *248:18 *1377:A 6.25005e-05
30 *248:18 *1427:A 8.91661e-05
31 *248:18 *255:26 2.44318e-05
32 *248:18 *334:16 5.23997e-05
33 *248:18 *355:14 0.00020293
34 *248:18 *400:10 0.000426837
35 *248:18 *400:12 3.8022e-05
36 *248:18 *400:22 5.74472e-05
37 *248:18 *411:18 0.000109469
38 *248:18 *424:32 4.39995e-05
39 *248:18 *441:22 0.00025348
40 *248:18 *453:42 6.71874e-05
41 *248:18 *453:60 6.30931e-05
42 N2BEGb[1] *1249:B 0.000264333
43 N2BEGb[3] *1249:B 9.60875e-05
44 N2BEGb[5] *1249:B 9.58181e-05
45 *1249:A *1249:B 9.54798e-06
46 *247:43 *248:18 6.8646e-06
*RES
1 *1324:Q *248:18 36.6571 
2 *248:18 *1249:B 43.19 
3 *248:18 *1248:B 13.55 
*END

*D_NET *249 0.00192702
*CONN
*I *1263:S1 I *D sky130_fd_sc_hd__mux4_1
*I *1297:Q O *D sky130_fd_sc_hd__dlxtp_1
*CAP
1 *1263:S1 0.000344281
2 *1297:Q 0.000344281
3 *1263:S1 *1265:A3 6.47471e-05
4 *1263:S1 *1329:A 4.58194e-05
5 *1263:S1 *301:34 9.87828e-05
6 *1263:S1 *405:10 0.000492439
7 *1263:S1 *405:12 7.64818e-05
8 *1263:S1 *467:38 9.58181e-05
9 *1263:S1 *478:32 2.52782e-05
10 *1258:S1 *1263:S1 0.000339092
*RES
1 *1297:Q *1263:S1 36.2607 
*END

*D_NET *250 0.00355887
*CONN
*I *1263:S0 I *D sky130_fd_sc_hd__mux4_1
*I *1298:Q O *D sky130_fd_sc_hd__dlxtp_1
*CAP
1 *1263:S0 0.000649303
2 *1298:Q 0.000649303
3 *1263:S0 *1258:A0 0.000135114
4 *1263:S0 *1271:A1 0.00010887
5 *1263:S0 *1306:D 0.000384796
6 *1263:S0 *1418:A 0.000117158
7 *1263:S0 *1616:A 0.000135743
8 *1263:S0 *261:30 0.000132945
9 *1263:S0 *282:24 6.01607e-05
10 *1263:S0 *364:10 0.00010887
11 *1263:S0 *457:26 0.000399025
12 *1263:S0 *477:26 0.000609355
13 *1263:S0 *486:28 6.82287e-05
*RES
1 *1298:Q *1263:S0 46.672 
*END

*D_NET *251 0.00430598
*CONN
*I *1262:S0 I *D sky130_fd_sc_hd__mux4_1
*I *1299:Q O *D sky130_fd_sc_hd__dlxtp_1
*CAP
1 *1262:S0 0.000753366
2 *1299:Q 0.000753366
3 *1262:S0 *1255:A0 1.02504e-05
4 *1262:S0 *1321:D 6.57032e-05
5 *1262:S0 *1585:A 0.000256736
6 *1262:S0 *340:38 0.000980361
7 *1262:S0 *347:38 9.85083e-05
8 *1262:S0 *355:14 0.000152471
9 *1262:S0 *407:16 2.59099e-05
10 *1262:S0 *437:28 0.000181212
11 *1262:S0 *441:22 0.000150623
12 *1262:S0 *450:26 0.000813888
13 NN4BEG[1] *1262:S0 6.35819e-05
*RES
1 *1299:Q *1262:S0 44.3382 
*END

*D_NET *252 0.00312386
*CONN
*I *1262:S1 I *D sky130_fd_sc_hd__mux4_1
*I *1300:Q O *D sky130_fd_sc_hd__dlxtp_1
*CAP
1 *1262:S1 0.00106121
2 *1300:Q 0.00106121
3 *1262:S1 *1565:A 0.00030562
4 *1262:S1 *1576:A 9.87672e-05
5 *1262:S1 *1592:A 0
6 *1262:S1 *335:14 0
7 *1262:S1 *360:28 0.00018077
8 *1262:S1 *380:10 0.000160573
9 *1262:S1 *382:32 0.000226507
10 *1262:S1 *450:26 2.92155e-05
*RES
1 *1300:Q *1262:S1 41.6893 
*END

*D_NET *253 0.00158764
*CONN
*I *1261:S0 I *D sky130_fd_sc_hd__mux4_1
*I *1301:Q O *D sky130_fd_sc_hd__dlxtp_1
*CAP
1 *1261:S0 0.000439906
2 *1301:Q 0.000439906
3 *1261:S0 *1301:D 6.94472e-05
4 *1261:S0 *1308:GATE 0.000141283
5 *1261:S0 *266:20 5.06562e-05
6 UserCLKo *1261:S0 0.000348207
7 *1258:S0 *1261:S0 9.82379e-05
*RES
1 *1301:Q *1261:S0 34.7786 
*END

*D_NET *254 0.000853882
*CONN
*I *1261:S1 I *D sky130_fd_sc_hd__mux4_1
*I *1302:Q O *D sky130_fd_sc_hd__dlxtp_1
*CAP
1 *1261:S1 0.000250153
2 *1302:Q 0.000250153
3 *1261:S1 *1261:A2 4.46186e-06
4 *1261:S1 *1261:A3 3.43988e-06
5 *1261:S1 *1386:A 0.000122814
6 *1261:S1 *266:20 0
7 *1261:S1 *473:22 0.000222859
*RES
1 *1302:Q *1261:S1 31.4214 
*END

*D_NET *255 0.00511088
*CONN
*I *1274:S1 I *D sky130_fd_sc_hd__mux4_1
*I *1275:Q O *D sky130_fd_sc_hd__dlxtp_1
*CAP
1 *1274:S1 0.000133603
2 *1275:Q 0.00113817
3 *255:26 0.00127177
4 *1274:S1 *1576:A 0.000226989
5 *1274:S1 *450:28 0.000105065
6 *255:26 *1251:A2 3.34687e-05
7 *255:26 *1270:A2 0.000135028
8 *255:26 *1407:A 0.000533369
9 *255:26 *1559:A 0.000180658
10 *255:26 *355:14 0.000390994
11 *255:26 *364:28 0
12 *255:26 *387:32 0.000504615
13 *255:26 *402:71 4.87854e-05
14 *255:26 *410:14 6.26119e-05
15 *255:26 *411:18 0.000135028
16 *255:26 *412:60 4.16984e-05
17 *255:26 *416:22 7.53309e-05
18 *255:26 *443:16 9.22103e-06
19 *255:26 *466:66 0
20 *245:24 *255:26 6.0038e-05
21 *248:18 *255:26 2.44318e-05
*RES
1 *1275:Q *255:26 48.9786 
2 *255:26 *1274:S1 21.4607 
*END

*D_NET *256 0.00387962
*CONN
*I *1274:S0 I *D sky130_fd_sc_hd__mux4_1
*I *1276:Q O *D sky130_fd_sc_hd__dlxtp_1
*CAP
1 *1274:S0 0.000998337
2 *1276:Q 0.000998337
3 *1274:S0 *1262:A2 9.65449e-05
4 *1274:S0 *1377:A 0.000351894
5 *1274:S0 *263:30 0.000233709
6 *1274:S0 *292:16 8.61512e-05
7 *1274:S0 *348:12 0.000138881
8 *1274:S0 *377:28 4.6109e-05
9 *1274:S0 *461:78 5.65801e-06
10 *1274:S0 *466:52 2.92155e-05
11 *1274:S0 *466:66 0.000235062
12 *1251:S0 *1274:S0 0.000560731
13 *247:43 *1274:S0 9.89915e-05
*RES
1 *1276:Q *1274:S0 47.1536 
*END

*D_NET *257 0.00856307
*CONN
*I *1273:S1 I *D sky130_fd_sc_hd__mux4_1
*I *1277:Q O *D sky130_fd_sc_hd__dlxtp_1
*CAP
1 *1273:S1 0
2 *1277:Q 0.00215055
3 *257:20 0.00215055
4 *257:20 *1268:A0 6.81786e-05
5 *257:20 *1268:A2 7.48984e-05
6 *257:20 *1268:A3 1.96342e-05
7 *257:20 *1273:A3 1.08413e-05
8 *257:20 *1284:D 5.06983e-05
9 *257:20 *262:28 0.000267064
10 *257:20 *266:20 0.0009808
11 *257:20 *274:32 0.000710096
12 *257:20 *314:36 1.53584e-05
13 *257:20 *359:22 1.85762e-05
14 *257:20 *399:26 4.48011e-05
15 *257:20 *407:48 0.000666568
16 *257:20 *444:34 1.27971e-05
17 *257:20 *444:42 2.55806e-05
18 *257:20 *445:68 1.36681e-05
19 *257:20 *461:53 8.75096e-05
20 *257:20 *464:42 4.26759e-05
21 *257:20 *471:26 8.82096e-05
22 *1431:A *257:20 0.00106401
*RES
1 *1277:Q *257:20 42.0388 
2 *257:20 *1273:S1 9.3 
*END

*D_NET *258 0.00703518
*CONN
*I *1273:S0 I *D sky130_fd_sc_hd__mux4_1
*I *1278:Q O *D sky130_fd_sc_hd__dlxtp_1
*CAP
1 *1273:S0 0
2 *1278:Q 0.00226196
3 *258:18 0.00226196
4 *258:18 *1256:A2 1.14548e-05
5 *258:18 *1258:A0 5.33005e-05
6 *258:18 *1258:A1 8.86413e-05
7 *258:18 *1258:A3 0.000143415
8 *258:18 *1289:D 0.00064727
9 *258:18 *265:18 0.00043954
10 *258:18 *269:22 0.000100685
11 *258:18 *401:28 0.000721928
12 *1258:S1 *258:18 0.000242642
13 *233:24 *258:18 6.23766e-05
*RES
1 *1278:Q *258:18 48.6036 
2 *258:18 *1273:S0 13.8 
*END

*D_NET *259 0.00345388
*CONN
*I *1272:S1 I *D sky130_fd_sc_hd__mux4_1
*I *1279:Q O *D sky130_fd_sc_hd__dlxtp_1
*CAP
1 *1272:S1 0.000558193
2 *1279:Q 0.000558193
3 *1272:S1 *1279:D 7.20217e-06
4 *1272:S1 *1299:D 0.000444755
5 *1272:S1 *1317:D 3.26952e-05
6 *1272:S1 *1380:A 0.00122099
7 *1272:S1 *303:24 0.000218409
8 *1272:S1 *384:14 3.2061e-05
9 *1272:S1 *402:14 1.97987e-05
10 *1272:S1 *408:44 0.000351388
11 *1272:S1 *448:70 0
12 *1272:S1 *456:82 1.01912e-05
*RES
1 *1279:Q *1272:S1 43.1179 
*END

*D_NET *260 0.00180501
*CONN
*I *1272:S0 I *D sky130_fd_sc_hd__mux4_1
*I *1280:Q O *D sky130_fd_sc_hd__dlxtp_1
*CAP
1 *1272:S0 0.000520912
2 *1280:Q 0.000520912
3 *1272:S0 *1253:A2 8.6229e-06
4 *1272:S0 *1257:A0 0.000395093
5 *1272:S0 *385:24 0
6 *1272:S0 *444:64 0
7 *1272:S0 *459:83 0.000198823
8 *1253:S0 *1272:S0 0.000104433
9 *1264:S1 *1272:S0 5.62126e-05
*RES
1 *1280:Q *1272:S0 36.3321 
*END

*D_NET *261 0.0173115
*CONN
*I *1271:S1 I *D sky130_fd_sc_hd__mux4_1
*I *1281:Q O *D sky130_fd_sc_hd__dlxtp_1
*CAP
1 *1271:S1 0.00110973
2 *1281:Q 0.0019375
3 *261:40 0.00203609
4 *261:30 0.00286385
5 *1271:S1 *1267:A2 0.000121165
6 *1271:S1 *270:24 0.000475959
7 *1271:S1 *276:24 7.82638e-05
8 *1271:S1 *312:14 7.54691e-05
9 *1271:S1 *313:12 0.00132442
10 *1271:S1 *315:14 4.40645e-05
11 *261:30 *1258:A1 2.30116e-06
12 *261:30 *1258:A3 0
13 *261:30 *1265:A2 0.000234967
14 *261:30 *1269:S0 3.36355e-06
15 *261:30 *1282:D 0.000109263
16 *261:30 *1428:A 6.45794e-05
17 *261:30 *262:28 1.83053e-05
18 *261:30 *282:24 1.72814e-05
19 *261:30 *292:84 0.000194034
20 *261:30 *297:48 0.000100176
21 *261:30 *404:101 5.71472e-05
22 *261:30 *405:10 9.58181e-05
23 *261:30 *445:24 1.26099e-05
24 *261:30 *451:16 0.000524193
25 *261:30 *451:64 0.000263108
26 *261:30 *455:65 6.9419e-05
27 *261:40 *294:34 0.00119696
28 *261:40 *453:18 1.77525e-05
29 *261:40 *462:14 9.39125e-05
30 *261:40 *481:26 0.00235145
31 FrameStrobe_O[10] *1271:S1 5.27529e-05
32 FrameStrobe_O[12] *1271:S1 4.69884e-05
33 FrameStrobe_O[17] *1271:S1 0.000299335
34 FrameStrobe_O[18] *1271:S1 0.000311323
35 *1263:S0 *261:30 0.000132945
36 *1370:A *1271:S1 5.52302e-05
37 *1402:A *261:30 1.38323e-05
38 *1402:A *261:40 7.64678e-05
39 *1435:A *261:30 0.000178847
40 *1506:A *261:40 0.000232416
41 *1507:A *261:40 0.000274292
42 *71:29 *1271:S1 0.000143883
*RES
1 *1281:Q *261:30 49.9071 
2 *261:30 *261:40 42.2143 
3 *261:40 *1271:S1 42.8 
*END

*D_NET *262 0.0100184
*CONN
*I *1271:S0 I *D sky130_fd_sc_hd__mux4_1
*I *1282:Q O *D sky130_fd_sc_hd__dlxtp_1
*CAP
1 *1271:S0 0
2 *1282:Q 0.00218607
3 *262:28 0.00218607
4 *262:28 *1258:A0 0.000589987
5 *262:28 *1258:A2 8.94556e-05
6 *262:28 *1271:A3 5.37741e-06
7 *262:28 *1302:D 0.000776151
8 *262:28 *1320:D 1.56445e-05
9 *262:28 *1388:A 1.07945e-05
10 *262:28 *266:20 0.000683465
11 *262:28 *276:24 0.00164731
12 *262:28 *314:36 0.000332248
13 *262:28 *330:18 0
14 *262:28 *404:55 6.30931e-05
15 *262:28 *432:40 0.0007709
16 *262:28 *436:60 0
17 *262:28 *438:32 5.29004e-05
18 *262:28 *447:10 5.65673e-05
19 *262:28 *457:26 9.98011e-05
20 *262:28 *471:26 0.000158107
21 *71:29 *262:28 9.11048e-06
22 *257:20 *262:28 0.000267064
23 *261:30 *262:28 1.83053e-05
*RES
1 *1282:Q *262:28 42.4072 
2 *262:28 *1271:S0 9.3 
*END

*D_NET *263 0.0109956
*CONN
*I *1270:S0 I *D sky130_fd_sc_hd__mux4_1
*I *1283:Q O *D sky130_fd_sc_hd__dlxtp_1
*CAP
1 *1270:S0 0
2 *1283:Q 0.00111833
3 *263:30 0.00107312
4 *263:20 0.00219145
5 *263:20 *1253:A2 8.43826e-05
6 *263:20 *1276:GATE 2.89016e-05
7 *263:20 *1277:D 0.000116046
8 *263:20 *1418:A 7.44262e-05
9 *263:20 *1585:A 2.05938e-05
10 *263:20 *384:14 3.78944e-05
11 *263:20 *400:53 0.000189493
12 *263:20 *402:65 9.25014e-06
13 *263:20 *409:45 1.92905e-05
14 *263:20 *439:16 0.000433276
15 *263:20 *448:76 0.000129779
16 *263:20 *456:82 3.69697e-05
17 *263:30 *1270:A0 0.000190308
18 *263:30 *1270:A1 0.000181796
19 *263:30 *1277:D 0.000157399
20 *263:30 *1423:A 0.00117079
21 *263:30 *273:12 6.595e-05
22 *263:30 *336:20 0.000192619
23 *263:30 *338:30 0.000389719
24 *263:30 *348:12 0.000223564
25 *263:30 *364:28 0.00109131
26 *263:30 *381:16 0.000976711
27 *263:30 *399:18 3.52401e-05
28 *263:30 *416:22 0.000523267
29 *1274:S0 *263:30 0.000233709
*RES
1 *1283:Q *263:20 36.4786 
2 *263:20 *263:30 45.3036 
3 *263:30 *1270:S0 9.3 
*END

*D_NET *264 0.0134533
*CONN
*I *1270:S1 I *D sky130_fd_sc_hd__mux4_1
*I *1284:Q O *D sky130_fd_sc_hd__dlxtp_1
*CAP
1 *1270:S1 0.00054172
2 *1284:Q 0.00210126
3 *264:20 0.00264298
4 *1270:S1 *1385:A 0
5 *1270:S1 *325:22 0.000589407
6 *1270:S1 *411:12 0.000125243
7 *1270:S1 *412:16 0
8 *1270:S1 *465:20 0
9 *264:20 *1253:A1 0
10 *264:20 *1268:A3 9.11048e-06
11 *264:20 *1278:D 5.41143e-05
12 *264:20 *1423:A 0.000490074
13 *264:20 *290:12 0.00113101
14 *264:20 *291:22 4.57287e-05
15 *264:20 *373:20 0.000702003
16 *264:20 *399:18 0
17 *264:20 *399:26 0.00351018
18 *264:20 *409:20 0.000535298
19 *264:20 *415:22 2.09512e-05
20 *264:20 *461:53 9.77247e-05
21 *1430:A *264:20 0.00076324
22 *1431:A *264:20 9.32705e-05
*RES
1 *1284:Q *264:20 48.8099 
2 *264:20 *1270:S1 25.8179 
*END

*D_NET *265 0.00971629
*CONN
*I *1269:S0 I *D sky130_fd_sc_hd__mux4_1
*I *1285:Q O *D sky130_fd_sc_hd__dlxtp_1
*CAP
1 *1269:S0 0.00105609
2 *1285:Q 0.0017876
3 *265:18 0.00284369
4 *1269:S0 *1265:A0 1.92535e-05
5 *1269:S0 *1265:A1 4.87854e-05
6 *1269:S0 *1265:A2 0.000163335
7 *1269:S0 *282:24 8.39471e-05
8 *1269:S0 *429:22 5.99596e-05
9 *1269:S0 *452:32 5.54256e-05
10 *1269:S0 *467:38 0.000130329
11 *1269:S0 *467:65 8.27238e-06
12 *265:18 *1265:A0 0.000722721
13 *265:18 *1289:GATE 1.77505e-05
14 *265:18 *1308:D 1.41885e-05
15 *265:18 *266:20 6.35864e-05
16 *265:18 *292:84 0.000188733
17 *265:18 *297:26 0.000137905
18 *265:18 *306:20 0
19 *265:18 *436:60 0
20 *265:18 *447:10 0.00109457
21 *265:18 *449:12 2.70725e-06
22 *265:18 *468:20 7.31339e-05
23 *1403:A *265:18 5.31101e-05
24 *233:24 *265:18 0.000630008
25 *234:20 *265:18 1.82896e-05
26 *258:18 *265:18 0.00043954
27 *261:30 *1269:S0 3.36355e-06
*RES
1 *1285:Q *265:18 49.8536 
2 *265:18 *1269:S0 31.5857 
*END

*D_NET *266 0.00919922
*CONN
*I *1269:S1 I *D sky130_fd_sc_hd__mux4_1
*I *1286:Q O *D sky130_fd_sc_hd__dlxtp_1
*CAP
1 *1269:S1 0
2 *1286:Q 0.00200203
3 *266:20 0.00200203
4 *266:20 *1261:A2 0.000430864
5 *266:20 *1261:A3 2.11419e-05
6 *266:20 *1302:D 0.000131291
7 *266:20 *1308:GATE 0.000230011
8 *266:20 *1386:A 0
9 *266:20 *306:20 0.000227328
10 *266:20 *404:128 8.44271e-06
11 *266:20 *404:143 0.000144289
12 *266:20 *405:49 9.54536e-05
13 *266:20 *457:26 9.22109e-05
14 *266:20 *460:76 4.46186e-06
15 *266:20 *471:26 0.00159223
16 UserCLKo *266:20 4.60232e-06
17 *500:DIODE *266:20 6.53083e-05
18 *1258:S0 *266:20 0.000140041
19 *1261:S0 *266:20 5.06562e-05
20 *1261:S1 *266:20 0
21 *185:23 *266:20 0.000142563
22 *234:20 *266:20 8.64088e-05
23 *257:20 *266:20 0.0009808
24 *262:28 *266:20 0.000683465
25 *265:18 *266:20 6.35864e-05
*RES
1 *1286:Q *266:20 49.9859 
2 *266:20 *1269:S1 9.3 
*END

*D_NET *267 0.00294373
*CONN
*I *1268:S0 I *D sky130_fd_sc_hd__mux4_1
*I *1287:Q O *D sky130_fd_sc_hd__dlxtp_1
*CAP
1 *1268:S0 0.000716234
2 *1287:Q 0.000716234
3 *1268:S0 *1268:A2 0.000174341
4 *1268:S0 *1287:D 4.98406e-05
5 *1268:S0 *1328:A 0.000489913
6 *1268:S0 *1356:A 0.000200854
7 *1268:S0 *300:10 0.000167866
8 *1260:S0 *1268:S0 0.000428445
*RES
1 *1287:Q *1268:S0 41.6536 
*END

*D_NET *268 0.00345293
*CONN
*I *1268:S1 I *D sky130_fd_sc_hd__mux4_1
*I *1288:Q O *D sky130_fd_sc_hd__dlxtp_1
*CAP
1 *1268:S1 0
2 *1288:Q 0.0006613
3 *268:20 0.0006613
4 *268:20 *1252:A2 5.66157e-05
5 *268:20 *1303:GATE 4.84649e-05
6 *268:20 *1328:A 0.000401127
7 *268:20 *1335:A 0.00022337
8 *268:20 *1336:A 5.33005e-05
9 *268:20 *1345:A 4.43263e-05
10 *268:20 *1356:A 0.000186805
11 *268:20 *1358:A 8.70166e-05
12 *268:20 *292:84 2.06178e-05
13 *268:20 *325:40 0.00017754
14 *268:20 *399:26 0.000340617
15 *268:20 *472:32 0.000490531
*RES
1 *1288:Q *268:20 43.5143 
2 *268:20 *1268:S1 9.3 
*END

*D_NET *269 0.0122954
*CONN
*I *1267:S0 I *D sky130_fd_sc_hd__mux4_1
*I *1289:Q O *D sky130_fd_sc_hd__dlxtp_1
*CAP
1 *1267:S0 0.000667913
2 *1289:Q 0.00153672
3 *269:22 0.00220464
4 *1267:S0 *1259:A0 0.00131572
5 *1267:S0 *1261:A2 6.43226e-05
6 *1267:S0 *1386:A 0.000319763
7 *1267:S0 *1408:A 9.25014e-06
8 *1267:S0 *1617:A 0.00143832
9 *1267:S0 *315:14 0.000122091
10 *1267:S0 *442:90 5.44304e-05
11 *269:22 *1258:A3 6.14155e-05
12 *269:22 *1301:D 0.00106608
13 *269:22 *1414:A 0.000279298
14 *269:22 *1418:A 0.000106897
15 *269:22 *276:64 0.000183369
16 *269:22 *306:20 0.000261683
17 *269:22 *306:30 1.68854e-05
18 *269:22 *314:36 2.04825e-05
19 *269:22 *379:24 0
20 *269:22 *414:26 0
21 *269:22 *421:20 2.35985e-05
22 *269:22 *445:68 3.05035e-05
23 *269:22 *451:16 5.8403e-05
24 *269:22 *455:65 0.000190168
25 *269:22 *467:38 0.000157329
26 *269:22 *474:18 0.000139765
27 *269:22 *478:32 0.0011809
28 *1265:S1 *269:22 0.000662523
29 *185:23 *1267:S0 2.22674e-05
30 *258:18 *269:22 0.000100685
*RES
1 *1289:Q *269:22 47.5185 
2 *269:22 *1267:S0 46.4689 
*END

*D_NET *270 0.0102114
*CONN
*I *1267:S1 I *D sky130_fd_sc_hd__mux4_1
*I *1290:Q O *D sky130_fd_sc_hd__dlxtp_1
*CAP
1 *1267:S1 0
2 *1290:Q 0.00231038
3 *270:24 0.00231038
4 *270:24 *1258:A1 1.90907e-05
5 *270:24 *1267:A2 9.54798e-06
6 *270:24 *1298:D 0.00110969
7 *270:24 *1316:D 0.00180169
8 *270:24 *306:20 6.78252e-05
9 *270:24 *307:16 0.000181397
10 *270:24 *308:26 0.000494191
11 *270:24 *312:14 0.000966578
12 *270:24 *421:20 2.40094e-05
13 *270:24 *442:57 0.000163191
14 *270:24 *445:68 0.000261197
15 *270:24 *477:26 1.63116e-05
16 *1271:S1 *270:24 0.000475959
*RES
1 *1290:Q *270:24 48.9651 
2 *270:24 *1267:S1 9.3 
*END

*D_NET *271 0.00434971
*CONN
*I *1266:S1 I *D sky130_fd_sc_hd__mux4_1
*I *1291:Q O *D sky130_fd_sc_hd__dlxtp_1
*CAP
1 *1266:S1 0.000693564
2 *1291:Q 0.000693564
3 *1266:S1 *1266:A2 0.000397565
4 *1266:S1 *1389:A 0.000395724
5 *1266:S1 *1417:A 0
6 *1266:S1 *394:10 0.000204958
7 *1266:S1 *410:8 0.00165633
8 *1266:S1 *412:43 0.000307998
*RES
1 *1291:Q *1266:S1 49.0286 
*END

*D_NET *272 0.00336154
*CONN
*I *1266:S0 I *D sky130_fd_sc_hd__mux4_1
*I *1292:Q O *D sky130_fd_sc_hd__dlxtp_1
*CAP
1 *1266:S0 0.00111328
2 *1292:Q 0.00111328
3 *1266:S0 *1385:A 0.000466101
4 *1266:S0 *337:12 0
5 *1266:S0 *394:10 0.000101648
6 *1266:S0 *412:18 1.3982e-05
7 *1266:S0 *443:10 0.000553245
*RES
1 *1292:Q *1266:S0 44.6 
*END

*D_NET *273 0.00675011
*CONN
*I *1381:A I *D sky130_fd_sc_hd__clkbuf_1
*I *1274:X O *D sky130_fd_sc_hd__mux4_1
*CAP
1 *1381:A 0.000166405
2 *1274:X 0.00130128
3 *273:12 0.00146768
4 *1381:A *1417:A 0.000449539
5 *1381:A *383:16 0.000534222
6 *1381:A *466:66 0.000210633
7 *273:12 *1270:A0 0.000724798
8 *273:12 *1389:A 0.000126947
9 *273:12 *1417:A 0
10 *273:12 *303:14 0.000110632
11 *273:12 *345:16 0.000268325
12 *273:12 *383:20 0.00102095
13 *273:12 *409:20 0.000135742
14 *273:12 *413:14 1.44868e-05
15 *273:12 *476:14 0.000152515
16 *263:30 *273:12 6.595e-05
*RES
1 *1274:X *273:12 43.3714 
2 *273:12 *1381:A 16.425 
*END

*D_NET *274 0.009316
*CONN
*I *1382:A I *D sky130_fd_sc_hd__clkbuf_1
*I *1273:X O *D sky130_fd_sc_hd__mux4_1
*CAP
1 *1382:A 0
2 *1273:X 0.00203738
3 *274:32 0.00203738
4 *274:32 *1256:A3 0.000722826
5 *274:32 *1258:A1 1.01912e-05
6 *274:32 *1268:A0 9.13255e-05
7 *274:32 *1288:GATE 3.33531e-05
8 *274:32 *1304:GATE 0.000136388
9 *274:32 *1358:A 0.00015945
10 *274:32 *1395:A 2.57531e-05
11 *274:32 *307:16 2.11419e-05
12 *274:32 *314:36 8.60328e-05
13 *274:32 *380:45 3.01823e-05
14 *274:32 *397:10 7.71172e-05
15 *274:32 *399:26 0.000126954
16 *274:32 *403:41 7.35637e-05
17 *274:32 *439:16 0.000266311
18 *274:32 *444:64 0.000260422
19 *274:32 *459:83 0.000171451
20 *274:32 *461:28 8.73539e-05
21 *274:32 *461:53 1.15359e-05
22 *274:32 *464:42 0.000473486
23 *1431:A *274:32 0.00166631
24 *257:20 *274:32 0.000710096
*RES
1 *1273:X *274:32 44.8867 
2 *274:32 *1382:A 9.3 
*END

*D_NET *275 0.0037024
*CONN
*I *1383:A I *D sky130_fd_sc_hd__clkbuf_1
*I *1272:X O *D sky130_fd_sc_hd__mux4_1
*CAP
1 *1383:A 0.000640327
2 *1272:X 0.000640327
3 *1383:A *1250:A2 0.000879951
4 *1383:A *1255:A0 0.000658749
5 *1383:A *1270:A0 0.000428486
6 *1383:A *1585:A 3.31923e-05
7 *1383:A *336:57 9.4028e-05
8 *1383:A *400:22 2.72602e-05
9 *1383:A *402:65 1.58163e-05
10 *1383:A *402:71 3.14048e-05
11 *1383:A *416:34 7.02611e-05
12 *1383:A *437:28 4.56437e-05
13 *1251:S0 *1383:A 0.000136951
*RES
1 *1272:X *1383:A 45.1536 
*END

*D_NET *276 0.0138378
*CONN
*I *1384:A I *D sky130_fd_sc_hd__buf_1
*I *1271:X O *D sky130_fd_sc_hd__mux4_1
*CAP
1 *1384:A 0
2 *1271:X 0.00189472
3 *276:64 0.00139405
4 *276:24 0.00328876
5 *276:24 *1271:A2 1.00442e-05
6 *276:24 *1271:A3 3.30587e-05
7 *276:24 *1273:A0 3.69047e-06
8 *276:24 *1273:A2 0.000170515
9 *276:24 *305:34 0
10 *276:24 *314:36 0.00084056
11 *276:24 *329:28 0.000304031
12 *276:24 *330:18 3.37252e-05
13 *276:24 *464:42 7.69776e-06
14 *276:64 *1254:A1 0.000180785
15 *276:64 *1265:A0 2.32275e-05
16 *276:64 *1330:A 0.000274585
17 *276:64 *1337:A 5.02478e-05
18 *276:64 *1378:A 0.00100333
19 *276:64 *1416:A 1.54277e-05
20 *276:64 *279:14 0.000139183
21 *276:64 *299:26 6.39433e-05
22 *276:64 *333:22 9.25014e-06
23 *276:64 *367:12 0
24 *276:64 *368:26 0.000346054
25 *276:64 *371:28 9.22222e-06
26 *276:64 *421:20 0.000396269
27 *276:64 *423:32 0.000114715
28 *276:64 *427:61 0.000206094
29 *276:64 *449:12 0.000210623
30 *276:64 *467:38 0.000257313
31 *276:64 *473:14 0.000395426
32 *1265:S0 *276:24 1.97756e-05
33 *1271:S1 *276:24 7.82638e-05
34 *1365:A *276:24 0.000133748
35 *1370:A *276:24 2.27416e-05
36 *71:29 *276:24 3.29157e-05
37 *223:16 *276:24 4.31591e-05
38 *262:28 *276:24 0.00164731
39 *269:22 *276:64 0.000183369
*RES
1 *1271:X *276:24 48.3335 
2 *276:24 *276:64 47.375 
3 *276:64 *1384:A 9.3 
*END

*D_NET *277 0.00388729
*CONN
*I *1385:A I *D sky130_fd_sc_hd__clkbuf_1
*I *1270:X O *D sky130_fd_sc_hd__mux4_1
*CAP
1 *1385:A 0.000747138
2 *1270:X 0.000747138
3 *1385:A *1266:A3 0.000322532
4 *1385:A *303:14 1.92905e-05
5 *1385:A *337:12 0
6 *1385:A *372:16 0.000100831
7 *1385:A *411:12 0
8 *1385:A *412:16 9.75235e-05
9 *1385:A *413:14 0.000111439
10 *1385:A *416:22 0.000679362
11 *1385:A *417:24 0.00024424
12 *1385:A *458:40 6.38351e-05
13 *1385:A *465:20 0.000287856
14 *1266:S0 *1385:A 0.000466101
15 *1270:S1 *1385:A 0
*RES
1 *1270:X *1385:A 49.4571 
*END

*D_NET *278 0.0039076
*CONN
*I *1386:A I *D sky130_fd_sc_hd__buf_1
*I *1269:X O *D sky130_fd_sc_hd__mux4_1
*CAP
1 *1386:A 0.00088018
2 *1269:X 0.00088018
3 *1386:A *1261:A2 8.03354e-06
4 *1386:A *1293:GATE 1.37292e-05
5 *1386:A *327:16 0.00116856
6 *1386:A *404:143 0.000177438
7 *491:DIODE *1386:A 0.000124657
8 *1259:S1 *1386:A 9.41642e-05
9 *1261:S1 *1386:A 0.000122814
10 *1267:S0 *1386:A 0.000319763
11 *1369:A *1386:A 3.96741e-05
12 *82:23 *1386:A 5.43648e-05
13 *185:23 *1386:A 2.40398e-05
14 *266:20 *1386:A 0
*RES
1 *1269:X *1386:A 47.1893 
*END

*D_NET *279 0.00533867
*CONN
*I *1387:A I *D sky130_fd_sc_hd__buf_1
*I *1268:X O *D sky130_fd_sc_hd__mux4_1
*CAP
1 *1387:A 0
2 *1268:X 0.000944861
3 *279:14 0.000944861
4 *279:14 *1254:A0 4.28049e-05
5 *279:14 *1256:A1 0.000125917
6 *279:14 *1265:A0 0.000184246
7 *279:14 *299:26 0.000914355
8 *279:14 *299:34 1.21637e-05
9 *279:14 *309:26 0.000343707
10 *279:14 *309:30 0.000177726
11 *279:14 *343:28 2.12087e-05
12 *279:14 *395:12 0.00027606
13 *279:14 *401:12 1.02936e-05
14 *279:14 *404:10 0.000135028
15 *279:14 *408:83 0.000387353
16 *279:14 *436:60 5.71969e-05
17 *279:14 *444:34 1.95625e-05
18 *279:14 *445:68 0.000590017
19 *1434:A *279:14 1.21258e-05
20 *276:64 *279:14 0.000139183
*RES
1 *1268:X *279:14 43.5857 
2 *279:14 *1387:A 9.3 
*END

*D_NET *280 0.0031829
*CONN
*I *1388:A I *D sky130_fd_sc_hd__buf_1
*I *1267:X O *D sky130_fd_sc_hd__mux4_1
*CAP
1 *1388:A 0.000813726
2 *1267:X 0.000813726
3 *1388:A *1271:A2 0.000125731
4 *1388:A *1271:A3 0.00044728
5 *1388:A *1514:A 0.000108775
6 *1388:A *1540:A 0.00054623
7 *1388:A *328:22 0
8 *1388:A *330:18 0
9 *1388:A *331:18 4.56494e-05
10 *1259:S1 *1388:A 5.52302e-05
11 *1371:A *1388:A 3.07555e-05
12 *238:18 *1388:A 0.000185002
13 *262:28 *1388:A 1.07945e-05
*RES
1 *1267:X *1388:A 46.7786 
*END

*D_NET *281 0.00225763
*CONN
*I *1389:A I *D sky130_fd_sc_hd__clkbuf_1
*I *1266:X O *D sky130_fd_sc_hd__mux4_1
*CAP
1 *1389:A 0.00038094
2 *1266:X 0.00038094
3 *1389:A *1417:A 0.000150904
4 *1389:A *345:16 5.32956e-05
5 *1389:A *394:10 0.000768879
6 *1266:S1 *1389:A 0.000395724
7 *273:12 *1389:A 0.000126947
*RES
1 *1266:X *1389:A 39.1893 
*END

*D_NET *282 0.00633982
*CONN
*I *1390:A I *D sky130_fd_sc_hd__buf_1
*I *1265:X O *D sky130_fd_sc_hd__mux4_1
*CAP
1 *1390:A 0.000349768
2 *1265:X 0.000673174
3 *282:24 0.00102294
4 *1390:A *1319:D 0.000261109
5 *1390:A *1335:A 0
6 *1390:A *1353:A 0.000337042
7 *1390:A *299:26 0.000339943
8 *282:24 *1265:A0 3.04311e-05
9 *282:24 *1308:D 0.000433123
10 *282:24 *1337:A 6.30931e-05
11 *282:24 *1616:A 0.000279536
12 *282:24 *292:84 0.000646038
13 *282:24 *294:32 0.000348586
14 *282:24 *297:26 0.000267128
15 *282:24 *303:80 0.000254377
16 *282:24 *374:12 0.000173173
17 *282:24 *427:61 1.5424e-05
18 *282:24 *429:22 1.57981e-05
19 *282:24 *455:65 8.37661e-05
20 *282:24 *473:14 6.50032e-05
21 *282:24 *486:28 0.0001337
22 *1252:S0 *1390:A 0.000385277
23 *1263:S0 *282:24 6.01607e-05
24 *1269:S0 *282:24 8.39471e-05
25 *261:30 *282:24 1.72814e-05
*RES
1 *1265:X *282:24 46.3494 
2 *282:24 *1390:A 23.8 
*END

*D_NET *283 0.00521817
*CONN
*I *1391:A I *D sky130_fd_sc_hd__clkbuf_1
*I *1264:X O *D sky130_fd_sc_hd__mux4_1
*CAP
1 *1391:A 0
2 *1264:X 0.0010062
3 *283:12 0.0010062
4 *283:12 *492:DIODE 0.000185643
5 *283:12 *1250:A2 0.000178847
6 *283:12 *1251:A1 7.49166e-06
7 *283:12 *1255:A2 0.00037295
8 *283:12 *1277:D 3.69255e-05
9 *283:12 *1314:D 0.000406762
10 *283:12 *1314:GATE 0.000512414
11 *283:12 *1556:A 0.000135028
12 *283:12 *348:12 1.02433e-05
13 *283:12 *361:26 0.000206749
14 *283:12 *392:16 0.00049858
15 *283:12 *412:60 8.63633e-05
16 *283:12 *422:18 4.92791e-05
17 *283:12 *446:28 0.000208928
18 *283:12 *446:30 5.33005e-05
19 *283:12 *446:46 8.65688e-05
20 *283:12 *448:70 5.33005e-05
21 *283:12 *461:78 0.000116395
*RES
1 *1264:X *283:12 43.05 
2 *283:12 *1391:A 9.3 
*END

*D_NET *284 0.0102808
*CONN
*I *1392:A I *D sky130_fd_sc_hd__buf_1
*I *1263:X O *D sky130_fd_sc_hd__mux4_1
*CAP
1 *1392:A 0.00179873
2 *1263:X 0.00169213
3 *284:16 0.00349085
4 *1392:A *1259:A1 1.98839e-05
5 *1392:A *1259:A2 6.98553e-06
6 *1392:A *1259:A3 9.62115e-05
7 *1392:A *1267:A2 1.59935e-05
8 *1392:A *1396:A 1.73585e-05
9 *1392:A *1540:A 0.000557078
10 *1392:A *1618:A 0.000346472
11 *1392:A *1624:A 5.33005e-05
12 *1392:A *331:18 0.000559256
13 *1392:A *349:22 4.58917e-05
14 *1392:A *442:90 6.26516e-05
15 *1392:A *467:65 9.28019e-05
16 *284:16 *1271:A1 0.000180517
17 *284:16 *1315:D 0.000337914
18 *284:16 *1315:GATE 0.000140856
19 *284:16 *1329:A 0.000270794
20 *284:16 *304:18 2.53281e-05
21 *284:16 *404:116 0.000469772
*RES
1 *1263:X *284:16 44.5857 
2 *284:16 *1392:A 41.9429 
*END

*D_NET *285 0.00736854
*CONN
*I *1393:A I *D sky130_fd_sc_hd__clkbuf_1
*I *1262:X O *D sky130_fd_sc_hd__mux4_1
*CAP
1 *1393:A 0.000741653
2 *1262:X 0.00084177
3 *285:8 0.00158342
4 *1393:A *1421:A 1.51251e-05
5 *1393:A *332:12 0.00113101
6 *1393:A *341:16 0
7 *1393:A *350:18 4.98872e-05
8 *1393:A *419:12 0
9 *1393:A *466:66 4.1331e-06
10 *285:8 *1556:A 0.000605642
11 *285:8 *1559:A 2.36643e-05
12 *285:8 *1565:A 0.000895415
13 *285:8 *290:12 0.000260574
14 *285:8 *341:16 0.00121104
15 N2BEG[4] *285:8 5.2064e-06
*RES
1 *1262:X *285:8 34.8714 
2 *285:8 *1393:A 30.6214 
*END

*D_NET *286 0.00239487
*CONN
*I *1394:A I *D sky130_fd_sc_hd__buf_1
*I *1261:X O *D sky130_fd_sc_hd__mux4_1
*CAP
1 *1394:A 0.000565941
2 *1261:X 0.000565941
3 *1394:A *1271:A3 7.54868e-05
4 *1394:A *1315:D 2.59355e-05
5 *1394:A *1316:D 4.26825e-05
6 *1394:A *1316:GATE 0
7 *1394:A *1534:A 0.00026373
8 *1394:A *306:34 6.17878e-05
9 *227:14 *1394:A 0.000314729
10 *239:26 *1394:A 0.000478632
*RES
1 *1261:X *1394:A 40.6893 
*END

*D_NET *287 0.00471045
*CONN
*I *1395:A I *D sky130_fd_sc_hd__buf_1
*I *1260:X O *D sky130_fd_sc_hd__mux4_1
*CAP
1 *1395:A 0.000820909
2 *1260:X 0.000820909
3 *1395:A *1268:A0 0.000157329
4 *1395:A *1288:GATE 2.9674e-05
5 *1395:A *1303:GATE 9.77414e-05
6 *1395:A *1304:GATE 5.41797e-06
7 *1395:A *1328:A 0.000428915
8 *1395:A *1331:A 7.12784e-05
9 *1395:A *1332:A 9.58126e-05
10 *1395:A *1339:A 0.000690206
11 *1395:A *1357:A 0.000970839
12 *1395:A *1358:A 2.04825e-05
13 *1395:A *1418:A 0.000129413
14 *1395:A *306:20 0.000103211
15 *1395:A *308:26 5.33005e-05
16 *1395:A *322:30 8.58829e-05
17 *1395:A *380:45 8.9249e-05
18 *1395:A *403:41 1.41225e-05
19 *274:32 *1395:A 2.57531e-05
*RES
1 *1260:X *1395:A 49.1893 
*END

*D_NET *288 0.00347234
*CONN
*I *1396:A I *D sky130_fd_sc_hd__buf_1
*I *1259:X O *D sky130_fd_sc_hd__mux4_1
*CAP
1 *1396:A 0.000963927
2 *1259:X 0.000963927
3 *1396:A *1259:A2 1.40749e-05
4 *1396:A *1531:A 0.000317789
5 *1396:A *1532:A 0
6 *1396:A *1618:A 0.000193637
7 *1396:A *473:22 0.000691792
8 *1259:S0 *1396:A 1.08192e-05
9 *1259:S1 *1396:A 4.19624e-06
10 *1392:A *1396:A 1.73585e-05
11 *227:14 *1396:A 0.000294816
*RES
1 *1259:X *1396:A 47.4571 
*END

*D_NET *289 0.00426069
*CONN
*I *1250:A2 I *D sky130_fd_sc_hd__a22o_1
*I *1248:X O *D sky130_fd_sc_hd__or2_1
*CAP
1 *1250:A2 0.00083691
2 *1248:X 0.00083691
3 *1250:A2 *1266:A0 0.000109469
4 *1250:A2 *1276:D 3.52872e-05
5 *1250:A2 *1276:GATE 8.64873e-05
6 *1250:A2 *400:22 4.30584e-06
7 *1250:A2 *408:24 3.4323e-06
8 *1250:A2 *433:34 0.00080038
9 *1250:A2 *437:28 0.0001207
10 *1250:A2 *443:34 0.000368007
11 *1383:A *1250:A2 0.000879951
12 *283:12 *1250:A2 0.000178847
*RES
1 *1248:X *1250:A2 48.0107 
*END

*D_NET *290 0.00910699
*CONN
*I *1250:B1 I *D sky130_fd_sc_hd__a22o_1
*I *1249:Y O *D sky130_fd_sc_hd__nor2_1
*CAP
1 *1250:B1 0.000568765
2 *1249:Y 0.000820439
3 *290:12 0.0013892
4 *1250:B1 *1250:B2 1.73088e-05
5 *1250:B1 *456:82 0.00174625
6 *1250:B1 *466:66 0.00113202
7 *290:12 *338:30 3.8341e-05
8 *290:12 *344:30 0.00141253
9 *290:12 *373:20 4.16689e-05
10 *1249:B *290:12 1.90936e-05
11 *247:43 *1250:B1 0.000529789
12 *264:20 *290:12 0.00113101
13 *285:8 *290:12 0.000260574
*RES
1 *1249:Y *290:12 39.8357 
2 *290:12 *1250:B1 31.6214 
*END

*D_NET *291 0.0311057
*CONN
*I *1293:D I *D sky130_fd_sc_hd__dlxtp_1
*I *1325:A I *D sky130_fd_sc_hd__buf_1
*I *1436:X O *D sky130_fd_sc_hd__dlymetal6s2s_1
*CAP
1 *1293:D 0.00125091
2 *1325:A 0.00106126
3 *1436:X 0.00436454
4 *291:22 0.0066767
5 *1293:D *1285:D 0.000370475
6 *1293:D *305:34 0.00223364
7 *1293:D *464:42 0.000871073
8 *1293:D *472:32 0.000700838
9 *1325:A *1285:D 4.70448e-05
10 *1325:A *1309:GATE 0
11 *1325:A *1326:A 0.000706608
12 *1325:A *299:26 7.29712e-05
13 *1325:A *302:24 0.00120624
14 *1325:A *322:30 6.25005e-05
15 *1325:A *340:38 9.54798e-06
16 *1325:A *391:38 2.45832e-05
17 *1325:A *423:18 1.77525e-05
18 *1325:A *427:20 0.000189786
19 *1325:A *468:22 9.23226e-05
20 *1325:A *472:32 5.11566e-05
21 *1325:A *477:26 0.000151632
22 *1325:A *478:32 1.34836e-05
23 *1325:A *483:36 2.98245e-05
24 *1325:A *484:40 8.94491e-05
25 *291:22 *1596:A 0.000497887
26 *291:22 *314:12 2.11419e-05
27 *291:22 *344:30 0.00246312
28 *291:22 *347:64 0.000122494
29 *291:22 *353:26 0
30 *291:22 *364:12 0.000324708
31 *291:22 *364:28 0.000166358
32 *291:22 *379:24 0.00100701
33 *291:22 *386:30 0.0022365
34 *291:22 *399:26 0.000922513
35 *291:22 *409:20 0
36 *291:22 *412:60 0.000101601
37 *291:22 *415:14 0.000283695
38 *291:22 *418:22 0
39 *291:22 *443:34 0.00017863
40 *1363:A *1293:D 9.13908e-05
41 *1365:A *1293:D 0.00176922
42 *1368:A *1293:D 5.33005e-05
43 *67:11 *291:22 0.000301754
44 *67:13 *291:22 0.000134665
45 *82:23 *1293:D 8.96761e-05
46 *264:20 *291:22 4.57287e-05
*RES
1 *1436:X *291:22 38.68 
2 *291:22 *1325:A 31.5373 
3 *291:22 *1293:D 24.7142 
*END

*D_NET *292 0.0242811
*CONN
*I *1311:D I *D sky130_fd_sc_hd__dlxtp_1
*I *1343:A I *D sky130_fd_sc_hd__buf_1
*I *1279:D I *D sky130_fd_sc_hd__dlxtp_1
*I *1437:X O *D sky130_fd_sc_hd__dlymetal6s2s_1
*CAP
1 *1311:D 0
2 *1343:A 0.000391695
3 *1279:D 0.000140643
4 *1437:X 0.00108984
5 *292:84 0.000871129
6 *292:43 0.00212461
7 *292:16 0.00202427
8 *292:6 0.00211169
9 *1279:D *1253:A0 6.74751e-05
10 *1279:D *303:24 7.47482e-05
11 *1279:D *408:44 0.000337099
12 *1343:A *298:26 0.000399815
13 *1343:A *391:38 0.000146266
14 *1343:A *433:34 0.000132304
15 *1343:A *461:28 0.000144726
16 *1343:A *475:36 0.000119923
17 *1343:A *479:26 0.000146266
18 *1343:A *484:40 5.91272e-05
19 *292:6 *1270:A2 0.0015233
20 *292:6 *325:22 0.0018413
21 *292:6 *476:14 0.00102339
22 *292:16 *1262:A2 5.41797e-06
23 *292:16 *303:14 0.00194733
24 *292:16 *338:30 0.000100911
25 *292:16 *407:48 0.000862732
26 *292:16 *465:20 0.000494818
27 *292:16 *465:57 0.000260629
28 *292:43 *1345:A 5.93539e-05
29 *292:43 *1358:A 3.53403e-05
30 *292:43 *322:30 0.000230452
31 *292:43 *338:30 0.000152097
32 *292:43 *380:45 8.84439e-05
33 *292:43 *400:76 0.000354705
34 *292:43 *408:44 0.000440451
35 *292:43 *408:83 1.00733e-05
36 *292:43 *435:18 7.06329e-06
37 *292:43 *483:36 9.23226e-05
38 *292:84 *1287:D 0.00022093
39 *292:84 *1308:D 8.6229e-06
40 *292:84 *1319:D 9.41642e-05
41 *292:84 *1345:A 7.69776e-06
42 *292:84 *1350:A 5.33005e-05
43 *292:84 *1356:A 4.33978e-05
44 *292:84 *1428:A 0.000599519
45 *292:84 *294:32 6.8523e-05
46 *292:84 *301:34 2.84026e-05
47 *292:84 *309:26 0.000505335
48 *292:84 *336:112 3.97677e-05
49 *292:84 *380:45 2.62977e-05
50 *292:84 *408:83 0.00044205
51 *292:84 *427:61 0.000318409
52 *292:84 *449:12 1.41805e-05
53 *292:84 *483:36 8.92267e-05
54 *1260:S1 *292:43 2.06178e-05
55 *1272:S1 *1279:D 7.20217e-06
56 *1274:S0 *292:16 8.61512e-05
57 *1511:A *292:6 0.000317633
58 *234:20 *292:84 0.00014443
59 *246:26 *1279:D 0.000109401
60 *247:43 *292:16 7.46506e-05
61 *261:30 *292:84 0.000194034
62 *265:18 *292:84 0.000188733
63 *268:20 *292:84 2.06178e-05
64 *282:24 *292:84 0.000646038
*RES
1 *1437:X *292:6 46.8 
2 *292:6 *292:16 16.1578 
3 *292:16 *1279:D 18.0098 
4 *292:16 *292:43 18.9943 
5 *292:43 *1343:A 27.2546 
6 *292:43 *292:84 41.949 
7 *292:84 *1311:D 9.3 
*END

*D_NET *293 0.0191676
*CONN
*I *1620:A I *D sky130_fd_sc_hd__buf_2
*I *1349:X O *D sky130_fd_sc_hd__buf_1
*CAP
1 *1620:A 0.000967195
2 *1349:X 0.000495382
3 *293:14 0.00297821
4 *293:12 0.0025064
5 *1620:A *1531:A 0.000106783
6 *1620:A *1532:A 0
7 *1620:A *1612:A 0.00048572
8 *1620:A *1625:A 5.33005e-05
9 *1620:A *470:28 0
10 *293:12 *310:30 1.32941e-05
11 *293:12 *426:26 7.29712e-05
12 *293:14 *294:34 0
13 *293:14 *310:42 0.00217488
14 *293:14 *343:30 0.00202834
15 *293:14 *349:22 0.000152412
16 *293:14 *361:14 0.000303538
17 *293:14 *479:30 0.000104431
18 *293:14 *479:36 0.00337066
19 FrameData_O[27] *1620:A 0.000147455
20 NN4BEG[14] *293:12 0.000268166
21 *1404:A *293:14 0.000241474
22 *1433:A *293:12 0.000496449
23 *1464:A *293:12 5.33072e-05
24 *1465:A *293:12 8.51213e-05
25 *1472:A *293:14 8.41815e-05
26 *1475:A *293:12 0.000149721
27 *1477:A *293:12 2.03591e-05
28 *1478:A *293:12 6.5198e-05
29 *1485:A *293:14 0.000304394
30 *159:19 *293:14 0.0013985
31 *185:23 *293:14 3.97677e-05
*RES
1 *1349:X *293:12 28.6929 
2 *293:12 *293:14 65.0179 
3 *293:14 *1620:A 38.3536 
*END

*D_NET *294 0.0144811
*CONN
*I *1621:A I *D sky130_fd_sc_hd__buf_2
*I *495:DIODE I *D sky130_fd_sc_hd__diode_2
*I *1350:X O *D sky130_fd_sc_hd__buf_1
*CAP
1 *1621:A 3.39029e-05
2 *495:DIODE 0.00016167
3 *1350:X 0.00179521
4 *294:34 0.00240148
5 *294:32 0.00406892
6 *495:DIODE *1614:A 0.000151972
7 *294:32 *1616:A 0.000396987
8 *294:32 *303:80 0.000348588
9 *294:32 *305:34 2.33124e-05
10 *294:32 *333:22 1.61405e-05
11 *294:32 *336:112 5.33005e-05
12 *294:32 *365:22 8.92267e-05
13 *294:32 *436:60 1.15426e-05
14 *294:32 *454:96 0.000510563
15 *294:32 *460:34 0.000198803
16 *294:32 *470:22 8.77926e-05
17 *294:32 *486:28 4.51786e-05
18 *294:34 *1614:A 3.28963e-05
19 *294:34 *322:60 1.82189e-05
20 *294:34 *442:28 0.000371582
21 *294:34 *461:28 0.000887042
22 *294:34 *479:36 0
23 *294:34 *481:26 0.000669849
24 FrameData_O[26] *1621:A 2.59355e-05
25 FrameData_O[30] *495:DIODE 0.000127007
26 *1490:A *294:32 4.15526e-05
27 *1509:A *294:34 0.000166605
28 *198:21 *294:34 0.0001317
29 *261:40 *294:34 0.00119696
30 *282:24 *294:32 0.000348586
31 *292:84 *294:32 6.8523e-05
32 *293:14 *294:34 0
*RES
1 *1350:X *294:32 42.7347 
2 *294:32 *294:34 51.4643 
3 *294:34 *495:DIODE 21.7643 
4 *495:DIODE *1621:A 19.1357 
*END

*D_NET *295 0.0195687
*CONN
*I *1622:A I *D sky130_fd_sc_hd__buf_2
*I *1351:X O *D sky130_fd_sc_hd__buf_1
*CAP
1 *1622:A 0.0031666
2 *1351:X 0.00101298
3 *295:30 0.00417958
4 *1622:A *496:DIODE 2.06112e-05
5 *1622:A *1267:A0 0.000235989
6 *1622:A *1514:A 0.000224878
7 *1622:A *349:22 0
8 *1622:A *434:24 0.000607112
9 *1622:A *438:32 0.0027793
10 *1622:A *442:28 5.13697e-05
11 *1622:A *450:16 0.0009696
12 *1622:A *456:32 0.00173993
13 *1622:A *461:28 0.0009696
14 *1622:A *470:22 0
15 *1622:A *480:20 0.000159261
16 *295:30 *1256:A1 7.57819e-06
17 *295:30 *1287:D 9.41642e-05
18 *295:30 *1319:D 8.17274e-05
19 *295:30 *1320:D 0.0001384
20 *295:30 *1328:A 6.37237e-05
21 *295:30 *1334:A 0
22 *295:30 *1345:A 0.000141639
23 *295:30 *1348:A 2.13947e-05
24 *295:30 *1352:A 0.000125988
25 *295:30 *1356:A 0.000181751
26 *295:30 *1416:A 2.11068e-05
27 *295:30 *296:26 0
28 *295:30 *322:42 0.000715318
29 *295:30 *336:112 3.99827e-05
30 *295:30 *420:14 3.22027e-05
31 *295:30 *427:20 8.23597e-06
32 *295:30 *428:12 0.000180737
33 *295:30 *433:34 0.000141446
34 *295:30 *468:20 1.37494e-05
35 *295:30 *482:32 5.33005e-05
36 FrameStrobe_O[17] *1622:A 0.0006966
37 FrameStrobe_O[7] *1622:A 0.000123106
38 *1403:A *1622:A 0.000320813
39 *1473:A *295:30 8.8676e-05
40 *1488:A *1622:A 0.000150398
41 *1492:A *1622:A 9.85424e-06
*RES
1 *1351:X *295:30 48.4429 
2 *295:30 *1622:A 48.1023 
*END

*D_NET *296 0.0163845
*CONN
*I *1623:A I *D sky130_fd_sc_hd__buf_2
*I *1352:X O *D sky130_fd_sc_hd__buf_1
*CAP
1 *1623:A 0
2 *1352:X 0.0039079
3 *296:26 0.0039079
4 *296:26 *1348:A 5.49489e-05
5 *296:26 *1353:A 6.71327e-05
6 *296:26 *1416:A 0.000178425
7 *296:26 *1624:A 1.90936e-05
8 *296:26 *297:26 5.05056e-05
9 *296:26 *299:26 0.00021233
10 *296:26 *301:34 0.000150488
11 *296:26 *303:80 7.09419e-05
12 *296:26 *354:18 0.000175245
13 *296:26 *455:65 0.000436302
14 *296:26 *460:76 0.000304318
15 *296:26 *468:20 5.73804e-05
16 *296:26 *478:32 0.00140019
17 *296:26 *480:20 0.000212547
18 *296:26 *484:40 0.000938497
19 *296:26 *485:34 0.00276527
20 *296:26 *486:28 0.000445788
21 *1259:S1 *296:26 0.000823828
22 *228:24 *296:26 0.000205494
23 *295:30 *296:26 0
*RES
1 *1352:X *296:26 45.9687 
2 *296:26 *1623:A 9.3 
*END

*D_NET *297 0.0149199
*CONN
*I *1624:A I *D sky130_fd_sc_hd__buf_2
*I *1353:X O *D sky130_fd_sc_hd__buf_1
*CAP
1 *1624:A 0.000822709
2 *1353:X 0.000494729
3 *297:48 0.00272886
4 *297:26 0.00240088
5 *1624:A *1612:A 0
6 *1624:A *1616:A 0
7 *1624:A *1618:A 0.000226867
8 *1624:A *304:28 0.000769393
9 *1624:A *480:20 0.000407569
10 *1624:A *486:28 0
11 *297:26 *1254:A1 0.000144742
12 *297:26 *1308:D 8.23185e-05
13 *297:26 *1416:A 0.000688128
14 *297:26 *303:80 0.000317228
15 *297:26 *374:20 0.000139202
16 *297:26 *449:12 2.32456e-05
17 *297:26 *468:20 0.000824041
18 *297:48 *1258:A1 6.56715e-05
19 *297:48 *1271:A1 0.000164481
20 *297:48 *1301:D 0.000491606
21 *297:48 *1307:D 0.000473753
22 *297:48 *1308:D 0.000782229
23 *297:48 *1418:A 0.000240308
24 *297:48 *1424:A 0.000218158
25 *297:48 *303:80 0.000140933
26 *297:48 *304:18 5.74499e-06
27 *297:48 *304:28 0.000339897
28 *297:48 *374:12 0.000306921
29 *1392:A *1624:A 5.33005e-05
30 *77:19 *1624:A 0.000219887
31 *200:19 *297:48 0.000772257
32 *261:30 *297:48 0.000100176
33 *265:18 *297:26 0.000137905
34 *282:24 *297:26 0.000267128
35 *296:26 *1624:A 1.90936e-05
36 *296:26 *297:26 5.05056e-05
*RES
1 *1353:X *297:26 47.2196 
2 *297:26 *297:48 46.6062 
3 *297:48 *1624:A 38.9518 
*END

*D_NET *298 0.0256721
*CONN
*I *1625:A I *D sky130_fd_sc_hd__buf_2
*I *496:DIODE I *D sky130_fd_sc_hd__diode_2
*I *1354:X O *D sky130_fd_sc_hd__buf_1
*CAP
1 *1625:A 1.69531e-05
2 *496:DIODE 0.000388416
3 *1354:X 0.00342498
4 *298:26 0.00379644
5 *496:DIODE *1532:A 0
6 *496:DIODE *349:22 0.000648489
7 *496:DIODE *356:14 7.8775e-05
8 *1625:A *1612:A 5.33005e-05
9 *298:26 *1280:D 0.000243479
10 *298:26 *1418:A 0.000428632
11 *298:26 *303:51 3.22325e-05
12 *298:26 *349:22 0.000466709
13 *298:26 *356:14 0.0068615
14 *298:26 *375:16 0.000267066
15 *298:26 *410:14 0.000598753
16 *298:26 *418:22 0.000215649
17 *298:26 *458:26 0.000160526
18 *298:26 *461:28 0.000161919
19 *298:26 *475:36 0.00601298
20 *298:26 *476:41 7.81329e-05
21 *1343:A *298:26 0.000399815
22 *1620:A *1625:A 5.33005e-05
23 *1622:A *496:DIODE 2.06112e-05
24 *67:38 *298:26 0.00126344
*RES
1 *1354:X *298:26 47.2335 
2 *298:26 *496:DIODE 23.7911 
3 *496:DIODE *1625:A 19.1357 
*END

*D_NET *299 0.0182793
*CONN
*I *497:DIODE I *D sky130_fd_sc_hd__diode_2
*I *1512:A I *D sky130_fd_sc_hd__buf_2
*I *1327:X O *D sky130_fd_sc_hd__buf_1
*CAP
1 *497:DIODE 0.000105594
2 *1512:A 0
3 *1327:X 0.00116259
4 *299:44 0.000283115
5 *299:36 0.00213952
6 *299:34 0.00261432
7 *299:26 0.00181491
8 *497:DIODE *309:32 7.99994e-05
9 *299:26 *1256:A1 4.75956e-06
10 *299:26 *1330:A 0.00030804
11 *299:26 *1353:A 6.34469e-05
12 *299:26 *1416:A 7.31843e-05
13 *299:26 *303:80 2.77339e-05
14 *299:26 *309:26 9.49939e-05
15 *299:26 *340:38 5.52238e-05
16 *299:26 *343:28 3.47641e-06
17 *299:26 *423:18 7.44888e-05
18 *299:26 *423:32 0.00015803
19 *299:26 *431:10 6.79672e-06
20 *299:34 *1289:D 0.000188664
21 *299:34 *1326:A 0
22 *299:34 *1353:A 0.000197206
23 *299:34 *314:18 0
24 *299:34 *386:30 0.000281642
25 *299:34 *395:12 0.000436605
26 *299:36 *300:12 0
27 *299:36 *351:16 0.000386351
28 *299:44 *487:DIODE 2.58997e-05
29 *299:44 *309:32 4.80602e-05
30 FrameData_O[1] *299:44 5.03671e-05
31 FrameData_O[3] *299:44 0.000114136
32 *1256:S1 *299:34 3.91702e-05
33 *1325:A *299:26 7.29712e-05
34 *1374:A *299:44 0
35 *1375:A *299:44 0
36 *1390:A *299:26 0.000339943
37 *68:15 *299:36 0
38 *79:9 *299:36 0.000266634
39 *80:11 *299:36 0.00286645
40 *83:11 *299:36 0.00265621
41 *84:13 *299:36 3.59438e-05
42 *276:64 *299:26 6.39433e-05
43 *279:14 *299:26 0.000914355
44 *279:14 *299:34 1.21637e-05
45 *296:26 *299:26 0.00021233
*RES
1 *1327:X *299:26 45.9161 
2 *299:26 *299:34 17.2768 
3 *299:34 *299:36 54.3393 
4 *299:36 *299:44 12.9107 
5 *299:44 *1512:A 9.3 
6 *299:44 *497:DIODE 11.4786 
*END

*D_NET *300 0.0214955
*CONN
*I *1513:A I *D sky130_fd_sc_hd__buf_2
*I *1355:X O *D sky130_fd_sc_hd__buf_1
*CAP
1 *1513:A 0.000456972
2 *1355:X 0.000938912
3 *300:22 0.00149894
4 *300:12 0.00265292
5 *300:10 0.00254986
6 *1513:A *1514:A 0.000407997
7 *1513:A *1532:A 9.90367e-05
8 *300:10 *1268:A2 6.87975e-06
9 *300:10 *1356:A 0
10 *300:10 *397:10 0.000263323
11 *300:10 *409:45 0.000247341
12 *300:10 *439:16 4.58328e-05
13 *300:10 *443:40 0
14 *300:10 *444:42 0.000138634
15 *300:12 *342:12 0.000994883
16 *300:12 *353:16 0.000430263
17 *300:12 *353:26 0.000433452
18 *300:12 *421:12 0.00227705
19 *300:12 *443:40 0.0037485
20 *300:22 *1259:A0 0.000121953
21 *300:22 *1519:A 0.000127531
22 *300:22 *1530:A 0.00132731
23 *300:22 *317:12 0.00067757
24 *300:22 *318:16 4.7024e-05
25 *300:22 *470:28 0.000153323
26 FrameData_O[26] *1513:A 0.000310671
27 FrameStrobe_O[15] *300:22 5.48198e-05
28 FrameStrobe_O[17] *300:22 3.57844e-05
29 FrameStrobe_O[18] *1513:A 9.71197e-05
30 *1260:S0 *300:10 7.44888e-05
31 *1268:S0 *300:10 0.000167866
32 *1372:A *300:22 0
33 *1373:A *300:22 0.000792986
34 *68:15 *300:12 0.000316215
35 *299:36 *300:12 0
*RES
1 *1355:X *300:10 35.1214 
2 *300:10 *300:12 57.625 
3 *300:12 *300:22 41.6607 
4 *300:22 *1513:A 20.1214 
*END

*D_NET *301 0.0191802
*CONN
*I *1514:A I *D sky130_fd_sc_hd__buf_2
*I *1356:X O *D sky130_fd_sc_hd__buf_1
*CAP
1 *1514:A 0.00128498
2 *1356:X 0.00260682
3 *301:34 0.00389181
4 *1514:A *1267:A0 0.00087129
5 *1514:A *1532:A 9.90367e-05
6 *1514:A *1540:A 1.52956e-05
7 *1514:A *318:16 9.92409e-05
8 *1514:A *328:22 0
9 *1514:A *329:28 2.22916e-05
10 *1514:A *479:36 6.09762e-05
11 *301:34 *1254:A0 2.69864e-05
12 *301:34 *1286:D 0.000109651
13 *301:34 *1301:D 0.00131102
14 *301:34 *1319:D 6.30035e-05
15 *301:34 *1616:A 0.00314234
16 *301:34 *354:18 1.67577e-05
17 *301:34 *380:45 0.000325921
18 *301:34 *427:20 2.65338e-05
19 *301:34 *455:18 0.000138776
20 *301:34 *457:14 0.00136781
21 *301:34 *457:26 2.63501e-05
22 *301:34 *478:32 9.67517e-05
23 *301:34 *482:32 0.0005491
24 *301:34 *483:36 3.99657e-05
25 *301:34 *486:28 0.000618017
26 FrameStrobe_O[17] *1514:A 0.000423694
27 FrameStrobe_O[18] *1514:A 0.000287034
28 FrameStrobe_O[19] *1514:A 0.000376589
29 *1263:S1 *301:34 9.87828e-05
30 *1388:A *1514:A 0.000108775
31 *1513:A *1514:A 0.000407997
32 *1622:A *1514:A 0.000224878
33 *197:21 *1514:A 0
34 *198:21 *1514:A 0.000254416
35 *199:19 *1514:A 8.44271e-06
36 *292:84 *301:34 2.84026e-05
37 *296:26 *301:34 0.000150488
*RES
1 *1356:X *301:34 46.6172 
2 *301:34 *1514:A 42.0273 
*END

*D_NET *302 0.018262
*CONN
*I *1515:A I *D sky130_fd_sc_hd__buf_2
*I *498:DIODE I *D sky130_fd_sc_hd__diode_2
*I *1328:X O *D sky130_fd_sc_hd__buf_1
*CAP
1 *1515:A 0.000134835
2 *498:DIODE 0.000134835
3 *1328:X 0.00350791
4 *302:24 0.00350791
5 *1515:A *1615:A 5.52238e-05
6 *1515:A *309:32 0.000173921
7 *302:24 *487:DIODE 0.000110327
8 *302:24 *1319:D 4.15161e-05
9 *302:24 *1320:D 2.10422e-05
10 *302:24 *1326:A 4.47367e-05
11 *302:24 *1519:A 0.000567618
12 *302:24 *322:30 9.60337e-06
13 *302:24 *353:16 0.00159551
14 *302:24 *353:26 0.00208672
15 *302:24 *359:22 0.000873319
16 *302:24 *380:45 4.79414e-05
17 *302:24 *391:38 0.000115935
18 *302:24 *418:22 6.14083e-05
19 *302:24 *420:30 0.000491293
20 *302:24 *427:20 2.17524e-05
21 *302:24 *443:40 0.000254013
22 *302:24 *461:28 0
23 *302:24 *477:26 0.000359848
24 *302:24 *483:36 2.35126e-05
25 *1325:A *302:24 0.00120624
26 *1366:A *302:24 0.00214273
27 *1373:A *302:24 0
28 *1374:A *302:24 0
29 *67:38 *302:24 0.000192712
30 *68:15 *302:24 0.000103646
31 *84:13 *302:24 0.000375961
*RES
1 *1328:X *302:24 47.2727 
2 *302:24 *498:DIODE 13.8 
3 *498:DIODE *1515:A 22.0286 
*END

*D_NET *303 0.0263901
*CONN
*I *1312:D I *D sky130_fd_sc_hd__dlxtp_1
*I *1344:A I *D sky130_fd_sc_hd__buf_1
*I *1280:D I *D sky130_fd_sc_hd__dlxtp_1
*I *1438:X O *D sky130_fd_sc_hd__dlymetal6s2s_1
*CAP
1 *1312:D 0
2 *1344:A 0
3 *1280:D 0.000217075
4 *1438:X 0.00270665
5 *303:80 0.00194669
6 *303:51 0.00264457
7 *303:24 0.00159945
8 *303:14 0.00339113
9 *1280:D *1257:A0 3.69047e-06
10 *1280:D *1268:A0 5.23296e-05
11 *1280:D *1355:A 0.000178425
12 *1280:D *1418:A 6.05161e-06
13 *1280:D *375:16 2.30239e-05
14 *1280:D *400:61 1.85668e-05
15 *303:14 *1270:A2 2.3541e-05
16 *303:14 *336:20 0.00115565
17 *303:14 *338:30 0.00251355
18 *303:14 *345:16 0.000182123
19 *303:14 *383:20 3.41604e-05
20 *303:14 *458:40 0.000854793
21 *303:14 *465:20 0.000487234
22 *303:24 *1260:A1 8.23185e-05
23 *303:24 *408:44 8.16362e-05
24 *303:24 *408:83 8.25843e-06
25 *303:51 *1327:A 3.15633e-05
26 *303:51 *1345:A 0.000267514
27 *303:51 *1346:A 3.13579e-05
28 *303:51 *338:30 2.06112e-05
29 *303:51 *375:16 5.26411e-05
30 *303:51 *426:26 0.000309386
31 *303:51 *436:34 1.90936e-05
32 *303:51 *454:45 8.93789e-05
33 *303:51 *454:96 6.87866e-05
34 *303:51 *484:40 1.64621e-05
35 *303:80 *1252:A0 4.26825e-05
36 *303:80 *1308:D 0.000155764
37 *303:80 *1327:A 6.71327e-05
38 *303:80 *1330:A 3.30259e-05
39 *303:80 *1341:A 6.30931e-05
40 *303:80 *1353:A 0.000167638
41 *303:80 *1416:A 1.26641e-05
42 *303:80 *305:34 0.000154544
43 *303:80 *340:38 0.000217635
44 *303:80 *374:12 2.2351e-05
45 *303:80 *406:26 6.28203e-05
46 *303:80 *420:14 2.06037e-05
47 *303:80 *433:34 0.000760159
48 *303:80 *478:32 7.31414e-05
49 *303:80 *480:20 0.000775421
50 *303:80 *484:40 9.41642e-05
51 *1260:S1 *1280:D 0.000254712
52 *1260:S1 *303:51 0.000134673
53 *1272:S1 *303:24 0.000218409
54 *1279:D *303:24 7.47482e-05
55 *1385:A *303:14 1.92905e-05
56 *1440:A *303:14 0.00017412
57 *1476:A *303:51 6.61017e-05
58 *1477:A *303:51 1.81818e-05
59 *246:26 *303:24 9.58126e-05
60 *273:12 *303:14 0.000110632
61 *282:24 *303:80 0.000254377
62 *292:16 *303:14 0.00194733
63 *294:32 *303:80 0.000348588
64 *296:26 *303:80 7.09419e-05
65 *297:26 *303:80 0.000317228
66 *297:48 *303:80 0.000140933
67 *298:26 *1280:D 0.000243479
68 *298:26 *303:51 3.22325e-05
69 *299:26 *303:80 2.77339e-05
*RES
1 *1438:X *303:14 48.5491 
2 *303:14 *303:24 21.1154 
3 *303:24 *1280:D 19.6393 
4 *303:24 *303:51 17.7857 
5 *303:51 *1344:A 9.3 
6 *303:51 *303:80 41.3995 
7 *303:80 *1312:D 9.3 
*END

*D_NET *304 0.01061
*CONN
*I *1516:A I *D sky130_fd_sc_hd__buf_2
*I *1329:X O *D sky130_fd_sc_hd__buf_1
*CAP
1 *1516:A 0.000164206
2 *1329:X 0.000639958
3 *304:28 0.00315968
4 *304:18 0.00363543
5 *304:18 *1271:A1 0.000117693
6 *304:18 *1307:D 6.40194e-05
7 *304:18 *1308:D 9.38921e-05
8 *304:18 *1308:GATE 0.000137983
9 *304:18 *364:10 0.000184158
10 *304:28 *1307:D 5.91336e-05
11 *304:28 *1518:A 0
12 *304:28 *1520:A 5.56196e-05
13 *304:28 *1608:A 0.000125724
14 *304:28 *1609:A 0
15 *304:28 *1612:A 8.12049e-05
16 *304:28 *1616:A 0.000111454
17 *304:28 *473:22 6.46769e-05
18 *304:28 *477:26 1.94945e-05
19 *304:28 *480:20 0.000118321
20 FrameData_O[10] *304:28 7.69776e-06
21 FrameData_O[14] *304:28 7.69776e-06
22 FrameData_O[18] *304:28 2.06178e-05
23 FrameData_O[4] *1516:A 0.00015329
24 *1624:A *304:28 0.000769393
25 *77:19 *304:28 0.000447718
26 *284:16 *304:18 2.53281e-05
27 *297:48 *304:18 5.74499e-06
28 *297:48 *304:28 0.000339897
*RES
1 *1329:X *304:18 28.1214 
2 *304:18 *304:28 49.2857 
3 *304:28 *1516:A 17.3536 
*END

*D_NET *305 0.0200242
*CONN
*I *1517:A I *D sky130_fd_sc_hd__buf_2
*I *499:DIODE I *D sky130_fd_sc_hd__diode_2
*I *1330:X O *D sky130_fd_sc_hd__buf_1
*CAP
1 *1517:A 2.23988e-05
2 *499:DIODE 2.23988e-05
3 *1330:X 0.00504278
4 *305:34 0.00504278
5 *1517:A *309:32 2.27416e-05
6 *305:34 *487:DIODE 0.00014305
7 *305:34 *1252:A0 2.11419e-05
8 *305:34 *1330:A 4.65519e-05
9 *305:34 *309:32 0.000111763
10 *305:34 *329:28 2.50591e-05
11 *305:34 *343:28 8.94491e-05
12 *305:34 *420:14 6.69814e-05
13 *305:34 *454:96 0.000472275
14 *305:34 *460:34 4.65519e-05
15 *305:34 *472:32 0.00259685
16 *305:34 *478:32 0.000732862
17 *305:34 *480:20 0.000213314
18 *305:34 *482:32 0.00248011
19 FrameData_O[0] *305:34 2.11419e-05
20 FrameData_O[3] *305:34 0.00013398
21 FrameData_O[6] *305:34 9.11102e-06
22 *1293:D *305:34 0.00223364
23 *1365:A *305:34 0.000243096
24 *77:19 *305:34 6.27272e-06
25 *276:24 *305:34 0
26 *294:32 *305:34 2.33124e-05
27 *303:80 *305:34 0.000154544
*RES
1 *1330:X *305:34 48.6789 
2 *305:34 *499:DIODE 9.3 
3 *499:DIODE *1517:A 19.1357 
*END

*D_NET *306 0.0156036
*CONN
*I *1518:A I *D sky130_fd_sc_hd__buf_2
*I *1331:X O *D sky130_fd_sc_hd__buf_1
*CAP
1 *1518:A 0.000402289
2 *1331:X 0.000937299
3 *306:34 0.00404488
4 *306:30 0.00376176
5 *306:20 0.00105646
6 *1518:A *1519:A 0.000230155
7 *1518:A *1520:A 0
8 *1518:A *471:26 1.26701e-05
9 *306:20 *1252:A2 2.14658e-05
10 *306:20 *1254:A2 2.0653e-05
11 *306:20 *1258:A1 0.000181474
12 *306:20 *1331:A 1.73088e-05
13 *306:20 *1332:A 5.33005e-05
14 *306:20 *1414:A 0.000219289
15 *306:20 *308:26 5.23296e-05
16 *306:20 *379:24 0.000267731
17 *306:20 *395:12 1.58163e-05
18 *306:20 *404:55 0.000516517
19 *306:20 *421:20 0
20 *306:20 *436:60 0.000105125
21 *306:20 *447:47 0.000101772
22 *306:30 *1305:D 0.00022266
23 *306:30 *414:26 2.57669e-05
24 *306:30 *474:18 5.31113e-05
25 *306:34 *1305:D 2.95943e-05
26 *306:34 *1316:GATE 4.58194e-05
27 *1254:S0 *306:34 0.000342302
28 *1375:A *1518:A 0.000629665
29 *1394:A *306:34 6.17878e-05
30 *1395:A *306:20 0.000103211
31 *227:14 *306:34 0.000768659
32 *234:20 *306:20 0.000397502
33 *239:26 *306:20 2.69575e-05
34 *239:26 *306:30 0.000224583
35 *239:26 *306:34 7.99636e-05
36 *265:18 *306:20 0
37 *266:20 *306:20 0.000227328
38 *269:22 *306:20 0.000261683
39 *269:22 *306:30 1.68854e-05
40 *270:24 *306:20 6.78252e-05
41 *304:28 *1518:A 0
*RES
1 *1331:X *306:20 46.0321 
2 *306:20 *306:30 17.0179 
3 *306:30 *306:34 46.5179 
4 *306:34 *1518:A 23.9964 
*END

*D_NET *307 0.0165225
*CONN
*I *1519:A I *D sky130_fd_sc_hd__buf_2
*I *1332:X O *D sky130_fd_sc_hd__buf_1
*CAP
1 *1519:A 0.00230518
2 *1332:X 0.00159456
3 *307:16 0.00389974
4 *1519:A *487:DIODE 0.00146243
5 *1519:A *351:16 0.00142368
6 *1519:A *470:28 0.00079608
7 *1519:A *482:32 0.000722194
8 *307:16 *1252:A2 0.000537035
9 *307:16 *1254:A2 0.000139856
10 *307:16 *1258:A1 4.53902e-05
11 *307:16 *390:10 0.000126484
12 *307:16 *401:74 7.55769e-05
13 *307:16 *419:22 7.55769e-05
14 *307:16 *421:20 0.00074654
15 *307:16 *447:47 0.000556732
16 FrameData_O[0] *1519:A 0.00014341
17 *1366:A *1519:A 0.000405064
18 *1372:A *1519:A 0
19 *1518:A *1519:A 0.000230155
20 *79:9 *1519:A 0.000166358
21 *211:9 *1519:A 0.000172737
22 *270:24 *307:16 0.000181397
23 *274:32 *307:16 2.11419e-05
24 *300:22 *1519:A 0.000127531
25 *302:24 *1519:A 0.000567618
*RES
1 *1332:X *307:16 48.6304 
2 *307:16 *1519:A 46.9836 
*END

*D_NET *308 0.0179568
*CONN
*I *1520:A I *D sky130_fd_sc_hd__buf_2
*I *1333:X O *D sky130_fd_sc_hd__buf_1
*CAP
1 *1520:A 0.000162697
2 *1333:X 0.00366854
3 *308:26 0.00383123
4 *1520:A *471:26 2.07809e-05
5 *308:26 *1256:A1 0.000469024
6 *308:26 *1281:D 2.79201e-05
7 *308:26 *1282:GATE 4.05503e-05
8 *308:26 *1298:D 0.00207962
9 *308:26 *1348:A 0.000347367
10 *308:26 *1353:A 6.09762e-05
11 *308:26 *1358:A 2.81562e-05
12 *308:26 *352:36 2.06178e-05
13 *308:26 *401:74 7.34657e-05
14 *308:26 *401:82 5.20359e-06
15 *308:26 *415:22 0.000304046
16 *308:26 *460:34 6.28203e-05
17 *308:26 *471:26 0.00589531
18 *308:26 *474:22 0.000182899
19 *308:26 *477:26 0
20 FrameData_O[10] *1520:A 2.01732e-05
21 *1395:A *308:26 5.33005e-05
22 *1518:A *1520:A 0
23 *270:24 *308:26 0.000494191
24 *304:28 *1520:A 5.56196e-05
25 *306:20 *308:26 5.23296e-05
*RES
1 *1333:X *308:26 49.7363 
2 *308:26 *1520:A 20.2189 
*END

*D_NET *309 0.0188815
*CONN
*I *1521:A I *D sky130_fd_sc_hd__buf_2
*I *1334:X O *D sky130_fd_sc_hd__buf_1
*CAP
1 *1521:A 0.000182559
2 *1334:X 0.000570443
3 *309:32 0.00468553
4 *309:30 0.00493024
5 *309:26 0.000997709
6 *309:26 *1254:A0 0.000278896
7 *309:26 *1319:D 7.02211e-05
8 *309:26 *1353:A 9.65182e-05
9 *309:26 *404:55 0.000180348
10 *309:26 *427:61 0.000502801
11 *309:26 *436:60 3.074e-05
12 *309:30 *395:12 9.05551e-05
13 *309:30 *436:60 0.000715284
14 *309:32 *344:14 0.00334336
15 *309:32 *472:32 0.000172737
16 FrameData_O[0] *1521:A 1.71615e-05
17 FrameData_O[6] *1521:A 9.60337e-06
18 *497:DIODE *309:32 7.99994e-05
19 *1252:S1 *309:26 0.000136682
20 *1375:A *1521:A 0
21 *1515:A *309:32 0.000173921
22 *1517:A *309:32 2.27416e-05
23 *77:19 *1521:A 0.000311887
24 *279:14 *309:26 0.000343707
25 *279:14 *309:30 0.000177726
26 *292:84 *309:26 0.000505335
27 *299:26 *309:26 9.49939e-05
28 *299:44 *309:32 4.80602e-05
29 *305:34 *309:32 0.000111763
*RES
1 *1334:X *309:26 46.425 
2 *309:26 *309:30 14.3393 
3 *309:30 *309:32 58.0357 
4 *309:32 *1521:A 22.3714 
*END

*D_NET *310 0.0181269
*CONN
*I *1522:A I *D sky130_fd_sc_hd__buf_2
*I *488:DIODE I *D sky130_fd_sc_hd__diode_2
*I *1357:X O *D sky130_fd_sc_hd__buf_1
*CAP
1 *1522:A 1.97835e-05
2 *488:DIODE 0
3 *1357:X 0.00183362
4 *310:50 0.000330901
5 *310:42 0.00125871
6 *310:30 0.00278122
7 *1522:A *453:18 8.46829e-05
8 *310:30 *1575:A 4.98422e-05
9 *310:30 *325:40 5.47001e-05
10 *310:30 *338:30 0.000194752
11 *310:30 *378:38 4.89354e-06
12 *310:30 *391:38 0.000731719
13 *310:30 *403:26 0.000168071
14 *310:30 *407:48 0.000134126
15 *310:30 *454:45 7.20729e-05
16 *310:30 *459:30 0.000593291
17 *310:30 *468:45 0.000315016
18 *310:42 *333:24 0.00168626
19 *310:42 *343:30 0.00144191
20 *310:42 *361:14 9.36789e-05
21 *310:50 *453:18 5.52238e-05
22 *310:50 *485:34 4.00349e-05
23 FrameStrobe_O[0] *310:50 0.000671257
24 NN4BEG[15] *310:30 2.79814e-05
25 UserCLKo *310:50 0.000736198
26 *1433:A *310:30 4.01462e-06
27 *1464:A *310:30 9.90431e-05
28 *1465:A *310:30 4.73891e-05
29 *1479:A *310:30 0.000270646
30 *1481:A *310:42 0.000121242
31 *1482:A *310:42 0.000119656
32 *1499:A *1522:A 9.71197e-05
33 *1499:A *310:50 5.33005e-05
34 *159:19 *310:30 0.000179582
35 *185:23 *310:42 0.00148595
36 *185:23 *310:50 5.66471e-06
37 *246:26 *310:30 7.51735e-05
38 *293:12 *310:30 1.32941e-05
39 *293:14 *310:42 0.00217488
*RES
1 *1357:X *310:30 46.1398 
2 *310:30 *310:42 46.6429 
3 *310:42 *310:50 19.375 
4 *310:50 *488:DIODE 9.3 
5 *310:50 *1522:A 10.2464 
*END

*D_NET *311 0.00560672
*CONN
*I *1523:A I *D sky130_fd_sc_hd__buf_2
*I *1367:X O *D sky130_fd_sc_hd__clkbuf_1
*CAP
1 *1523:A 0
2 *1367:X 0.00111165
3 *311:14 0.00111165
4 *311:14 *312:14 0.000384341
5 *311:14 *331:18 0.00108817
6 *311:14 *344:12 0.000185124
7 *311:14 *353:16 0.000752241
8 *311:14 *361:12 0.000673596
9 *311:14 *442:57 0.00020579
10 *311:14 *451:64 9.41642e-05
11 *1372:A *311:14 0
*RES
1 *1367:X *311:14 46.8893 
2 *311:14 *1523:A 9.3 
*END

*D_NET *312 0.00526331
*CONN
*I *1524:A I *D sky130_fd_sc_hd__buf_2
*I *1368:X O *D sky130_fd_sc_hd__clkbuf_1
*CAP
1 *1524:A 0
2 *1368:X 0.00104376
3 *312:14 0.00104376
4 *312:14 *1267:A2 5.6946e-05
5 *312:14 *331:18 0.000144479
6 *312:14 *361:12 0.000874392
7 *312:14 *442:57 0.000204136
8 FrameStrobe_O[10] *312:14 0.000164832
9 *1271:S1 *312:14 7.54691e-05
10 *1368:A *312:14 5.38444e-06
11 *1371:A *312:14 0.000219711
12 *71:29 *312:14 7.9517e-05
13 *270:24 *312:14 0.000966578
14 *311:14 *312:14 0.000384341
*RES
1 *1368:X *312:14 47.0679 
2 *312:14 *1524:A 9.3 
*END

*D_NET *313 0.00430667
*CONN
*I *1525:A I *D sky130_fd_sc_hd__buf_2
*I *1369:X O *D sky130_fd_sc_hd__clkbuf_1
*CAP
1 *1525:A 0
2 *1369:X 0.000724303
3 *313:12 0.000724303
4 *313:12 *1271:A2 0.000428915
5 *313:12 *315:14 0.00065827
6 *313:12 *474:22 1.65169e-05
7 *1271:S1 *313:12 0.00132442
8 *71:29 *313:12 0.00042994
*RES
1 *1369:X *313:12 40.7821 
2 *313:12 *1525:A 9.3 
*END

*D_NET *314 0.0298348
*CONN
*I *1326:A I *D sky130_fd_sc_hd__buf_1
*I *1294:D I *D sky130_fd_sc_hd__dlxtp_1
*I *1439:X O *D sky130_fd_sc_hd__dlymetal6s2s_1
*CAP
1 *1326:A 0.00113221
2 *1294:D 0
3 *1439:X 0.000323312
4 *314:36 0.00181596
5 *314:18 0.00306887
6 *314:14 0.00148686
7 *314:12 0.00168948
8 *1326:A *1416:A 2.97398e-05
9 *1326:A *322:30 9.293e-05
10 *1326:A *379:24 1.74567e-05
11 *1326:A *386:30 4.65519e-05
12 *1326:A *391:38 1.21955e-05
13 *1326:A *408:83 0.000738504
14 *1326:A *419:22 3.68406e-05
15 *1326:A *420:30 0.000340756
16 *1326:A *436:60 2.06112e-05
17 *1326:A *468:22 0.000199455
18 *1326:A *483:36 0.000214712
19 *1326:A *486:28 6.42122e-06
20 *314:12 *415:12 5.52238e-05
21 *314:14 *351:16 0.000207292
22 *314:14 *359:22 0.000362264
23 *314:14 *393:18 0.00534901
24 *314:14 *395:14 0.00590874
25 *314:14 *419:14 0.000352093
26 *314:14 *421:12 0
27 *314:18 *419:22 0.000164708
28 *314:36 *1258:A0 5.00194e-05
29 *314:36 *1258:A2 9.34324e-05
30 *314:36 *347:64 0.000462798
31 *314:36 *379:24 0
32 *314:36 *421:20 0.000303448
33 *314:36 *436:60 0.000619984
34 *314:36 *464:42 0.00107916
35 *314:36 *482:32 0.000105136
36 VALUE_top2 *314:12 0
37 *500:DIODE *314:36 4.60513e-05
38 *1258:S0 *314:36 4.60513e-05
39 *1325:A *1326:A 0.000706608
40 *1365:A *314:36 0.000487023
41 *1451:A *314:12 2.89016e-05
42 *79:9 *314:14 9.76435e-06
43 *80:11 *314:14 0.000763637
44 *257:20 *314:36 1.53584e-05
45 *262:28 *314:36 0.000332248
46 *269:22 *314:36 2.04825e-05
47 *274:32 *314:36 8.60328e-05
48 *276:24 *314:36 0.00084056
49 *291:22 *314:12 2.11419e-05
50 *299:34 *1326:A 0
51 *299:34 *314:18 0
52 *302:24 *1326:A 4.47367e-05
*RES
1 *1439:X *314:12 24.1214 
2 *314:12 *314:14 70.3571 
3 *314:14 *314:18 6.75 
4 *314:18 *314:36 42.9812 
5 *314:36 *1294:D 9.3 
6 *314:18 *1326:A 32.2796 
*END

*D_NET *315 0.00359678
*CONN
*I *1526:A I *D sky130_fd_sc_hd__buf_2
*I *1370:X O *D sky130_fd_sc_hd__clkbuf_1
*CAP
1 *1526:A 0
2 *1370:X 0.000938781
3 *315:14 0.000938781
4 *315:14 *1259:A3 0
5 *315:14 *1267:A0 0
6 *315:14 *1271:A2 0.000306075
7 *315:14 *1408:A 0.000209747
8 *315:14 *316:18 0
9 *315:14 *318:16 3.84759e-05
10 *315:14 *479:36 0
11 FrameStrobe_O[12] *315:14 0.000136878
12 FrameStrobe_O[16] *315:14 1.92905e-05
13 FrameStrobe_O[18] *315:14 0.000184323
14 *1267:S0 *315:14 0.000122091
15 *1271:S1 *315:14 4.40645e-05
16 *313:12 *315:14 0.00065827
*RES
1 *1370:X *315:14 41.5679 
2 *315:14 *1526:A 9.3 
*END

*D_NET *316 0.00393718
*CONN
*I *1527:A I *D sky130_fd_sc_hd__buf_2
*I *1371:X O *D sky130_fd_sc_hd__clkbuf_1
*CAP
1 *1527:A 0
2 *1371:X 0.00106913
3 *316:18 0.00106913
4 *316:18 *1267:A0 4.91697e-05
5 *316:18 *1271:A2 0
6 *316:18 *1612:A 0.000139907
7 *316:18 *317:12 9.90367e-05
8 *316:18 *318:16 0.00143376
9 *316:18 *442:90 5.21733e-05
10 *1372:A *316:18 2.4871e-05
11 *315:14 *316:18 0
*RES
1 *1371:X *316:18 41.3357 
2 *316:18 *1527:A 9.3 
*END

*D_NET *317 0.00425353
*CONN
*I *1528:A I *D sky130_fd_sc_hd__buf_2
*I *1372:X O *D sky130_fd_sc_hd__clkbuf_1
*CAP
1 *1528:A 0
2 *1372:X 0.000798911
3 *317:12 0.000798911
4 *317:12 *1259:A0 0.000121953
5 *317:12 *318:16 0.00162992
6 FrameStrobe_O[15] *317:12 1.45697e-05
7 FrameStrobe_O[17] *317:12 0.000112655
8 *300:22 *317:12 0.00067757
9 *316:18 *317:12 9.90367e-05
*RES
1 *1372:X *317:12 41.4429 
2 *317:12 *1528:A 9.3 
*END

*D_NET *318 0.00522957
*CONN
*I *1529:A I *D sky130_fd_sc_hd__buf_2
*I *1373:X O *D sky130_fd_sc_hd__clkbuf_1
*CAP
1 *1529:A 0
2 *1373:X 0.000833567
3 *318:16 0.000833567
4 *318:16 *1267:A0 2.92517e-05
5 FrameStrobe_O[15] *318:16 5.25192e-06
6 FrameStrobe_O[18] *318:16 8.43535e-06
7 FrameStrobe_O[19] *318:16 0.00027107
8 *1372:A *318:16 0
9 *1514:A *318:16 9.92409e-05
10 *300:22 *318:16 4.7024e-05
11 *315:14 *318:16 3.84759e-05
12 *316:18 *318:16 0.00143376
13 *317:12 *318:16 0.00162992
*RES
1 *1373:X *318:16 45.05 
2 *318:16 *1529:A 9.3 
*END

*D_NET *319 0.0030755
*CONN
*I *1530:A I *D sky130_fd_sc_hd__buf_2
*I *1374:X O *D sky130_fd_sc_hd__clkbuf_1
*CAP
1 *1530:A 0.000544068
2 *1374:X 0.000544068
3 *1530:A *470:28 0.000660057
4 *300:22 *1530:A 0.00132731
*RES
1 *1374:X *1530:A 45.0286 
*END

*D_NET *320 0.00249639
*CONN
*I *1531:A I *D sky130_fd_sc_hd__buf_2
*I *1375:X O *D sky130_fd_sc_hd__clkbuf_1
*CAP
1 *1531:A 0.000508298
2 *1375:X 0.000508298
3 *1531:A *1259:A2 2.30116e-06
4 *1531:A *1259:A3 0.000132938
5 *1531:A *1532:A 0
6 *1531:A *470:28 0.000202664
7 *1531:A *473:22 5.71472e-05
8 *1259:S0 *1531:A 0.000660169
9 *1396:A *1531:A 0.000317789
10 *1620:A *1531:A 0.000106783
*RES
1 *1375:X *1531:A 42.225 
*END

*D_NET *321 0.00147421
*CONN
*I *1532:A I *D sky130_fd_sc_hd__buf_2
*I *1376:X O *D sky130_fd_sc_hd__clkbuf_1
*CAP
1 *1532:A 0.000563256
2 *1376:X 0.000563256
3 *1532:A *1259:A2 4.05483e-05
4 *1532:A *1408:A 0
5 *1532:A *349:22 0
6 *1532:A *356:14 0
7 *1532:A *485:34 4.43299e-05
8 *496:DIODE *1532:A 0
9 *1259:S1 *1532:A 6.47471e-05
10 *1396:A *1532:A 0
11 *1513:A *1532:A 9.90367e-05
12 *1514:A *1532:A 9.90367e-05
13 *1531:A *1532:A 0
14 *1620:A *1532:A 0
*RES
1 *1376:X *1532:A 37.7786 
*END

*D_NET *322 0.0159322
*CONN
*I *1533:A I *D sky130_fd_sc_hd__buf_2
*I *1358:X O *D sky130_fd_sc_hd__clkbuf_1
*CAP
1 *1533:A 0
2 *1358:X 0.000911887
3 *322:60 0.00131151
4 *322:42 0.00243319
5 *322:30 0.00203357
6 *322:30 *1287:GATE 7.00294e-06
7 *322:30 *1288:GATE 8.40344e-05
8 *322:30 *1345:A 0.000576641
9 *322:30 *1358:A 4.32443e-05
10 *322:30 *391:38 2.48762e-05
11 *322:30 *408:83 2.59355e-05
12 *322:30 *423:32 8.55871e-05
13 *322:30 *427:20 0.000192975
14 *322:30 *468:22 8.23941e-05
15 *322:30 *483:36 0.000493573
16 *322:42 *1347:A 8.68658e-05
17 *322:42 *1416:A 7.69414e-05
18 *322:42 *333:22 0.000164251
19 *322:42 *336:112 2.36523e-05
20 *322:42 *340:38 7.14469e-05
21 *322:42 *354:26 0.00123715
22 *322:42 *367:14 0.000168318
23 *322:42 *466:30 9.0145e-05
24 *322:60 *453:24 0.00106479
25 *322:60 *458:26 0.000118986
26 *322:60 *463:18 0.000675122
27 *322:60 *479:30 0.000260152
28 *322:60 *479:36 0.000396535
29 *322:60 *481:26 6.13757e-06
30 FrameStrobe_O[3] *322:60 0.00034425
31 *1325:A *322:30 6.25005e-05
32 *1326:A *322:30 9.293e-05
33 *1395:A *322:30 8.58829e-05
34 *1399:A *322:60 3.97677e-05
35 *1400:A *322:42 2.53281e-05
36 *1400:A *322:60 0.000151842
37 *1402:A *322:42 5.25675e-05
38 *1403:A *322:42 0
39 *1471:A *322:42 0.000617441
40 *1472:A *322:42 0.000183521
41 *1473:A *322:42 3.25854e-05
42 *1474:A *322:42 9.58593e-05
43 *1490:A *322:42 2.70189e-05
44 *1494:A *322:60 0.000379437
45 *1509:A *322:60 1.21258e-05
46 *198:21 *322:60 8.6229e-06
47 *292:43 *322:30 0.000230452
48 *294:34 *322:60 1.82189e-05
49 *295:30 *322:42 0.000715318
50 *302:24 *322:30 9.60337e-06
*RES
1 *1358:X *322:30 37.8618 
2 *322:30 *322:42 43.0893 
3 *322:42 *322:60 47.0893 
4 *322:60 *1533:A 9.3 
*END

*D_NET *323 0.00371261
*CONN
*I *1534:A I *D sky130_fd_sc_hd__buf_2
*I *1359:X O *D sky130_fd_sc_hd__clkbuf_1
*CAP
1 *1534:A 0.000724101
2 *1359:X 0.000724101
3 *1534:A *1271:A3 0.000155816
4 *1534:A *1316:D 4.43299e-05
5 *1534:A *1535:A 0.00118556
6 *1534:A *327:16 0
7 *1534:A *425:45 0
8 *1534:A *455:18 0.00016745
9 *1534:A *456:32 6.87736e-05
10 *1534:A *467:65 5.49489e-05
11 *1359:A *1534:A 5.05056e-05
12 *1369:A *1534:A 0.000141729
13 *1394:A *1534:A 0.00026373
14 *197:21 *1534:A 8.6229e-06
15 *200:19 *1534:A 0.000122935
*RES
1 *1359:X *1534:A 46.1179 
*END

*D_NET *324 0.00429271
*CONN
*I *1535:A I *D sky130_fd_sc_hd__buf_2
*I *1360:X O *D sky130_fd_sc_hd__clkbuf_1
*CAP
1 *1535:A 0.000793861
2 *1360:X 0.000793861
3 *1535:A *326:16 0.000161022
4 *1535:A *389:12 0.000968841
5 *1535:A *451:64 5.49544e-05
6 FrameStrobe_O[6] *1535:A 2.84109e-05
7 *1359:A *1535:A 7.47077e-05
8 *1369:A *1535:A 6.39003e-05
9 *1534:A *1535:A 0.00118556
10 *197:21 *1535:A 0.000167586
*RES
1 *1360:X *1535:A 48.4571 
*END

*D_NET *325 0.0196114
*CONN
*I *1313:D I *D sky130_fd_sc_hd__dlxtp_1
*I *1281:D I *D sky130_fd_sc_hd__dlxtp_1
*I *1345:A I *D sky130_fd_sc_hd__buf_1
*I *1440:X O *D sky130_fd_sc_hd__buf_1
*CAP
1 *1313:D 0
2 *1281:D 0.000156688
3 *1345:A 0.00104547
4 *1440:X 8.2929e-05
5 *325:40 0.00239555
6 *325:30 0.00151048
7 *325:22 0.00250607
8 *325:10 0.00227191
9 *1281:D *1282:GATE 1.73088e-05
10 *1281:D *1333:A 9.58181e-05
11 *1281:D *1358:A 4.41682e-05
12 *1281:D *401:82 0.000137561
13 *1345:A *1303:GATE 7.62355e-05
14 *1345:A *1320:D 0.000107201
15 *1345:A *1339:A 2.80052e-05
16 *1345:A *1356:A 1.59312e-05
17 *1345:A *338:30 2.63501e-05
18 *1345:A *375:16 0.000198836
19 *1345:A *382:32 5.49544e-05
20 *1345:A *468:22 0.000613758
21 *1345:A *472:32 7.47868e-05
22 *325:22 *1323:GATE 7.09112e-05
23 *325:22 *1379:A 0.000131687
24 *325:22 *334:16 5.33005e-05
25 *325:22 *335:14 2.71255e-05
26 *325:22 *408:24 6.05161e-06
27 *325:30 *1276:D 2.11419e-05
28 *325:30 *360:28 0.000146638
29 *325:30 *433:34 6.14647e-05
30 *325:40 *1257:A1 9.66977e-05
31 *325:40 *1257:A2 0.000552905
32 *325:40 *1313:GATE 3.97677e-05
33 *325:40 *1318:GATE 2.12005e-05
34 *325:40 *1357:A 0.000262686
35 *325:40 *1358:A 0.000265751
36 *325:40 *358:20 0.000587062
37 *325:40 *380:26 0.000242228
38 *325:40 *380:45 0.000205972
39 *325:40 *403:26 0.000545834
40 *325:40 *403:54 1.0804e-05
41 *325:40 *444:66 8.2607e-05
42 *1249:A *325:22 0.00072717
43 *1270:S1 *325:22 0.000589407
44 *231:22 *1345:A 2.84109e-05
45 *245:24 *325:22 0.000135028
46 *247:43 *325:22 4.08637e-05
47 *268:20 *1345:A 4.43263e-05
48 *268:20 *325:40 0.00017754
49 *292:6 *325:22 0.0018413
50 *292:43 *1345:A 5.93539e-05
51 *292:84 *1345:A 7.69776e-06
52 *295:30 *1345:A 0.000141639
53 *303:51 *1345:A 0.000267514
54 *308:26 *1281:D 2.79201e-05
55 *310:30 *325:40 5.47001e-05
56 *322:30 *1345:A 0.000576641
*RES
1 *1440:X *325:10 19.6393 
2 *325:10 *325:22 48.9464 
3 *325:22 *325:30 9.875 
4 *325:30 *325:40 24.125 
5 *325:40 *1345:A 36.9498 
6 *325:40 *1281:D 12.7286 
7 *325:30 *1313:D 9.3 
*END

*D_NET *326 0.00482181
*CONN
*I *1536:A I *D sky130_fd_sc_hd__buf_2
*I *1361:X O *D sky130_fd_sc_hd__clkbuf_1
*CAP
1 *1536:A 3.00483e-05
2 *1361:X 0.0010217
3 *326:16 0.00105175
4 *1536:A *328:22 5.49544e-05
5 *1536:A *451:64 0.000142157
6 *326:16 *1316:GATE 0.000189406
7 *326:16 *328:22 0.000492354
8 *326:16 *329:28 5.7836e-06
9 *326:16 *330:18 0.000191407
10 *326:16 *389:12 0.00103624
11 FrameStrobe_O[6] *1536:A 4.43256e-05
12 *1359:A *326:16 4.09583e-05
13 *1368:A *326:16 0.000226232
14 *1369:A *326:16 0
15 *1535:A *326:16 0.000161022
16 *71:29 *326:16 0.000133472
*RES
1 *1361:X *326:16 47.0857 
2 *326:16 *1536:A 15.1571 
*END

*D_NET *327 0.00574825
*CONN
*I *1537:A I *D sky130_fd_sc_hd__buf_2
*I *1362:X O *D sky130_fd_sc_hd__clkbuf_1
*CAP
1 *1537:A 3.96023e-05
2 *1362:X 0.00130521
3 *327:16 0.00134481
4 *1537:A *329:28 7.84142e-05
5 *327:16 *1271:A1 5.52302e-05
6 *327:16 *1307:GATE 0.000136247
7 *327:16 *1316:GATE 0.000120504
8 *327:16 *354:18 8.19176e-05
9 *327:16 *389:12 5.33005e-05
10 *327:16 *405:76 9.01698e-05
11 *327:16 *425:45 0.000253318
12 *327:16 *452:22 1.32429e-05
13 *327:16 *455:18 0
14 *327:16 *456:32 5.85291e-05
15 *327:16 *457:14 4.22135e-06
16 *327:16 *458:26 0.000122933
17 FrameStrobe_O[2] *327:16 2.93565e-05
18 FrameStrobe_O[3] *327:16 6.36135e-05
19 FrameStrobe_O[5] *327:16 0.00042715
20 FrameStrobe_O[8] *1537:A 3.31806e-05
21 *1369:A *327:16 0.000147708
22 *1386:A *327:16 0.00116856
23 *1534:A *327:16 0
24 *185:23 *327:16 0
25 *227:14 *327:16 0.000121027
*RES
1 *1362:X *327:16 49.5679 
2 *327:16 *1537:A 14.8357 
*END

*D_NET *328 0.00482448
*CONN
*I *1538:A I *D sky130_fd_sc_hd__buf_2
*I *1363:X O *D sky130_fd_sc_hd__clkbuf_1
*CAP
1 *1538:A 0
2 *1363:X 0.00132503
3 *328:22 0.00132503
4 *328:22 *1271:A3 0
5 *328:22 *1316:GATE 0.000189406
6 *328:22 *451:64 9.21933e-05
7 *328:22 *474:22 0.000699018
8 FrameStrobe_O[6] *328:22 0.000225521
9 *500:DIODE *328:22 7.32272e-05
10 *1359:A *328:22 9.58126e-05
11 *1360:A *328:22 5.33005e-05
12 *1369:A *328:22 0.000198644
13 *1388:A *328:22 0
14 *1514:A *328:22 0
15 *1536:A *328:22 5.49544e-05
16 *326:16 *328:22 0.000492354
*RES
1 *1363:X *328:22 46.7464 
2 *328:22 *1538:A 9.3 
*END

*D_NET *329 0.00646215
*CONN
*I *1539:A I *D sky130_fd_sc_hd__buf_2
*I *1364:X O *D sky130_fd_sc_hd__clkbuf_1
*CAP
1 *1539:A 0
2 *1364:X 0.00182132
3 *329:28 0.00182132
4 *329:28 *1267:A0 0.000270976
5 *329:28 *438:32 0.00158542
6 *329:28 *480:20 0.000265987
7 FrameStrobe_O[11] *329:28 2.18417e-05
8 FrameStrobe_O[5] *329:28 2.84109e-05
9 FrameStrobe_O[8] *329:28 1.67506e-05
10 FrameStrobe_O[9] *329:28 0.000140088
11 *1365:A *329:28 3.22785e-05
12 *1369:A *329:28 2.21972e-05
13 *1514:A *329:28 2.22916e-05
14 *1537:A *329:28 7.84142e-05
15 *197:21 *329:28 0
16 *276:24 *329:28 0.000304031
17 *305:34 *329:28 2.50591e-05
18 *326:16 *329:28 5.7836e-06
*RES
1 *1364:X *329:28 40.7102 
2 *329:28 *1539:A 9.3 
*END

*D_NET *330 0.00547589
*CONN
*I *1540:A I *D sky130_fd_sc_hd__buf_2
*I *1365:X O *D sky130_fd_sc_hd__clkbuf_1
*CAP
1 *1540:A 0.000691076
2 *1365:X 0.000737676
3 *330:18 0.00142875
4 *1540:A *1271:A2 7.6644e-05
5 *1540:A *331:18 0.000660221
6 *1540:A *451:64 5.52302e-05
7 *330:18 *1271:A2 1.14548e-05
8 *330:18 *1271:A3 4.82865e-05
9 *330:18 *331:18 4.87953e-05
10 *330:18 *344:12 3.34366e-05
11 *1368:A *330:18 2.64931e-05
12 *1371:A *330:18 0
13 *1388:A *1540:A 0.00054623
14 *1388:A *330:18 0
15 *1392:A *1540:A 0.000557078
16 *1514:A *1540:A 1.52956e-05
17 *68:15 *330:18 4.25619e-05
18 *71:29 *330:18 0.000104193
19 *199:19 *1540:A 0.000167335
20 *262:28 *330:18 0
21 *276:24 *330:18 3.37252e-05
22 *326:16 *330:18 0.000191407
*RES
1 *1365:X *330:18 33.4071 
2 *330:18 *1540:A 32.9786 
*END

*D_NET *331 0.00602498
*CONN
*I *1541:A I *D sky130_fd_sc_hd__buf_2
*I *1366:X O *D sky130_fd_sc_hd__clkbuf_1
*CAP
1 *1541:A 1.69531e-05
2 *1366:X 0.000990935
3 *331:18 0.00100789
4 *331:18 *1271:A2 2.49484e-05
5 *331:18 *344:12 0.000185124
6 *331:18 *353:16 0.000704175
7 *331:18 *361:12 8.9108e-05
8 FrameStrobe_O[13] *1541:A 5.33005e-05
9 FrameStrobe_O[14] *331:18 0.000139515
10 FrameStrobe_O[9] *1541:A 5.33005e-05
11 *1368:A *331:18 0.000116285
12 *1371:A *331:18 7.90803e-05
13 *1388:A *331:18 4.56494e-05
14 *1392:A *331:18 0.000559256
15 *1540:A *331:18 0.000660221
16 *199:19 *331:18 1.77947e-05
17 *311:14 *331:18 0.00108817
18 *312:14 *331:18 0.000144479
19 *330:18 *331:18 4.87953e-05
*RES
1 *1366:X *331:18 49.5679 
2 *331:18 *1541:A 9.83571 
*END

*D_NET *332 0.00549463
*CONN
*I *1542:A I *D sky130_fd_sc_hd__buf_2
*I *1377:X O *D sky130_fd_sc_hd__clkbuf_1
*CAP
1 *1542:A 0
2 *1377:X 0.00102452
3 *332:12 0.00102452
4 *332:12 *350:18 0.00154696
5 *332:12 *399:18 0.000767627
6 *1393:A *332:12 0.00113101
*RES
1 *1377:X *332:12 45.9786 
2 *332:12 *1542:A 9.3 
*END

*D_NET *333 0.0203027
*CONN
*I *1543:A I *D sky130_fd_sc_hd__buf_2
*I *1378:X O *D sky130_fd_sc_hd__buf_1
*CAP
1 *1543:A 0.000303929
2 *1378:X 0.000868758
3 *333:24 0.00270048
4 *333:22 0.00326531
5 *1543:A *380:10 0.000139907
6 *1543:A *391:16 9.32406e-05
7 *1543:A *411:12 8.07313e-05
8 *333:22 *1254:A1 0.000159037
9 *333:22 *367:12 0.00014073
10 *333:22 *459:24 0.000218907
11 *333:22 *473:14 0.000188519
12 *333:24 *343:30 0.000338456
13 *333:24 *354:40 0.00355137
14 *333:24 *361:14 0.00372452
15 *333:24 *367:14 0
16 *333:24 *391:20 0
17 *333:24 *466:30 9.71278e-05
18 N1BEG[2] *1543:A 0.000629089
19 N1BEG[3] *1543:A 0.000764599
20 *1398:A *333:22 0.000516596
21 *1400:A *333:22 0.000110946
22 *1404:A *333:22 0.000473872
23 *1490:A *333:22 6.07019e-05
24 *276:64 *333:22 9.25014e-06
25 *294:32 *333:22 1.61405e-05
26 *310:42 *333:24 0.00168626
27 *322:42 *333:22 0.000164251
*RES
1 *1378:X *333:22 46.175 
2 *333:22 *333:24 67.4821 
3 *333:24 *1543:A 30.1036 
*END

*D_NET *334 0.00882012
*CONN
*I *1544:A I *D sky130_fd_sc_hd__buf_2
*I *1379:X O *D sky130_fd_sc_hd__clkbuf_1
*CAP
1 *1544:A 0.00113449
2 *1379:X 0.000757601
3 *334:16 0.00189209
4 *1544:A *1548:A 0.00195573
5 *1544:A *1588:A 0.000145297
6 *1544:A *337:12 1.02504e-05
7 *1544:A *339:16 0.000271314
8 *1544:A *350:18 1.19309e-05
9 *1544:A *408:18 0.00022346
10 *1544:A *441:22 0.000257619
11 *334:16 *1251:A1 0.000426281
12 *334:16 *1274:A1 4.28249e-05
13 *334:16 *1566:A 4.38058e-05
14 *334:16 *400:10 0.000183846
15 *334:16 *453:38 9.18765e-06
16 *334:16 *453:42 0.000214046
17 *334:16 *453:60 6.30931e-05
18 N1BEG[0] *1544:A 0
19 N4BEG[10] *334:16 0.000294969
20 N4BEG[1] *1544:A 0.000503756
21 N4BEG[4] *1544:A 4.87854e-05
22 N4BEG[8] *334:16 7.69264e-05
23 N4BEG[9] *334:16 0.000147114
24 *248:18 *334:16 5.23997e-05
25 *325:22 *334:16 5.33005e-05
*RES
1 *1379:X *334:16 33.0857 
2 *334:16 *1544:A 47.675 
*END

*D_NET *335 0.0106254
*CONN
*I *1545:A I *D sky130_fd_sc_hd__buf_2
*I *1380:X O *D sky130_fd_sc_hd__clkbuf_1
*CAP
1 *1545:A 0.000129066
2 *1380:X 0.00314437
3 *335:14 0.00327344
4 *1545:A *345:16 1.37292e-05
5 *1545:A *380:10 0.00014285
6 *1545:A *411:12 7.77652e-05
7 *335:14 *1262:A2 3.96541e-05
8 *335:14 *1323:GATE 0.00146208
9 *335:14 *1557:A 0.000110042
10 *335:14 *1565:A 9.45051e-05
11 *335:14 *1574:A 2.29541e-05
12 *335:14 *1592:A 0.000377068
13 *335:14 *347:38 0
14 *335:14 *354:40 0.000155678
15 *335:14 *355:14 0.00047261
16 *335:14 *363:20 0
17 *335:14 *366:22 4.17871e-05
18 *335:14 *369:16 0.000382678
19 *335:14 *408:44 6.09682e-05
20 *335:14 *441:22 9.87936e-06
21 *335:14 *458:26 9.32365e-05
22 N1BEG[3] *1545:A 3.75052e-05
23 N2BEG[0] *1545:A 2.04825e-05
24 N2BEG[1] *1545:A 0.000135583
25 N4BEG[2] *335:14 0
26 N4BEG[4] *335:14 3.31377e-05
27 N4BEG[6] *335:14 0.000125917
28 *1251:S0 *335:14 0.0001413
29 *1262:S1 *335:14 0
30 *325:22 *335:14 2.71255e-05
*RES
1 *1380:X *335:14 47.257 
2 *335:14 *1545:A 20.9689 
*END

*D_NET *336 0.0224969
*CONN
*I *1282:D I *D sky130_fd_sc_hd__dlxtp_1
*I *1346:A I *D sky130_fd_sc_hd__buf_1
*I *1314:D I *D sky130_fd_sc_hd__dlxtp_1
*I *1441:X O *D sky130_fd_sc_hd__buf_1
*CAP
1 *1282:D 0.000154375
2 *1346:A 0.000140454
3 *1314:D 0.000233313
4 *1441:X 6.96768e-05
5 *336:112 0.0012482
6 *336:57 0.00341425
7 *336:20 0.00526043
8 *336:10 0.00291683
9 *1282:D *1282:GATE 8.26523e-05
10 *1314:D *1251:A1 5.41797e-06
11 *1314:D *1277:D 0.00030866
12 *1314:D *1314:GATE 5.52302e-05
13 *1314:D *1578:A 1.58163e-05
14 *1314:D *465:57 9.78828e-05
15 *1346:A *484:40 6.69614e-05
16 *336:20 *1270:A0 0.000170932
17 *336:20 *1274:A2 2.3541e-05
18 *336:20 *338:30 0.000518402
19 *336:20 *358:20 0.000124728
20 *336:57 *1260:A2 0.000171169
21 *336:57 *1270:A0 5.74499e-06
22 *336:57 *1299:D 3.69047e-06
23 *336:57 *1300:GATE 0
24 *336:57 *1321:D 3.63775e-05
25 *336:57 *1321:GATE 6.80812e-05
26 *336:57 *339:16 9.41642e-05
27 *336:57 *380:26 0.000112777
28 *336:57 *433:34 0.00115274
29 *336:57 *439:16 0.000221165
30 *336:57 *454:45 0.000256772
31 *336:57 *459:55 0.000269761
32 *336:57 *463:56 5.52634e-05
33 *336:57 *465:57 0.000231773
34 *336:57 *475:36 1.44144e-05
35 *336:112 *1256:A1 0.000244976
36 *336:112 *1286:D 0.000108353
37 *336:112 *1327:A 5.74499e-06
38 *336:112 *1347:A 9.54798e-06
39 *336:112 *1348:A 0.000117457
40 *336:112 *1350:A 1.24368e-05
41 *336:112 *1352:A 1.33343e-05
42 *336:112 *1416:A 0.000131139
43 *336:112 *340:38 0.000127684
44 *336:112 *374:20 0.000224879
45 *336:112 *427:20 0.000257656
46 *336:112 *460:34 0.000200466
47 *336:112 *468:20 0.000181066
48 *336:112 *479:26 0.000126158
49 *336:112 *481:24 0.00013833
50 *336:112 *484:40 0.000289041
51 *1251:S0 *336:20 0.000424029
52 *1251:S0 *336:57 7.50658e-05
53 *1383:A *336:57 9.4028e-05
54 *1477:A *1346:A 3.39145e-05
55 *1477:A *336:57 1.89507e-06
56 *231:22 *336:57 2.56694e-05
57 *261:30 *1282:D 0.000109263
58 *263:30 *336:20 0.000192619
59 *283:12 *1314:D 0.000406762
60 *292:84 *336:112 3.97677e-05
61 *294:32 *336:112 5.33005e-05
62 *295:30 *336:112 3.99827e-05
63 *303:14 *336:20 0.00115565
64 *303:51 *1346:A 3.13579e-05
65 *322:42 *336:112 2.36523e-05
*RES
1 *1441:X *336:10 19.3357 
2 *336:10 *336:20 40.9643 
3 *336:20 *1314:D 24.425 
4 *336:20 *336:57 34.3173 
5 *336:57 *1346:A 12.2464 
6 *336:57 *336:112 45.8036 
7 *336:112 *1282:D 16.8179 
*END

*D_NET *337 0.00358671
*CONN
*I *1546:A I *D sky130_fd_sc_hd__buf_2
*I *1381:X O *D sky130_fd_sc_hd__clkbuf_1
*CAP
1 *1546:A 0
2 *1381:X 0.00118988
3 *337:12 0.00118988
4 *337:12 *1266:A0 0.000224781
5 *337:12 *1548:A 0
6 *337:12 *350:18 0
7 *337:12 *394:10 0.000469765
8 *337:12 *412:16 0.000344442
9 *337:12 *417:24 0.000108727
10 *337:12 *466:66 4.8977e-05
11 N2BEG[2] *337:12 0
12 *1266:S0 *337:12 0
13 *1385:A *337:12 0
14 *1544:A *337:12 1.02504e-05
*RES
1 *1381:X *337:12 42.6393 
2 *337:12 *1546:A 9.3 
*END

*D_NET *338 0.0128918
*CONN
*I *1547:A I *D sky130_fd_sc_hd__buf_2
*I *1382:X O *D sky130_fd_sc_hd__clkbuf_1
*CAP
1 *1547:A 0.000488503
2 *1382:X 0.00266024
3 *338:30 0.00314874
4 *1547:A *1551:A 2.89016e-05
5 *1547:A *344:30 4.87953e-05
6 *1547:A *380:10 0.000140675
7 *338:30 *1260:A3 4.51187e-05
8 *338:30 *1270:A0 4.02038e-05
9 *338:30 *1559:A 0
10 *338:30 *344:30 4.04691e-06
11 *338:30 *364:28 0.000112733
12 *338:30 *373:20 0.000271641
13 *338:30 *375:16 1.90936e-05
14 *338:30 *407:48 0.000281913
15 *338:30 *408:83 0.00017754
16 *338:30 *411:30 6.81283e-05
17 *338:30 *454:14 0.000208621
18 *338:30 *454:45 0.0003603
19 *338:30 *458:40 0.000644636
20 *338:30 *468:22 1.75792e-05
21 N2BEGb[1] *338:30 2.88045e-05
22 *1249:B *338:30 0.000107093
23 *1345:A *338:30 2.63501e-05
24 *247:43 *338:30 3.37219e-05
25 *263:30 *338:30 0.000389719
26 *290:12 *338:30 3.8341e-05
27 *292:16 *338:30 0.000100911
28 *292:43 *338:30 0.000152097
29 *303:14 *338:30 0.00251355
30 *303:51 *338:30 2.06112e-05
31 *310:30 *338:30 0.000194752
32 *336:20 *338:30 0.000518402
*RES
1 *1382:X *338:30 49.7018 
2 *338:30 *1547:A 19.9964 
*END

*D_NET *339 0.00872387
*CONN
*I *1548:A I *D sky130_fd_sc_hd__buf_2
*I *1383:X O *D sky130_fd_sc_hd__clkbuf_1
*CAP
1 *1548:A 0.000770425
2 *1383:X 0.000703808
3 *339:16 0.00147423
4 *1548:A *1552:A 0.000593395
5 *1548:A *1579:A 0.000428203
6 *1548:A *350:18 0.000137983
7 *339:16 *1255:A2 0.000140383
8 *339:16 *1578:A 9.51928e-05
9 *339:16 *1579:A 0.000715561
10 *339:16 *348:12 9.8045e-05
11 *339:16 *428:18 0.000134522
12 *339:16 *441:22 4.85033e-05
13 *339:16 *446:24 0
14 N1BEG[0] *1548:A 0.000126439
15 N1BEG[2] *1548:A 0.0001399
16 N2BEG[2] *1548:A 0.000229626
17 N4BEG[11] *339:16 0.000190547
18 N4BEG[12] *339:16 0.0002798
19 *1251:S0 *339:16 9.60939e-05
20 *1544:A *1548:A 0.00195573
21 *1544:A *339:16 0.000271314
22 *336:57 *339:16 9.41642e-05
23 *337:12 *1548:A 0
*RES
1 *1383:X *339:16 35.7107 
2 *339:16 *1548:A 41.3357 
*END

*D_NET *340 0.0155393
*CONN
*I *1549:A I *D sky130_fd_sc_hd__buf_2
*I *1384:X O *D sky130_fd_sc_hd__buf_1
*CAP
1 *1549:A 0
2 *1384:X 0.00339401
3 *340:38 0.00339401
4 *340:38 *1300:D 4.65519e-05
5 *340:38 *1327:A 1.73088e-05
6 *340:38 *1347:A 0.000524634
7 *340:38 *345:16 1.28585e-05
8 *340:38 *347:38 0.000237617
9 *340:38 *347:46 0.000388128
10 *340:38 *369:16 0.00299489
11 *340:38 *369:41 0.000755341
12 *340:38 *376:28 0.000131653
13 *340:38 *383:20 2.11419e-05
14 *340:38 *423:18 4.19535e-05
15 *340:38 *427:20 1.39737e-05
16 *340:38 *433:34 0.000379177
17 *340:38 *436:34 0.000170052
18 *340:38 *448:34 0.000266191
19 *340:38 *448:52 0.000104999
20 *340:38 *450:26 0.000187602
21 *340:38 *453:60 9.46127e-05
22 *340:38 *456:66 6.2018e-05
23 *340:38 *480:20 0.000160557
24 *1249:A *340:38 0.000678145
25 *1262:S0 *340:38 0.000980361
26 *1325:A *340:38 9.54798e-06
27 *299:26 *340:38 5.52238e-05
28 *303:80 *340:38 0.000217635
29 *322:42 *340:38 7.14469e-05
30 *336:112 *340:38 0.000127684
*RES
1 *1384:X *340:38 48.5328 
2 *340:38 *1549:A 9.3 
*END

*D_NET *341 0.00449649
*CONN
*I *1550:A I *D sky130_fd_sc_hd__buf_2
*I *1385:X O *D sky130_fd_sc_hd__clkbuf_1
*CAP
1 *1550:A 0
2 *1385:X 0.00159289
3 *341:16 0.00159289
4 *341:16 *419:12 2.34204e-05
5 N2BEG[4] *341:16 2.29369e-05
6 *1249:B *341:16 5.33005e-05
7 *1393:A *341:16 0
8 *285:8 *341:16 0.00121104
*RES
1 *1385:X *341:16 48.3625 
2 *341:16 *1550:A 9.3 
*END

*D_NET *342 0.0262677
*CONN
*I *1551:A I *D sky130_fd_sc_hd__buf_2
*I *1386:X O *D sky130_fd_sc_hd__buf_1
*CAP
1 *1551:A 0.00115207
2 *1386:X 0.000330703
3 *342:12 0.00263497
4 *342:10 0.0018136
5 *1551:A *344:30 0.00182653
6 *1551:A *353:26 0.000604921
7 *1551:A *357:12 0.000653495
8 *1551:A *380:10 5.52238e-05
9 *1551:A *383:16 0.000146777
10 *1551:A *397:16 0
11 *342:12 *353:26 0.00081623
12 *342:12 *414:12 0.00701433
13 *342:12 *421:12 0.00675735
14 VALUE_top5 *1551:A 0
15 VALUE_top6 *1551:A 0
16 *491:DIODE *342:10 3.98511e-05
17 *500:DIODE *342:10 0.000143951
18 *1547:A *1551:A 2.89016e-05
19 *82:23 *342:10 0
20 *82:23 *342:12 0.000811062
21 *84:13 *342:10 0.000442872
22 *300:12 *342:12 0.000994883
*RES
1 *1386:X *342:10 26.0143 
2 *342:10 *342:12 81.0357 
3 *342:12 *1551:A 49.0143 
*END

*D_NET *343 0.0187016
*CONN
*I *1552:A I *D sky130_fd_sc_hd__buf_2
*I *1387:X O *D sky130_fd_sc_hd__buf_1
*CAP
1 *1552:A 0.000551288
2 *1387:X 0.0011543
3 *343:30 0.00221738
4 *343:28 0.00282039
5 *1552:A *1558:A 0.000221641
6 *1552:A *1579:A 9.58181e-05
7 *1552:A *345:16 9.25014e-06
8 *343:28 *1265:A0 9.58181e-05
9 *343:28 *1330:A 2.17907e-05
10 *343:28 *431:10 6.09762e-05
11 *343:28 *438:32 0.000123297
12 *343:28 *458:26 0.000251796
13 *343:28 *480:20 8.94491e-05
14 *343:30 *354:40 0.00355007
15 *343:30 *391:20 0.00072863
16 Co *343:30 0.000113055
17 N2BEG[1] *1552:A 0.00014576
18 N2BEG[2] *1552:A 8.50152e-05
19 N2BEG[3] *1552:A 3.14964e-05
20 N2BEG[6] *1552:A 0.000222666
21 N2BEGb[0] *1552:A 0.000412318
22 N2BEGb[1] *1552:A 0.00040276
23 *1464:A *343:30 5.12758e-05
24 *1489:A *343:28 1.26922e-05
25 *1490:A *343:28 6.57104e-05
26 *1492:A *343:28 0.000411285
27 *1548:A *1552:A 0.000593395
28 *67:79 *343:28 0.000126327
29 *159:19 *343:30 0.000113073
30 *279:14 *343:28 2.12087e-05
31 *293:14 *343:30 0.00202834
32 *299:26 *343:28 3.47641e-06
33 *305:34 *343:28 8.94491e-05
34 *310:42 *343:30 0.00144191
35 *333:24 *343:30 0.000338456
*RES
1 *1387:X *343:28 41.4199 
2 *343:28 *343:30 55.1607 
3 *343:30 *1552:A 42.5857 
*END

*D_NET *344 0.0269875
*CONN
*I *1553:A I *D sky130_fd_sc_hd__buf_2
*I *1388:X O *D sky130_fd_sc_hd__buf_1
*CAP
1 *1553:A 0
2 *1388:X 0.000125979
3 *344:30 0.00186811
4 *344:14 0.00337969
5 *344:12 0.00163756
6 *344:14 *347:64 4.58976e-05
7 *344:14 *364:12 0.00548591
8 *344:14 *386:30 0.000172688
9 *344:14 *412:60 0.002303
10 *344:14 *472:32 0.000160191
11 *344:30 *1603:A 0.000175761
12 *344:30 *351:16 0.000420879
13 *344:30 *353:26 0
14 *344:30 *379:24 1.95113e-06
15 *344:30 *380:10 9.60939e-05
16 *344:30 *396:16 0.000410005
17 *344:30 *399:18 0
18 *344:30 *415:14 0.000181928
19 *344:30 *443:34 5.05056e-05
20 N2BEGb[1] *344:30 0.000116964
21 *1249:B *344:30 3.84112e-05
22 *1256:S1 *344:14 0.000788063
23 *1371:A *344:12 0
24 *1547:A *344:30 4.87953e-05
25 *1551:A *344:30 0.00182653
26 *68:15 *344:12 2.58775e-05
27 *290:12 *344:30 0.00141253
28 *291:22 *344:30 0.00246312
29 *309:32 *344:14 0.00334336
30 *311:14 *344:12 0.000185124
31 *330:18 *344:12 3.34366e-05
32 *331:18 *344:12 0.000185124
33 *338:30 *344:30 4.04691e-06
*RES
1 *1388:X *344:12 21.7107 
2 *344:12 *344:14 65.0179 
3 *344:14 *344:30 46.0794 
4 *344:30 *1553:A 9.3 
*END

*D_NET *345 0.0048845
*CONN
*I *1554:A I *D sky130_fd_sc_hd__buf_2
*I *1389:X O *D sky130_fd_sc_hd__clkbuf_1
*CAP
1 *1554:A 0
2 *1389:X 0.00119324
3 *345:16 0.00119324
4 *345:16 *1417:A 0.00046674
5 *345:16 *369:16 4.29471e-05
6 *345:16 *383:20 5.30815e-05
7 *345:16 *391:16 0
8 *345:16 *394:10 0.000640536
9 *345:16 *411:12 1.71615e-05
10 *345:16 *453:60 0.000271662
11 *345:16 *454:14 1.90936e-05
12 *345:16 *476:14 0.000154421
13 N2BEG[1] *345:16 7.70602e-05
14 N2BEG[3] *345:16 6.85303e-05
15 *1249:A *345:16 0.000110718
16 *1249:B *345:16 3.64915e-05
17 *1389:A *345:16 5.32956e-05
18 *1545:A *345:16 1.37292e-05
19 *1552:A *345:16 9.25014e-06
20 *273:12 *345:16 0.000268325
21 *303:14 *345:16 0.000182123
22 *340:38 *345:16 1.28585e-05
*RES
1 *1389:X *345:16 43.2821 
2 *345:16 *1554:A 9.3 
*END

*D_NET *346 0.0140047
*CONN
*I *1555:A I *D sky130_fd_sc_hd__buf_2
*I *1390:X O *D sky130_fd_sc_hd__buf_1
*CAP
1 *1555:A 0
2 *1390:X 0.00286428
3 *346:18 0.00286428
4 *346:18 *1252:A1 3.43988e-06
5 *346:18 *1317:D 4.65519e-05
6 *346:18 *1334:A 2.06112e-05
7 *346:18 *1336:A 8.36093e-05
8 *346:18 *1377:A 0.0002429
9 *346:18 *1418:A 3.06623e-05
10 *346:18 *352:36 0.000384103
11 *346:18 *358:40 2.36299e-05
12 *346:18 *358:55 4.15415e-05
13 *346:18 *373:20 0
14 *346:18 *381:16 0.000754594
15 *346:18 *410:14 0.00350872
16 *346:18 *417:24 0.00110779
17 *346:18 *432:40 0.00111914
18 *346:18 *443:10 0
19 *346:18 *446:62 0
20 *346:18 *468:45 0.000170989
21 *346:18 *471:26 9.54798e-06
22 *346:18 *476:14 0.000108
23 *346:18 *477:26 0.000303084
24 *1249:A *346:18 0.000317207
*RES
1 *1390:X *346:18 43.5216 
2 *346:18 *1555:A 9.3 
*END

*D_NET *347 0.0385064
*CONN
*I *1347:A I *D sky130_fd_sc_hd__buf_1
*I *1283:D I *D sky130_fd_sc_hd__dlxtp_1
*I *1315:D I *D sky130_fd_sc_hd__dlxtp_1
*I *1442:X O *D sky130_fd_sc_hd__clkbuf_2
*CAP
1 *1347:A 0.00080004
2 *1283:D 0
3 *1315:D 0.00109164
4 *1442:X 0.00339902
5 *347:64 0.00247909
6 *347:58 0.002117
7 *347:46 0.00174946
8 *347:38 0.0036189
9 *1315:D *1261:A1 9.41642e-05
10 *1315:D *1261:A2 2.3541e-05
11 *1315:D *1315:GATE 0.000105204
12 *1315:D *351:16 3.7102e-05
13 *1315:D *364:10 0.000484212
14 *1315:D *404:116 0.000257619
15 *1315:D *404:128 4.53889e-05
16 *1315:D *405:55 0.000104218
17 *1315:D *427:61 2.95726e-05
18 *1315:D *445:32 3.10885e-05
19 *1315:D *464:26 0.000721341
20 *1347:A *1285:D 0.00027907
21 *1347:A *391:38 4.38313e-05
22 *1347:A *406:26 1.79206e-05
23 *1347:A *427:20 5.00386e-05
24 *1347:A *434:24 9.47001e-05
25 *1347:A *436:34 0.000455455
26 *1347:A *438:32 0.000469348
27 *1347:A *448:34 0.000135583
28 *1347:A *470:22 2.06178e-05
29 *347:38 *1300:D 2.09052e-05
30 *347:38 *1300:GATE 2.42516e-05
31 *347:38 *358:20 0.00519551
32 *347:38 *361:26 6.19639e-06
33 *347:38 *380:26 0.000131806
34 *347:38 *382:32 1.97756e-05
35 *347:38 *424:26 0.00027749
36 *347:38 *433:34 0.000207728
37 *347:38 *450:26 0.00116607
38 *347:38 *453:60 0.00101073
39 *347:38 *456:54 9.71259e-06
40 *347:46 *1285:D 0.000275106
41 *347:46 *1349:A 1.31942e-05
42 *347:46 *369:41 0.000109831
43 *347:46 *430:20 2.10582e-05
44 *347:46 *434:24 8.6229e-06
45 *347:58 *1278:D 9.35951e-05
46 *347:58 *1418:A 1.12323e-05
47 *347:58 *1422:A 9.34324e-05
48 *347:58 *375:16 2.06112e-05
49 *347:58 *378:38 0.000247781
50 *347:58 *444:64 8.94491e-05
51 *347:58 *454:45 0.000600574
52 *347:58 *459:30 9.9455e-05
53 *347:58 *459:55 0.00107678
54 *347:58 *468:45 0.000150277
55 *347:64 *1284:D 5.1158e-05
56 *347:64 *1339:A 5.95269e-05
57 *347:64 *1418:A 9.25014e-06
58 *347:64 *364:12 0.00380128
59 *347:64 *375:16 0.000433445
60 *347:64 *415:22 0
61 *347:64 *436:60 0.000616143
62 *347:64 *443:34 9.90367e-05
63 *347:64 *482:32 0.000160191
64 NN4BEG[11] *347:38 4.82865e-05
65 NN4BEG[5] *347:38 2.2595e-05
66 *1262:S0 *347:38 9.85083e-05
67 *1368:A *1315:D 0.000231332
68 *1394:A *1315:D 2.59355e-05
69 *1429:A *1315:D 4.60232e-06
70 *1463:A *347:38 5.49489e-05
71 *1465:A *347:38 9.66977e-05
72 *1470:A *1347:A 4.26825e-05
73 *1471:A *1347:A 2.11419e-05
74 *1475:A *347:38 8.99655e-05
75 *1482:A *1347:A 1.94945e-05
76 *1483:A *1347:A 2.11419e-05
77 *67:11 *347:64 0.000546785
78 *284:16 *1315:D 0.000337914
79 *291:22 *347:64 0.000122494
80 *314:36 *347:64 0.000462798
81 *322:42 *1347:A 8.68658e-05
82 *335:14 *347:38 0
83 *336:112 *1347:A 9.54798e-06
84 *340:38 *1347:A 0.000524634
85 *340:38 *347:38 0.000237617
86 *340:38 *347:46 0.000388128
87 *344:14 *347:64 4.58976e-05
*RES
1 *1442:X *347:38 48.4269 
2 *347:38 *347:46 9.14992 
3 *347:46 *347:58 13.6918 
4 *347:58 *347:64 49.3036 
5 *347:64 *1315:D 44.6571 
6 *347:58 *1283:D 13.8 
7 *347:46 *1347:A 31.9687 
*END

*D_NET *348 0.0076925
*CONN
*I *1556:A I *D sky130_fd_sc_hd__buf_2
*I *1391:X O *D sky130_fd_sc_hd__clkbuf_1
*CAP
1 *1556:A 0.00145546
2 *1391:X 0.000689221
3 *348:12 0.00214468
4 *1556:A *1262:A2 1.65787e-05
5 *1556:A *1262:A3 0.00013238
6 *1556:A *373:20 0.000101951
7 *1556:A *428:22 2.95726e-05
8 *1556:A *446:30 1.98839e-05
9 *348:12 *1255:A2 0.0006658
10 *348:12 *1314:GATE 7.95285e-05
11 *348:12 *1578:A 0.000430654
12 *348:12 *412:60 0.000169236
13 *348:12 *461:53 0.000149946
14 *348:12 *461:78 6.57499e-06
15 *1248:B *1556:A 5.20359e-06
16 *1249:A *1556:A 3.91115e-05
17 *1249:B *1556:A 3.5488e-05
18 *1255:S1 *348:12 0.000293002
19 *1274:S0 *348:12 0.000138881
20 *245:24 *348:12 1.68315e-05
21 *263:30 *348:12 0.000223564
22 *283:12 *1556:A 0.000135028
23 *283:12 *348:12 1.02433e-05
24 *285:8 *1556:A 0.000605642
25 *339:16 *348:12 9.8045e-05
*RES
1 *1391:X *348:12 36.3893 
2 *348:12 *1556:A 37.1929 
*END

*D_NET *349 0.0296963
*CONN
*I *1557:A I *D sky130_fd_sc_hd__buf_2
*I *1392:X O *D sky130_fd_sc_hd__buf_1
*CAP
1 *1557:A 0.000878199
2 *1392:X 0.0055416
3 *349:22 0.00641979
4 *1557:A *1562:A 0.000101174
5 *1557:A *1565:A 5.49544e-05
6 *1557:A *354:40 0.000160545
7 *1557:A *363:20 6.81283e-05
8 *1557:A *364:28 2.90607e-05
9 *349:22 *1569:A 0.00105992
10 *349:22 *1575:A 0.000222754
11 *349:22 *1577:A 0.000861401
12 *349:22 *356:14 0.000838099
13 *349:22 *461:28 4.73891e-05
14 *349:22 *466:42 4.8817e-05
15 *349:22 *470:22 0.00418469
16 *349:22 *475:36 0.00159165
17 FrameStrobe_O[12] *349:22 0.000600696
18 FrameStrobe_O[4] *349:22 0.000372532
19 N2BEGb[5] *1557:A 7.39225e-05
20 N2BEGb[6] *1557:A 0.000564276
21 N2BEGb[7] *1557:A 8.75875e-05
22 N4BEG[2] *349:22 0.000327686
23 NN4BEG[6] *349:22 0.000516342
24 *496:DIODE *349:22 0.000648489
25 *1249:B *1557:A 5.33005e-05
26 *1392:A *349:22 4.58917e-05
27 *1400:A *349:22 0.00149314
28 *1433:A *349:22 0.000463631
29 *1463:A *349:22 0.000589
30 *1465:A *349:22 0.000506243
31 *1490:A *349:22 0.000383349
32 *1532:A *349:22 0
33 *1622:A *349:22 0
34 *67:79 *349:22 0.000132869
35 *293:14 *349:22 0.000152412
36 *298:26 *349:22 0.000466709
37 *335:14 *1557:A 0.000110042
*RES
1 *1392:X *349:22 47.1977 
2 *349:22 *1557:A 35.5563 
*END

*D_NET *350 0.00573294
*CONN
*I *1558:A I *D sky130_fd_sc_hd__buf_2
*I *1393:X O *D sky130_fd_sc_hd__clkbuf_1
*CAP
1 *1558:A 0.000162753
2 *1393:X 0.00112832
3 *350:18 0.00129107
4 *350:18 *1421:A 0.000149911
5 *350:18 *412:16 1.11843e-05
6 *350:18 *417:24 0.000107508
7 N1BEG[0] *350:18 0.000399848
8 N1BEG[2] *350:18 0.000233618
9 N2BEG[0] *1558:A 0.000137983
10 N2BEG[0] *350:18 1.54142e-05
11 N2BEG[6] *1558:A 5.81579e-05
12 N2BEG[6] *350:18 6.37237e-05
13 N2BEGb[4] *1558:A 5.04841e-06
14 *1393:A *350:18 4.98872e-05
15 *1544:A *350:18 1.19309e-05
16 *1548:A *350:18 0.000137983
17 *1552:A *1558:A 0.000221641
18 *332:12 *350:18 0.00154696
19 *337:12 *350:18 0
*RES
1 *1393:X *350:18 46.8357 
2 *350:18 *1558:A 13.1393 
*END

*D_NET *351 0.0250948
*CONN
*I *1559:A I *D sky130_fd_sc_hd__buf_2
*I *1394:X O *D sky130_fd_sc_hd__buf_1
*CAP
1 *1559:A 0.00151731
2 *1394:X 0.00271276
3 *351:16 0.00423007
4 *1559:A *1565:A 9.79678e-05
5 *1559:A *1576:A 0.000498344
6 *1559:A *1602:A 0
7 *1559:A *364:28 0
8 *1559:A *387:32 0.000586172
9 *1559:A *412:43 0
10 *1559:A *416:22 4.27796e-05
11 *1559:A *466:66 0
12 *351:16 *1307:D 0.00020485
13 *351:16 *353:26 0.000193483
14 *351:16 *359:22 0.00540617
15 *351:16 *379:24 0.00420417
16 *351:16 *393:18 0.000310937
17 *351:16 *395:14 0.000223526
18 *351:16 *447:47 0.000164432
19 *351:16 *464:26 4.94195e-05
20 *351:16 *482:32 7.00189e-05
21 ENABLE_top *1559:A 0
22 *1249:B *1559:A 5.07619e-05
23 *1315:D *351:16 3.7102e-05
24 *1366:A *351:16 0.000648616
25 *1368:A *351:16 0.000196774
26 *1519:A *351:16 0.00142368
27 *80:11 *351:16 0.000569023
28 *83:11 *351:16 0.000197888
29 *228:24 *351:16 0.000186456
30 *239:26 *351:16 5.33005e-05
31 *255:26 *1559:A 0.000180658
32 *285:8 *1559:A 2.36643e-05
33 *299:36 *351:16 0.000386351
34 *314:14 *351:16 0.000207292
35 *338:30 *1559:A 0
36 *344:30 *351:16 0.000420879
*RES
1 *1394:X *351:16 44.8341 
2 *351:16 *1559:A 40.1482 
*END

*D_NET *352 0.0169352
*CONN
*I *1560:A I *D sky130_fd_sc_hd__buf_2
*I *1395:X O *D sky130_fd_sc_hd__buf_1
*CAP
1 *1560:A 2.99504e-05
2 *1395:X 0.00356404
3 *352:36 0.00359399
4 *1560:A *380:10 9.41642e-05
5 *352:36 *1302:D 0.000109831
6 *352:36 *1332:A 0.00196392
7 *352:36 *1357:A 9.45051e-05
8 *352:36 *1422:A 2.00659e-05
9 *352:36 *358:20 3.03967e-05
10 *352:36 *358:40 0.000353154
11 *352:36 *358:55 0.00135001
12 *352:36 *364:28 0.000170348
13 *352:36 *381:16 0.000282892
14 *352:36 *401:74 2.06178e-05
15 *352:36 *415:22 5.14067e-05
16 *352:36 *417:24 0.00230098
17 *352:36 *432:26 0.00227086
18 *352:36 *446:46 9.02925e-05
19 *352:36 *453:60 2.63501e-05
20 N2BEGb[5] *352:36 1.85502e-05
21 N2BEGb[6] *1560:A 9.41642e-05
22 *308:26 *352:36 2.06178e-05
23 *346:18 *352:36 0.000384103
*RES
1 *1395:X *352:36 49.9571 
2 *352:36 *1560:A 14.7464 
*END

*D_NET *353 0.0318848
*CONN
*I *1561:A I *D sky130_fd_sc_hd__buf_2
*I *489:DIODE I *D sky130_fd_sc_hd__diode_2
*I *1396:X O *D sky130_fd_sc_hd__buf_1
*CAP
1 *1561:A 2.04425e-05
2 *489:DIODE 8.71559e-05
3 *1396:X 0.00192385
4 *353:26 0.00533314
5 *353:16 0.00719028
6 *353:26 *357:12 0.000653495
7 *353:26 *359:22 0.000672559
8 *353:26 *383:16 0.000146777
9 *353:26 *383:20 0.000365058
10 *353:26 *409:20 8.24047e-05
11 *353:26 *413:14 0.00030365
12 *353:26 *420:30 0.00126587
13 *353:26 *421:12 0.00125637
14 *353:26 *446:62 0.000277297
15 N2BEG[4] *353:26 0.000276588
16 N2BEG[5] *353:26 0.00010047
17 N2BEGb[0] *1561:A 2.59355e-05
18 N2BEGb[1] *489:DIODE 5.52302e-05
19 N2BEGb[1] *353:26 9.84204e-06
20 N2BEGb[4] *489:DIODE 0.00018077
21 N2BEGb[4] *1561:A 5.33005e-05
22 N4BEG[1] *489:DIODE 5.33005e-05
23 VALUE_top5 *353:26 0
24 *491:DIODE *353:16 0.000217782
25 *491:DIODE *353:26 0.000213244
26 *1371:A *353:16 0.000314935
27 *1372:A *353:16 0
28 *1551:A *353:26 0.000604921
29 *82:23 *353:16 0.00154154
30 *82:23 *353:26 0.00121466
31 *227:14 *353:16 0.00043187
32 *291:22 *353:26 0
33 *300:12 *353:16 0.000430263
34 *300:12 *353:26 0.000433452
35 *302:24 *353:16 0.00159551
36 *302:24 *353:26 0.00208672
37 *311:14 *353:16 0.000752241
38 *331:18 *353:16 0.000704175
39 *342:12 *353:26 0.00081623
40 *344:30 *353:26 0
41 *351:16 *353:26 0.000193483
*RES
1 *1396:X *353:16 43.4236 
2 *353:16 *353:26 47.3732 
3 *353:26 *489:DIODE 15.5679 
4 *489:DIODE *1561:A 19.1357 
*END

*D_NET *354 0.0240107
*CONN
*I *1562:A I *D sky130_fd_sc_hd__buf_2
*I *1397:X O *D sky130_fd_sc_hd__buf_1
*CAP
1 *1562:A 0.000222546
2 *1397:X 0.000765461
3 *354:40 0.00158398
4 *354:26 0.00243365
5 *354:18 0.00183768
6 *1562:A *490:DIODE 6.58224e-05
7 *1562:A *1565:A 8.79856e-06
8 *1562:A *380:10 0.000178425
9 *354:18 *457:14 9.54798e-06
10 *354:18 *484:40 1.90936e-05
11 *354:18 *486:28 0.000519822
12 *354:26 *361:14 0.00363646
13 *354:26 *466:30 0.000224444
14 *354:40 *363:20 5.46275e-05
15 N2BEGb[6] *1562:A 5.33005e-05
16 N2BEGb[7] *354:40 0.000169561
17 N4BEG[0] *1562:A 4.07667e-05
18 N4BEG[0] *354:40 0.000349103
19 N4BEG[4] *354:40 0
20 UserCLKo *354:18 0.00114875
21 *1402:A *354:26 0.000301036
22 *1479:A *354:26 7.55769e-05
23 *1481:A *354:26 7.40526e-05
24 *1499:A *354:18 0.000800077
25 *1505:A *354:26 4.21005e-05
26 *1557:A *1562:A 0.000101174
27 *1557:A *354:40 0.000160545
28 *197:21 *354:26 0.000201636
29 *200:19 *354:18 0.000145421
30 *228:24 *354:18 1.90936e-05
31 *296:26 *354:18 0.000175245
32 *301:34 *354:18 1.67577e-05
33 *322:42 *354:26 0.00123715
34 *327:16 *354:18 8.19176e-05
35 *333:24 *354:40 0.00355137
36 *335:14 *354:40 0.000155678
37 *343:30 *354:40 0.00355007
*RES
1 *1397:X *354:18 42.6026 
2 *354:18 *354:26 45.4821 
3 *354:26 *354:40 48.7934 
4 *354:40 *1562:A 21.9868 
*END

*D_NET *355 0.00486742
*CONN
*I *1563:A I *D sky130_fd_sc_hd__buf_2
*I *1407:X O *D sky130_fd_sc_hd__clkbuf_1
*CAP
1 *1563:A 0
2 *1407:X 0.000844063
3 *355:14 0.000844063
4 *355:14 *1291:D 0.0001611
5 *355:14 *1323:D 5.86476e-05
6 *355:14 *1377:A 0.000480877
7 *355:14 *1407:A 1.69961e-05
8 *355:14 *1427:A 0.000158977
9 *355:14 *1565:A 5.52302e-05
10 *355:14 *380:10 5.52302e-05
11 *355:14 *387:32 0.000141132
12 *355:14 *411:18 3.49613e-05
13 *355:14 *441:22 9.43887e-05
14 *1251:S0 *355:14 6.877e-05
15 *1262:S0 *355:14 0.000152471
16 *247:43 *355:14 0.00063398
17 *248:18 *355:14 0.00020293
18 *255:26 *355:14 0.000390994
19 *335:14 *355:14 0.00047261
*RES
1 *1407:X *355:14 41.7286 
2 *355:14 *1563:A 9.3 
*END

*D_NET *356 0.0263651
*CONN
*I *1564:A I *D sky130_fd_sc_hd__buf_2
*I *1408:X O *D sky130_fd_sc_hd__buf_1
*CAP
1 *1564:A 0.000286382
2 *1408:X 0.00459487
3 *356:14 0.00488125
4 *1564:A *441:22 1.95035e-05
5 *356:14 *1408:A 7.53309e-05
6 *356:14 *1569:A 0.00313076
7 *356:14 *1577:A 0.000593005
8 *356:14 *1618:A 5.52238e-05
9 *356:14 *362:24 0.00322586
10 *356:14 *475:36 4.09573e-05
11 *356:14 *480:20 7.5052e-05
12 FrameData_O[29] *356:14 0.000187469
13 FrameData_O[31] *356:14 7.3973e-05
14 N4BEG[11] *1564:A 3.1367e-05
15 N4BEG[7] *1564:A 0.000608895
16 N4BEG[8] *1564:A 0.000651605
17 N4BEG[9] *1564:A 5.52238e-05
18 *496:DIODE *356:14 7.8775e-05
19 *1532:A *356:14 0
20 *298:26 *356:14 0.0068615
21 *349:22 *356:14 0.000838099
*RES
1 *1408:X *356:14 48.6965 
2 *356:14 *1564:A 26.5225 
*END

*D_NET *357 0.0109573
*CONN
*I *1565:A I *D sky130_fd_sc_hd__buf_2
*I *1409:X O *D sky130_fd_sc_hd__clkbuf_1
*CAP
1 *1565:A 0.00103943
2 *1409:X 0.00159366
3 *357:12 0.00263309
4 *1565:A *1574:A 3.07021e-05
5 *1565:A *1576:A 0.00010918
6 *1565:A *1592:A 5.95236e-05
7 *1565:A *380:10 0.000141673
8 *357:12 *412:18 4.43256e-05
9 *357:12 *446:62 0.00181215
10 N2BEG[4] *1565:A 1.58163e-05
11 N2BEGb[1] *1565:A 1.55885e-05
12 N4BEG[0] *1565:A 9.25014e-06
13 N4BEG[3] *1565:A 0.000139907
14 N4BEG[6] *1565:A 0.000181381
15 *1249:B *1565:A 0.000312178
16 *1262:S1 *1565:A 0.00030562
17 *1551:A *357:12 0.000653495
18 *1557:A *1565:A 5.49544e-05
19 *1559:A *1565:A 9.79678e-05
20 *1562:A *1565:A 8.79856e-06
21 *285:8 *1565:A 0.000895415
22 *335:14 *1565:A 9.45051e-05
23 *353:26 *357:12 0.000653495
24 *355:14 *1565:A 5.52302e-05
*RES
1 *1409:X *357:12 45.425 
2 *357:12 *1565:A 49.425 
*END

*D_NET *358 0.0355044
*CONN
*I *1316:D I *D sky130_fd_sc_hd__dlxtp_1
*I *1348:A I *D sky130_fd_sc_hd__buf_1
*I *1284:D I *D sky130_fd_sc_hd__dlxtp_1
*I *1443:X O *D sky130_fd_sc_hd__clkbuf_2
*CAP
1 *1316:D 0.00193682
2 *1348:A 0.000410861
3 *1284:D 0.000303189
4 *1443:X 0.00325348
5 *358:55 0.00296129
6 *358:40 0.00141854
7 *358:20 0.00375522
8 *1284:D *1418:A 1.08359e-05
9 *1284:D *400:57 0.000210765
10 *1284:D *407:48 6.02541e-05
11 *1284:D *415:22 0.000304832
12 *1284:D *461:53 0.00014285
13 *1316:D *1298:D 0.000444807
14 *1316:D *1302:D 0.00314044
15 *1316:D *432:40 0.000314894
16 *1316:D *442:57 0.000112732
17 *1348:A *1256:A1 3.45537e-05
18 *1348:A *1334:A 5.57819e-05
19 *1348:A *1350:A 8.19176e-05
20 *1348:A *401:74 0.000234001
21 *1348:A *408:83 0.000170046
22 *1348:A *427:20 0
23 *1348:A *468:20 5.33005e-05
24 *1348:A *482:32 0
25 *1348:A *486:28 1.90936e-05
26 *358:20 *1585:A 0.000579753
27 *358:20 *407:16 0.000164876
28 *358:20 *407:48 6.7848e-05
29 *358:20 *433:34 0.000290724
30 *358:20 *446:46 0.00013331
31 *358:20 *448:70 0.000253008
32 *358:20 *453:60 0.000995444
33 *358:20 *465:20 0.000204732
34 *358:20 *465:57 0.000147264
35 *358:40 *1257:A0 0.000364534
36 *358:40 *1257:A1 9.61502e-05
37 *358:40 *1332:A 2.1599e-05
38 *358:40 *1355:A 0.000154364
39 *358:40 *1357:A 2.37838e-05
40 *358:40 *1419:A 0.000344835
41 *358:40 *1422:A 0.000106412
42 *358:40 *360:28 1.90936e-05
43 *358:40 *385:24 4.25548e-05
44 *358:40 *468:45 0.000150061
45 *358:55 *432:40 0.00124509
46 *358:55 *468:45 5.00194e-05
47 *1249:B *358:20 0.000380737
48 *1264:S1 *358:40 0
49 *1394:A *1316:D 4.26825e-05
50 *1442:A *358:20 0
51 *1534:A *1316:D 4.43299e-05
52 *257:20 *1284:D 5.06983e-05
53 *270:24 *1316:D 0.00180169
54 *295:30 *1348:A 2.13947e-05
55 *296:26 *1348:A 5.49489e-05
56 *308:26 *1348:A 0.000347367
57 *325:40 *358:20 0.000587062
58 *336:20 *358:20 0.000124728
59 *336:112 *1348:A 0.000117457
60 *346:18 *358:40 2.36299e-05
61 *346:18 *358:55 4.15415e-05
62 *347:38 *358:20 0.00519551
63 *347:64 *1284:D 5.1158e-05
64 *352:36 *358:20 3.03967e-05
65 *352:36 *358:40 0.000353154
66 *352:36 *358:55 0.00135001
*RES
1 *1443:X *358:20 47.8329 
2 *358:20 *358:40 26.1305 
3 *358:40 *1284:D 24.6118 
4 *358:40 *358:55 2.35313 
5 *358:55 *1348:A 26.5225 
6 *358:55 *1316:D 24.0915 
*END

*D_NET *359 0.0221475
*CONN
*I *1566:A I *D sky130_fd_sc_hd__buf_2
*I *1410:X O *D sky130_fd_sc_hd__buf_1
*CAP
1 *1566:A 8.0626e-05
2 *1410:X 0.00432636
3 *359:22 0.00440699
4 *1566:A *1592:A 0.000129245
5 *1566:A *458:26 0.000133323
6 *359:22 *1258:A0 8.19176e-05
7 *359:22 *1258:A3 0
8 *359:22 *379:24 0
9 *359:22 *395:14 0.000244988
10 *359:22 *397:16 0.000111763
11 *359:22 *414:26 0.000628964
12 *359:22 *419:14 0.000103646
13 *359:22 *420:30 0.00274853
14 *359:22 *445:68 6.0851e-05
15 *359:22 *447:47 3.45371e-05
16 *359:22 *458:26 0.000194846
17 *359:22 *458:40 8.11401e-05
18 *359:22 *466:42 0.000514381
19 *359:22 *466:52 0.000546644
20 N4BEG[8] *1566:A 2.07809e-05
21 *1366:A *359:22 0.000118028
22 *83:11 *359:22 0.000203224
23 *257:20 *359:22 1.85762e-05
24 *302:24 *359:22 0.000873319
25 *314:14 *359:22 0.000362264
26 *334:16 *1566:A 4.38058e-05
27 *351:16 *359:22 0.00540617
28 *353:26 *359:22 0.000672559
*RES
1 *1410:X *359:22 46.9195 
2 *359:22 *1566:A 21.4275 
*END

*D_NET *360 0.00558045
*CONN
*I *1567:A I *D sky130_fd_sc_hd__buf_2
*I *1411:X O *D sky130_fd_sc_hd__clkbuf_1
*CAP
1 *1567:A 0
2 *1411:X 0.00108842
3 *360:28 0.00108842
4 *360:28 *1257:A1 2.8577e-05
5 *360:28 *1260:A1 2.03618e-05
6 *360:28 *1276:D 6.70327e-05
7 *360:28 *1379:A 0.000102019
8 *360:28 *380:10 9.3111e-05
9 *360:28 *380:26 9.66977e-05
10 *360:28 *385:24 2.0653e-05
11 *360:28 *408:24 0.000496477
12 *360:28 *410:14 0.000499169
13 *360:28 *433:34 1.02433e-05
14 *360:28 *446:24 0.000159446
15 *360:28 *476:14 0.000999694
16 *1255:S0 *360:28 2.06178e-05
17 *1257:S1 *360:28 9.66977e-05
18 *1262:S1 *360:28 0.00018077
19 *1430:A *360:28 0.000346317
20 *325:30 *360:28 0.000146638
21 *358:40 *360:28 1.90936e-05
*RES
1 *1411:X *360:28 42.4138 
2 *360:28 *1567:A 9.3 
*END

*D_NET *361 0.0215254
*CONN
*I *1568:A I *D sky130_fd_sc_hd__buf_2
*I *492:DIODE I *D sky130_fd_sc_hd__diode_2
*I *1412:X O *D sky130_fd_sc_hd__buf_1
*CAP
1 *1568:A 2.37855e-05
2 *492:DIODE 3.50847e-05
3 *1412:X 0.000685848
4 *361:26 0.000751114
5 *361:14 0.0027969
6 *361:12 0.0027905
7 *492:DIODE *422:18 0.000100625
8 *361:12 *442:90 3.69047e-06
9 *361:14 *466:30 0.000355341
10 *361:26 *1579:A 9.8045e-05
11 *361:26 *1585:A 9.41642e-05
12 *361:26 *380:26 8.44271e-06
13 *361:26 *384:14 0.000187026
14 *361:26 *386:30 8.23597e-06
15 *361:26 *407:16 0.000375857
16 *361:26 *422:18 6.26177e-05
17 FrameStrobe_O[10] *361:12 1.86215e-05
18 FrameStrobe_O[14] *361:12 3.27002e-05
19 FrameStrobe_O[15] *361:12 0.00050038
20 FrameStrobe_O[16] *361:12 0.000569489
21 NN4BEG[4] *361:26 0.000202453
22 NN4BEG[5] *361:26 0.000682914
23 *1478:A *361:14 0.000309266
24 *185:23 *361:14 0.000810103
25 *197:21 *361:14 0.00022827
26 *283:12 *492:DIODE 0.000185643
27 *283:12 *361:26 0.000206749
28 *293:14 *361:14 0.000303538
29 *310:42 *361:14 9.36789e-05
30 *311:14 *361:12 0.000673596
31 *312:14 *361:12 0.000874392
32 *331:18 *361:12 8.9108e-05
33 *333:24 *361:14 0.00372452
34 *347:38 *361:26 6.19639e-06
35 *354:26 *361:14 0.00363646
*RES
1 *1412:X *361:12 38.8 
2 *361:12 *361:14 66.6607 
3 *361:14 *361:26 25.4286 
4 *361:26 *492:DIODE 11.0679 
5 *361:26 *1568:A 9.72857 
*END

*D_NET *362 0.0236312
*CONN
*I *1569:A I *D sky130_fd_sc_hd__buf_2
*I *1398:X O *D sky130_fd_sc_hd__buf_1
*CAP
1 *1569:A 0.00272379
2 *1398:X 0.00227709
3 *362:24 0.00500087
4 *1569:A *466:42 2.35126e-05
5 *1569:A *475:36 8.94556e-05
6 *362:24 *1263:A2 1.63453e-05
7 *362:24 *1273:A0 0.000122208
8 *362:24 *1329:A 1.38167e-05
9 *362:24 *1577:A 0.00208545
10 *362:24 *363:20 0.000396132
11 *362:24 *445:24 5.43441e-05
12 *362:24 *445:32 9.24893e-05
13 *362:24 *464:10 3.90622e-05
14 *362:24 *466:24 1.14483e-05
15 N2BEG[4] *1569:A 0.000638393
16 N2BEG[5] *1569:A 0.000634621
17 N2BEG[6] *1569:A 0.000136958
18 N2BEGb[4] *1569:A 0.000138881
19 N4BEG[2] *1569:A 9.67924e-05
20 *1398:A *362:24 0.000107725
21 *1399:A *362:24 4.26807e-05
22 *1400:A *362:24 5.52302e-05
23 *1463:A *1569:A 0.000296731
24 *1481:A *362:24 9.91691e-05
25 *1482:A *362:24 9.71526e-05
26 *1494:A *362:24 0.000568872
27 *1509:A *362:24 0.000355407
28 *349:22 *1569:A 0.00105992
29 *356:14 *1569:A 0.00313076
30 *356:14 *362:24 0.00322586
*RES
1 *1398:X *362:24 48.1504 
2 *362:24 *1569:A 37.977 
*END

*D_NET *363 0.0212028
*CONN
*I *1570:A I *D sky130_fd_sc_hd__buf_2
*I *1399:X O *D sky130_fd_sc_hd__buf_1
*CAP
1 *1570:A 0
2 *1399:X 0.00343373
3 *363:20 0.00343373
4 *363:20 *1273:A0 0.000339371
5 *363:20 *1575:A 4.49626e-05
6 *363:20 *365:22 0.00589203
7 *363:20 *366:22 0.00614001
8 *363:20 *442:28 0.000265982
9 *363:20 *458:26 0.000282389
10 *363:20 *470:22 0.000171569
11 N2BEGb[3] *363:20 0.000254867
12 N2BEGb[4] *363:20 0.00030826
13 N4BEG[2] *363:20 9.2762e-05
14 *1399:A *363:20 2.42135e-05
15 *1557:A *363:20 6.81283e-05
16 *335:14 *363:20 0
17 *354:40 *363:20 5.46275e-05
18 *362:24 *363:20 0.000396132
*RES
1 *1399:X *363:20 46.4158 
2 *363:20 *1570:A 9.3 
*END

*D_NET *364 0.0257779
*CONN
*I *1571:A I *D sky130_fd_sc_hd__buf_2
*I *490:DIODE I *D sky130_fd_sc_hd__diode_2
*I *1400:X O *D sky130_fd_sc_hd__buf_1
*CAP
1 *1571:A 1.05511e-05
2 *490:DIODE 0.000279974
3 *1400:X 0.000795336
4 *364:28 0.0016767
5 *364:12 0.00227649
6 *364:10 0.00166455
7 *490:DIODE *380:10 2.50909e-05
8 *1571:A *380:10 5.49489e-05
9 *364:10 *1271:A1 0.000331943
10 *364:10 *445:32 0.000311923
11 *364:12 *412:60 1.38323e-05
12 *364:12 *443:34 0.0016775
13 *364:12 *482:32 0.000274338
14 *364:28 *1596:A 0.00114171
15 *364:28 *1602:A 0.000195702
16 *364:28 *381:16 1.95475e-05
17 *364:28 *396:16 0.00166451
18 *364:28 *399:18 0
19 *364:28 *412:43 0
20 *364:28 *412:60 0.000399828
21 *364:28 *415:14 1.21289e-05
22 *364:28 *456:82 0.000416436
23 N2BEGb[5] *364:28 7.55747e-05
24 N2BEGb[6] *490:DIODE 9.58181e-05
25 *1263:S0 *364:10 0.00010887
26 *1315:D *364:10 0.000484212
27 *1429:A *364:10 0.000338726
28 *1557:A *364:28 2.90607e-05
29 *1559:A *364:28 0
30 *1562:A *490:DIODE 6.58224e-05
31 *255:26 *364:28 0
32 *263:30 *364:28 0.00109131
33 *291:22 *364:12 0.000324708
34 *291:22 *364:28 0.000166358
35 *304:18 *364:10 0.000184158
36 *338:30 *364:28 0.000112733
37 *344:14 *364:12 0.00548591
38 *347:64 *364:12 0.00380128
39 *352:36 *364:28 0.000170348
*RES
1 *1400:X *364:10 36.9429 
2 *364:10 *364:12 52.6964 
3 *364:12 *364:28 45.5893 
4 *364:28 *490:DIODE 17.2107 
5 *490:DIODE *1571:A 19.1357 
*END

*D_NET *365 0.0184689
*CONN
*I *1572:A I *D sky130_fd_sc_hd__buf_2
*I *1401:X O *D sky130_fd_sc_hd__buf_1
*CAP
1 *1572:A 0
2 *1401:X 0.00284512
3 *365:22 0.00284512
4 *365:22 *1265:A2 9.94199e-05
5 *365:22 *1575:A 0.00451532
6 *365:22 *366:22 0.000178742
7 *365:22 *429:22 9.44617e-05
8 *365:22 *453:38 0.000293079
9 *365:22 *456:32 0.000109316
10 *365:22 *470:22 0.000680113
11 N4BEG[1] *365:22 6.28248e-05
12 *1493:A *365:22 0.000235806
13 *1509:A *365:22 0.000528299
14 *294:32 *365:22 8.92267e-05
15 *363:20 *365:22 0.00589203
*RES
1 *1401:X *365:22 48.3603 
2 *365:22 *1572:A 9.3 
*END

*D_NET *366 0.0187267
*CONN
*I *1573:A I *D sky130_fd_sc_hd__buf_2
*I *1402:X O *D sky130_fd_sc_hd__buf_1
*CAP
1 *1573:A 0
2 *1402:X 0.00321267
3 *366:22 0.00321267
4 *366:22 *1265:A2 3.47641e-06
5 *366:22 *1575:A 0.000276393
6 *366:22 *1586:A 6.8377e-06
7 *366:22 *377:28 0.00182382
8 *366:22 *378:38 0.000176282
9 *366:22 *381:16 4.25652e-05
10 *366:22 *451:10 6.34166e-05
11 *366:22 *451:16 9.54798e-06
12 *366:22 *458:26 0.00269692
13 *366:22 *459:24 0.000234336
14 *366:22 *460:76 8.44271e-06
15 N4BEG[4] *366:22 0.000124275
16 N4BEG[7] *366:22 4.68357e-05
17 *1401:A *366:22 9.55323e-06
18 *1501:A *366:22 0.00021954
19 *1503:A *366:22 0.000198599
20 *335:14 *366:22 4.17871e-05
21 *363:20 *366:22 0.00614001
22 *365:22 *366:22 0.000178742
*RES
1 *1402:X *366:22 46.507 
2 *366:22 *1573:A 9.3 
*END

*D_NET *367 0.0132717
*CONN
*I *1574:A I *D sky130_fd_sc_hd__buf_2
*I *1403:X O *D sky130_fd_sc_hd__buf_1
*CAP
1 *1574:A 0.000576634
2 *1403:X 0.000783181
3 *367:14 0.00303976
4 *367:12 0.0032463
5 *1574:A *1577:A 0.000100315
6 *367:12 *1254:A1 0.00062151
7 *367:12 *1378:A 2.38651e-06
8 *367:12 *368:26 9.83388e-05
9 *367:12 *449:12 1.90181e-05
10 *367:14 *466:30 0.00189757
11 N4BEG[3] *1574:A 0.000129484
12 N4BEG[4] *1574:A 0.00062168
13 N4BEG[5] *1574:A 0.000410014
14 N4BEG[6] *1574:A 0
15 *1399:A *367:12 0.000359234
16 *1400:A *367:12 0.000262803
17 *1401:A *367:14 0.000137561
18 *1402:A *367:14 4.4873e-05
19 *1404:A *367:12 6.39167e-05
20 *1474:A *367:14 0.000266486
21 *1486:A *367:14 0.0001399
22 *1490:A *367:12 0
23 *1565:A *1574:A 3.07021e-05
24 *67:79 *367:12 8.80241e-05
25 *276:64 *367:12 0
26 *322:42 *367:14 0.000168318
27 *333:22 *367:12 0.00014073
28 *333:24 *367:14 0
29 *335:14 *1574:A 2.29541e-05
*RES
1 *1403:X *367:12 34.8536 
2 *367:12 *367:14 50.2321 
3 *367:14 *1574:A 31.5321 
*END

*D_NET *368 0.0179367
*CONN
*I *1575:A I *D sky130_fd_sc_hd__buf_2
*I *1404:X O *D sky130_fd_sc_hd__buf_1
*CAP
1 *1575:A 0.0019645
2 *1404:X 0.000943834
3 *368:26 0.00290833
4 *1575:A *1577:A 0.00216637
5 *1575:A *470:22 0.000401167
6 *368:26 *1265:A0 0.000112971
7 *368:26 *1337:A 0.000178847
8 *368:26 *1378:A 2.6269e-05
9 *368:26 *429:22 5.05056e-05
10 *368:26 *430:20 2.5206e-05
11 *368:26 *433:34 0.000115582
12 *368:26 *436:34 0.00044377
13 *368:26 *436:42 0.000165651
14 *368:26 *442:28 0.000267738
15 *368:26 *445:24 6.05161e-06
16 *368:26 *446:14 0.000297596
17 *368:26 *447:10 4.2313e-06
18 *368:26 *448:34 8.40933e-05
19 *368:26 *460:34 5.77933e-05
20 *368:26 *485:34 0.00011997
21 N4BEG[0] *1575:A 0.000289856
22 N4BEG[1] *1575:A 0.000105924
23 N4BEG[2] *1575:A 6.35515e-05
24 N4BEG[7] *1575:A 5.12625e-05
25 *1403:A *368:26 0.000250249
26 *1433:A *1575:A 0.000875004
27 *1465:A *1575:A 0.000167745
28 *1484:A *368:26 4.70958e-05
29 *1485:A *368:26 5.25192e-06
30 *1486:A *368:26 1.03483e-05
31 *1488:A *368:26 8.08476e-06
32 *67:79 *1575:A 0.000109407
33 *159:19 *368:26 5.87726e-05
34 *276:64 *368:26 0.000346054
35 *310:30 *1575:A 4.98422e-05
36 *349:22 *1575:A 0.000222754
37 *363:20 *1575:A 4.49626e-05
38 *365:22 *1575:A 0.00451532
39 *366:22 *1575:A 0.000276393
40 *367:12 *368:26 9.83388e-05
*RES
1 *1404:X *368:26 49.5761 
2 *368:26 *1575:A 30.2251 
*END

*D_NET *369 0.030255
*CONN
*I *1285:D I *D sky130_fd_sc_hd__dlxtp_1
*I *1349:A I *D sky130_fd_sc_hd__buf_1
*I *1317:D I *D sky130_fd_sc_hd__dlxtp_1
*I *1444:X O *D sky130_fd_sc_hd__dlymetal6s2s_1
*CAP
1 *1285:D 0.00193653
2 *1349:A 0.000155746
3 *1317:D 0.00113935
4 *1444:X 0.00305826
5 *369:41 0.0028305
6 *369:16 0.00493583
7 *1285:D *1256:A1 4.43299e-05
8 *1285:D *1256:A3 2.02193e-05
9 *1285:D *1278:D 0
10 *1285:D *378:38 0.000626621
11 *1285:D *386:30 0.000221931
12 *1285:D *399:26 0.000537221
13 *1285:D *434:24 0.000556343
14 *1285:D *436:34 0.000160526
15 *1285:D *459:55 0.000285962
16 *1285:D *461:28 0.00177452
17 *1285:D *464:42 0.000476863
18 *1285:D *472:32 0.000327456
19 *1317:D *1299:D 6.09762e-05
20 *1317:D *1300:D 2.71254e-05
21 *1317:D *377:28 0
22 *1317:D *384:14 0.00013166
23 *1317:D *386:30 3.15746e-05
24 *1317:D *417:24 5.00194e-05
25 *1317:D *456:66 0.000939707
26 *1349:A *375:16 6.30931e-05
27 *1349:A *434:24 2.06112e-05
28 *369:16 *1592:A 0.000456237
29 *369:16 *380:8 6.2155e-06
30 *369:16 *380:10 0.000145804
31 *369:16 *383:20 4.22135e-06
32 *369:16 *391:16 0.00130853
33 *369:16 *437:28 0.000407298
34 *369:16 *453:38 0.000470081
35 *369:41 *376:28 0.000127359
36 *369:41 *434:24 6.67536e-05
37 *369:41 *437:28 0.000311496
38 *369:41 *448:34 0.000168318
39 *369:41 *458:26 4.59712e-05
40 N1BEG[1] *369:16 9.90367e-05
41 N1BEG[3] *369:16 9.60875e-05
42 N2BEG[1] *369:16 9.60875e-05
43 N2BEG[3] *369:16 8.39516e-05
44 *1249:A *369:16 2.28188e-05
45 *1256:S1 *1285:D 4.43299e-05
46 *1272:S1 *1317:D 3.26952e-05
47 *1293:D *1285:D 0.000370475
48 *1325:A *1285:D 4.70448e-05
49 *1347:A *1285:D 0.00027907
50 *1445:A *369:16 0.000124653
51 *1446:A *369:16 3.91204e-05
52 *1475:A *1349:A 0.000262228
53 *1476:A *1349:A 1.21258e-05
54 *1477:A *1349:A 9.34953e-05
55 *335:14 *369:16 0.000382678
56 *340:38 *369:16 0.00299489
57 *340:38 *369:41 0.000755341
58 *345:16 *369:16 4.29471e-05
59 *346:18 *1317:D 4.65519e-05
60 *347:46 *1285:D 0.000275106
61 *347:46 *1349:A 1.31942e-05
62 *347:46 *369:41 0.000109831
*RES
1 *1444:X *369:16 46.6311 
2 *369:16 *1317:D 28.2984 
3 *369:16 *369:41 2.08523 
4 *369:41 *1349:A 21.1118 
5 *369:41 *1285:D 31.7732 
*END

*D_NET *370 0.0100343
*CONN
*I *1576:A I *D sky130_fd_sc_hd__buf_2
*I *1405:X O *D sky130_fd_sc_hd__clkbuf_1
*CAP
1 *1576:A 0.000458749
2 *1405:X 0.00225663
3 *370:8 0.00271538
4 *1576:A *1592:A 0.000315242
5 *1576:A *380:10 0.000170454
6 *1576:A *387:32 9.87983e-06
7 *1576:A *450:26 7.48404e-06
8 *1576:A *450:28 1.14166e-05
9 *370:8 *372:16 0.00174162
10 *370:8 *454:14 0.000108594
11 *370:8 *465:20 0.00130558
12 *1262:S1 *1576:A 9.87672e-05
13 *1274:S1 *1576:A 0.000226989
14 *1559:A *1576:A 0.000498344
15 *1565:A *1576:A 0.00010918
*RES
1 *1405:X *370:8 45.1393 
2 *370:8 *1576:A 25.8536 
*END

*D_NET *371 0.0207762
*CONN
*I *1577:A I *D sky130_fd_sc_hd__buf_2
*I *1406:X O *D sky130_fd_sc_hd__buf_1
*CAP
1 *1577:A 0.00314537
2 *1406:X 0.00304769
3 *371:28 0.00619306
4 *371:28 *1254:A0 0.000227818
5 *371:28 *1254:A1 0.000226164
6 *371:28 *1258:A0 1.51605e-05
7 *371:28 *1337:A 4.00349e-05
8 *371:28 *1338:A 0.000266542
9 *371:28 *1418:A 9.08241e-05
10 *371:28 *404:70 8.25843e-06
11 *371:28 *404:77 0.000183726
12 *371:28 *432:40 2.49398e-05
13 *371:28 *442:30 0
14 *371:28 *467:38 2.28114e-05
15 *371:28 *473:14 7.43174e-05
16 *371:28 *477:26 0.00019013
17 N4BEG[4] *1577:A 8.61512e-05
18 N4BEG[5] *1577:A 4.23907e-05
19 N4BEG[6] *1577:A 0.000374802
20 N4BEG[7] *1577:A 2.84026e-05
21 N4BEG[9] *1577:A 5.49489e-05
22 NN4BEG[6] *1577:A 0.000522703
23 *1574:A *1577:A 0.000100315
24 *1575:A *1577:A 0.00216637
25 *239:26 *371:28 9.41642e-05
26 *276:64 *371:28 9.22222e-06
27 *349:22 *1577:A 0.000861401
28 *356:14 *1577:A 0.000593005
29 *362:24 *1577:A 0.00208545
*RES
1 *1406:X *371:28 45.0042 
2 *371:28 *1577:A 39.3769 
*END

*D_NET *372 0.0105746
*CONN
*I *1578:A I *D sky130_fd_sc_hd__buf_2
*I *1413:X O *D sky130_fd_sc_hd__clkbuf_1
*CAP
1 *1578:A 0.00119095
2 *1413:X 0.00132146
3 *372:16 0.00251242
4 *1578:A *1255:A2 4.58194e-05
5 *1578:A *1314:GATE 4.30301e-05
6 *1578:A *1379:A 0.00036204
7 *1578:A *1427:A 0.000106018
8 *1578:A *411:18 1.57414e-05
9 *1578:A *446:24 6.72456e-05
10 *1578:A *450:34 1.74352e-05
11 *1578:A *461:78 5.94433e-06
12 *372:16 *1266:A3 5.41794e-05
13 *372:16 *1405:A 0.00117217
14 *372:16 *450:34 0.000687775
15 *372:16 *454:14 0.000438775
16 *372:16 *458:40 4.49293e-05
17 *1314:D *1578:A 1.58163e-05
18 *1385:A *372:16 0.000100831
19 *1430:A *1578:A 2.61935e-05
20 *245:24 *1578:A 7.83659e-05
21 *339:16 *1578:A 9.51928e-05
22 *348:12 *1578:A 0.000430654
23 *370:8 *372:16 0.00174162
*RES
1 *1413:X *372:16 48.6571 
2 *372:16 *1578:A 36.3893 
*END

*D_NET *373 0.0109443
*CONN
*I *1579:A I *D sky130_fd_sc_hd__buf_2
*I *1423:X O *D sky130_fd_sc_hd__clkbuf_1
*CAP
1 *1579:A 0.00214921
2 *1423:X 0.00116774
3 *373:20 0.00331696
4 *1579:A *1592:A 0.000136951
5 *1579:A *1593:A 3.60088e-05
6 *1579:A *407:16 4.80553e-05
7 *1579:A *437:28 3.45371e-05
8 *1579:A *441:22 0.000150409
9 *373:20 *381:16 0
10 *373:20 *416:22 0.000144074
11 *373:20 *443:10 0.000322749
12 *373:20 *446:46 3.32605e-05
13 *373:20 *446:62 0.000229777
14 N2BEG[7] *373:20 0.00025967
15 N2BEGb[0] *373:20 7.6644e-05
16 N2BEGb[1] *373:20 6.32262e-05
17 N2BEGb[2] *373:20 0
18 NN4BEG[7] *1579:A 0.000136958
19 NN4BEG[8] *1579:A 4.33174e-05
20 NN4BEG[9] *1579:A 0.0001399
21 *1249:A *373:20 0
22 *1548:A *1579:A 0.000428203
23 *1552:A *1579:A 9.58181e-05
24 *1556:A *373:20 0.000101951
25 *264:20 *373:20 0.000702003
26 *290:12 *373:20 4.16689e-05
27 *338:30 *373:20 0.000271641
28 *339:16 *1579:A 0.000715561
29 *346:18 *373:20 0
30 *361:26 *1579:A 9.8045e-05
*RES
1 *1423:X *373:20 43.8714 
2 *373:20 *1579:A 46.6036 
*END

*D_NET *374 0.0101684
*CONN
*I *1580:A I *D sky130_fd_sc_hd__buf_2
*I *1424:X O *D sky130_fd_sc_hd__clkbuf_1
*CAP
1 *1580:A 0
2 *1424:X 0.000356763
3 *374:20 0.00279418
4 *374:12 0.00315094
5 *374:12 *1258:A1 0.000141032
6 *374:12 *429:22 1.76569e-05
7 *374:20 *1253:A0 0.000253318
8 *374:20 *1269:A0 0.000842123
9 *374:20 *1288:D 9.22098e-05
10 *374:20 *1288:GATE 2.00971e-05
11 *374:20 *1352:A 0.000130001
12 *374:20 *1593:A 1.95045e-05
13 *374:20 *403:86 0.000223471
14 *374:20 *406:39 6.90296e-05
15 *374:20 *436:60 0.000270257
16 *374:20 *468:20 0.000174059
17 *374:20 *479:26 0.000185124
18 *374:20 *483:36 9.35794e-06
19 Co *374:20 0.000293061
20 *1260:S0 *374:20 0.00025974
21 *282:24 *374:12 0.000173173
22 *297:26 *374:20 0.000139202
23 *297:48 *374:12 0.000306921
24 *303:80 *374:12 2.2351e-05
25 *336:112 *374:20 0.000224879
*RES
1 *1424:X *374:12 24.2643 
2 *374:12 *374:20 46.875 
3 *374:20 *1580:A 9.3 
*END

*D_NET *375 0.00660813
*CONN
*I *1581:A I *D sky130_fd_sc_hd__buf_2
*I *1425:X O *D sky130_fd_sc_hd__clkbuf_1
*CAP
1 *1581:A 0.000287077
2 *1425:X 0.00117214
3 *375:16 0.00145922
4 *1581:A *377:28 1.32056e-05
5 *1581:A *378:38 2.36643e-05
6 *1581:A *430:20 2.66169e-05
7 *1581:A *437:28 0.000165048
8 *375:16 *1339:A 0.00142627
9 *375:16 *1418:A 5.10001e-05
10 *375:16 *400:57 6.87975e-06
11 *375:16 *426:26 2.97114e-05
12 *375:16 *430:20 0
13 *375:16 *432:40 0.0001678
14 *375:16 *434:24 1.74236e-05
15 *375:16 *435:18 0.000186237
16 NN4BEG[14] *1581:A 3.31027e-05
17 *1280:D *375:16 2.30239e-05
18 *1345:A *375:16 0.000198836
19 *1349:A *375:16 6.30931e-05
20 *1433:A *375:16 0.000245632
21 *231:22 *375:16 0.000219289
22 *298:26 *375:16 0.000267066
23 *303:51 *375:16 5.26411e-05
24 *338:30 *375:16 1.90936e-05
25 *347:58 *375:16 2.06112e-05
26 *347:64 *375:16 0.000433445
*RES
1 *1425:X *375:16 49.8179 
2 *375:16 *1581:A 19.0143 
*END

*D_NET *376 0.0106591
*CONN
*I *1582:A I *D sky130_fd_sc_hd__buf_2
*I *1426:X O *D sky130_fd_sc_hd__clkbuf_1
*CAP
1 *1582:A 0
2 *1426:X 0.00257697
3 *376:28 0.00257697
4 *376:28 *1252:A0 2.63501e-05
5 *376:28 *1422:A 0.00135026
6 *376:28 *401:12 5.52302e-05
7 *376:28 *401:16 3.10885e-05
8 *376:28 *401:59 0.000138958
9 *376:28 *404:10 1.21258e-05
10 *376:28 *407:48 0.00144713
11 *376:28 *418:22 0.000160567
12 *376:28 *419:22 0.000150949
13 *376:28 *430:20 0.000178306
14 *376:28 *444:64 2.71338e-05
15 *376:28 *448:52 0.00016499
16 *376:28 *463:56 0.0010865
17 *376:28 *471:26 4.69822e-05
18 *1465:A *376:28 0.000178306
19 *67:38 *376:28 0.000191285
20 *340:38 *376:28 0.000131653
21 *369:41 *376:28 0.000127359
*RES
1 *1426:X *376:28 44.1259 
2 *376:28 *1582:A 9.3 
*END

*D_NET *377 0.0106131
*CONN
*I *1583:A I *D sky130_fd_sc_hd__buf_2
*I *1427:X O *D sky130_fd_sc_hd__clkbuf_1
*CAP
1 *1583:A 0
2 *1427:X 0.00302228
3 *377:28 0.00302228
4 *377:28 *1251:A2 6.38844e-06
5 *377:28 *378:38 9.58126e-05
6 *377:28 *386:30 0
7 *377:28 *410:14 0.000224813
8 *377:28 *430:20 0.000118986
9 *377:28 *456:44 1.39158e-05
10 *377:28 *458:26 0.000529571
11 *377:28 *459:24 6.14836e-06
12 *377:28 *461:78 9.72415e-05
13 *377:28 *466:42 0
14 *377:28 *466:52 0.000480404
15 *377:28 *476:14 0.000907719
16 NN4BEG[14] *377:28 5.65955e-05
17 *1274:S0 *377:28 4.6109e-05
18 *1317:D *377:28 0
19 *1433:A *377:28 0.000147807
20 *1581:A *377:28 1.32056e-05
21 *366:22 *377:28 0.00182382
*RES
1 *1427:X *377:28 43.7482 
2 *377:28 *1583:A 9.3 
*END

*D_NET *378 0.0112151
*CONN
*I *1584:A I *D sky130_fd_sc_hd__buf_2
*I *1428:X O *D sky130_fd_sc_hd__clkbuf_1
*CAP
1 *1584:A 0
2 *1428:X 0.00241314
3 *378:38 0.00241314
4 *378:38 *1301:D 0.00111686
5 *378:38 *1418:A 0.00146123
6 *378:38 *380:45 0.000345281
7 *378:38 *406:26 4.33661e-05
8 *378:38 *418:22 0.000136953
9 *378:38 *426:26 6.67132e-05
10 *378:38 *436:34 0.00035113
11 *378:38 *437:28 0.000312731
12 *378:38 *447:10 2.97537e-05
13 *378:38 *459:24 0.000176282
14 *378:38 *459:30 9.35951e-05
15 *378:38 *459:55 0.000509699
16 *378:38 *461:28 3.09758e-05
17 *378:38 *476:41 0.000214436
18 *378:38 *481:24 0.000181147
19 NN4BEG[14] *378:38 6.09682e-05
20 *1285:D *378:38 0.000626621
21 *1478:A *378:38 8.26157e-05
22 *1581:A *378:38 2.36643e-05
23 *310:30 *378:38 4.89354e-06
24 *347:58 *378:38 0.000247781
25 *366:22 *378:38 0.000176282
26 *377:28 *378:38 9.58126e-05
*RES
1 *1428:X *378:38 46.8564 
2 *378:38 *1584:A 9.3 
*END

*D_NET *379 0.0169974
*CONN
*I *1585:A I *D sky130_fd_sc_hd__buf_2
*I *1414:X O *D sky130_fd_sc_hd__buf_1
*CAP
1 *1585:A 0.0010369
2 *1414:X 0.00283913
3 *379:24 0.00387603
4 *1585:A *1255:A0 0.00030092
5 *1585:A *1276:GATE 1.4396e-05
6 *1585:A *1295:GATE 0.000122812
7 *1585:A *400:22 8.5552e-05
8 *1585:A *400:53 2.11419e-05
9 *1585:A *402:65 5.27716e-05
10 *1585:A *407:16 1.26641e-05
11 *1585:A *409:20 9.60337e-06
12 *1585:A *416:34 0.000190002
13 *1585:A *422:18 9.65259e-05
14 *1585:A *443:34 0
15 *1585:A *448:70 0.000108708
16 *1585:A *456:82 0
17 *379:24 *1273:A2 0.000117094
18 *379:24 *386:30 0.000143003
19 *379:24 *399:26 0.000138752
20 *379:24 *472:32 1.67804e-05
21 *379:24 *482:32 0.000221194
22 *1262:S0 *1585:A 0.000256736
23 *1326:A *379:24 1.74567e-05
24 *1365:A *379:24 0
25 *1383:A *1585:A 3.31923e-05
26 *79:9 *379:24 0.000273261
27 *211:9 *379:24 0.000467841
28 *233:24 *379:24 0.000369525
29 *263:20 *1585:A 2.05938e-05
30 *269:22 *379:24 0
31 *291:22 *379:24 0.00100701
32 *306:20 *379:24 0.000267731
33 *314:36 *379:24 0
34 *344:30 *379:24 1.95113e-06
35 *351:16 *379:24 0.00420417
36 *358:20 *1585:A 0.000579753
37 *359:22 *379:24 0
38 *361:26 *1585:A 9.41642e-05
*RES
1 *1414:X *379:24 46.3605 
2 *379:24 *1585:A 35.3625 
*END

*D_NET *380 0.0208294
*CONN
*I *1286:D I *D sky130_fd_sc_hd__dlxtp_1
*I *1350:A I *D sky130_fd_sc_hd__buf_1
*I *1318:D I *D sky130_fd_sc_hd__dlxtp_1
*I *1445:X O *D sky130_fd_sc_hd__buf_1
*CAP
1 *1286:D 0.000485609
2 *1350:A 8.02778e-05
3 *1318:D 0
4 *1445:X 0.000129139
5 *380:45 0.00153166
6 *380:26 0.00180334
7 *380:10 0.00216734
8 *380:8 0.00145892
9 *1286:D *1252:A2 5.49489e-05
10 *1286:D *1256:A1 0.000362273
11 *1286:D *1301:D 3.50637e-05
12 *1286:D *444:34 3.69047e-06
13 *1286:D *460:34 0.000515838
14 *1350:A *1256:A1 8.19176e-05
15 *380:10 *382:32 0.000108525
16 *380:10 *384:14 0.000180764
17 *380:10 *391:16 0.00130853
18 *380:10 *411:12 0.000503404
19 *380:26 *1257:A2 0.000237683
20 *380:26 *1299:D 0.000321096
21 *380:26 *1300:GATE 0
22 *380:26 *1313:GATE 0.000218404
23 *380:26 *1357:A 0.000262686
24 *380:26 *1593:A 5.52238e-05
25 *380:26 *384:14 0.000682516
26 *380:26 *444:66 9.41642e-05
27 *380:45 *1301:D 0.000119761
28 *380:45 *1318:GATE 9.41642e-05
29 *380:45 *1358:A 0.000149402
30 *380:45 *403:41 3.06511e-05
31 *380:45 *408:83 8.69554e-05
32 *380:45 *418:22 0.000294503
33 *380:45 *476:41 3.30053e-05
34 *380:45 *483:36 6.33545e-05
35 N1BEG[1] *380:10 0.00010096
36 N1BEG[3] *380:10 9.80173e-05
37 N2BEG[1] *380:10 9.80173e-05
38 N2BEG[3] *380:10 9.90431e-05
39 N2BEG[5] *380:10 4.87953e-05
40 N2BEG[7] *380:10 5.17614e-05
41 N2BEGb[2] *380:10 0.000185124
42 N2BEGb[6] *380:10 8.50568e-05
43 N4BEG[0] *380:10 0.000130609
44 N4BEG[10] *380:10 0.00022581
45 N4BEG[12] *380:10 3.68898e-05
46 N4BEG[14] *380:10 0.00027005
47 N4BEG[3] *380:10 0.000311377
48 N4BEG[6] *380:10 0.000266955
49 N4BEG[8] *380:10 6.10547e-05
50 NN4BEG[0] *380:10 3.50327e-05
51 NN4BEG[3] *380:10 0.000265453
52 NN4BEG[5] *380:10 0.000110107
53 *490:DIODE *380:10 2.50909e-05
54 *1257:S1 *380:26 0.000632912
55 *1257:S1 *380:45 3.63775e-05
56 *1262:S1 *380:10 0.000160573
57 *1348:A *1350:A 8.19176e-05
58 *1395:A *380:45 8.9249e-05
59 *1446:A *380:8 8.23193e-05
60 *1543:A *380:10 0.000139907
61 *1545:A *380:10 0.00014285
62 *1547:A *380:10 0.000140675
63 *1551:A *380:10 5.52238e-05
64 *1560:A *380:10 9.41642e-05
65 *1562:A *380:10 0.000178425
66 *1565:A *380:10 0.000141673
67 *1571:A *380:10 5.49489e-05
68 *1576:A *380:10 0.000170454
69 *231:22 *380:26 0
70 *234:20 *1286:D 3.69047e-06
71 *241:20 *380:26 0.000221822
72 *274:32 *380:45 3.01823e-05
73 *292:43 *380:45 8.84439e-05
74 *292:84 *1350:A 5.33005e-05
75 *292:84 *380:45 2.62977e-05
76 *301:34 *1286:D 0.000109651
77 *301:34 *380:45 0.000325921
78 *302:24 *380:45 4.79414e-05
79 *325:40 *380:26 0.000242228
80 *325:40 *380:45 0.000205972
81 *336:57 *380:26 0.000112777
82 *336:112 *1286:D 0.000108353
83 *336:112 *1350:A 1.24368e-05
84 *344:30 *380:10 9.60939e-05
85 *347:38 *380:26 0.000131806
86 *355:14 *380:10 5.52302e-05
87 *360:28 *380:10 9.3111e-05
88 *360:28 *380:26 9.66977e-05
89 *361:26 *380:26 8.44271e-06
90 *369:16 *380:8 6.2155e-06
91 *369:16 *380:10 0.000145804
92 *378:38 *380:45 0.000345281
*RES
1 *1445:X *380:8 11.4875 
2 *380:8 *380:10 46.3304 
3 *380:10 *380:26 32.0893 
4 *380:26 *1318:D 9.3 
5 *380:26 *380:45 13.3973 
6 *380:45 *1350:A 18.9332 
7 *380:45 *1286:D 27.3743 
*END

*D_NET *381 0.00748616
*CONN
*I *1586:A I *D sky130_fd_sc_hd__buf_2
*I *1415:X O *D sky130_fd_sc_hd__clkbuf_1
*CAP
1 *1586:A 0.000964277
2 *1415:X 0.000979232
3 *381:16 0.00194351
4 *381:16 *1377:A 5.52238e-05
5 *381:16 *399:18 4.46186e-06
6 *381:16 *413:26 3.69697e-05
7 *381:16 *443:10 0
8 N2BEGb[3] *381:16 0.000280148
9 N2BEGb[4] *381:16 5.52302e-05
10 N2BEGb[5] *381:16 4.98937e-05
11 N4BEG[11] *1586:A 0.000496723
12 N4BEG[5] *381:16 1.32552e-05
13 N4BEG[7] *1586:A 0.000376199
14 N4BEG[9] *1586:A 8.71079e-05
15 NN4BEG[2] *1586:A 4.58194e-05
16 *1249:A *381:16 1.496e-05
17 *263:30 *381:16 0.000976711
18 *346:18 *381:16 0.000754594
19 *352:36 *381:16 0.000282892
20 *364:28 *381:16 1.95475e-05
21 *366:22 *1586:A 6.8377e-06
22 *366:22 *381:16 4.25652e-05
23 *373:20 *381:16 0
*RES
1 *1415:X *381:16 41.7107 
2 *381:16 *1586:A 22.9071 
*END

*D_NET *382 0.00585072
*CONN
*I *1587:A I *D sky130_fd_sc_hd__buf_2
*I *1416:X O *D sky130_fd_sc_hd__clkbuf_1
*CAP
1 *1587:A 0
2 *1416:X 0.00149382
3 *382:32 0.00149382
4 *382:32 *1257:A1 5.09923e-05
5 *382:32 *1264:A3 0.000135028
6 *382:32 *1300:GATE 9.41642e-05
7 *382:32 *1309:D 0.000180079
8 *382:32 *1309:GATE 0.000935638
9 *382:32 *1339:A 9.90431e-05
10 *382:32 *1593:A 4.46777e-05
11 *382:32 *384:14 0.000180764
12 *382:32 *385:24 7.69776e-06
13 *382:32 *391:38 5.60413e-05
14 *382:32 *403:10 9.69399e-05
15 *382:32 *422:18 2.50824e-05
16 *382:32 *423:32 8.9664e-05
17 *382:32 *424:26 0.000105133
18 *382:32 *430:28 6.57032e-05
19 *382:32 *448:52 2.06112e-05
20 *1262:S1 *382:32 0.000226507
21 *1345:A *382:32 5.49544e-05
22 *1433:A *382:32 5.33005e-05
23 *231:22 *382:32 0.000212765
24 *347:38 *382:32 1.97756e-05
25 *380:10 *382:32 0.000108525
*RES
1 *1416:X *382:32 48.3 
2 *382:32 *1587:A 9.3 
*END

*D_NET *383 0.0130606
*CONN
*I *1588:A I *D sky130_fd_sc_hd__buf_2
*I *1417:X O *D sky130_fd_sc_hd__buf_1
*CAP
1 *1588:A 0.000763177
2 *1417:X 0.000591026
3 *383:20 0.00164692
4 *383:16 0.00147477
5 *1588:A *408:18 0.00217197
6 *1588:A *428:18 0.00026353
7 *1588:A *441:22 0.000163629
8 *1588:A *446:24 0.000258999
9 *383:16 *413:14 1.58163e-05
10 *383:16 *416:22 0.000135028
11 *383:16 *466:66 8.86512e-05
12 *383:20 *413:14 0.000237033
13 *383:20 *446:62 0.000279019
14 N2BEG[3] *383:20 0.000430313
15 N2BEG[4] *383:20 0.000580939
16 N4BEG[14] *1588:A 0.000258999
17 N4BEG[1] *1588:A 0.00100668
18 N4BEG[4] *1588:A 9.41642e-05
19 *1249:A *383:20 4.42332e-05
20 *1249:B *383:20 8.40344e-05
21 *1381:A *383:16 0.000534222
22 *1544:A *1588:A 0.000145297
23 *1551:A *383:16 0.000146777
24 *273:12 *383:20 0.00102095
25 *303:14 *383:20 3.41604e-05
26 *340:38 *383:20 2.11419e-05
27 *345:16 *383:20 5.30815e-05
28 *353:26 *383:16 0.000146777
29 *353:26 *383:20 0.000365058
30 *369:16 *383:20 4.22135e-06
*RES
1 *1417:X *383:16 32.8 
2 *383:16 *383:20 29.8214 
3 *383:20 *1588:A 43.2464 
*END

*D_NET *384 0.00531045
*CONN
*I *1589:A I *D sky130_fd_sc_hd__buf_2
*I *1418:X O *D sky130_fd_sc_hd__clkbuf_1
*CAP
1 *1589:A 0
2 *1418:X 0.00125078
3 *384:14 0.00125078
4 *384:14 *1253:A2 5.67612e-05
5 *384:14 *1257:A2 0.000163628
6 *384:14 *1299:D 4.64246e-05
7 *384:14 *400:53 0.000164382
8 *384:14 *407:16 1.73191e-05
9 *384:14 *448:70 0.000624209
10 *384:14 *448:76 7.31692e-05
11 *1257:S1 *384:14 0.00023031
12 *1272:S1 *384:14 3.2061e-05
13 *1317:D *384:14 0.00013166
14 *263:20 *384:14 3.78944e-05
15 *361:26 *384:14 0.000187026
16 *380:10 *384:14 0.000180764
17 *380:26 *384:14 0.000682516
18 *382:32 *384:14 0.000180764
*RES
1 *1418:X *384:14 44.2107 
2 *384:14 *1589:A 9.3 
*END

*D_NET *385 0.004577
*CONN
*I *1590:A I *D sky130_fd_sc_hd__buf_2
*I *1419:X O *D sky130_fd_sc_hd__clkbuf_1
*CAP
1 *1590:A 0
2 *1419:X 0.00131851
3 *385:24 0.00131851
4 *385:24 *1257:A1 0
5 *385:24 *1260:A1 0
6 *385:24 *1264:A3 0.000121555
7 *385:24 *1355:A 0.00013921
8 *385:24 *1592:A 2.58821e-05
9 *385:24 *1593:A 4.10843e-05
10 *385:24 *386:30 8.90371e-05
11 *385:24 *403:86 4.99132e-05
12 *385:24 *408:44 2.9939e-05
13 *385:24 *424:26 0.000865888
14 *385:24 *437:28 6.35864e-05
15 *385:24 *456:54 5.65801e-06
16 NN4BEG[2] *385:24 1.98839e-05
17 NN4BEG[4] *385:24 0.000149394
18 NN4BEG[7] *385:24 2.87555e-06
19 NN4BEG[8] *385:24 0.000265178
20 *1272:S0 *385:24 0
21 *1463:A *385:24 0
22 *358:40 *385:24 4.25548e-05
23 *360:28 *385:24 2.0653e-05
24 *382:32 *385:24 7.69776e-06
*RES
1 *1419:X *385:24 41.0679 
2 *385:24 *1590:A 9.3 
*END

*D_NET *386 0.0141203
*CONN
*I *1591:A I *D sky130_fd_sc_hd__buf_2
*I *1420:X O *D sky130_fd_sc_hd__clkbuf_1
*CAP
1 *1591:A 0
2 *1420:X 0.00354025
3 *386:30 0.00354025
4 *386:30 *1300:D 0.00103222
5 *386:30 *1332:A 0.000113877
6 *386:30 *1592:A 0.000213467
7 *386:30 *395:12 0.000283759
8 *386:30 *399:26 0.000449388
9 *386:30 *407:16 2.09897e-05
10 *386:30 *412:60 0.000119716
11 *386:30 *437:28 0.000109499
12 *386:30 *456:66 7.96277e-05
13 *386:30 *458:26 0.000403818
14 *386:30 *472:32 0.000974036
15 NN4BEG[7] *386:30 8.25843e-06
16 *1285:D *386:30 0.000221931
17 *1317:D *386:30 3.15746e-05
18 *1326:A *386:30 4.65519e-05
19 *291:22 *386:30 0.0022365
20 *299:34 *386:30 0.000281642
21 *344:14 *386:30 0.000172688
22 *361:26 *386:30 8.23597e-06
23 *377:28 *386:30 0
24 *379:24 *386:30 0.000143003
25 *385:24 *386:30 8.90371e-05
*RES
1 *1420:X *386:30 47.1709 
2 *386:30 *1591:A 9.3 
*END

*D_NET *387 0.0131681
*CONN
*I *1592:A I *D sky130_fd_sc_hd__buf_2
*I *1421:X O *D sky130_fd_sc_hd__buf_1
*CAP
1 *1592:A 0.00156803
2 *1421:X 0.0012001
3 *387:32 0.00276813
4 *1592:A *1274:A3 6.14836e-06
5 *1592:A *437:28 0.000476417
6 *1592:A *446:46 9.3166e-05
7 *1592:A *450:26 0.000110577
8 *1592:A *453:38 0.00048985
9 *1592:A *456:54 2.02469e-05
10 *1592:A *458:26 0.000571269
11 *1592:A *458:40 0.000135907
12 *1592:A *465:20 4.07127e-05
13 *387:32 *1251:A2 9.87935e-06
14 *387:32 *1377:A 0.000872967
15 *387:32 *1407:A 0.000225982
16 *387:32 *1415:A 0.000265166
17 *387:32 *399:18 0.000531845
18 *387:32 *413:14 0.000165221
19 *387:32 *443:16 0.000218818
20 *387:32 *450:28 5.99499e-05
21 *387:32 *450:34 9.30603e-06
22 *387:32 *454:14 9.34324e-05
23 *387:32 *458:40 8.94491e-05
24 N4BEG[0] *1592:A 2.70899e-05
25 N4BEG[3] *1592:A 8.71598e-06
26 NN4BEG[5] *1592:A 8.40344e-05
27 NN4BEG[7] *1592:A 2.44318e-05
28 NN4BEG[8] *1592:A 4.58194e-05
29 *1262:S1 *1592:A 0
30 *1559:A *387:32 0.000586172
31 *1565:A *1592:A 5.95236e-05
32 *1566:A *1592:A 0.000129245
33 *1576:A *1592:A 0.000315242
34 *1576:A *387:32 9.87983e-06
35 *1579:A *1592:A 0.000136951
36 *255:26 *387:32 0.000504615
37 *335:14 *1592:A 0.000377068
38 *355:14 *387:32 0.000141132
39 *369:16 *1592:A 0.000456237
40 *385:24 *1592:A 2.58821e-05
41 *386:30 *1592:A 0.000213467
*RES
1 *1421:X *387:32 47.9097 
2 *387:32 *1592:A 44.415 
*END

*D_NET *388 0.00333918
*CONN
*I *1593:A I *D sky130_fd_sc_hd__buf_2
*I *1422:X O *D sky130_fd_sc_hd__clkbuf_1
*CAP
1 *1593:A 0.000677994
2 *1422:X 0.000677994
3 *1593:A *1253:A0 0.000631946
4 *1593:A *1257:A1 0.000498732
5 *1593:A *437:28 9.22015e-05
6 *1593:A *448:52 1.78064e-05
7 Co *1593:A 5.90048e-05
8 NN4BEG[8] *1593:A 5.33005e-05
9 NN4BEG[9] *1593:A 8.43535e-06
10 *1257:S1 *1593:A 5.33005e-05
11 *1463:A *1593:A 0.000191901
12 *1464:A *1593:A 0.000180066
13 *1579:A *1593:A 3.60088e-05
14 *374:20 *1593:A 1.95045e-05
15 *380:26 *1593:A 5.52238e-05
16 *382:32 *1593:A 4.46777e-05
17 *385:24 *1593:A 4.10843e-05
*RES
1 *1422:X *1593:A 44.4571 
*END

*D_NET *389 0.00518543
*CONN
*I *1594:A I *D sky130_fd_sc_hd__buf_1
*I *1429:X O *D sky130_fd_sc_hd__buf_2
*CAP
1 *1594:A 0
2 *1429:X 0.00130519
3 *389:12 0.00130519
4 *389:12 *1271:A1 0.000329464
5 *389:12 *438:32 9.76435e-06
6 *1265:S0 *389:12 0.000138881
7 *1359:A *389:12 3.25078e-05
8 *1535:A *389:12 0.000968841
9 *71:29 *389:12 6.05161e-06
10 *326:16 *389:12 0.00103624
11 *327:16 *389:12 5.33005e-05
*RES
1 *1429:X *389:12 43.3 
2 *389:12 *1594:A 9.3 
*END

*D_NET *390 0.0204132
*CONN
*I *1595:A I *D sky130_fd_sc_hd__buf_2
*I *1258:X O *D sky130_fd_sc_hd__mux4_2
*CAP
1 *1595:A 0.000495522
2 *1258:X 0.000434159
3 *390:12 0.00355595
4 *390:10 0.00349459
5 *1595:A *414:10 0.000501568
6 *1595:A *418:22 2.06112e-05
7 *1595:A *421:10 0.000973629
8 *390:10 *414:26 0.000115487
9 *390:10 *421:20 7.31375e-05
10 *390:12 *414:12 0.00953757
11 VALUE_top0 *1595:A 0
12 VALUE_top1 *1595:A 0
13 *491:DIODE *390:12 0.000992194
14 *1365:A *390:10 0
15 *1366:A *390:10 9.23406e-05
16 *1447:A *1595:A 0
17 *1459:A *1595:A 0
18 *307:16 *390:10 0.000126484
*RES
1 *1258:X *390:10 26.6214 
2 *390:10 *390:12 90.0714 
3 *390:12 *1595:A 33.05 
*END

*D_NET *391 0.021017
*CONN
*I *1319:D I *D sky130_fd_sc_hd__dlxtp_1
*I *1351:A I *D sky130_fd_sc_hd__buf_1
*I *1287:D I *D sky130_fd_sc_hd__dlxtp_1
*I *1446:X O *D sky130_fd_sc_hd__buf_1
*CAP
1 *1319:D 0.000769002
2 *1351:A 0
3 *1287:D 0.000142767
4 *1446:X 0.000631573
5 *391:38 0.00208277
6 *391:20 0.0031404
7 *391:16 0.00260097
8 *1287:D *1356:A 4.35597e-05
9 *1287:D *408:83 8.54181e-05
10 *1319:D *1252:A1 0.000247572
11 *1319:D *1254:A0 7.44262e-05
12 *1319:D *1303:GATE 0
13 *1319:D *1320:D 6.43778e-05
14 *1319:D *1333:A 7.35883e-06
15 *1319:D *1334:A 1.03403e-05
16 *1319:D *1335:A 5.04841e-06
17 *1319:D *401:82 2.22674e-05
18 *1319:D *427:20 2.28007e-05
19 *391:16 *412:16 6.8341e-05
20 *391:20 *407:12 9.68625e-05
21 *391:20 *453:38 0.000732211
22 *391:38 *1309:D 4.85049e-06
23 *391:38 *1309:GATE 5.32956e-05
24 *391:38 *1320:D 0.000206719
25 *391:38 *423:18 5.00841e-06
26 *391:38 *453:24 0.000480309
27 *391:38 *453:38 0.000234124
28 *391:38 *478:32 7.01639e-05
29 *391:38 *479:26 0.000104833
30 *391:38 *480:20 6.46173e-05
31 N1BEG[1] *391:16 0.000622199
32 N1BEG[2] *391:16 0.000480434
33 N2BEGb[7] *391:20 0.000197914
34 N4BEG[13] *391:20 0.000392032
35 N4BEG[5] *391:20 6.64036e-05
36 *1252:S0 *1319:D 8.43535e-06
37 *1252:S1 *1319:D 0.000307897
38 *1260:S1 *1319:D 3.08382e-06
39 *1268:S0 *1287:D 4.98406e-05
40 *1325:A *391:38 2.45832e-05
41 *1326:A *391:38 1.21955e-05
42 *1343:A *391:38 0.000146266
43 *1347:A *391:38 4.38313e-05
44 *1390:A *1319:D 0.000261109
45 *1464:A *391:20 0.0004385
46 *1464:A *391:38 1.38208e-05
47 *1466:A *391:38 0.000394164
48 *1483:A *391:38 0.000395811
49 *1543:A *391:16 9.32406e-05
50 *159:19 *391:38 5.32645e-05
51 *292:84 *1287:D 0.00022093
52 *292:84 *1319:D 9.41642e-05
53 *295:30 *1287:D 9.41642e-05
54 *295:30 *1319:D 8.17274e-05
55 *301:34 *1319:D 6.30035e-05
56 *302:24 *1319:D 4.15161e-05
57 *302:24 *391:38 0.000115935
58 *309:26 *1319:D 7.02211e-05
59 *310:30 *391:38 0.000731719
60 *322:30 *391:38 2.48762e-05
61 *333:24 *391:20 0
62 *343:30 *391:20 0.00072863
63 *345:16 *391:16 0
64 *369:16 *391:16 0.00130853
65 *380:10 *391:16 0.00130853
66 *382:32 *391:38 5.60413e-05
*RES
1 *1446:X *391:16 42.175 
2 *391:16 *391:20 43.2946 
3 *391:20 *391:38 44.8661 
4 *391:38 *1287:D 13.1214 
5 *391:38 *1351:A 9.3 
6 *391:38 *1319:D 34.6214 
*END

*D_NET *392 0.0108183
*CONN
*I *1596:A I *D sky130_fd_sc_hd__buf_2
*I *1257:X O *D sky130_fd_sc_hd__mux4_1
*CAP
1 *1596:A 0.00244934
2 *1257:X 0.000940558
3 *392:16 0.0033899
4 *1596:A *1598:A 8.90199e-05
5 *1596:A *396:16 0.00042308
6 *1596:A *415:14 0.00041842
7 *392:16 *1277:D 0.000104145
8 *392:16 *1355:A 0.000505757
9 *392:16 *1423:A 6.30931e-05
10 *392:16 *412:43 0.000226893
11 *392:16 *412:60 6.99277e-05
12 *247:43 *392:16 0
13 *283:12 *392:16 0.00049858
14 *291:22 *1596:A 0.000497887
15 *364:28 *1596:A 0.00114171
*RES
1 *1257:X *392:16 34.7643 
2 *392:16 *1596:A 44.1393 
*END

*D_NET *393 0.0116444
*CONN
*I *1597:A I *D sky130_fd_sc_hd__buf_2
*I *1256:X O *D sky130_fd_sc_hd__mux4_1
*CAP
1 *1597:A 9.88885e-05
2 *1256:X 0.000674638
3 *393:18 0.00162629
4 *393:16 0.00220204
5 *1597:A *419:12 0.000202128
6 *393:16 *1278:D 1.92905e-05
7 *393:16 *401:28 0.000197687
8 *393:16 *415:22 6.84853e-05
9 *393:16 *443:40 0
10 VALUE_top3 *1597:A 0
11 *79:9 *393:18 0.000266428
12 *80:7 *393:16 3.10885e-05
13 *211:9 *393:18 0.000597481
14 *314:14 *393:18 0.00534901
15 *351:16 *393:18 0.000310937
*RES
1 *1256:X *393:16 29.1036 
2 *393:16 *393:18 50.6429 
3 *393:18 *1597:A 20.8536 
*END

*D_NET *394 0.00701571
*CONN
*I *1598:A I *D sky130_fd_sc_hd__buf_2
*I *1255:X O *D sky130_fd_sc_hd__mux4_1
*CAP
1 *1598:A 3.94806e-05
2 *1255:X 0.00139884
3 *394:10 0.00143832
4 *1598:A *415:14 0.000232399
5 *394:10 *1291:D 5.52302e-05
6 *394:10 *1291:GATE 2.84026e-05
7 *394:10 *410:8 9.43456e-05
8 *394:10 *412:43 0.000304312
9 *394:10 *413:26 0.00114959
10 *394:10 *466:66 0
11 *1266:S0 *394:10 0.000101648
12 *1266:S1 *394:10 0.000204958
13 *1389:A *394:10 0.000768879
14 *1596:A *1598:A 8.90199e-05
15 *337:12 *394:10 0.000469765
16 *345:16 *394:10 0.000640536
*RES
1 *1255:X *394:10 48.1036 
2 *394:10 *1598:A 15.9786 
*END

*D_NET *395 0.0166813
*CONN
*I *1599:A I *D sky130_fd_sc_hd__buf_2
*I *1254:X O *D sky130_fd_sc_hd__mux4_1
*CAP
1 *1599:A 0.000192699
2 *1254:X 0.000651677
3 *395:14 0.00123716
4 *395:12 0.00169614
5 *395:12 *436:60 0
6 *395:14 *397:16 0.00404809
7 *395:14 *419:14 0.000997145
8 *395:14 *443:40 0
9 VALUE_top4 *1599:A 0
10 VALUE_top5 *1599:A 0
11 *80:11 *395:14 6.25878e-05
12 *83:11 *395:14 0.000315762
13 *279:14 *395:12 0.00027606
14 *299:34 *395:12 0.000436605
15 *306:20 *395:12 1.58163e-05
16 *309:30 *395:12 9.05551e-05
17 *314:14 *395:14 0.00590874
18 *351:16 *395:14 0.000223526
19 *359:22 *395:14 0.000244988
20 *386:30 *395:12 0.000283759
*RES
1 *1254:X *395:12 31.1036 
2 *395:12 *395:14 60.5 
3 *395:14 *1599:A 21.4607 
*END

*D_NET *396 0.00632696
*CONN
*I *1600:A I *D sky130_fd_sc_hd__buf_2
*I *1253:X O *D sky130_fd_sc_hd__mux4_1
*CAP
1 *1600:A 0
2 *1253:X 0.000714645
3 *396:16 0.000714645
4 *396:16 *1602:A 0.000185124
5 *396:16 *1603:A 0.000963718
6 *396:16 *415:14 0.000777063
7 *396:16 *443:34 0.000118986
8 *396:16 *456:82 0.000355183
9 *1596:A *396:16 0.00042308
10 *344:30 *396:16 0.000410005
11 *364:28 *396:16 0.00166451
*RES
1 *1253:X *396:16 46.9071 
2 *396:16 *1600:A 9.3 
*END

*D_NET *397 0.0116402
*CONN
*I *1601:A I *D sky130_fd_sc_hd__buf_2
*I *1252:X O *D sky130_fd_sc_hd__mux4_1
*CAP
1 *1601:A 0
2 *1252:X 0.000594559
3 *397:16 0.000768477
4 *397:10 0.00136304
5 *397:10 *1339:A 0
6 *397:10 *439:16 8.6229e-06
7 *397:10 *443:40 0
8 *397:10 *444:42 0.000140159
9 *397:10 *461:53 0
10 *397:16 *419:14 0.00405166
11 *397:16 *420:30 0.000213364
12 VALUE_top6 *397:16 0
13 *1551:A *397:16 0
14 *274:32 *397:10 7.71172e-05
15 *300:10 *397:10 0.000263323
16 *359:22 *397:16 0.000111763
17 *395:14 *397:16 0.00404809
*RES
1 *1252:X *397:10 28.4429 
2 *397:10 *397:16 46.2857 
3 *397:16 *1601:A 13.8 
*END

*D_NET *398 0.00252173
*CONN
*I *1602:A I *D sky130_fd_sc_hd__buf_2
*I *1251:X O *D sky130_fd_sc_hd__mux4_1
*CAP
1 *1602:A 0.000723519
2 *1251:X 0.000723519
3 *1602:A *1292:GATE 2.84026e-05
4 *1602:A *412:43 6.37801e-05
5 *1602:A *415:14 0.000186765
6 *1602:A *456:82 0.000414918
7 *1559:A *1602:A 0
8 *364:28 *1602:A 0.000195702
9 *396:16 *1602:A 0.000185124
*RES
1 *1251:X *1602:A 41.975 
*END

*D_NET *399 0.0189672
*CONN
*I *1335:A I *D sky130_fd_sc_hd__buf_1
*I *1303:D I *D sky130_fd_sc_hd__dlxtp_1
*I *1447:X O *D sky130_fd_sc_hd__buf_1
*CAP
1 *1335:A 0.000215419
2 *1303:D 0
3 *1447:X 0.00177712
4 *399:26 0.00237153
5 *399:18 0.00393323
6 *1335:A *1303:GATE 0.000231203
7 *399:18 *1377:A 0.000845015
8 *399:18 *1421:A 0.000135028
9 *399:18 *419:12 0.000575702
10 *399:26 *1256:A2 2.30169e-05
11 *399:26 *1256:A3 0.000108779
12 *399:26 *1278:D 2.98193e-05
13 *399:26 *1303:GATE 9.54798e-06
14 *399:26 *456:82 0.000169615
15 *399:26 *461:28 0.000324086
16 *399:26 *464:42 0.000165039
17 *399:26 *472:32 2.60831e-05
18 *1252:S0 *1335:A 9.66977e-05
19 *1252:S0 *399:26 7.50942e-05
20 *1252:S1 *1335:A 9.35114e-06
21 *1260:S1 *1335:A 6.81786e-05
22 *1285:D *399:26 0.000537221
23 *1319:D *1335:A 5.04841e-06
24 *1390:A *1335:A 0
25 *1431:A *399:26 8.29848e-05
26 *1461:A *399:18 5.65955e-05
27 *67:13 *399:26 0
28 *257:20 *399:26 4.48011e-05
29 *263:30 *399:18 3.52401e-05
30 *264:20 *399:18 0
31 *264:20 *399:26 0.00351018
32 *268:20 *1335:A 0.00022337
33 *268:20 *399:26 0.000340617
34 *274:32 *399:26 0.000126954
35 *291:22 *399:26 0.000922513
36 *332:12 *399:18 0.000767627
37 *344:30 *399:18 0
38 *364:28 *399:18 0
39 *379:24 *399:26 0.000138752
40 *381:16 *399:18 4.46186e-06
41 *386:30 *399:26 0.000449388
42 *387:32 *399:18 0.000531845
*RES
1 *1447:X *399:18 48.2018 
2 *399:18 *399:26 21.7803 
3 *399:26 *1303:D 13.8 
4 *399:26 *1335:A 19.1571 
*END

*D_NET *400 0.0155268
*CONN
*I *1292:GATE I *D sky130_fd_sc_hd__dlxtp_1
*I *1291:GATE I *D sky130_fd_sc_hd__dlxtp_1
*I *1275:GATE I *D sky130_fd_sc_hd__dlxtp_1
*I *1283:GATE I *D sky130_fd_sc_hd__dlxtp_1
*I *1284:GATE I *D sky130_fd_sc_hd__dlxtp_1
*I *1280:GATE I *D sky130_fd_sc_hd__dlxtp_1
*I *1287:GATE I *D sky130_fd_sc_hd__dlxtp_1
*I *1288:GATE I *D sky130_fd_sc_hd__dlxtp_1
*I *1279:GATE I *D sky130_fd_sc_hd__dlxtp_1
*I *1276:GATE I *D sky130_fd_sc_hd__dlxtp_1
*I *1430:X O *D sky130_fd_sc_hd__clkbuf_2
*CAP
1 *1292:GATE 0.000734793
2 *1291:GATE 1.72843e-05
3 *1275:GATE 0
4 *1283:GATE 0
5 *1284:GATE 9.32736e-05
6 *1280:GATE 0
7 *1287:GATE 0.000116522
8 *1288:GATE 0.00017824
9 *1279:GATE 0
10 *1276:GATE 0.000119126
11 *1430:X 0.000387644
12 *400:117 0.000198958
13 *400:76 0.000536195
14 *400:61 0.000464913
15 *400:57 0.000410385
16 *400:53 0.000993148
17 *400:22 0.0012403
18 *400:12 0.000521488
19 *400:10 0.00120602
20 *1276:GATE *1277:D 3.18676e-05
21 *1276:GATE *1295:GATE 0.000121165
22 *1284:GATE *1268:A0 0.000185935
23 *1284:GATE *1339:A 0.000185935
24 *1287:GATE *408:83 4.04543e-05
25 *1288:GATE *1339:A 9.11806e-06
26 *1288:GATE *439:16 2.43447e-05
27 *1288:GATE *483:36 9.54798e-06
28 *1291:GATE *412:43 2.84026e-05
29 *1292:GATE *1251:A2 1.07381e-05
30 *1292:GATE *1291:D 0.000135028
31 *1292:GATE *412:43 5.49489e-05
32 *400:10 *1251:A1 2.07441e-05
33 *400:10 *1270:A0 7.31843e-05
34 *400:10 *1377:A 4.34069e-05
35 *400:10 *411:30 0.000300058
36 *400:10 *424:32 5.20232e-05
37 *400:12 *1277:D 4.45517e-05
38 *400:12 *1377:A 1.90936e-05
39 *400:12 *411:30 8.6229e-06
40 *400:22 *1266:A0 0.000699746
41 *400:22 *1277:D 0.00010148
42 *400:22 *1407:A 0.000780308
43 *400:22 *418:22 1.30506e-05
44 *400:22 *432:26 9.55016e-05
45 *400:53 *1253:A0 0
46 *400:53 *1272:A0 9.60337e-06
47 *400:53 *1272:A3 0.000114909
48 *400:53 *1407:A 0.000208349
49 *400:53 *1418:A 0.000389726
50 *400:53 *409:45 0.000346932
51 *400:53 *418:22 0.000237724
52 *400:53 *432:26 0.000132599
53 *400:53 *456:82 0.000143828
54 *400:57 *1418:A 0.000285584
55 *400:57 *407:48 3.80301e-05
56 *400:61 *407:48 0.000261624
57 *400:61 *435:18 4.26326e-05
58 *400:76 *1358:A 6.8147e-05
59 *400:76 *454:45 2.9988e-05
60 *400:76 *476:41 2.60616e-05
61 *400:117 *1418:A 4.18895e-05
62 *400:117 *409:45 0.000218409
63 *400:117 *439:16 3.47717e-05
64 *1250:A2 *1276:GATE 8.64873e-05
65 *1250:A2 *400:22 4.30584e-06
66 *1253:S0 *400:53 4.46426e-05
67 *1260:S0 *1288:GATE 5.88326e-05
68 *1260:S1 *400:61 0.000302597
69 *1280:D *400:61 1.85668e-05
70 *1284:D *400:57 0.000210765
71 *1383:A *400:22 2.72602e-05
72 *1395:A *1288:GATE 2.9674e-05
73 *1585:A *1276:GATE 1.4396e-05
74 *1585:A *400:22 8.5552e-05
75 *1585:A *400:53 2.11419e-05
76 *1602:A *1292:GATE 2.84026e-05
77 *245:24 *1292:GATE 3.2416e-05
78 *248:18 *400:10 0.000426837
79 *248:18 *400:12 3.8022e-05
80 *248:18 *400:22 5.74472e-05
81 *263:20 *1276:GATE 2.89016e-05
82 *263:20 *400:53 0.000189493
83 *274:32 *1288:GATE 3.33531e-05
84 *292:43 *400:76 0.000354705
85 *322:30 *1287:GATE 7.00294e-06
86 *322:30 *1288:GATE 8.40344e-05
87 *334:16 *400:10 0.000183846
88 *374:20 *1288:GATE 2.00971e-05
89 *375:16 *400:57 6.87975e-06
90 *384:14 *400:53 0.000164382
91 *394:10 *1291:GATE 2.84026e-05
*RES
1 *1430:X *400:10 22.1571 
2 *400:10 *400:12 1.64286 
3 *400:12 *400:22 11.2184 
4 *400:22 *1276:GATE 17.1214 
5 *400:22 *400:53 21.5207 
6 *400:53 *400:57 8.875 
7 *400:57 *400:61 5.51786 
8 *400:61 *1279:GATE 13.8 
9 *400:61 *400:76 7.44353 
10 *400:76 *1288:GATE 17.1661 
11 *400:76 *1287:GATE 16.1393 
12 *400:57 *1280:GATE 13.8 
13 *400:53 *400:117 2.60714 
14 *400:117 *1284:GATE 20.8536 
15 *400:117 *1283:GATE 9.3 
16 *400:22 *1275:GATE 13.8 
17 *400:12 *1291:GATE 14.3357 
18 *400:10 *1292:GATE 22.9964 
*END

*D_NET *401 0.0128883
*CONN
*I *1290:GATE I *D sky130_fd_sc_hd__dlxtp_1
*I *1289:GATE I *D sky130_fd_sc_hd__dlxtp_1
*I *1282:GATE I *D sky130_fd_sc_hd__dlxtp_1
*I *1358:A I *D sky130_fd_sc_hd__clkbuf_1
*I *1281:GATE I *D sky130_fd_sc_hd__dlxtp_1
*I *1286:GATE I *D sky130_fd_sc_hd__dlxtp_1
*I *1285:GATE I *D sky130_fd_sc_hd__dlxtp_1
*I *1278:GATE I *D sky130_fd_sc_hd__dlxtp_1
*I *1277:GATE I *D sky130_fd_sc_hd__dlxtp_1
*I *1431:X O *D sky130_fd_sc_hd__clkbuf_2
*CAP
1 *1290:GATE 3.01501e-05
2 *1289:GATE 0.000200288
3 *1282:GATE 0.000307205
4 *1358:A 0.000681932
5 *1281:GATE 0
6 *1286:GATE 0
7 *1285:GATE 0
8 *1278:GATE 0
9 *1277:GATE 0.000362748
10 *1431:X 3.01501e-05
11 *401:82 0.000907254
12 *401:74 0.000859004
13 *401:59 0.000451576
14 *401:28 0.00117725
15 *401:16 0.000923176
16 *401:12 0.000698987
17 *401:4 0.000665505
18 *1277:GATE *1253:A1 5.71472e-05
19 *1277:GATE *1253:A3 0.000186514
20 *1277:GATE *1277:D 9.99853e-05
21 *1277:GATE *409:45 3.67252e-05
22 *1277:GATE *463:58 5.38776e-05
23 *1289:GATE *1420:A 9.83388e-05
24 *1289:GATE *436:60 0
25 *1290:GATE *1290:D 2.36643e-05
26 *1290:GATE *408:83 2.32789e-05
27 *1290:GATE *445:68 5.65955e-05
28 *1358:A *1303:GATE 0.000241408
29 *1358:A *1310:D 5.49489e-05
30 *1358:A *1310:GATE 1.00733e-05
31 *1358:A *1333:A 9.41642e-05
32 *1358:A *1336:A 5.33005e-05
33 *1358:A *403:54 5.58714e-05
34 *1358:A *408:83 1.96007e-05
35 *1358:A *439:16 0.000151753
36 *401:12 *1420:A 0.000147642
37 *401:12 *1426:A 9.58126e-05
38 *401:12 *404:10 6.05161e-06
39 *401:12 *408:83 0.000137925
40 *401:16 *1256:A1 5.68097e-05
41 *401:16 *419:22 2.59116e-05
42 *401:28 *1256:A0 5.33005e-05
43 *401:28 *1256:A2 2.524e-05
44 *401:28 *1278:D 0.000141729
45 *401:59 *1252:A0 2.06112e-05
46 *401:59 *1256:A1 4.53096e-05
47 *401:59 *408:83 0.000102859
48 *401:59 *419:22 1.6287e-05
49 *401:74 *1256:A1 6.08808e-05
50 *401:74 *1334:A 0.000315931
51 *401:74 *419:22 3.72595e-05
52 *401:82 *1320:D 1.8783e-05
53 *401:82 *1333:A 8.6229e-06
54 *1253:S0 *1277:GATE 0
55 *1281:D *1282:GATE 1.73088e-05
56 *1281:D *1358:A 4.41682e-05
57 *1281:D *401:82 0.000137561
58 *1282:D *1282:GATE 8.26523e-05
59 *1319:D *401:82 2.22674e-05
60 *1348:A *401:74 0.000234001
61 *1395:A *1358:A 2.04825e-05
62 *233:24 *1289:GATE 0
63 *233:24 *401:28 0.000126732
64 *241:20 *1277:GATE 4.88515e-05
65 *258:18 *401:28 0.000721928
66 *265:18 *1289:GATE 1.77505e-05
67 *268:20 *1358:A 8.70166e-05
68 *274:32 *1358:A 0.00015945
69 *279:14 *401:12 1.02936e-05
70 *292:43 *1358:A 3.53403e-05
71 *307:16 *401:74 7.55769e-05
72 *308:26 *1282:GATE 4.05503e-05
73 *308:26 *1358:A 2.81562e-05
74 *308:26 *401:74 7.34657e-05
75 *308:26 *401:82 5.20359e-06
76 *322:30 *1358:A 4.32443e-05
77 *325:40 *1358:A 0.000265751
78 *352:36 *401:74 2.06178e-05
79 *376:28 *401:12 5.52302e-05
80 *376:28 *401:16 3.10885e-05
81 *376:28 *401:59 0.000138958
82 *380:45 *1358:A 0.000149402
83 *393:16 *401:28 0.000197687
84 *400:76 *1358:A 6.8147e-05
*RES
1 *1431:X *401:4 9.3 
2 *401:4 *401:12 11.75 
3 *401:12 *401:16 6.44643 
4 *401:16 *401:28 18.3929 
5 *401:28 *1277:GATE 25.3536 
6 *401:28 *1278:GATE 9.3 
7 *401:16 *1285:GATE 9.3 
8 *401:12 *401:59 2.85714 
9 *401:59 *1286:GATE 13.8 
10 *401:59 *401:74 11.9643 
11 *401:74 *401:82 11.9107 
12 *401:82 *1281:GATE 9.3 
13 *401:82 *1358:A 38.3832 
14 *401:74 *1282:GATE 14.9786 
15 *401:4 *1289:GATE 21.1929 
16 *1431:X *1290:GATE 19.5643 
*END

*D_NET *402 0.0119363
*CONN
*I *1300:GATE I *D sky130_fd_sc_hd__dlxtp_1
*I *1313:GATE I *D sky130_fd_sc_hd__dlxtp_1
*I *1296:GATE I *D sky130_fd_sc_hd__dlxtp_1
*I *1317:GATE I *D sky130_fd_sc_hd__dlxtp_1
*I *1295:GATE I *D sky130_fd_sc_hd__dlxtp_1
*I *1324:GATE I *D sky130_fd_sc_hd__dlxtp_1
*I *1314:GATE I *D sky130_fd_sc_hd__dlxtp_1
*I *1322:GATE I *D sky130_fd_sc_hd__dlxtp_1
*I *1299:GATE I *D sky130_fd_sc_hd__dlxtp_1
*I *1321:GATE I *D sky130_fd_sc_hd__dlxtp_1
*I *1432:X O *D sky130_fd_sc_hd__clkbuf_2
*CAP
1 *1300:GATE 0.000322099
2 *1313:GATE 0.000101467
3 *1296:GATE 0.000124693
4 *1317:GATE 0
5 *1295:GATE 5.12917e-05
6 *1324:GATE 0
7 *1314:GATE 0.00043225
8 *1322:GATE 0
9 *1299:GATE 0.000198601
10 *1321:GATE 0.000203419
11 *1432:X 4.91787e-05
12 *402:71 0.000845364
13 *402:65 0.0007028
14 *402:57 0.000376815
15 *402:53 0.000501806
16 *402:49 0.000436181
17 *402:47 0.000418119
18 *402:20 0.00049561
19 *402:14 0.000143404
20 *402:6 9.89925e-05
21 *1296:GATE *1331:A 5.10006e-05
22 *1296:GATE *413:26 0.000127152
23 *1299:GATE *1299:D 0.000137561
24 *1300:GATE *1300:D 6.46173e-05
25 *1300:GATE *424:26 2.71882e-05
26 *1300:GATE *456:54 4.24752e-05
27 *1300:GATE *456:66 6.25005e-05
28 *1313:GATE *1257:A2 0.000216755
29 *1314:GATE *412:60 3.06466e-05
30 *1314:GATE *461:78 0.000175892
31 *1321:GATE *1270:A0 0
32 *1321:GATE *1299:D 5.33005e-05
33 *1321:GATE *1321:D 5.33005e-05
34 *402:6 *1323:GATE 0.000177545
35 *402:6 *1380:A 0.000165109
36 *402:14 *1323:GATE 0.00013831
37 *402:14 *1380:A 9.41642e-05
38 *402:20 *1299:D 0.000139054
39 *402:53 *1380:A 8.89437e-05
40 *402:57 *1331:A 3.53141e-05
41 *402:57 *413:26 0.000350062
42 *402:57 *416:34 4.38136e-05
43 *402:65 *416:34 0.000127277
44 *402:65 *448:70 0.000147962
45 *402:65 *448:76 4.43299e-05
46 *402:65 *456:82 1.09315e-05
47 *402:71 *1275:D 1.58163e-05
48 *402:71 *412:60 5.33005e-05
49 *402:71 *416:34 2.88018e-06
50 *402:71 *443:16 0.00013595
51 *1253:S0 *1296:GATE 4.96113e-05
52 *1255:S1 *1314:GATE 0.000294526
53 *1257:S1 *1313:GATE 4.10926e-05
54 *1264:S1 *1300:GATE 0.000365658
55 *1264:S1 *402:49 0.000182266
56 *1264:S1 *402:53 0.000402733
57 *1272:S1 *402:14 1.97987e-05
58 *1276:GATE *1295:GATE 0.000121165
59 *1314:D *1314:GATE 5.52302e-05
60 *1383:A *402:65 1.58163e-05
61 *1383:A *402:71 3.14048e-05
62 *1578:A *1314:GATE 4.30301e-05
63 *1585:A *1295:GATE 0.000122812
64 *1585:A *402:65 5.27716e-05
65 *231:22 *1300:GATE 0.000290054
66 *231:22 *402:20 5.85405e-05
67 *231:22 *402:49 0.000173643
68 *231:22 *402:53 0.000206233
69 *255:26 *402:71 4.87854e-05
70 *263:20 *402:65 9.25014e-06
71 *283:12 *1314:GATE 0.000512414
72 *325:40 *1313:GATE 3.97677e-05
73 *336:57 *1300:GATE 0
74 *336:57 *1321:GATE 6.80812e-05
75 *347:38 *1300:GATE 2.42516e-05
76 *348:12 *1314:GATE 7.95285e-05
77 *380:26 *1300:GATE 0
78 *380:26 *1313:GATE 0.000218404
79 *382:32 *1300:GATE 9.41642e-05
*RES
1 *1432:X *402:6 11.0679 
2 *402:6 *402:14 1.76786 
3 *402:14 *402:20 10.9464 
4 *402:20 *1321:GATE 12.7464 
5 *402:20 *1299:GATE 12.3179 
6 *402:14 *1322:GATE 9.3 
7 *402:6 *402:47 4.5 
8 *402:47 *402:49 2.55357 
9 *402:49 *402:53 10.0893 
10 *402:53 *402:57 3.83929 
11 *402:57 *402:65 13.5179 
12 *402:65 *402:71 6.32143 
13 *402:71 *1314:GATE 28.425 
14 *402:71 *1324:GATE 9.3 
15 *402:65 *1295:GATE 19.9429 
16 *402:57 *1317:GATE 9.3 
17 *402:53 *1296:GATE 12.3179 
18 *402:49 *1313:GATE 16.8 
19 *402:47 *1300:GATE 21.8536 
*END

*D_NET *403 0.0155529
*CONN
*I *1309:GATE I *D sky130_fd_sc_hd__dlxtp_1
*I *1432:A I *D sky130_fd_sc_hd__clkbuf_2
*I *1323:GATE I *D sky130_fd_sc_hd__dlxtp_1
*I *1303:GATE I *D sky130_fd_sc_hd__dlxtp_1
*I *1310:GATE I *D sky130_fd_sc_hd__dlxtp_1
*I *1318:GATE I *D sky130_fd_sc_hd__dlxtp_1
*I *1304:GATE I *D sky130_fd_sc_hd__dlxtp_1
*I *1433:X O *D sky130_fd_sc_hd__dlymetal6s2s_1
*CAP
1 *1309:GATE 0.000812208
2 *1432:A 0
3 *1323:GATE 0.00046865
4 *1303:GATE 0.00037247
5 *1310:GATE 2.15003e-05
6 *1318:GATE 6.42558e-05
7 *1304:GATE 0.000227118
8 *1433:X 0.000984734
9 *403:86 0.000827548
10 *403:54 0.000805826
11 *403:41 0.000523653
12 *403:26 0.00124774
13 *403:10 0.0015045
14 *1303:GATE *1320:D 0.000128039
15 *1303:GATE *1331:A 3.04394e-05
16 *1303:GATE *472:32 5.33005e-05
17 *1304:GATE *1355:A 6.94952e-05
18 *1304:GATE *1418:A 0.000127565
19 *1309:GATE *423:32 1.85392e-05
20 *1309:GATE *478:32 4.56393e-05
21 *1323:GATE *1322:D 0.000178847
22 *1323:GATE *1379:A 0.000268578
23 *1323:GATE *1380:A 1.51489e-05
24 *1323:GATE *408:24 0.000304394
25 *1323:GATE *408:44 7.72162e-05
26 *403:10 *1260:A2 1.99904e-05
27 *403:10 *435:18 0
28 *403:10 *463:40 2.83284e-06
29 *403:10 *463:56 6.19639e-06
30 *403:26 *1253:A1 0.000116395
31 *403:26 *1260:A2 2.30116e-06
32 *403:26 *1260:A3 1.94024e-05
33 *403:26 *1357:A 2.03618e-05
34 *403:26 *407:48 0.0001296
35 *403:26 *435:18 1.7434e-05
36 *403:54 *1310:D 1.58163e-05
37 *403:86 *1257:A1 2.10644e-05
38 *403:86 *1260:A0 1.76096e-05
39 *403:86 *1260:A1 5.16674e-05
40 *403:86 *426:26 1.72865e-05
41 Co *403:86 0.000179194
42 *1252:S0 *1303:GATE 0.000250376
43 *1257:S1 *1318:GATE 2.59355e-05
44 *1260:S0 *403:86 5.49489e-05
45 *1260:S1 *1304:GATE 5.80467e-05
46 *1319:D *1303:GATE 0
47 *1325:A *1309:GATE 0
48 *1335:A *1303:GATE 0.000231203
49 *1345:A *1303:GATE 7.62355e-05
50 *1358:A *1303:GATE 0.000241408
51 *1358:A *1310:GATE 1.00733e-05
52 *1358:A *403:54 5.58714e-05
53 *1395:A *1303:GATE 9.77414e-05
54 *1395:A *1304:GATE 5.41797e-06
55 *1395:A *403:41 1.41225e-05
56 *231:22 *403:10 0.000183477
57 *246:26 *403:10 4.54227e-05
58 *246:26 *403:26 4.13097e-05
59 *268:20 *1303:GATE 4.84649e-05
60 *274:32 *1304:GATE 0.000136388
61 *274:32 *403:41 7.35637e-05
62 *310:30 *403:26 0.000168071
63 *325:22 *1323:GATE 7.09112e-05
64 *325:40 *1318:GATE 2.12005e-05
65 *325:40 *403:26 0.000545834
66 *325:40 *403:54 1.0804e-05
67 *335:14 *1323:GATE 0.00146208
68 *374:20 *403:86 0.000223471
69 *380:45 *1318:GATE 9.41642e-05
70 *380:45 *403:41 3.06511e-05
71 *382:32 *1309:GATE 0.000935638
72 *382:32 *403:10 9.69399e-05
73 *385:24 *403:86 4.99132e-05
74 *391:38 *1309:GATE 5.32956e-05
75 *399:26 *1303:GATE 9.54798e-06
76 *402:6 *1323:GATE 0.000177545
77 *402:14 *1323:GATE 0.00013831
*RES
1 *1433:X *403:10 17.5143 
2 *403:10 *403:26 23.2143 
3 *403:26 *1304:GATE 18.3357 
4 *403:26 *403:41 5.53571 
5 *403:41 *1318:GATE 10.6571 
6 *403:41 *403:54 4.98214 
7 *403:54 *1310:GATE 9.72857 
8 *403:54 *1303:GATE 27.425 
9 *403:10 *403:86 20.6964 
10 *403:86 *1323:GATE 24.2286 
11 *403:86 *1432:A 9.3 
12 *1433:X *1309:GATE 38.6625 
*END

*D_NET *404 0.0186256
*CONN
*I *1301:GATE I *D sky130_fd_sc_hd__dlxtp_1
*I *1294:GATE I *D sky130_fd_sc_hd__dlxtp_1
*I *1293:GATE I *D sky130_fd_sc_hd__dlxtp_1
*I *1302:GATE I *D sky130_fd_sc_hd__dlxtp_1
*I *1312:GATE I *D sky130_fd_sc_hd__dlxtp_1
*I *1311:GATE I *D sky130_fd_sc_hd__dlxtp_1
*I *1297:GATE I *D sky130_fd_sc_hd__dlxtp_1
*I *1320:GATE I *D sky130_fd_sc_hd__dlxtp_1
*I *1319:GATE I *D sky130_fd_sc_hd__dlxtp_1
*I *1357:A I *D sky130_fd_sc_hd__buf_1
*I *1434:X O *D sky130_fd_sc_hd__clkbuf_2
*CAP
1 *1301:GATE 0.000177135
2 *1294:GATE 0
3 *1293:GATE 0.000107783
4 *1302:GATE 0
5 *1312:GATE 7.10637e-05
6 *1311:GATE 0
7 *1297:GATE 0
8 *1320:GATE 0
9 *1319:GATE 3.67825e-05
10 *1357:A 0.00128592
11 *1434:X 0.000208608
12 *404:143 0.000524408
13 *404:128 0.000650994
14 *404:116 0.000816338
15 *404:101 0.00065419
16 *404:92 0.000380398
17 *404:77 0.000270546
18 *404:70 0.000476105
19 *404:55 0.00128919
20 *404:10 0.00233927
21 *1301:GATE *1263:A2 1.41885e-05
22 *1301:GATE *1301:D 0.0002157
23 *1301:GATE *1307:D 0.000150953
24 *1312:GATE *405:10 0.000141173
25 *1319:GATE *1320:D 9.58126e-05
26 *1357:A *1268:A3 0.000148298
27 *1357:A *1328:A 0.000397901
28 *1357:A *1419:A 7.86682e-05
29 *1357:A *1422:A 1.3807e-05
30 *1357:A *432:26 0.0002999
31 *1357:A *435:18 0.000133425
32 *404:10 *1252:A1 5.01876e-06
33 *404:10 *419:22 0.000291599
34 *404:10 *471:26 0.000108103
35 *404:55 *1254:A2 9.22935e-06
36 *404:55 *1254:A3 7.20217e-06
37 *404:55 *1302:D 1.90936e-05
38 *404:55 *1334:A 7.66283e-05
39 *404:55 *419:22 4.18834e-05
40 *404:55 *447:10 0.000117693
41 *404:55 *471:26 0.000111543
42 *404:70 *1254:A0 3.47702e-06
43 *404:70 *1320:D 0.00018984
44 *404:77 *467:38 6.28241e-05
45 *404:77 *473:14 1.54142e-05
46 *404:92 *1258:A1 7.4102e-05
47 *404:92 *1258:A3 0.000116395
48 *404:92 *1297:D 5.33005e-05
49 *404:92 *1329:A 5.52302e-05
50 *404:92 *451:16 2.35994e-05
51 *404:92 *467:38 2.22618e-05
52 *404:92 *473:14 0.000219289
53 *404:101 *1428:A 2.79421e-05
54 *404:101 *427:61 3.72551e-05
55 *404:101 *445:42 6.05161e-06
56 *404:116 *1261:A1 1.98839e-05
57 *404:116 *445:42 0.000296606
58 *404:128 *1307:D 9.83991e-05
59 *404:128 *405:49 9.54536e-05
60 *404:143 *1298:GATE 1.05731e-05
61 *404:143 *1302:D 0.000132945
62 *404:143 *405:49 5.52302e-05
63 *404:143 *473:14 0.000115618
64 UserCLKo *1301:GATE 1.11775e-05
65 *500:DIODE *1293:GATE 0.000164506
66 *500:DIODE *404:143 0.000139864
67 *1252:S1 *1319:GATE 2.83324e-05
68 *1258:S0 *1301:GATE 2.95495e-05
69 *1258:S0 *404:128 0.000160572
70 *1265:S1 *1312:GATE 0.000139056
71 *1315:D *404:116 0.000257619
72 *1315:D *404:128 4.53889e-05
73 *1368:A *1293:GATE 5.33005e-05
74 *1386:A *1293:GATE 1.37292e-05
75 *1386:A *404:143 0.000177438
76 *1395:A *1357:A 0.000970839
77 *1434:A *404:10 2.84109e-05
78 *67:38 *404:10 0.000148907
79 *82:23 *1293:GATE 0.000119576
80 *82:23 *404:143 9.54798e-06
81 *200:19 *1301:GATE 0.000119347
82 *238:18 *404:143 5.3231e-05
83 *239:26 *404:55 8.1341e-06
84 *261:30 *404:101 5.71472e-05
85 *262:28 *404:55 6.30931e-05
86 *266:20 *404:128 8.44271e-06
87 *266:20 *404:143 0.000144289
88 *279:14 *404:10 0.000135028
89 *284:16 *404:116 0.000469772
90 *306:20 *404:55 0.000516517
91 *309:26 *404:55 0.000180348
92 *325:40 *1357:A 0.000262686
93 *352:36 *1357:A 9.45051e-05
94 *358:40 *1357:A 2.37838e-05
95 *371:28 *404:70 8.25843e-06
96 *371:28 *404:77 0.000183726
97 *376:28 *404:10 1.21258e-05
98 *380:26 *1357:A 0.000262686
99 *401:12 *404:10 6.05161e-06
100 *403:26 *1357:A 2.03618e-05
*RES
1 *1434:X *404:10 19.2286 
2 *404:10 *1357:A 45.5679 
3 *404:10 *404:55 27.4643 
4 *404:55 *1319:GATE 10.2464 
5 *404:55 *404:70 6.125 
6 *404:70 *1320:GATE 9.3 
7 *404:70 *404:77 2.17857 
8 *404:77 *1297:GATE 9.3 
9 *404:77 *404:92 13.8571 
10 *404:92 *1311:GATE 9.3 
11 *404:92 *404:101 3.01786 
12 *404:101 *1312:GATE 20.2464 
13 *404:101 *404:116 13.25 
14 *404:116 *404:128 17.8393 
15 *404:128 *1302:GATE 9.3 
16 *404:128 *404:143 14.8393 
17 *404:143 *1293:GATE 16.5857 
18 *404:143 *1294:GATE 13.8 
19 *404:116 *1301:GATE 18.175 
*END

*D_NET *405 0.0114317
*CONN
*I *1308:GATE I *D sky130_fd_sc_hd__dlxtp_1
*I *1315:GATE I *D sky130_fd_sc_hd__dlxtp_1
*I *1307:GATE I *D sky130_fd_sc_hd__dlxtp_1
*I *1316:GATE I *D sky130_fd_sc_hd__dlxtp_1
*I *1298:GATE I *D sky130_fd_sc_hd__dlxtp_1
*I *1305:GATE I *D sky130_fd_sc_hd__dlxtp_1
*I *1306:GATE I *D sky130_fd_sc_hd__dlxtp_1
*I *1435:X O *D sky130_fd_sc_hd__dlymetal6s2s_1
*CAP
1 *1308:GATE 0.000148103
2 *1315:GATE 0.00012213
3 *1307:GATE 0.000134806
4 *1316:GATE 0.000349978
5 *1298:GATE 1.91294e-05
6 *1305:GATE 4.53808e-05
7 *1306:GATE 0.000151179
8 *1435:X 0.000549924
9 *405:76 0.000320985
10 *405:55 0.000701244
11 *405:49 0.000514048
12 *405:36 0.000396073
13 *405:12 0.00031266
14 *405:10 0.000964241
15 *1305:GATE *1305:D 0.000136958
16 *1306:GATE *1258:A3 0.000159939
17 *1306:GATE *445:42 0.000161661
18 *1306:GATE *447:47 7.08562e-05
19 *1306:GATE *474:22 9.0145e-05
20 *1307:GATE *1271:A3 0
21 *1308:GATE *1307:D 0.000137983
22 *1316:GATE *473:22 0.000431186
23 *405:10 *1265:A3 7.56306e-05
24 *405:10 *445:24 1.59373e-05
25 *405:10 *445:42 0.000128357
26 *405:10 *451:16 2.76617e-05
27 *405:10 *460:76 1.26641e-05
28 *405:10 *478:32 2.76577e-05
29 *405:12 *1258:A3 0.000127061
30 *405:12 *445:42 0.000219773
31 *405:36 *1329:A 0.000342302
32 *405:36 *473:14 0.000929171
33 *405:49 *473:14 9.41642e-05
34 *405:55 *1261:A2 1.3425e-05
35 *405:76 *1271:A3 0
36 *1254:S0 *1305:GATE 6.86792e-05
37 *1258:S0 *1308:GATE 3.64858e-05
38 *1258:S1 *405:12 9.90819e-06
39 *1261:S0 *1308:GATE 0.000141283
40 *1263:S1 *405:10 0.000492439
41 *1263:S1 *405:12 7.64818e-05
42 *1265:S1 *405:10 0.000187234
43 *1312:GATE *405:10 0.000141173
44 *1315:D *1315:GATE 0.000105204
45 *1315:D *405:55 0.000104218
46 *1394:A *1316:GATE 0
47 *1401:A *405:10 5.05056e-05
48 *1402:A *405:10 8.28647e-05
49 *227:14 *1316:GATE 0.000220024
50 *238:18 *405:36 0.000142383
51 *238:18 *405:49 7.49387e-06
52 *261:30 *405:10 9.58181e-05
53 *266:20 *1308:GATE 0.000230011
54 *266:20 *405:49 9.54536e-05
55 *284:16 *1315:GATE 0.000140856
56 *304:18 *1308:GATE 0.000137983
57 *306:34 *1316:GATE 4.58194e-05
58 *326:16 *1316:GATE 0.000189406
59 *327:16 *1307:GATE 0.000136247
60 *327:16 *1316:GATE 0.000120504
61 *327:16 *405:76 9.01698e-05
62 *328:22 *1316:GATE 0.000189406
63 *404:128 *405:49 9.54536e-05
64 *404:143 *1298:GATE 1.05731e-05
65 *404:143 *405:49 5.52302e-05
*RES
1 *1435:X *405:10 26.7107 
2 *405:10 *405:12 3.16071 
3 *405:12 *1306:GATE 17.8179 
4 *405:12 *1305:GATE 15.1571 
5 *405:10 *405:36 13.6607 
6 *405:36 *1298:GATE 9.72857 
7 *405:36 *405:49 6.78571 
8 *405:49 *405:55 12.4107 
9 *405:55 *1316:GATE 32.175 
10 *405:55 *405:76 1.33929 
11 *405:76 *1307:GATE 16.2821 
12 *405:76 *1315:GATE 16.5321 
13 *405:49 *1308:GATE 18.3179 
*END

*D_NET *406 0.0242487
*CONN
*I *1352:A I *D sky130_fd_sc_hd__buf_1
*I *1320:D I *D sky130_fd_sc_hd__dlxtp_1
*I *1288:D I *D sky130_fd_sc_hd__dlxtp_1
*I *1448:X O *D sky130_fd_sc_hd__buf_1
*CAP
1 *1352:A 0.00010519
2 *1320:D 0.00117509
3 *1288:D 9.67496e-05
4 *1448:X 0.00019737
5 *406:39 0.00133953
6 *406:26 0.000829013
7 *406:12 0.00213182
8 *406:10 0.00165617
9 *1288:D *1342:A 1.33343e-05
10 *1288:D *483:36 0.000176532
11 *1320:D *1254:A0 0.000242394
12 *1320:D *1333:A 4.23907e-05
13 *1320:D *1418:A 0.000986654
14 *1320:D *436:60 1.56445e-05
15 *1320:D *477:26 0.000992793
16 *1352:A *1328:A 0
17 *406:12 *407:12 0.0043155
18 *406:12 *408:18 0.00394182
19 *406:12 *428:18 2.05612e-05
20 *406:12 *446:24 0.000938376
21 *406:12 *450:16 0.00211043
22 *406:26 *1309:D 2.06112e-05
23 *406:26 *1327:A 0.00027632
24 *406:26 *1341:A 5.09595e-05
25 *406:26 *1342:A 3.16801e-05
26 *406:26 *439:16 7.98428e-06
27 *406:26 *448:34 2.74787e-05
28 *406:26 *454:96 0.000158278
29 *406:26 *479:26 1.76955e-05
30 *406:26 *481:24 3.83673e-05
31 *406:26 *484:40 4.43927e-05
32 *406:39 *1328:A 6.47602e-05
33 *406:39 *1342:A 0.000173707
34 *406:39 *479:26 0.000186765
35 *1252:S1 *1320:D 2.95944e-05
36 *1260:S0 *1288:D 0
37 *1303:GATE *1320:D 0.000128039
38 *1319:D *1320:D 6.43778e-05
39 *1319:GATE *1320:D 9.58126e-05
40 *1345:A *1320:D 0.000107201
41 *1347:A *406:26 1.79206e-05
42 *1452:A *406:10 0
43 *1481:A *406:26 0.00024762
44 *1482:A *406:26 4.60232e-06
45 *262:28 *1320:D 1.56445e-05
46 *295:30 *1320:D 0.0001384
47 *295:30 *1352:A 0.000125988
48 *302:24 *1320:D 2.10422e-05
49 *303:80 *406:26 6.28203e-05
50 *336:112 *1352:A 1.33343e-05
51 *374:20 *1288:D 9.22098e-05
52 *374:20 *1352:A 0.000130001
53 *374:20 *406:39 6.90296e-05
54 *378:38 *406:26 4.33661e-05
55 *391:38 *1320:D 0.000206719
56 *401:82 *1320:D 1.8783e-05
57 *404:70 *1320:D 0.00018984
*RES
1 *1448:X *406:10 21.7643 
2 *406:10 *406:12 59.6786 
3 *406:12 *406:26 22.0893 
4 *406:26 *1288:D 12.0321 
5 *406:26 *406:39 3 
6 *406:39 *1320:D 41.7174 
7 *406:39 *1352:A 12.3179 
*END

*D_NET *407 0.0295276
*CONN
*I *1321:D I *D sky130_fd_sc_hd__dlxtp_1
*I *1353:A I *D sky130_fd_sc_hd__buf_1
*I *1289:D I *D sky130_fd_sc_hd__dlxtp_1
*I *1449:X O *D sky130_fd_sc_hd__dlymetal6s2s_1
*CAP
1 *1321:D 8.33785e-05
2 *1353:A 0.000744104
3 *1289:D 0.000317003
4 *1449:X 0.000274183
5 *407:48 0.00330314
6 *407:16 0.00288505
7 *407:12 0.0023326
8 *407:10 0.00204714
9 *1289:D *1256:A3 0.00010537
10 *1289:D *460:34 8.19176e-05
11 *1321:D *1270:A0 1.24368e-05
12 *1353:A *1416:A 8.28647e-05
13 *1353:A *420:14 9.18765e-06
14 *1353:A *460:34 0.000566747
15 *1353:A *468:20 0.000135028
16 *407:10 *408:14 0
17 *407:12 *408:14 2.27017e-05
18 *407:12 *408:18 0.000173283
19 *407:12 *446:24 0.000511668
20 *407:12 *453:38 0.000336462
21 *407:16 *448:70 0.000142121
22 *407:48 *1252:A0 4.33907e-05
23 *407:48 *1260:A3 1.69339e-06
24 *407:48 *1268:A3 0.000373242
25 *407:48 *1419:A 4.22135e-06
26 *407:48 *408:83 5.00194e-05
27 *407:48 *415:22 0.000224248
28 *407:48 *418:22 0.000918546
29 *407:48 *435:18 0.000373895
30 *407:48 *444:34 0.000158433
31 *407:48 *448:70 6.60156e-05
32 *407:48 *454:45 0.000158279
33 *407:48 *465:57 0.000433657
34 N2BEGb[7] *407:12 5.38242e-05
35 N4BEG[5] *407:12 0.000722983
36 NN4BEG[3] *407:16 6.98805e-05
37 NN4BEG[4] *407:16 0.00031888
38 *1256:S1 *1289:D 2.30043e-05
39 *1262:S0 *1321:D 6.57032e-05
40 *1262:S0 *407:16 2.59099e-05
41 *1284:D *407:48 6.02541e-05
42 *1321:GATE *1321:D 5.33005e-05
43 *1390:A *1353:A 0.000337042
44 *1431:A *407:48 9.68323e-05
45 *1450:A *407:10 0
46 *1453:A *407:10 0
47 *1579:A *407:16 4.80553e-05
48 *1585:A *407:16 1.26641e-05
49 *233:24 *1289:D 0.000261055
50 *257:20 *407:48 0.000666568
51 *258:18 *1289:D 0.00064727
52 *292:16 *407:48 0.000862732
53 *296:26 *1353:A 6.71327e-05
54 *299:26 *1353:A 6.34469e-05
55 *299:34 *1289:D 0.000188664
56 *299:34 *1353:A 0.000197206
57 *303:80 *1353:A 0.000167638
58 *308:26 *1353:A 6.09762e-05
59 *309:26 *1353:A 9.65182e-05
60 *310:30 *407:48 0.000134126
61 *336:57 *1321:D 3.63775e-05
62 *338:30 *407:48 0.000281913
63 *358:20 *407:16 0.000164876
64 *358:20 *407:48 6.7848e-05
65 *361:26 *407:16 0.000375857
66 *376:28 *407:48 0.00144713
67 *384:14 *407:16 1.73191e-05
68 *386:30 *407:16 2.09897e-05
69 *391:20 *407:12 9.68625e-05
70 *400:57 *407:48 3.80301e-05
71 *400:61 *407:48 0.000261624
72 *403:26 *407:48 0.0001296
73 *406:12 *407:12 0.0043155
*RES
1 *1449:X *407:10 22.9786 
2 *407:10 *407:12 49.8214 
3 *407:12 *407:16 16.4643 
4 *407:16 *407:48 39.2831 
5 *407:48 *1289:D 23.3982 
6 *407:48 *1353:A 30.5232 
7 *407:16 *1321:D 15.5679 
*END

*D_NET *408 0.0247203
*CONN
*I *1322:D I *D sky130_fd_sc_hd__dlxtp_1
*I *1290:D I *D sky130_fd_sc_hd__dlxtp_1
*I *1354:A I *D sky130_fd_sc_hd__buf_1
*I *1450:X O *D sky130_fd_sc_hd__dlymetal6s2s_1
*CAP
1 *1322:D 4.53888e-05
2 *1290:D 3.79386e-05
3 *1354:A 0
4 *1450:X 0.00022408
5 *408:83 0.00178311
6 *408:44 0.00270095
7 *408:24 0.00161916
8 *408:18 0.00187631
9 *408:14 0.00148239
10 *1290:D *1420:A 0.000185118
11 *1290:D *445:68 4.53295e-05
12 *408:18 *428:18 3.97677e-05
13 *408:24 *433:34 0.000135037
14 *408:24 *437:28 0
15 *408:24 *446:24 2.45288e-05
16 *408:44 *1380:A 0.000249596
17 *408:83 *1252:A0 4.65519e-05
18 *408:83 *1256:A1 0.000102859
19 *408:83 *1301:D 8.92205e-05
20 *408:83 *1334:A 0.000129285
21 *408:83 *1420:A 0.000292516
22 *408:83 *1426:A 9.58126e-05
23 *408:83 *420:30 0.00073003
24 *408:83 *427:20 0
25 *408:83 *445:68 0.000150899
26 *408:83 *482:32 1.15246e-05
27 N4BEG[14] *408:24 0.000439056
28 N4BEG[15] *408:24 0.000591282
29 *1250:A2 *408:24 3.4323e-06
30 *1272:S1 *408:44 0.000351388
31 *1279:D *408:44 0.000337099
32 *1287:D *408:83 8.54181e-05
33 *1287:GATE *408:83 4.04543e-05
34 *1290:GATE *1290:D 2.36643e-05
35 *1290:GATE *408:83 2.32789e-05
36 *1323:GATE *1322:D 0.000178847
37 *1323:GATE *408:24 0.000304394
38 *1323:GATE *408:44 7.72162e-05
39 *1326:A *408:83 0.000738504
40 *1348:A *408:83 0.000170046
41 *1358:A *408:83 1.96007e-05
42 *1452:A *408:14 0.000109671
43 *1544:A *408:18 0.00022346
44 *1588:A *408:18 0.00217197
45 *245:24 *408:24 5.18176e-05
46 *245:24 *408:44 0
47 *279:14 *408:83 0.000387353
48 *292:43 *408:44 0.000440451
49 *292:43 *408:83 1.00733e-05
50 *292:84 *408:83 0.00044205
51 *303:24 *408:44 8.16362e-05
52 *303:24 *408:83 8.25843e-06
53 *322:30 *408:83 2.59355e-05
54 *325:22 *408:24 6.05161e-06
55 *335:14 *408:44 6.09682e-05
56 *338:30 *408:83 0.00017754
57 *360:28 *408:24 0.000496477
58 *380:45 *408:83 8.69554e-05
59 *385:24 *408:44 2.9939e-05
60 *401:12 *408:83 0.000137925
61 *401:59 *408:83 0.000102859
62 *406:12 *408:18 0.00394182
63 *407:10 *408:14 0
64 *407:12 *408:14 2.27017e-05
65 *407:12 *408:18 0.000173283
66 *407:48 *408:83 5.00194e-05
*RES
1 *1450:X *408:14 23.2375 
2 *408:14 *408:18 45.9018 
3 *408:18 *408:24 20.9821 
4 *408:24 *408:44 26.3929 
5 *408:44 *1354:A 9.3 
6 *408:44 *408:83 48.9696 
7 *408:83 *1290:D 11.0679 
8 *408:24 *1322:D 11.0679 
*END

*D_NET *409 0.0183543
*CONN
*I *1327:A I *D sky130_fd_sc_hd__buf_1
*I *1295:D I *D sky130_fd_sc_hd__dlxtp_1
*I *1451:X O *D sky130_fd_sc_hd__buf_1
*CAP
1 *1327:A 0.000399972
2 *1295:D 0
3 *1451:X 0.00210673
4 *409:45 0.00240641
5 *409:20 0.00411316
6 *1327:A *439:16 2.30786e-05
7 *1327:A *477:26 0.000245112
8 *1327:A *478:32 0.000135028
9 *1327:A *479:26 9.23451e-05
10 *1327:A *484:40 3.97677e-05
11 *409:20 *1423:A 0.000879456
12 *409:20 *413:14 4.38265e-05
13 *409:20 *418:22 0.00285919
14 *409:20 *456:82 4.19624e-06
15 *409:20 *466:66 0.000937597
16 *409:45 *1253:A1 4.40015e-05
17 *409:45 *1268:A3 0
18 *409:45 *1277:D 0.000487513
19 *409:45 *1342:A 0.00037333
20 *409:45 *1422:A 8.64637e-05
21 *409:45 *439:16 0.000856652
22 *409:45 *444:34 9.33978e-07
23 *409:45 *461:53 6.43884e-05
24 *409:45 *476:41 2.06178e-05
25 *1260:S0 *409:45 8.29126e-05
26 *1264:S1 *409:45 2.17647e-05
27 *1277:GATE *409:45 3.67252e-05
28 *1585:A *409:20 9.60337e-06
29 *263:20 *409:45 1.92905e-05
30 *264:20 *409:20 0.000535298
31 *273:12 *409:20 0.000135742
32 *291:22 *409:20 0
33 *300:10 *409:45 0.000247341
34 *303:51 *1327:A 3.15633e-05
35 *303:80 *1327:A 6.71327e-05
36 *336:112 *1327:A 5.74499e-06
37 *340:38 *1327:A 1.73088e-05
38 *353:26 *409:20 8.24047e-05
39 *400:53 *409:45 0.000346932
40 *400:117 *409:45 0.000218409
41 *406:26 *1327:A 0.00027632
*RES
1 *1451:X *409:20 48.8322 
2 *409:20 *1295:D 9.3 
3 *409:20 *409:45 47.3214 
4 *409:45 *1327:A 22.675 
*END

*D_NET *410 0.0177184
*CONN
*I *1336:A I *D sky130_fd_sc_hd__buf_1
*I *1304:D I *D sky130_fd_sc_hd__dlxtp_1
*I *1458:X O *D sky130_fd_sc_hd__buf_1
*CAP
1 *1336:A 0.000141995
2 *1304:D 8.1604e-06
3 *1458:X 0.0027703
4 *410:14 0.00196293
5 *410:8 0.00458308
6 *1304:D *1328:A 2.06112e-05
7 *1304:D *1356:A 2.06112e-05
8 *1336:A *1356:A 0.000152846
9 *1336:A *1418:A 5.39182e-05
10 *1336:A *472:32 0.000152415
11 *410:8 *412:43 2.44318e-05
12 *410:8 *432:26 0.000170751
13 *410:14 *1251:A2 2.65979e-05
14 *410:14 *1418:A 1.12406e-05
15 *410:14 *466:52 0.000481648
16 *410:14 *466:66 5.91129e-05
17 *410:14 *476:14 0.000174223
18 *410:14 *476:41 4.58669e-05
19 *1266:S1 *410:8 0.00165633
20 *1358:A *1336:A 5.33005e-05
21 *245:24 *410:14 2.26973e-05
22 *255:26 *410:14 6.26119e-05
23 *268:20 *1336:A 5.33005e-05
24 *298:26 *410:14 0.000598753
25 *346:18 *1336:A 8.36093e-05
26 *346:18 *410:14 0.00350872
27 *360:28 *410:14 0.000499169
28 *377:28 *410:14 0.000224813
29 *394:10 *410:8 9.43456e-05
*RES
1 *1458:X *410:8 48.0143 
2 *410:8 *410:14 11.3926 
3 *410:14 *1304:D 17.4868 
4 *410:14 *1336:A 20.0351 
*END

*D_NET *411 0.017787
*CONN
*I *1323:D I *D sky130_fd_sc_hd__dlxtp_1
*I *1355:A I *D sky130_fd_sc_hd__buf_1
*I *1291:D I *D sky130_fd_sc_hd__dlxtp_1
*I *1452:X O *D sky130_fd_sc_hd__buf_1
*CAP
1 *1323:D 6.31369e-05
2 *1355:A 0.00144079
3 *1291:D 0.000183292
4 *1452:X 0.00157139
5 *411:30 0.00193058
6 *411:18 0.00133812
7 *411:12 0.00253988
8 *1291:D *1251:A1 1.24368e-05
9 *1291:D *1427:A 7.95355e-05
10 *1291:D *412:43 1.58163e-05
11 *1355:A *1251:A1 5.52302e-05
12 *1355:A *1257:A0 5.85711e-05
13 *1355:A *1418:A 6.84474e-05
14 *1355:A *1419:A 0.000472486
15 *1355:A *1422:A 0.000136676
16 *1355:A *1427:A 0.000802274
17 *1355:A *459:83 0.000212141
18 *411:12 *1270:A2 0.000216462
19 *411:12 *1417:A 0.000167172
20 *411:12 *453:60 0.000130423
21 *411:12 *458:40 0
22 *411:18 *1427:A 0.000371866
23 *411:18 *450:34 0.00148464
24 *411:18 *461:78 0.000344232
25 *411:30 *1251:A1 0.000256058
26 *411:30 *1277:D 2.08808e-05
27 *411:30 *454:14 0.000150054
28 *1260:S1 *1355:A 0.000438284
29 *1270:S1 *411:12 0.000125243
30 *1280:D *1355:A 0.000178425
31 *1292:GATE *1291:D 0.000135028
32 *1304:GATE *1355:A 6.94952e-05
33 *1385:A *411:12 0
34 *1543:A *411:12 8.07313e-05
35 *1545:A *411:12 7.77652e-05
36 *1578:A *411:18 1.57414e-05
37 *248:18 *1291:D 0.000159576
38 *248:18 *1323:D 0.000132945
39 *248:18 *411:18 0.000109469
40 *255:26 *411:18 0.000135028
41 *338:30 *411:30 6.81283e-05
42 *345:16 *411:12 1.71615e-05
43 *355:14 *1291:D 0.0001611
44 *355:14 *1323:D 5.86476e-05
45 *355:14 *411:18 3.49613e-05
46 *358:40 *1355:A 0.000154364
47 *380:10 *411:12 0.000503404
48 *385:24 *1355:A 0.00013921
49 *392:16 *1355:A 0.000505757
50 *394:10 *1291:D 5.52302e-05
51 *400:10 *411:30 0.000300058
52 *400:12 *411:30 8.6229e-06
*RES
1 *1452:X *411:12 43.1571 
2 *411:12 *411:18 24.5982 
3 *411:18 *411:30 16.235 
4 *411:30 *1291:D 22.8536 
5 *411:30 *1355:A 37.9964 
6 *411:18 *1323:D 15.5946 
*END

*D_NET *412 0.0214547
*CONN
*I *1356:A I *D sky130_fd_sc_hd__buf_1
*I *1324:D I *D sky130_fd_sc_hd__dlxtp_1
*I *1292:D I *D sky130_fd_sc_hd__dlxtp_1
*I *1453:X O *D sky130_fd_sc_hd__buf_1
*CAP
1 *1356:A 0.00100776
2 *1324:D 0
3 *1292:D 0
4 *1453:X 0.00108493
5 *412:60 0.00320585
6 *412:43 0.00318901
7 *412:18 0.00155273
8 *412:16 0.00164673
9 *1356:A *1268:A2 0.000195882
10 *1356:A *1268:A3 5.42764e-05
11 *1356:A *1328:A 0.000234421
12 *1356:A *472:32 0.000185704
13 *412:16 *465:20 0.000325197
14 *412:18 *443:10 0.00111225
15 *412:18 *446:62 0.000779443
16 *412:43 *1277:D 0.000146294
17 *412:43 *1407:A 1.90936e-05
18 *412:43 *413:26 1.13406e-05
19 *412:60 *1603:A 0
20 *412:60 *443:16 0.000175892
21 *412:60 *443:34 0
22 *412:60 *461:53 2.22403e-05
23 N1BEG[0] *412:16 3.30309e-05
24 N1BEG[2] *412:16 0.000128044
25 N2BEG[0] *412:16 5.52238e-05
26 N2BEG[2] *412:16 2.8266e-06
27 *1252:S1 *1356:A 0.00030122
28 *1256:S1 *1356:A 0.000144042
29 *1266:S0 *412:18 1.3982e-05
30 *1266:S1 *412:43 0.000307998
31 *1268:S0 *1356:A 0.000200854
32 *1270:S1 *412:16 0
33 *1287:D *1356:A 4.35597e-05
34 *1291:D *412:43 1.58163e-05
35 *1291:GATE *412:43 2.84026e-05
36 *1292:GATE *412:43 5.49489e-05
37 *1304:D *1356:A 2.06112e-05
38 *1314:GATE *412:60 3.06466e-05
39 *1336:A *1356:A 0.000152846
40 *1345:A *1356:A 1.59312e-05
41 *1385:A *412:16 9.75235e-05
42 *1430:A *412:60 0
43 *1559:A *412:43 0
44 *1602:A *412:43 6.37801e-05
45 *255:26 *412:60 4.16984e-05
46 *268:20 *1356:A 0.000186805
47 *283:12 *412:60 8.63633e-05
48 *291:22 *412:60 0.000101601
49 *292:84 *1356:A 4.33978e-05
50 *295:30 *1356:A 0.000181751
51 *300:10 *1356:A 0
52 *337:12 *412:16 0.000344442
53 *344:14 *412:60 0.002303
54 *348:12 *412:60 0.000169236
55 *350:18 *412:16 1.11843e-05
56 *357:12 *412:18 4.43256e-05
57 *364:12 *412:60 1.38323e-05
58 *364:28 *412:43 0
59 *364:28 *412:60 0.000399828
60 *386:30 *412:60 0.000119716
61 *391:16 *412:16 6.8341e-05
62 *392:16 *412:43 0.000226893
63 *392:16 *412:60 6.99277e-05
64 *394:10 *412:43 0.000304312
65 *402:71 *412:60 5.33005e-05
66 *410:8 *412:43 2.44318e-05
*RES
1 *1453:X *412:16 39.3357 
2 *412:16 *412:18 14.5 
3 *412:18 *1292:D 9.3 
4 *412:18 *412:43 35.5 
5 *412:43 *1324:D 9.3 
6 *412:43 *412:60 48.0714 
7 *412:60 *1356:A 35.4964 
*END

*D_NET *413 0.0176662
*CONN
*I *1328:A I *D sky130_fd_sc_hd__buf_1
*I *1296:D I *D sky130_fd_sc_hd__dlxtp_1
*I *1454:X O *D sky130_fd_sc_hd__buf_1
*CAP
1 *1328:A 0.000897397
2 *1296:D 0
3 *1454:X 0.00188635
4 *413:26 0.00318526
5 *413:14 0.00417422
6 *1328:A *1331:A 0.000169927
7 *1328:A *1342:A 0.000146336
8 *1328:A *432:26 0.000188819
9 *1328:A *459:83 0.000842786
10 *1328:A *483:36 6.25005e-05
11 *413:14 *1266:A2 1.4024e-05
12 *413:14 *416:22 9.55802e-05
13 *413:14 *417:24 0.000924339
14 *413:14 *443:16 0.000228791
15 *413:26 *1255:A1 5.381e-05
16 *413:26 *1255:A2 1.00442e-05
17 *413:26 *1331:A 3.71897e-05
18 *413:26 *416:34 3.06878e-06
19 *1255:S0 *413:26 1.72894e-05
20 *1260:S0 *1328:A 6.05626e-05
21 *1268:S0 *1328:A 0.000489913
22 *1296:GATE *413:26 0.000127152
23 *1304:D *1328:A 2.06112e-05
24 *1352:A *1328:A 0
25 *1356:A *1328:A 0.000234421
26 *1357:A *1328:A 0.000397901
27 *1385:A *413:14 0.000111439
28 *1395:A *1328:A 0.000428915
29 *268:20 *1328:A 0.000401127
30 *273:12 *413:14 1.44868e-05
31 *295:30 *1328:A 6.37237e-05
32 *353:26 *413:14 0.00030365
33 *381:16 *413:26 3.69697e-05
34 *383:16 *413:14 1.58163e-05
35 *383:20 *413:14 0.000237033
36 *387:32 *413:14 0.000165221
37 *394:10 *413:26 0.00114959
38 *402:57 *413:26 0.000350062
39 *406:39 *1328:A 6.47602e-05
40 *409:20 *413:14 4.38265e-05
41 *412:43 *413:26 1.13406e-05
*RES
1 *1454:X *413:14 46.0321 
2 *413:14 *413:26 38.125 
3 *413:26 *1296:D 9.3 
4 *413:26 *1328:A 43.3 
*END

*D_NET *414 0.0288565
*CONN
*I *1329:A I *D sky130_fd_sc_hd__buf_1
*I *1297:D I *D sky130_fd_sc_hd__dlxtp_1
*I *1455:X O *D sky130_fd_sc_hd__dlymetal6s2s_1
*CAP
1 *1329:A 0.000546255
2 *1297:D 2.25053e-05
3 *1455:X 0.000209852
4 *414:26 0.00153234
5 *414:12 0.00237171
6 *414:10 0.00161798
7 *1297:D *467:38 1.58163e-05
8 *1329:A *1263:A2 5.52302e-05
9 *1329:A *1271:A1 9.53983e-05
10 *1329:A *1273:A0 0.000510132
11 *1329:A *467:38 0.000177167
12 *1329:A *473:14 0.000143823
13 *414:12 *421:12 0.00143582
14 *414:26 *1258:A0 8.37661e-05
15 *414:26 *1258:A1 0.000704701
16 *414:26 *1258:A3 4.72418e-05
17 *414:26 *474:18 0
18 VALUE_top0 *414:10 0
19 *491:DIODE *414:12 0.000111104
20 *1263:S1 *1329:A 4.58194e-05
21 *1366:A *414:26 0.000172564
22 *1436:A *414:10 0
23 *1595:A *414:10 0.000501568
24 *82:23 *414:12 0.000356419
25 *238:18 *1329:A 4.16984e-05
26 *269:22 *414:26 0
27 *284:16 *1329:A 0.000270794
28 *306:30 *414:26 2.57669e-05
29 *342:12 *414:12 0.00701433
30 *359:22 *414:26 0.000628964
31 *362:24 *1329:A 1.38167e-05
32 *390:10 *414:26 0.000115487
33 *390:12 *414:12 0.00953757
34 *404:92 *1297:D 5.33005e-05
35 *404:92 *1329:A 5.52302e-05
36 *405:36 *1329:A 0.000342302
*RES
1 *1455:X *414:10 24.4964 
2 *414:10 *414:12 91.7143 
3 *414:12 *414:26 28.9643 
4 *414:26 *1297:D 9.83571 
5 *414:26 *1329:A 32.6393 
*END

*D_NET *415 0.0315309
*CONN
*I *1298:D I *D sky130_fd_sc_hd__dlxtp_1
*I *1330:A I *D sky130_fd_sc_hd__buf_1
*I *1456:X O *D sky130_fd_sc_hd__dlymetal6s2s_1
*CAP
1 *1298:D 0.00130419
2 *1330:A 0.00155294
3 *1456:X 0.000501142
4 *415:22 0.00445168
5 *415:14 0.00357843
6 *415:12 0.00248503
7 *1298:D *1302:D 0.000295386
8 *1298:D *1307:D 0.000308087
9 *1298:D *447:47 0.000308087
10 *1330:A *480:20 4.70487e-05
11 *1330:A *482:32 0.000544738
12 *1330:A *483:36 0.000514037
13 *415:12 *419:12 0
14 *415:14 *1603:A 0.000844933
15 *415:14 *443:34 0.00157329
16 *415:22 *1268:A2 0.000139357
17 *415:22 *1268:A3 8.07254e-05
18 *415:22 *1278:D 6.57603e-05
19 *415:22 *1302:D 0.000623082
20 *415:22 *1332:A 0.00120972
21 *415:22 *1422:A 5.09427e-05
22 *415:22 *444:64 0.000410703
23 *415:22 *459:55 4.08842e-05
24 *415:22 *471:26 0.000196313
25 ENABLE_top *415:14 9.90431e-05
26 VALUE_top1 *415:14 9.91549e-05
27 VALUE_top2 *415:14 0.000230482
28 VALUE_top3 *415:14 9.90431e-05
29 VALUE_top4 *415:14 9.90431e-05
30 VALUE_top5 *415:14 9.90431e-05
31 VALUE_top6 *415:14 9.87672e-05
32 VALUE_top7 *415:14 9.80289e-05
33 *1284:D *415:22 0.000304832
34 *1316:D *1298:D 0.000444807
35 *1439:A *415:12 0.000165802
36 *1451:A *415:12 0.000125367
37 *1596:A *415:14 0.00041842
38 *1598:A *415:14 0.000232399
39 *1602:A *415:14 0.000186765
40 *67:11 *415:14 0.00161667
41 *67:38 *415:22 0.000134246
42 *264:20 *415:22 2.09512e-05
43 *270:24 *1298:D 0.00110969
44 *276:64 *1330:A 0.000274585
45 *291:22 *415:14 0.000283695
46 *299:26 *1330:A 0.00030804
47 *303:80 *1330:A 3.30259e-05
48 *305:34 *1330:A 4.65519e-05
49 *308:26 *1298:D 0.00207962
50 *308:26 *415:22 0.000304046
51 *314:12 *415:12 5.52238e-05
52 *343:28 *1330:A 2.17907e-05
53 *344:30 *415:14 0.000181928
54 *347:64 *415:22 0
55 *352:36 *415:22 5.14067e-05
56 *364:28 *415:14 1.21289e-05
57 *393:16 *415:22 6.84853e-05
58 *396:16 *415:14 0.000777063
59 *407:48 *415:22 0.000224248
*RES
1 *1456:X *415:12 28.1571 
2 *415:12 *415:14 55.5714 
3 *415:14 *415:22 20.62 
4 *415:22 *1330:A 31.3045 
5 *415:22 *1298:D 25.8434 
*END

*D_NET *416 0.0179137
*CONN
*I *1331:A I *D sky130_fd_sc_hd__buf_1
*I *1299:D I *D sky130_fd_sc_hd__dlxtp_1
*I *1457:X O *D sky130_fd_sc_hd__buf_1
*CAP
1 *1331:A 0.0016803
2 *1299:D 0.000423452
3 *1457:X 0.00215032
4 *416:34 0.0034262
5 *416:22 0.00347277
6 *1299:D *1257:A2 0.000160456
7 *1299:D *1380:A 1.11775e-05
8 *1331:A *459:83 0.000842786
9 *416:22 *1266:A2 1.66856e-05
10 *416:22 *1423:A 0.000187848
11 *416:22 *417:24 0.0001521
12 *416:22 *418:22 0.000128553
13 *416:22 *466:66 6.17008e-05
14 *416:34 *1275:D 1.98839e-05
15 *416:34 *443:16 0.00114638
16 *416:34 *448:70 5.48396e-05
17 *1253:S0 *1331:A 9.66977e-05
18 *1272:S1 *1299:D 0.000444755
19 *1296:GATE *1331:A 5.10006e-05
20 *1299:GATE *1299:D 0.000137561
21 *1303:GATE *1331:A 3.04394e-05
22 *1317:D *1299:D 6.09762e-05
23 *1321:GATE *1299:D 5.33005e-05
24 *1328:A *1331:A 0.000169927
25 *1383:A *416:34 7.02611e-05
26 *1385:A *416:22 0.000679362
27 *1395:A *1331:A 7.12784e-05
28 *1454:A *416:22 2.27416e-05
29 *1559:A *416:22 4.27796e-05
30 *1585:A *416:34 0.000190002
31 *231:22 *1299:D 1.09115e-05
32 *246:26 *1331:A 9.58181e-05
33 *255:26 *416:22 7.53309e-05
34 *263:30 *416:22 0.000523267
35 *306:20 *1331:A 1.73088e-05
36 *336:57 *1299:D 3.69047e-06
37 *373:20 *416:22 0.000144074
38 *380:26 *1299:D 0.000321096
39 *383:16 *416:22 0.000135028
40 *384:14 *1299:D 4.64246e-05
41 *402:20 *1299:D 0.000139054
42 *402:57 *1331:A 3.53141e-05
43 *402:57 *416:34 4.38136e-05
44 *402:65 *416:34 0.000127277
45 *402:71 *416:34 2.88018e-06
46 *413:14 *416:22 9.55802e-05
47 *413:26 *1331:A 3.71897e-05
48 *413:26 *416:34 3.06878e-06
*RES
1 *1457:X *416:22 49.2464 
2 *416:22 *416:34 31.9107 
3 *416:34 *1299:D 28.9964 
4 *416:34 *1331:A 33.3357 
*END

*D_NET *417 0.0228932
*CONN
*I *1300:D I *D sky130_fd_sc_hd__dlxtp_1
*I *1332:A I *D sky130_fd_sc_hd__buf_1
*I *1459:X O *D sky130_fd_sc_hd__buf_1
*CAP
1 *1300:D 0.000524932
2 *1332:A 0.00127286
3 *1459:X 0.00259216
4 *417:24 0.00438994
5 *1300:D *456:66 0.0010146
6 *1332:A *1252:A1 2.06178e-05
7 *1332:A *432:26 5.73499e-05
8 *1332:A *444:64 5.67882e-05
9 *1332:A *456:66 0.000113877
10 *1332:A *459:83 0.000486513
11 *1332:A *471:26 1.90936e-05
12 *417:24 *1266:A0 0.000226717
13 *417:24 *1377:A 0.000245259
14 *417:24 *1421:A 0.000214977
15 *417:24 *418:22 0.000105045
16 *417:24 *432:26 0.00173729
17 *417:24 *454:14 0
18 *417:24 *466:66 3.34366e-05
19 *417:24 *476:14 0
20 *1300:GATE *1300:D 6.46173e-05
21 *1317:D *1300:D 2.71254e-05
22 *1317:D *417:24 5.00194e-05
23 *1385:A *417:24 0.00024424
24 *1395:A *1332:A 9.58126e-05
25 *1454:A *417:24 9.49022e-05
26 *1457:A *417:24 4.14508e-05
27 *306:20 *1332:A 5.33005e-05
28 *337:12 *417:24 0.000108727
29 *340:38 *1300:D 4.65519e-05
30 *346:18 *417:24 0.00110779
31 *347:38 *1300:D 2.09052e-05
32 *350:18 *417:24 0.000107508
33 *352:36 *1332:A 0.00196392
34 *352:36 *417:24 0.00230098
35 *358:40 *1332:A 2.1599e-05
36 *386:30 *1300:D 0.00103222
37 *386:30 *1332:A 0.000113877
38 *413:14 *417:24 0.000924339
39 *415:22 *1332:A 0.00120972
40 *416:22 *417:24 0.0001521
*RES
1 *1459:X *417:24 45.0426 
2 *417:24 *1332:A 25.7896 
3 *417:24 *1300:D 23.8712 
*END

*D_NET *418 0.0299127
*CONN
*I *1301:D I *D sky130_fd_sc_hd__dlxtp_1
*I *1333:A I *D sky130_fd_sc_hd__buf_1
*I *1460:X O *D sky130_fd_sc_hd__dlymetal6s2s_1
*CAP
1 *1301:D 0.00206481
2 *1333:A 6.56919e-05
3 *1460:X 0.00545674
4 *418:22 0.00758724
5 *1301:D *1418:A 0.000192245
6 *1301:D *1616:A 1.82205e-05
7 *1301:D *455:65 0.00079384
8 *1301:D *484:40 3.14048e-05
9 *418:22 *1266:A0 0.000516892
10 *418:22 *1407:A 0.00019616
11 *418:22 *1423:A 0.000103739
12 *418:22 *432:26 7.32866e-06
13 *418:22 *444:64 2.87034e-05
14 *418:22 *461:28 0.000197981
15 *418:22 *463:56 3.00664e-05
16 UserCLKo *1301:D 6.47782e-05
17 VALUE_top0 *418:22 0
18 *1258:S0 *1301:D 1.90936e-05
19 *1261:S0 *1301:D 6.94472e-05
20 *1281:D *1333:A 9.58181e-05
21 *1286:D *1301:D 3.50637e-05
22 *1301:GATE *1301:D 0.0002157
23 *1319:D *1333:A 7.35883e-06
24 *1320:D *1333:A 4.23907e-05
25 *1358:A *1333:A 9.41642e-05
26 *1398:A *1301:D 3.08382e-06
27 *1431:A *418:22 0.00197787
28 *1595:A *418:22 2.06112e-05
29 *67:38 *418:22 0.000641866
30 *269:22 *1301:D 0.00106608
31 *291:22 *418:22 0
32 *297:48 *1301:D 0.000491606
33 *298:26 *418:22 0.000215649
34 *301:34 *1301:D 0.00131102
35 *302:24 *418:22 6.14083e-05
36 *376:28 *418:22 0.000160567
37 *378:38 *1301:D 0.00111686
38 *378:38 *418:22 0.000136953
39 *380:45 *1301:D 0.000119761
40 *380:45 *418:22 0.000294503
41 *400:22 *418:22 1.30506e-05
42 *400:53 *418:22 0.000237724
43 *401:82 *1333:A 8.6229e-06
44 *407:48 *418:22 0.000918546
45 *408:83 *1301:D 8.92205e-05
46 *409:20 *418:22 0.00285919
47 *416:22 *418:22 0.000128553
48 *417:24 *418:22 0.000105045
*RES
1 *1460:X *418:22 39.1682 
2 *418:22 *1333:A 18.7368 
3 *418:22 *1301:D 27.353 
*END

*D_NET *419 0.0272269
*CONN
*I *1334:A I *D sky130_fd_sc_hd__buf_1
*I *1302:D I *D sky130_fd_sc_hd__dlxtp_1
*I *1461:X O *D sky130_fd_sc_hd__buf_1
*CAP
1 *1334:A 0.000360501
2 *1302:D 0.00155075
3 *1461:X 0.00112111
4 *419:22 0.00257446
5 *419:14 0.00282455
6 *419:12 0.00328244
7 *1302:D *1254:A2 1.94879e-05
8 *1302:D *1258:A3 0.000330083
9 *1302:D *436:60 0
10 *1302:D *442:57 0.000598989
11 *1302:D *447:10 3.8284e-05
12 *1302:D *477:26 4.67222e-05
13 *1334:A *1252:A1 0.000269656
14 *1334:A *427:20 3.33907e-05
15 *1334:A *471:26 3.18454e-05
16 *419:12 *466:66 0
17 *419:14 *420:30 0.000244988
18 *419:14 *421:12 0
19 *419:14 *443:40 0.000313926
20 *419:22 *1252:A0 2.21972e-05
21 *419:22 *436:60 0.000168427
22 VALUE_top3 *419:12 0
23 *1298:D *1302:D 0.000295386
24 *1316:D *1302:D 0.00314044
25 *1319:D *1334:A 1.03403e-05
26 *1326:A *419:22 3.68406e-05
27 *1348:A *1334:A 5.57819e-05
28 *1393:A *419:12 0
29 *1597:A *419:12 0.000202128
30 *67:13 *419:22 0.000379788
31 *67:38 *419:22 3.16583e-05
32 *262:28 *1302:D 0.000776151
33 *266:20 *1302:D 0.000131291
34 *295:30 *1334:A 0
35 *307:16 *419:22 7.55769e-05
36 *314:14 *419:14 0.000352093
37 *314:18 *419:22 0.000164708
38 *341:16 *419:12 2.34204e-05
39 *346:18 *1334:A 2.06112e-05
40 *352:36 *1302:D 0.000109831
41 *359:22 *419:14 0.000103646
42 *376:28 *419:22 0.000150949
43 *395:14 *419:14 0.000997145
44 *397:16 *419:14 0.00405166
45 *399:18 *419:12 0.000575702
46 *401:16 *419:22 2.59116e-05
47 *401:59 *419:22 1.6287e-05
48 *401:74 *1334:A 0.000315931
49 *401:74 *419:22 3.72595e-05
50 *404:10 *419:22 0.000291599
51 *404:55 *1302:D 1.90936e-05
52 *404:55 *1334:A 7.66283e-05
53 *404:55 *419:22 4.18834e-05
54 *404:143 *1302:D 0.000132945
55 *408:83 *1334:A 0.000129285
56 *415:12 *419:12 0
57 *415:22 *1302:D 0.000623082
*RES
1 *1461:X *419:12 36.675 
2 *419:12 *419:14 64.1964 
3 *419:14 *419:22 18.4911 
4 *419:22 *1302:D 36.0729 
5 *419:22 *1334:A 22.2018 
*END

*D_NET *420 0.022844
*CONN
*I *1254:A0 I *D sky130_fd_sc_hd__mux4_1
*I *1380:A I *D sky130_fd_sc_hd__clkbuf_1
*I *1250:B2 I *D sky130_fd_sc_hd__a22o_1
*I *1462:X O *D sky130_fd_sc_hd__buf_1
*CAP
1 *1254:A0 0.00110289
2 *1380:A 0.000836079
3 *1250:B2 0.000191224
4 *1462:X 0.000500966
5 *420:30 0.00331197
6 *420:14 0.00388852
7 *1250:B2 *456:82 0.000228558
8 *1254:A0 *1254:A1 9.21418e-06
9 *1254:A0 *1616:A 8.96293e-05
10 *1254:A0 *436:60 0.000373793
11 *1254:A0 *449:12 5.78968e-05
12 *1254:A0 *449:14 9.71259e-06
13 *1254:A0 *460:34 0.00036371
14 *1254:A0 *482:32 0.000274301
15 *1254:A0 *486:28 4.47514e-05
16 *1380:A *1253:A2 0
17 *1380:A *1272:A3 1.01912e-05
18 *1380:A *456:82 6.33418e-05
19 *420:14 *1252:A0 1.01241e-05
20 *420:14 *1256:A1 0.000180387
21 *420:14 *1416:A 6.13772e-05
22 *420:14 *433:34 0.00013943
23 *420:14 *460:34 5.05056e-05
24 *420:30 *1252:A0 0.000875232
25 *420:30 *444:34 2.68019e-05
26 *420:30 *482:32 5.11388e-05
27 *420:30 *483:36 2.05803e-05
28 *1250:B1 *1250:B2 1.73088e-05
29 *1252:S1 *1254:A0 2.64262e-06
30 *1253:S0 *420:30 0
31 *1264:S1 *1380:A 7.09161e-05
32 *1272:S1 *1380:A 0.00122099
33 *1299:D *1380:A 1.11775e-05
34 *1319:D *1254:A0 7.44262e-05
35 *1320:D *1254:A0 0.000242394
36 *1323:GATE *1380:A 1.51489e-05
37 *1326:A *420:30 0.000340756
38 *1353:A *420:14 9.18765e-06
39 *1431:A *1380:A 9.27826e-05
40 *1473:A *420:14 5.35475e-05
41 *78:5 *1380:A 7.99047e-05
42 *78:5 *420:30 0.000464568
43 *231:22 *1380:A 0.000357287
44 *241:20 *1380:A 2.69575e-05
45 *279:14 *1254:A0 4.28049e-05
46 *295:30 *420:14 3.22027e-05
47 *301:34 *1254:A0 2.69864e-05
48 *302:24 *420:30 0.000491293
49 *303:80 *420:14 2.06037e-05
50 *305:34 *420:14 6.69814e-05
51 *309:26 *1254:A0 0.000278896
52 *353:26 *420:30 0.00126587
53 *359:22 *420:30 0.00274853
54 *371:28 *1254:A0 0.000227818
55 *397:16 *420:30 0.000213364
56 *402:6 *1380:A 0.000165109
57 *402:14 *1380:A 9.41642e-05
58 *402:53 *1380:A 8.89437e-05
59 *404:70 *1254:A0 3.47702e-06
60 *408:44 *1380:A 0.000249596
61 *408:83 *420:30 0.00073003
62 *419:14 *420:30 0.000244988
*RES
1 *1462:X *420:14 25.2368 
2 *420:14 *420:30 24.7954 
3 *420:30 *1250:B2 17.6393 
4 *420:30 *1380:A 34.3893 
5 *420:14 *1254:A0 42.2363 
*END

*D_NET *421 0.0272842
*CONN
*I *1337:A I *D sky130_fd_sc_hd__buf_1
*I *1305:D I *D sky130_fd_sc_hd__dlxtp_1
*I *1469:X O *D sky130_fd_sc_hd__buf_1
*CAP
1 *1337:A 0.000695962
2 *1305:D 0.000277833
3 *1469:X 0.000641677
4 *421:20 0.00166504
5 *421:12 0.00327393
6 *421:10 0.00322437
7 *1305:D *474:18 0.000308562
8 *1337:A *1258:A1 6.87839e-06
9 *1337:A *1265:A0 1.98839e-05
10 *1337:A *473:14 0.000191089
11 *1337:A *474:18 0.000859417
12 *421:10 *432:26 4.1331e-06
13 *421:12 *443:40 0.000195455
14 *421:20 *1258:A1 6.91215e-06
15 *1254:S0 *1305:D 8.15376e-05
16 *1305:GATE *1305:D 0.000136958
17 *1365:A *421:20 0.000104028
18 *1398:A *1337:A 0.000150236
19 *1404:A *1337:A 0.000135028
20 *1458:A *421:10 0
21 *1595:A *421:10 0.000973629
22 *239:26 *1305:D 0.000453549
23 *269:22 *421:20 2.35985e-05
24 *270:24 *421:20 2.40094e-05
25 *276:64 *1337:A 5.02478e-05
26 *276:64 *421:20 0.000396269
27 *282:24 *1337:A 6.30931e-05
28 *300:12 *421:12 0.00227705
29 *306:20 *421:20 0
30 *306:30 *1305:D 0.00022266
31 *306:34 *1305:D 2.95943e-05
32 *307:16 *421:20 0.00074654
33 *314:14 *421:12 0
34 *314:36 *421:20 0.000303448
35 *342:12 *421:12 0.00675735
36 *353:26 *421:12 0.00125637
37 *368:26 *1337:A 0.000178847
38 *371:28 *1337:A 4.00349e-05
39 *390:10 *421:20 7.31375e-05
40 *414:12 *421:12 0.00143582
41 *419:14 *421:12 0
*RES
1 *1469:X *421:10 32.9964 
2 *421:10 *421:12 88.4286 
3 *421:12 *421:20 20.875 
4 *421:20 *1305:D 22.3 
5 *421:20 *1337:A 28.2643 
*END

*D_NET *422 0.0088356
*CONN
*I *1253:A0 I *D sky130_fd_sc_hd__mux4_1
*I *1248:A I *D sky130_fd_sc_hd__or2_1
*I *1379:A I *D sky130_fd_sc_hd__clkbuf_1
*I *1463:X O *D sky130_fd_sc_hd__buf_1
*CAP
1 *1253:A0 0.000986335
2 *1248:A 0
3 *1379:A 0.000309017
4 *1463:X 0
5 *422:18 0.00108889
6 *422:4 0.00176621
7 *1253:A0 *1253:A1 4.39553e-05
8 *1253:A0 *1253:A3 0.00010975
9 *1253:A0 *1257:A1 1.41885e-05
10 *1253:A0 *1272:A1 2.06178e-05
11 *1253:A0 *424:26 0.000222244
12 *1253:A0 *432:26 6.09762e-05
13 *1253:A0 *444:64 0.000263795
14 *1253:A0 *463:58 0.000231221
15 *1379:A *446:24 3.10885e-05
16 *422:18 *1264:A3 3.42301e-05
17 *422:18 *446:28 2.59355e-05
18 *422:18 *448:52 7.36565e-05
19 *422:18 *448:70 0.000124715
20 Co *1253:A0 1.85668e-05
21 N4BEG[15] *422:18 0.00010096
22 NN4BEG[1] *422:18 9.80173e-05
23 *492:DIODE *422:18 0.000100625
24 *1248:B *422:18 5.04841e-06
25 *1279:D *1253:A0 6.74751e-05
26 *1323:GATE *1379:A 0.000268578
27 *1430:A *1379:A 0.00011594
28 *1578:A *1379:A 0.00036204
29 *1585:A *422:18 9.65259e-05
30 *1593:A *1253:A0 0.000631946
31 *241:20 *1253:A0 0.000872816
32 *246:26 *1253:A0 6.62312e-05
33 *283:12 *422:18 4.92791e-05
34 *325:22 *1379:A 0.000131687
35 *360:28 *1379:A 0.000102019
36 *361:26 *422:18 6.26177e-05
37 *374:20 *1253:A0 0.000253318
38 *382:32 *422:18 2.50824e-05
39 *400:53 *1253:A0 0
*RES
1 *1463:X *422:4 9.3 
2 *422:4 *422:18 21.8214 
3 *422:18 *1379:A 26.8179 
4 *422:18 *1248:A 9.3 
5 *422:4 *1253:A0 41.55 
*END

*D_NET *423 0.0147742
*CONN
*I *1378:A I *D sky130_fd_sc_hd__buf_1
*I *1252:A0 I *D sky130_fd_sc_hd__mux4_1
*I *1464:X O *D sky130_fd_sc_hd__buf_1
*CAP
1 *1378:A 0.000927798
2 *1252:A0 0.000811613
3 *1464:X 0.000939118
4 *423:32 0.0021617
5 *423:18 0.00136141
6 *1252:A0 *1252:A1 9.58181e-05
7 *1252:A0 *444:34 0.00116335
8 *1252:A0 *471:26 0.000256773
9 *1252:A0 *478:32 4.65519e-05
10 *1252:A0 *483:36 0.000193671
11 *1252:A0 *484:40 4.86178e-05
12 *1378:A *1254:A1 2.04187e-05
13 *1378:A *1416:A 0.000308006
14 *423:18 *425:14 9.23883e-05
15 *423:18 *427:20 2.24988e-05
16 *423:18 *430:20 0.00100118
17 *423:18 *437:28 5.49489e-05
18 *423:18 *441:22 8.48807e-05
19 *423:18 *456:44 0.00100283
20 *423:18 *456:54 0.000593145
21 *423:18 *463:38 0.000175529
22 *423:18 *478:32 4.1718e-05
23 *423:18 *479:26 0.000288858
24 *423:18 *480:20 2.45634e-05
25 *423:32 *1416:A 9.41642e-05
26 NN4BEG[10] *423:18 9.83704e-05
27 NN4BEG[11] *423:18 9.67846e-05
28 *1309:GATE *423:32 1.85392e-05
29 *1325:A *423:18 1.77525e-05
30 *1468:A *423:18 2.15178e-05
31 *276:64 *1378:A 0.00100333
32 *276:64 *423:32 0.000114715
33 *299:26 *423:18 7.44888e-05
34 *299:26 *423:32 0.00015803
35 *303:80 *1252:A0 4.26825e-05
36 *305:34 *1252:A0 2.11419e-05
37 *322:30 *423:32 8.55871e-05
38 *340:38 *423:18 4.19535e-05
39 *367:12 *1378:A 2.38651e-06
40 *368:26 *1378:A 2.6269e-05
41 *376:28 *1252:A0 2.63501e-05
42 *382:32 *423:32 8.9664e-05
43 *391:38 *423:18 5.00841e-06
44 *401:59 *1252:A0 2.06112e-05
45 *407:48 *1252:A0 4.33907e-05
46 *408:83 *1252:A0 4.65519e-05
47 *419:22 *1252:A0 2.21972e-05
48 *420:14 *1252:A0 1.01241e-05
49 *420:30 *1252:A0 0.000875232
*RES
1 *1464:X *423:18 47.0143 
2 *423:18 *423:32 12.5179 
3 *423:32 *1252:A0 37.3023 
4 *423:32 *1378:A 32.4071 
*END

*D_NET *424 0.0128268
*CONN
*I *1251:A0 I *D sky130_fd_sc_hd__mux4_1
*I *1377:A I *D sky130_fd_sc_hd__clkbuf_1
*I *1465:X O *D sky130_fd_sc_hd__buf_1
*CAP
1 *1251:A0 0
2 *1377:A 0.00110632
3 *1465:X 0.00126796
4 *424:32 0.00148638
5 *424:26 0.00164802
6 *424:26 *1257:A2 1.14548e-05
7 *424:26 *1427:A 0.000107614
8 *424:26 *456:54 9.12363e-05
9 *424:26 *456:66 6.35864e-05
10 *424:26 *459:83 6.41206e-05
11 *424:32 *1427:A 0.000354944
12 *424:32 *461:78 0.000257619
13 *1253:A0 *424:26 0.000222244
14 *1264:S1 *424:26 0.000672101
15 *1274:S0 *1377:A 0.000351894
16 *1300:GATE *424:26 2.71882e-05
17 *1463:A *424:26 5.52302e-05
18 *1465:A *424:26 1.32056e-05
19 *245:24 *424:32 0.000463867
20 *247:43 *1377:A 0.000350046
21 *248:18 *1377:A 6.25005e-05
22 *248:18 *424:32 4.39995e-05
23 *346:18 *1377:A 0.0002429
24 *347:38 *424:26 0.00027749
25 *355:14 *1377:A 0.000480877
26 *381:16 *1377:A 5.52238e-05
27 *382:32 *424:26 0.000105133
28 *385:24 *424:26 0.000865888
29 *387:32 *1377:A 0.000872967
30 *399:18 *1377:A 0.000845015
31 *400:10 *1377:A 4.34069e-05
32 *400:10 *424:32 5.20232e-05
33 *400:12 *1377:A 1.90936e-05
34 *417:24 *1377:A 0.000245259
*RES
1 *1465:X *424:26 43.8714 
2 *424:26 *424:32 13.1607 
3 *424:32 *1377:A 44.5809 
4 *424:32 *1251:A0 13.8 
*END

*D_NET *425 0.0204283
*CONN
*I *1259:A0 I *D sky130_fd_sc_hd__mux4_1
*I *1254:A1 I *D sky130_fd_sc_hd__mux4_1
*I *1466:X O *D sky130_fd_sc_hd__buf_1
*CAP
1 *1259:A0 0.00131912
2 *1254:A1 0.000973932
3 *1466:X 0.000644134
4 *425:45 0.00263415
5 *425:14 0.0029331
6 *1254:A1 *427:61 0.000207801
7 *1254:A1 *449:12 0
8 *1254:A1 *467:38 0.000135789
9 *1259:A0 *1408:A 0.000393521
10 *1259:A0 *1617:A 1.54142e-05
11 *425:14 *426:26 1.58163e-05
12 *425:14 *428:18 0.00034188
13 *425:14 *440:12 0.00162764
14 *425:14 *454:96 6.91438e-06
15 *425:14 *479:26 2.72337e-05
16 *425:14 *481:24 5.36e-05
17 *425:14 *481:26 0.00117561
18 *425:45 *440:12 0.000989595
19 *425:45 *452:22 5.32112e-05
20 *425:45 *453:18 0.000689888
21 *425:45 *463:18 0.000107648
22 *425:45 *481:26 0.00133485
23 FrameStrobe_O[2] *425:45 1.90936e-05
24 *1254:A0 *1254:A1 9.21418e-06
25 *1267:S0 *1259:A0 0.00131572
26 *1378:A *1254:A1 2.04187e-05
27 *1400:A *425:45 0.0004557
28 *1404:A *1254:A1 0.000557004
29 *1468:A *425:14 0.000157329
30 *1505:A *425:45 0.000233795
31 *1534:A *425:45 0
32 *200:19 *425:45 5.73428e-05
33 *276:64 *1254:A1 0.000180785
34 *297:26 *1254:A1 0.000144742
35 *300:22 *1259:A0 0.000121953
36 *317:12 *1259:A0 0.000121953
37 *327:16 *425:45 0.000253318
38 *333:22 *1254:A1 0.000159037
39 *367:12 *1254:A1 0.00062151
40 *371:28 *1254:A1 0.000226164
41 *423:18 *425:14 9.23883e-05
*RES
1 *1466:X *425:14 37.6393 
2 *425:14 *1254:A1 39.1214 
3 *425:14 *425:45 47.625 
4 *425:45 *1259:A0 36.9071 
*END

*D_NET *426 0.00782156
*CONN
*I *1253:A1 I *D sky130_fd_sc_hd__mux4_1
*I *1260:A0 I *D sky130_fd_sc_hd__mux4_1
*I *1467:X O *D sky130_fd_sc_hd__buf_1
*CAP
1 *1253:A1 0.00079995
2 *1260:A0 0.000152702
3 *1467:X 0.00116024
4 *426:26 0.00211289
5 *1253:A1 *1268:A3 0
6 *1253:A1 *1422:A 0.000370575
7 *1253:A1 *459:83 8.51213e-05
8 *1260:A0 *1260:A1 1.97695e-05
9 *426:26 *1260:A2 1.14548e-05
10 *426:26 *435:18 3.02174e-05
11 *426:26 *441:12 1.21258e-05
12 *426:26 *448:34 0.000127643
13 *426:26 *454:96 0.000322115
14 *426:26 *481:24 0.000140933
15 Co *1260:A0 1.83136e-05
16 NN4BEG[14] *426:26 6.05161e-06
17 *1253:A0 *1253:A1 4.39553e-05
18 *1260:S0 *426:26 8.72897e-05
19 *1260:S1 *426:26 5.90357e-05
20 *1277:GATE *1253:A1 5.71472e-05
21 *1433:A *426:26 0.000185767
22 *1466:A *426:26 5.49544e-05
23 *1475:A *426:26 3.72472e-05
24 *1476:A *426:26 7.69697e-05
25 *1478:A *426:26 8.45391e-05
26 *1481:A *426:26 2.2351e-05
27 *1482:A *426:26 0.00014051
28 *241:20 *1253:A1 0.000304931
29 *246:26 *1253:A1 0.000606879
30 *264:20 *1253:A1 0
31 *293:12 *426:26 7.29712e-05
32 *303:51 *426:26 0.000309386
33 *375:16 *426:26 2.97114e-05
34 *378:38 *426:26 6.67132e-05
35 *403:26 *1253:A1 0.000116395
36 *403:86 *1260:A0 1.76096e-05
37 *403:86 *426:26 1.72865e-05
38 *409:45 *1253:A1 4.40015e-05
39 *425:14 *426:26 1.58163e-05
*RES
1 *1467:X *426:26 40.7643 
2 *426:26 *1260:A0 11.3893 
3 *426:26 *1253:A1 35.05 
*END

*D_NET *427 0.0122159
*CONN
*I *1261:A0 I *D sky130_fd_sc_hd__mux4_1
*I *1252:A1 I *D sky130_fd_sc_hd__mux4_1
*I *1468:X O *D sky130_fd_sc_hd__buf_1
*CAP
1 *1261:A0 0
2 *1252:A1 0.00065991
3 *1468:X 0.000654362
4 *427:61 0.00227796
5 *427:20 0.00359223
6 *1252:A1 *1252:A2 0.000121621
7 *1252:A1 *444:34 2.67407e-05
8 *1252:A1 *471:26 0.000129523
9 *427:20 *454:96 9.71197e-05
10 *427:20 *468:20 8.23597e-06
11 *427:20 *470:22 2.22043e-05
12 *427:20 *482:32 0.000107813
13 *427:61 *1261:A1 6.12335e-05
14 *427:61 *1308:D 0.000307992
15 *427:61 *1428:A 0.000469356
16 *427:61 *445:42 0.000301075
17 *1252:A0 *1252:A1 9.58181e-05
18 *1252:S0 *1252:A1 0.000263051
19 *1252:S1 *1252:A1 1.03037e-05
20 *1254:A1 *427:61 0.000207801
21 *1315:D *427:61 2.95726e-05
22 *1319:D *1252:A1 0.000247572
23 *1319:D *427:20 2.28007e-05
24 *1325:A *427:20 0.000189786
25 *1332:A *1252:A1 2.06178e-05
26 *1334:A *1252:A1 0.000269656
27 *1334:A *427:20 3.33907e-05
28 *1347:A *427:20 5.00386e-05
29 *1348:A *427:20 0
30 *234:20 *427:61 0.000306068
31 *276:64 *427:61 0.000206094
32 *282:24 *427:61 1.5424e-05
33 *292:84 *427:61 0.000318409
34 *295:30 *427:20 8.23597e-06
35 *301:34 *427:20 2.65338e-05
36 *302:24 *427:20 2.17524e-05
37 *309:26 *427:61 0.000502801
38 *322:30 *427:20 0.000192975
39 *336:112 *427:20 0.000257656
40 *340:38 *427:20 1.39737e-05
41 *346:18 *1252:A1 3.43988e-06
42 *404:10 *1252:A1 5.01876e-06
43 *404:101 *427:61 3.72551e-05
44 *408:83 *427:20 0
45 *423:18 *427:20 2.24988e-05
*RES
1 *1468:X *427:20 26.4429 
2 *427:20 *1252:A1 35.6393 
3 *427:20 *427:61 45.8214 
4 *427:61 *1261:A0 9.3 
*END

*D_NET *428 0.012359
*CONN
*I *1262:A0 I *D sky130_fd_sc_hd__mux4_1
*I *1251:A1 I *D sky130_fd_sc_hd__mux4_1
*I *1470:X O *D sky130_fd_sc_hd__buf_1
*CAP
1 *1262:A0 0
2 *1251:A1 0.000401179
3 *1470:X 0.000144916
4 *428:22 0.000440841
5 *428:18 0.0013386
6 *428:12 0.00144386
7 *1251:A1 *1277:D 0.000479074
8 *1251:A1 *1427:A 5.33005e-05
9 *1251:A1 *446:46 5.14767e-05
10 *1251:A1 *465:57 9.10896e-05
11 *428:18 *440:12 0.000117809
12 *428:18 *441:22 0.0027727
13 *428:18 *450:16 0.00072938
14 *428:18 *481:24 0.000971712
15 *428:22 *446:30 5.52302e-05
16 N4BEG[10] *428:18 0.000393083
17 N4BEG[11] *428:18 0.000280898
18 NN4BEG[14] *428:18 0.000522845
19 *1248:B *428:22 7.48091e-05
20 *1291:D *1251:A1 1.24368e-05
21 *1314:D *1251:A1 5.41797e-06
22 *1355:A *1251:A1 5.52302e-05
23 *1470:A *428:12 2.27416e-05
24 *1473:A *428:12 0.000179219
25 *1556:A *428:22 2.95726e-05
26 *1588:A *428:18 0.00026353
27 *283:12 *1251:A1 7.49166e-06
28 *295:30 *428:12 0.000180737
29 *334:16 *1251:A1 0.000426281
30 *339:16 *428:18 0.000134522
31 *400:10 *1251:A1 2.07441e-05
32 *406:12 *428:18 2.05612e-05
33 *408:18 *428:18 3.97677e-05
34 *411:30 *1251:A1 0.000256058
35 *425:14 *428:18 0.00034188
*RES
1 *1470:X *428:12 21.3893 
2 *428:12 *428:18 45.5 
3 *428:18 *428:22 5.85714 
4 *428:22 *1251:A1 28.9786 
5 *428:22 *1262:A0 9.3 
*END

*D_NET *429 0.00868291
*CONN
*I *1258:A1 I *D sky130_fd_sc_hd__mux4_2
*I *1263:A0 I *D sky130_fd_sc_hd__mux4_1
*I *1471:X O *D sky130_fd_sc_hd__buf_1
*CAP
1 *1258:A1 0.000936877
2 *1263:A0 0
3 *1471:X 0.000985811
4 *429:22 0.00192269
5 *1258:A1 *1254:A3 0.000609507
6 *1258:A1 *1258:A0 5.52302e-05
7 *1258:A1 *1258:A3 2.70725e-06
8 *1258:A1 *451:16 0
9 *1258:A1 *474:18 4.21525e-05
10 *429:22 *1265:A2 0
11 *429:22 *1338:A 2.90527e-05
12 *429:22 *446:14 0.000179125
13 *429:22 *450:12 5.49489e-05
14 *429:22 *454:96 0.000560221
15 *429:22 *456:32 6.52495e-05
16 *429:22 *460:34 0.000181517
17 *429:22 *460:76 5.52238e-05
18 *429:22 *466:24 0.000101954
19 *429:22 *474:18 0.000295431
20 *1269:S0 *429:22 5.99596e-05
21 *1337:A *1258:A1 6.87839e-06
22 *1398:A *429:22 7.50314e-05
23 *1472:A *429:22 5.52302e-05
24 *1487:A *429:22 5.52238e-05
25 *1489:A *429:22 0.000477479
26 *1492:A *429:22 0.000135028
27 *67:79 *429:22 0.000171945
28 *159:19 *429:22 5.05056e-05
29 *258:18 *1258:A1 8.86413e-05
30 *261:30 *1258:A1 2.30116e-06
31 *270:24 *1258:A1 1.90907e-05
32 *274:32 *1258:A1 1.01912e-05
33 *282:24 *429:22 1.57981e-05
34 *297:48 *1258:A1 6.56715e-05
35 *306:20 *1258:A1 0.000181474
36 *307:16 *1258:A1 4.53902e-05
37 *365:22 *429:22 9.44617e-05
38 *368:26 *429:22 5.05056e-05
39 *374:12 *1258:A1 0.000141032
40 *374:12 *429:22 1.76569e-05
41 *404:92 *1258:A1 7.4102e-05
42 *414:26 *1258:A1 0.000704701
43 *421:20 *1258:A1 6.91215e-06
*RES
1 *1471:X *429:22 46.3357 
2 *429:22 *1263:A0 13.8 
3 *429:22 *1258:A1 34.3 
*END

*D_NET *430 0.00965065
*CONN
*I *1264:A0 I *D sky130_fd_sc_hd__mux4_1
*I *1257:A1 I *D sky130_fd_sc_hd__mux4_1
*I *1472:X O *D sky130_fd_sc_hd__buf_1
*CAP
1 *1264:A0 0
2 *1257:A1 0.000657187
3 *1472:X 0.00187934
4 *430:28 0.000896101
5 *430:20 0.00211825
6 *1257:A1 *1257:A0 5.65955e-05
7 *1257:A1 *1260:A1 0.000335082
8 *1257:A1 *444:64 9.86512e-05
9 *1257:A1 *448:52 4.6025e-06
10 *430:20 *434:24 1.3493e-05
11 *430:20 *436:34 0.000130812
12 *430:20 *456:44 0.000102618
13 *430:20 *459:24 0.000464893
14 *430:20 *463:40 9.56446e-06
15 *430:28 *435:18 0
16 *430:28 *463:40 0.000122887
17 NN4BEG[15] *430:20 8.1808e-05
18 *1253:A0 *1257:A1 1.41885e-05
19 *1465:A *430:20 1.26641e-05
20 *1484:A *430:20 0.000185445
21 *1581:A *430:20 2.66169e-05
22 *1593:A *1257:A1 0.000498732
23 *246:26 *1257:A1 0.00017754
24 *246:26 *430:28 5.96516e-05
25 *325:40 *1257:A1 9.66977e-05
26 *347:46 *430:20 2.10582e-05
27 *358:40 *1257:A1 9.61502e-05
28 *360:28 *1257:A1 2.8577e-05
29 *368:26 *430:20 2.5206e-05
30 *375:16 *430:20 0
31 *376:28 *430:20 0.000178306
32 *377:28 *430:20 0.000118986
33 *382:32 *1257:A1 5.09923e-05
34 *382:32 *430:28 6.57032e-05
35 *385:24 *1257:A1 0
36 *403:86 *1257:A1 2.10644e-05
37 *423:18 *430:20 0.00100118
*RES
1 *1472:X *430:20 49.1929 
2 *430:20 *430:28 8.44643 
3 *430:28 *1257:A1 41.4786 
4 *430:28 *1264:A0 9.3 
*END

*D_NET *431 0.0105924
*CONN
*I *1265:A0 I *D sky130_fd_sc_hd__mux4_1
*I *1256:A1 I *D sky130_fd_sc_hd__mux4_1
*I *1473:X O *D sky130_fd_sc_hd__buf_1
*CAP
1 *1265:A0 0.00106209
2 *1256:A1 0.0012789
3 *1473:X 0.000306065
4 *431:10 0.00264705
5 *1256:A1 *1416:A 0.00011266
6 *1256:A1 *436:60 1.94879e-05
7 *1256:A1 *444:34 0.000322737
8 *1256:A1 *460:34 2.69989e-05
9 *1256:A1 *484:40 0.000416745
10 *1256:A1 *486:28 3.23958e-05
11 *1265:A0 *1265:A2 8.10244e-05
12 *1265:A0 *467:38 9.6714e-05
13 *1265:A0 *467:65 0
14 *431:10 *436:34 0.00022963
15 *431:10 *444:34 0.000102859
16 *431:10 *485:34 0.000117956
17 *1256:S1 *1256:A1 0.000112835
18 *1269:S0 *1265:A0 1.92535e-05
19 *1285:D *1256:A1 4.43299e-05
20 *1286:D *1256:A1 0.000362273
21 *1337:A *1265:A0 1.98839e-05
22 *1348:A *1256:A1 3.45537e-05
23 *1350:A *1256:A1 8.19176e-05
24 *1403:A *1265:A0 0.000308595
25 *1404:A *1265:A0 0.000219711
26 *265:18 *1265:A0 0.000722721
27 *276:64 *1265:A0 2.32275e-05
28 *279:14 *1256:A1 0.000125917
29 *279:14 *1265:A0 0.000184246
30 *282:24 *1265:A0 3.04311e-05
31 *295:30 *1256:A1 7.57819e-06
32 *299:26 *1256:A1 4.75956e-06
33 *299:26 *431:10 6.79672e-06
34 *308:26 *1256:A1 0.000469024
35 *336:112 *1256:A1 0.000244976
36 *343:28 *1265:A0 9.58181e-05
37 *343:28 *431:10 6.09762e-05
38 *368:26 *1265:A0 0.000112971
39 *401:16 *1256:A1 5.68097e-05
40 *401:59 *1256:A1 4.53096e-05
41 *401:74 *1256:A1 6.08808e-05
42 *408:83 *1256:A1 0.000102859
43 *420:14 *1256:A1 0.000180387
*RES
1 *1473:X *431:10 18.7018 
2 *431:10 *1256:A1 43.771 
3 *431:10 *1265:A0 33.2821 
*END

*D_NET *432 0.0302687
*CONN
*I *1338:A I *D sky130_fd_sc_hd__buf_1
*I *1306:D I *D sky130_fd_sc_hd__dlxtp_1
*I *1480:X O *D sky130_fd_sc_hd__buf_1
*CAP
1 *1338:A 0.000545375
2 *1306:D 0.000672833
3 *1480:X 0.00383404
4 *432:40 0.00298104
5 *432:26 0.00559687
6 *1306:D *1273:A0 0.000454138
7 *1306:D *1418:A 0.000724071
8 *1306:D *447:47 1.92789e-05
9 *1306:D *467:38 0.000146858
10 *1306:D *474:22 2.59355e-05
11 *1306:D *477:26 0.000177644
12 *1338:A *1258:A0 0.000787189
13 *1338:A *445:24 5.33005e-05
14 *1338:A *474:18 2.06178e-05
15 *1338:A *478:32 9.23226e-05
16 *1338:A *480:20 8.94491e-05
17 *432:26 *1266:A0 0.00192377
18 *432:26 *1272:A3 0.000120911
19 *432:26 *1407:A 6.00347e-05
20 *432:26 *444:64 0.000137115
21 *432:26 *456:82 4.69809e-05
22 *432:26 *459:83 0.000371389
23 *432:40 *1258:A0 0.00016499
24 *432:40 *1418:A 0.000169648
25 *432:40 *477:26 0.00144647
26 *1253:A0 *432:26 6.09762e-05
27 *1263:S0 *1306:D 0.000384796
28 *1265:S0 *1306:D 0.000139204
29 *1316:D *432:40 0.000314894
30 *1328:A *432:26 0.000188819
31 *1332:A *432:26 5.73499e-05
32 *1357:A *432:26 0.0002999
33 *1398:A *1338:A 6.52495e-05
34 *1435:A *1338:A 5.33005e-05
35 *1458:A *432:26 0
36 *1510:A *432:26 0
37 *262:28 *432:40 0.0007709
38 *346:18 *432:40 0.00111914
39 *352:36 *432:26 0.00227086
40 *358:55 *432:40 0.00124509
41 *371:28 *1338:A 0.000266542
42 *371:28 *432:40 2.49398e-05
43 *375:16 *432:40 0.0001678
44 *400:22 *432:26 9.55016e-05
45 *400:53 *432:26 0.000132599
46 *410:8 *432:26 0.000170751
47 *417:24 *432:26 0.00173729
48 *418:22 *432:26 7.32866e-06
49 *421:10 *432:26 4.1331e-06
50 *429:22 *1338:A 2.90527e-05
*RES
1 *1480:X *432:26 48.2241 
2 *432:26 *432:40 14.5563 
3 *432:40 *1306:D 28.74 
4 *432:40 *1338:A 23.9463 
*END

*D_NET *433 0.0205441
*CONN
*I *1255:A1 I *D sky130_fd_sc_hd__mux4_1
*I *1266:A0 I *D sky130_fd_sc_hd__mux4_1
*I *1474:X O *D sky130_fd_sc_hd__buf_1
*CAP
1 *1255:A1 0.000170415
2 *1266:A0 0.00230553
3 *1474:X 0.00242758
4 *433:34 0.00490353
5 *1266:A0 *1276:D 0.000111123
6 *433:34 *1276:D 0.000345118
7 *433:34 *436:34 0.000181513
8 *433:34 *448:34 0.000201965
9 *433:34 *448:52 0.000224439
10 *433:34 *454:45 0.000215967
11 *433:34 *456:66 0.000174311
12 *433:34 *465:57 0.000510235
13 *433:34 *477:26 3.87263e-06
14 *433:34 *478:32 0.000376597
15 *433:34 *480:20 0.000210879
16 *433:34 *484:40 6.1357e-05
17 *433:34 *485:34 1.74352e-05
18 *1250:A2 *1266:A0 0.000109469
19 *1250:A2 *433:34 0.00080038
20 *1343:A *433:34 0.000132304
21 *159:19 *433:34 2.06178e-05
22 *295:30 *433:34 0.000141446
23 *303:80 *433:34 0.000760159
24 *325:30 *433:34 6.14647e-05
25 *336:57 *433:34 0.00115274
26 *337:12 *1266:A0 0.000224781
27 *340:38 *433:34 0.000379177
28 *347:38 *433:34 0.000207728
29 *358:20 *433:34 0.000290724
30 *360:28 *433:34 1.02433e-05
31 *368:26 *433:34 0.000115582
32 *400:22 *1266:A0 0.000699746
33 *408:24 *433:34 0.000135037
34 *413:26 *1255:A1 5.381e-05
35 *417:24 *1266:A0 0.000226717
36 *418:22 *1266:A0 0.000516892
37 *420:14 *433:34 0.00013943
38 *432:26 *1266:A0 0.00192377
*RES
1 *1474:X *433:34 47.8567 
2 *433:34 *1266:A0 31.0232 
3 *433:34 *1255:A1 16.4071 
*END

*D_NET *434 0.0228322
*CONN
*I *1267:A0 I *D sky130_fd_sc_hd__mux4_1
*I *1258:A0 I *D sky130_fd_sc_hd__mux4_2
*I *1475:X O *D sky130_fd_sc_hd__buf_1
*CAP
1 *1267:A0 0.00157203
2 *1258:A0 0.00133052
3 *1475:X 0.00180006
4 *434:24 0.00470261
5 *1258:A0 *442:30 0
6 *1258:A0 *457:26 7.08895e-05
7 *1267:A0 *1259:A3 1.87955e-05
8 *1267:A0 *442:90 0.000106293
9 *1267:A0 *456:32 0.00161201
10 *1267:A0 *479:36 5.82094e-05
11 *1267:A0 *480:20 0.00112139
12 *1267:A0 *485:34 0.00143266
13 *434:24 *438:32 0.00182697
14 *434:24 *448:34 0.00153873
15 *434:24 *454:96 3.66623e-05
16 *434:24 *456:32 9.23226e-05
17 *434:24 *458:26 2.41871e-05
18 *434:24 *485:34 0.000606135
19 FrameStrobe_O[17] *1267:A0 2.33059e-05
20 *1258:A1 *1258:A0 5.52302e-05
21 *1263:S0 *1258:A0 0.000135114
22 *1285:D *434:24 0.000556343
23 *1338:A *1258:A0 0.000787189
24 *1347:A *434:24 9.47001e-05
25 *1349:A *434:24 2.06112e-05
26 *1514:A *1267:A0 0.00087129
27 *1622:A *1267:A0 0.000235989
28 *1622:A *434:24 0.000607112
29 *258:18 *1258:A0 5.33005e-05
30 *262:28 *1258:A0 0.000589987
31 *314:36 *1258:A0 5.00194e-05
32 *315:14 *1267:A0 0
33 *316:18 *1267:A0 4.91697e-05
34 *318:16 *1267:A0 2.92517e-05
35 *329:28 *1267:A0 0.000270976
36 *347:46 *434:24 8.6229e-06
37 *359:22 *1258:A0 8.19176e-05
38 *369:41 *434:24 6.67536e-05
39 *371:28 *1258:A0 1.51605e-05
40 *375:16 *434:24 1.74236e-05
41 *414:26 *1258:A0 8.37661e-05
42 *430:20 *434:24 1.3493e-05
43 *432:40 *1258:A0 0.00016499
*RES
1 *1475:X *434:24 24.0394 
2 *434:24 *1258:A0 29.6119 
3 *434:24 *1267:A0 26.4837 
*END

*D_NET *435 0.00658418
*CONN
*I *1268:A0 I *D sky130_fd_sc_hd__mux4_1
*I *1257:A0 I *D sky130_fd_sc_hd__mux4_1
*I *1476:X O *D sky130_fd_sc_hd__buf_1
*CAP
1 *1268:A0 0.000653757
2 *1257:A0 0.000399366
3 *1476:X 0.000646077
4 *435:18 0.0016992
5 *1257:A0 *1419:A 4.02038e-05
6 *1268:A0 *1268:A3 1.74352e-05
7 *1268:A0 *1339:A 4.79513e-05
8 *1268:A0 *1418:A 0.000219711
9 *1268:A0 *444:42 9.58181e-05
10 *1268:A0 *444:64 0.00023948
11 *435:18 *1260:A2 0.000127162
12 *435:18 *1419:A 7.58103e-05
13 *1257:A1 *1257:A0 5.65955e-05
14 *1260:S1 *435:18 9.77159e-05
15 *1272:S0 *1257:A0 0.000395093
16 *1280:D *1257:A0 3.69047e-06
17 *1280:D *1268:A0 5.23296e-05
18 *1284:GATE *1268:A0 0.000185935
19 *1355:A *1257:A0 5.85711e-05
20 *1357:A *435:18 0.000133425
21 *1395:A *1268:A0 0.000157329
22 *257:20 *1268:A0 6.81786e-05
23 *274:32 *1268:A0 9.13255e-05
24 *292:43 *435:18 7.06329e-06
25 *358:40 *1257:A0 0.000364534
26 *375:16 *435:18 0.000186237
27 *400:61 *435:18 4.26326e-05
28 *403:10 *435:18 0
29 *403:26 *435:18 1.7434e-05
30 *407:48 *435:18 0.000373895
31 *426:26 *435:18 3.02174e-05
32 *430:28 *435:18 0
*RES
1 *1476:X *435:18 31.8893 
2 *435:18 *1257:A0 17.3893 
3 *435:18 *1268:A0 29.9786 
*END

*D_NET *436 0.0186519
*CONN
*I *1269:A0 I *D sky130_fd_sc_hd__mux4_1
*I *1256:A0 I *D sky130_fd_sc_hd__mux4_1
*I *1477:X O *D sky130_fd_sc_hd__buf_1
*CAP
1 *1269:A0 0.00103692
2 *1256:A0 2.04426e-05
3 *1477:X 0.0013014
4 *436:60 0.0015186
5 *436:42 0.00284144
6 *436:34 0.00160776
7 *1269:A0 *1263:A2 0.000403147
8 *1269:A0 *1263:A3 0.000136887
9 *1269:A0 *1416:A 0.000624737
10 *1269:A0 *462:50 4.6638e-06
11 *1269:A0 *464:10 8.6229e-06
12 *1269:A0 *464:26 0.000118573
13 *1269:A0 *468:20 0.000207484
14 *436:34 *438:32 0.000251454
15 *436:34 *448:34 9.59532e-06
16 *436:34 *458:26 0.000589642
17 *436:34 *459:24 0.000846859
18 *436:34 *461:28 9.8813e-05
19 *436:34 *485:34 7.61903e-05
20 *436:42 *444:34 0
21 *436:42 *460:34 0.000104754
22 *436:60 *444:34 2.22043e-05
23 *436:60 *447:10 0
24 *436:60 *468:20 0.000271904
25 *1254:A0 *436:60 0.000373793
26 *1256:A1 *436:60 1.94879e-05
27 *1285:D *436:34 0.000160526
28 *1289:GATE *436:60 0
29 *1302:D *436:60 0
30 *1320:D *436:60 1.56445e-05
31 *1326:A *436:60 2.06112e-05
32 *1347:A *436:34 0.000455455
33 *1400:A *1269:A0 0.000120227
34 *1431:A *436:60 9.59532e-06
35 *1474:A *436:34 1.77511e-05
36 *1476:A *436:34 9.25014e-06
37 *1477:A *436:34 9.60875e-05
38 *1486:A *436:42 4.36402e-05
39 *233:24 *1256:A0 2.59355e-05
40 *233:24 *436:60 0
41 *262:28 *436:60 0
42 *265:18 *436:60 0
43 *279:14 *436:60 5.71969e-05
44 *294:32 *436:60 1.15426e-05
45 *303:51 *436:34 1.90936e-05
46 *306:20 *436:60 0.000105125
47 *309:26 *436:60 3.074e-05
48 *309:30 *436:60 0.000715284
49 *314:36 *436:60 0.000619984
50 *340:38 *436:34 0.000170052
51 *347:64 *436:60 0.000616143
52 *368:26 *436:34 0.00044377
53 *368:26 *436:42 0.000165651
54 *374:20 *1269:A0 0.000842123
55 *374:20 *436:60 0.000270257
56 *378:38 *436:34 0.00035113
57 *395:12 *436:60 0
58 *401:28 *1256:A0 5.33005e-05
59 *419:22 *436:60 0.000168427
60 *430:20 *436:34 0.000130812
61 *431:10 *436:34 0.00022963
62 *433:34 *436:34 0.000181513
*RES
1 *1477:X *436:34 49.6156 
2 *436:34 *436:42 9.64286 
3 *436:42 *436:60 45.9464 
4 *436:60 *1256:A0 14.3357 
5 *436:42 *1269:A0 37.8714 
*END

*D_NET *437 0.0126252
*CONN
*I *1270:A0 I *D sky130_fd_sc_hd__mux4_1
*I *1255:A0 I *D sky130_fd_sc_hd__mux4_1
*I *1478:X O *D sky130_fd_sc_hd__buf_1
*CAP
1 *1270:A0 0.00132611
2 *1255:A0 0.000348721
3 *1478:X 0.00129574
4 *437:28 0.00297057
5 *1270:A0 *1270:A1 0.000181796
6 *1270:A0 *1274:A2 1.14548e-05
7 *437:28 *450:26 6.94527e-05
8 *437:28 *456:54 3.43622e-05
9 *437:28 *458:26 6.41086e-06
10 N4BEG[15] *437:28 2.30116e-06
11 NN4BEG[0] *437:28 2.04825e-05
12 NN4BEG[10] *437:28 0.000143375
13 NN4BEG[11] *437:28 0
14 NN4BEG[13] *437:28 9.60875e-05
15 NN4BEG[1] *437:28 0.000195178
16 NN4BEG[8] *437:28 5.20298e-05
17 NN4BEG[9] *437:28 1.33343e-05
18 *1250:A2 *437:28 0.0001207
19 *1251:S0 *1270:A0 0.000305039
20 *1262:S0 *1255:A0 1.02504e-05
21 *1262:S0 *437:28 0.000181212
22 *1321:D *1270:A0 1.24368e-05
23 *1321:GATE *1270:A0 0
24 *1383:A *1255:A0 0.000658749
25 *1383:A *1270:A0 0.000428486
26 *1383:A *437:28 4.56437e-05
27 *1430:A *1270:A0 0.000337511
28 *1464:A *437:28 0.000223885
29 *1579:A *437:28 3.45371e-05
30 *1581:A *437:28 0.000165048
31 *1585:A *1255:A0 0.00030092
32 *1592:A *437:28 0.000476417
33 *1593:A *437:28 9.22015e-05
34 *263:30 *1270:A0 0.000190308
35 *273:12 *1270:A0 0.000724798
36 *336:20 *1270:A0 0.000170932
37 *336:57 *1270:A0 5.74499e-06
38 *338:30 *1270:A0 4.02038e-05
39 *369:16 *437:28 0.000407298
40 *369:41 *437:28 0.000311496
41 *378:38 *437:28 0.000312731
42 *385:24 *437:28 6.35864e-05
43 *386:30 *437:28 0.000109499
44 *400:10 *1270:A0 7.31843e-05
45 *408:24 *437:28 0
46 *423:18 *437:28 5.49489e-05
*RES
1 *1478:X *437:28 42.2301 
2 *437:28 *1255:A0 22.7286 
3 *437:28 *1270:A0 39.5857 
*END

*D_NET *438 0.017897
*CONN
*I *1271:A0 I *D sky130_fd_sc_hd__mux4_1
*I *1479:X O *D sky130_fd_sc_hd__buf_1
*CAP
1 *1271:A0 0
2 *1479:X 0.00428579
3 *438:32 0.00428579
4 *438:32 *1271:A1 9.58181e-05
5 *438:32 *439:16 4.6025e-06
6 *438:32 *458:26 0.000864305
7 *438:32 *466:24 0.0011263
8 *438:32 *470:22 0
9 *438:32 *471:26 1.09611e-05
10 *438:32 *481:24 2.95076e-06
11 FrameStrobe_O[7] *438:32 6.14836e-06
12 *1347:A *438:32 0.000469348
13 *1359:A *438:32 4.04359e-05
14 *1369:A *438:32 0
15 *1477:A *438:32 2.21972e-05
16 *1622:A *438:32 0.0027793
17 *71:29 *438:32 5.33005e-05
18 *262:28 *438:32 5.29004e-05
19 *329:28 *438:32 0.00158542
20 *343:28 *438:32 0.000123297
21 *389:12 *438:32 9.76435e-06
22 *434:24 *438:32 0.00182697
23 *436:34 *438:32 0.000251454
*RES
1 *1479:X *438:32 46.5249 
2 *438:32 *1271:A0 9.3 
*END

*D_NET *439 0.0064976
*CONN
*I *1272:A0 I *D sky130_fd_sc_hd__mux4_1
*I *1481:X O *D sky130_fd_sc_hd__clkbuf_1
*CAP
1 *1272:A0 3.2863e-05
2 *1481:X 0.00178327
3 *439:16 0.00181613
4 *1272:A0 *1272:A1 6.52971e-06
5 *1272:A0 *463:58 1.97743e-05
6 *439:16 *1418:A 9.88049e-05
7 *439:16 *454:96 2.61076e-05
8 *439:16 *459:83 0.000171451
9 *439:16 *475:36 6.49721e-05
10 *439:16 *477:26 0.000243056
11 *439:16 *481:24 9.54301e-05
12 *439:16 *483:36 2.50022e-05
13 *1253:S0 *1272:A0 8.49085e-06
14 *1288:GATE *439:16 2.43447e-05
15 *1327:A *439:16 2.30786e-05
16 *1358:A *439:16 0.000151753
17 *1477:A *439:16 1.77227e-05
18 *263:20 *439:16 0.000433276
19 *274:32 *439:16 0.000266311
20 *300:10 *439:16 4.58328e-05
21 *336:57 *439:16 0.000221165
22 *397:10 *439:16 8.6229e-06
23 *400:53 *1272:A0 9.60337e-06
24 *400:117 *439:16 3.47717e-05
25 *406:26 *439:16 7.98428e-06
26 *409:45 *439:16 0.000856652
27 *438:32 *439:16 4.6025e-06
*RES
1 *1481:X *439:16 49.2107 
2 *439:16 *1272:A0 19.0321 
*END

*D_NET *440 0.0124344
*CONN
*I *1273:A0 I *D sky130_fd_sc_hd__mux4_1
*I *1482:X O *D sky130_fd_sc_hd__clkbuf_1
*CAP
1 *1273:A0 0.00113025
2 *1482:X 0.000983848
3 *440:12 0.0021141
4 *1273:A0 *1271:A1 0.000148342
5 *1273:A0 *453:18 5.25862e-06
6 *1273:A0 *462:14 0.00032612
7 *1273:A0 *462:18 7.14469e-05
8 *1273:A0 *467:38 0.000123943
9 *440:12 *441:22 9.41642e-05
10 *440:12 *456:44 0.00216478
11 *440:12 *463:18 0.000382351
12 *440:12 *463:38 8.6229e-06
13 *1265:S0 *1273:A0 9.00272e-05
14 *1306:D *1273:A0 0.000454138
15 *1329:A *1273:A0 0.000510132
16 *1399:A *1273:A0 0.000379736
17 *1481:A *440:12 8.12568e-05
18 *1482:A *440:12 0.000138854
19 *223:16 *1273:A0 2.67601e-05
20 *276:24 *1273:A0 3.69047e-06
21 *362:24 *1273:A0 0.000122208
22 *363:20 *1273:A0 0.000339371
23 *425:14 *440:12 0.00162764
24 *425:45 *440:12 0.000989595
25 *428:18 *440:12 0.000117809
*RES
1 *1482:X *440:12 49.5321 
2 *440:12 *1273:A0 43.9071 
*END

*D_NET *441 0.00954003
*CONN
*I *1274:A0 I *D sky130_fd_sc_hd__mux4_1
*I *1483:X O *D sky130_fd_sc_hd__clkbuf_1
*CAP
1 *1274:A0 0
2 *1483:X 0.000149105
3 *441:22 0.00153651
4 *441:12 0.00168562
5 *441:22 *453:38 2.80481e-05
6 *441:22 *453:42 5.40783e-05
7 *441:22 *456:44 1.51489e-05
8 *441:22 *456:54 6.72135e-05
9 *441:22 *463:38 0.00101972
10 N4BEG[6] *441:22 0.000361221
11 N4BEG[7] *441:22 0.00016634
12 N4BEG[8] *441:22 2.86374e-05
13 *1262:S0 *441:22 0.000150623
14 *1482:A *441:12 0.000161264
15 *1483:A *441:12 0.000155212
16 *1544:A *441:22 0.000257619
17 *1564:A *441:22 1.95035e-05
18 *1579:A *441:22 0.000150409
19 *1588:A *441:22 0.000163629
20 *248:18 *441:22 0.00025348
21 *335:14 *441:22 9.87936e-06
22 *339:16 *441:22 4.85033e-05
23 *355:14 *441:22 9.43887e-05
24 *423:18 *441:22 8.48807e-05
25 *426:26 *441:12 1.21258e-05
26 *428:18 *441:22 0.0027727
27 *440:12 *441:22 9.41642e-05
*RES
1 *1483:X *441:12 21.0857 
2 *441:12 *441:22 46.125 
3 *441:22 *1274:A0 13.8 
*END

*D_NET *442 0.0192685
*CONN
*I *1259:A1 I *D sky130_fd_sc_hd__mux4_1
*I *1267:A1 I *D sky130_fd_sc_hd__mux4_1
*I *1412:A I *D sky130_fd_sc_hd__buf_1
*I *1258:A2 I *D sky130_fd_sc_hd__mux4_2
*I *1484:X O *D sky130_fd_sc_hd__buf_1
*CAP
1 *1259:A1 3.09244e-05
2 *1267:A1 0
3 *1412:A 0
4 *1258:A2 0.000610069
5 *1484:X 0.000799048
6 *442:90 0.000894546
7 *442:57 0.00207233
8 *442:30 0.00309689
9 *442:28 0.00207716
10 *1258:A2 *457:26 0.000547797
11 *442:28 *445:24 9.77264e-06
12 *442:28 *448:34 0.000308602
13 *442:28 *450:16 0.000178847
14 *442:28 *454:96 6.44241e-05
15 *442:28 *461:28 2.18985e-05
16 *442:28 *470:22 0.000131756
17 *442:28 *481:26 0.00097618
18 *442:30 *455:65 0.000352377
19 *442:30 *457:26 0.000524542
20 *442:57 *1258:A3 6.14836e-06
21 *442:57 *477:26 0.00236298
22 *442:90 *1259:A3 0.000258284
23 *442:90 *1408:A 0.000426684
24 *442:90 *485:34 0.000118028
25 *1258:A0 *442:30 0
26 *1258:S1 *1258:A2 6.24939e-05
27 *1259:S1 *442:90 7.37829e-05
28 *1267:A0 *442:90 0.000106293
29 *1267:S0 *442:90 5.44304e-05
30 *1302:D *442:57 0.000598989
31 *1316:D *442:57 0.000112732
32 *1392:A *1259:A1 1.98839e-05
33 *1392:A *442:90 6.26516e-05
34 *1485:A *442:28 0
35 *1488:A *442:28 0.000181211
36 *1492:A *442:28 0.000245258
37 *1501:A *442:28 4.43126e-05
38 *1503:A *442:28 4.21517e-05
39 *1622:A *442:28 5.13697e-05
40 *223:16 *1258:A2 2.64807e-05
41 *262:28 *1258:A2 8.94556e-05
42 *270:24 *442:57 0.000163191
43 *294:34 *442:28 0.000371582
44 *311:14 *442:57 0.00020579
45 *312:14 *442:57 0.000204136
46 *314:36 *1258:A2 9.34324e-05
47 *316:18 *442:90 5.21733e-05
48 *361:12 *442:90 3.69047e-06
49 *363:20 *442:28 0.000265982
50 *368:26 *442:28 0.000267738
51 *371:28 *442:30 0
*RES
1 *1484:X *442:28 49.4652 
2 *442:28 *442:30 3.34953 
3 *442:30 *1258:A2 23.091 
4 *442:30 *442:57 17.9279 
5 *442:57 *1412:A 9.3 
6 *442:57 *442:90 40.3326 
7 *442:90 *1267:A1 9.3 
8 *442:90 *1259:A1 9.83571 
*END

*D_NET *443 0.0336981
*CONN
*I *1275:D I *D sky130_fd_sc_hd__dlxtp_1
*I *1339:A I *D sky130_fd_sc_hd__buf_1
*I *1307:D I *D sky130_fd_sc_hd__dlxtp_1
*I *1491:X O *D sky130_fd_sc_hd__dlymetal6s2s_1
*CAP
1 *1275:D 2.41917e-05
2 *1339:A 0.000960352
3 *1307:D 0.00110995
4 *1491:X 0.00138972
5 *443:40 0.00231348
6 *443:34 0.00287427
7 *443:16 0.00141989
8 *443:10 0.00207503
9 *1307:D *1263:A2 0.000258175
10 *1307:D *447:47 0.000124622
11 *1339:A *1425:A 2.21972e-05
12 *1339:A *444:64 6.87975e-06
13 *1339:A *461:53 0.000122487
14 *1339:A *483:36 0.000116971
15 *443:10 *446:62 0.000608949
16 *443:16 *1407:A 0.000896677
17 *443:16 *1415:A 0.000265166
18 *443:34 *1276:D 0.00021877
19 *443:34 *1603:A 8.44271e-06
20 *1250:A2 *443:34 0.000368007
21 *1258:S0 *1307:D 0.000201238
22 *1266:S0 *443:10 0.000553245
23 *1268:A0 *1339:A 4.79513e-05
24 *1284:GATE *1339:A 0.000185935
25 *1288:GATE *1339:A 9.11806e-06
26 *1298:D *1307:D 0.000308087
27 *1301:GATE *1307:D 0.000150953
28 *1308:GATE *1307:D 0.000137983
29 *1345:A *1339:A 2.80052e-05
30 *1363:A *1307:D 0.000776828
31 *1368:A *1307:D 0
32 *1395:A *1339:A 0.000690206
33 *1585:A *443:34 0
34 *67:11 *443:34 0.000247471
35 *68:15 *443:40 0.000412317
36 *80:7 *443:40 0
37 *82:23 *1307:D 4.98887e-05
38 *83:11 *443:40 0
39 *84:13 *443:40 0.00058068
40 *231:22 *1339:A 5.33433e-05
41 *255:26 *443:16 9.22103e-06
42 *291:22 *443:34 0.00017863
43 *297:48 *1307:D 0.000473753
44 *300:10 *443:40 0
45 *300:12 *443:40 0.0037485
46 *302:24 *443:40 0.000254013
47 *304:18 *1307:D 6.40194e-05
48 *304:28 *1307:D 5.91336e-05
49 *344:30 *443:34 5.05056e-05
50 *346:18 *443:10 0
51 *347:64 *1339:A 5.95269e-05
52 *347:64 *443:34 9.90367e-05
53 *351:16 *1307:D 0.00020485
54 *364:12 *443:34 0.0016775
55 *373:20 *443:10 0.000322749
56 *375:16 *1339:A 0.00142627
57 *381:16 *443:10 0
58 *382:32 *1339:A 9.90431e-05
59 *387:32 *443:16 0.000218818
60 *393:16 *443:40 0
61 *395:14 *443:40 0
62 *396:16 *443:34 0.000118986
63 *397:10 *1339:A 0
64 *397:10 *443:40 0
65 *402:71 *1275:D 1.58163e-05
66 *402:71 *443:16 0.00013595
67 *404:128 *1307:D 9.83991e-05
68 *412:18 *443:10 0.00111225
69 *412:60 *443:16 0.000175892
70 *412:60 *443:34 0
71 *413:14 *443:16 0.000228791
72 *415:14 *443:34 0.00157329
73 *416:34 *1275:D 1.98839e-05
74 *416:34 *443:16 0.00114638
75 *419:14 *443:40 0.000313926
76 *421:12 *443:40 0.000195455
*RES
1 *1491:X *443:10 45.8179 
2 *443:10 *443:16 24.3571 
3 *443:16 *443:34 39.8036 
4 *443:34 *443:40 47.9107 
5 *443:40 *1307:D 45.8893 
6 *443:34 *1339:A 37.3357 
7 *443:16 *1275:D 9.83571 
*END

*D_NET *444 0.0155601
*CONN
*I *1268:A1 I *D sky130_fd_sc_hd__mux4_1
*I *1411:A I *D sky130_fd_sc_hd__clkbuf_1
*I *1260:A1 I *D sky130_fd_sc_hd__mux4_1
*I *1257:A2 I *D sky130_fd_sc_hd__mux4_1
*I *1485:X O *D sky130_fd_sc_hd__clkbuf_1
*CAP
1 *1268:A1 0
2 *1411:A 0
3 *1260:A1 0.000270927
4 *1257:A2 0.000248813
5 *1485:X 0.00197273
6 *444:66 0.00054644
7 *444:64 0.00125339
8 *444:42 0.00135901
9 *444:34 0.00210504
10 *1257:A2 *1427:A 2.49963e-05
11 *444:34 *1252:A2 6.29324e-05
12 *444:34 *1252:A3 4.58194e-05
13 *444:34 *471:26 3.89689e-05
14 *444:34 *482:32 0.000604349
15 *444:34 *483:36 9.32498e-05
16 *444:34 *486:28 0.00021924
17 *444:42 *1268:A3 9.48205e-05
18 *444:64 *1422:A 0.000408906
19 *444:64 *459:55 8.94556e-05
20 *444:64 *459:83 5.76026e-05
21 *444:64 *463:56 8.94491e-05
22 Co *1260:A1 2.59355e-05
23 *1252:A0 *444:34 0.00116335
24 *1252:A1 *444:34 2.67407e-05
25 *1253:A0 *444:64 0.000263795
26 *1253:S0 *444:64 0
27 *1256:A1 *444:34 0.000322737
28 *1256:S1 *444:34 1.90936e-05
29 *1257:A1 *1260:A1 0.000335082
30 *1257:A1 *444:64 9.86512e-05
31 *1260:A0 *1260:A1 1.97695e-05
32 *1268:A0 *444:42 9.58181e-05
33 *1268:A0 *444:64 0.00023948
34 *1272:S0 *444:64 0
35 *1286:D *444:34 3.69047e-06
36 *1299:D *1257:A2 0.000160456
37 *1313:GATE *1257:A2 0.000216755
38 *1332:A *444:64 5.67882e-05
39 *1339:A *444:64 6.87975e-06
40 *1486:A *444:34 2.06178e-05
41 *257:20 *444:34 1.27971e-05
42 *257:20 *444:42 2.55806e-05
43 *274:32 *444:64 0.000260422
44 *279:14 *444:34 1.95625e-05
45 *300:10 *444:42 0.000138634
46 *303:24 *1260:A1 8.23185e-05
47 *325:40 *1257:A2 0.000552905
48 *325:40 *444:66 8.2607e-05
49 *347:58 *444:64 8.94491e-05
50 *360:28 *1260:A1 2.03618e-05
51 *376:28 *444:64 2.71338e-05
52 *380:26 *1257:A2 0.000237683
53 *380:26 *444:66 9.41642e-05
54 *384:14 *1257:A2 0.000163628
55 *385:24 *1260:A1 0
56 *397:10 *444:42 0.000140159
57 *403:86 *1260:A1 5.16674e-05
58 *407:48 *444:34 0.000158433
59 *409:45 *444:34 9.33978e-07
60 *415:22 *444:64 0.000410703
61 *418:22 *444:64 2.87034e-05
62 *420:30 *444:34 2.68019e-05
63 *424:26 *1257:A2 1.14548e-05
64 *431:10 *444:34 0.000102859
65 *432:26 *444:64 0.000137115
66 *436:42 *444:34 0
67 *436:60 *444:34 2.22043e-05
*RES
1 *1485:X *444:34 49.9656 
2 *444:34 *444:42 12.7143 
3 *444:42 *444:64 28.8851 
4 *444:64 *444:66 0.946429 
5 *444:66 *1257:A2 26.2509 
6 *444:66 *1260:A1 23.9429 
7 *444:64 *1411:A 9.3 
8 *444:42 *1268:A1 9.3 
*END

*D_NET *445 0.0148382
*CONN
*I *1269:A1 I *D sky130_fd_sc_hd__mux4_1
*I *1261:A1 I *D sky130_fd_sc_hd__mux4_1
*I *1410:A I *D sky130_fd_sc_hd__buf_1
*I *1256:A2 I *D sky130_fd_sc_hd__mux4_1
*I *1486:X O *D sky130_fd_sc_hd__buf_1
*CAP
1 *1269:A1 0
2 *1261:A1 4.96863e-05
3 *1410:A 0
4 *1256:A2 6.09657e-05
5 *1486:X 0.00138441
6 *445:68 0.00191864
7 *445:42 0.00240376
8 *445:32 0.000959478
9 *445:24 0.00174811
10 *1256:A2 *1256:A3 6.7848e-05
11 *1256:A2 *472:32 0.00012465
12 *445:24 *1265:A2 8.97632e-06
13 *445:24 *448:34 1.34548e-05
14 *445:24 *451:64 6.68971e-06
15 *445:24 *453:18 0.000309266
16 *445:24 *464:10 0.000123133
17 *445:24 *468:20 2.39176e-06
18 *445:32 *464:10 2.37429e-05
19 *445:32 *464:26 0.000340652
20 *445:42 *447:47 0.000180501
21 *445:42 *474:22 6.86693e-05
22 *445:68 *1273:A2 0.000583362
23 *445:68 *1420:A 3.53502e-05
24 *445:68 *464:42 5.85347e-05
25 *1265:S1 *445:42 0.000511438
26 *1265:S1 *445:68 1.67506e-05
27 *1290:D *445:68 4.53295e-05
28 *1290:GATE *445:68 5.65955e-05
29 *1306:GATE *445:42 0.000161661
30 *1315:D *1261:A1 9.41642e-05
31 *1315:D *445:32 3.10885e-05
32 *1338:A *445:24 5.33005e-05
33 *1398:A *445:32 1.90936e-05
34 *1401:A *445:24 0.000180777
35 *1402:A *445:24 4.3825e-05
36 *1435:A *445:24 0.000238062
37 *1488:A *445:24 9.99853e-05
38 *1489:A *445:24 5.43317e-05
39 *67:13 *445:68 1.38247e-05
40 *67:38 *445:68 4.27466e-05
41 *257:20 *445:68 1.36681e-05
42 *258:18 *1256:A2 1.14548e-05
43 *261:30 *445:24 1.26099e-05
44 *269:22 *445:68 3.05035e-05
45 *270:24 *445:68 0.000261197
46 *279:14 *445:68 0.000590017
47 *359:22 *445:68 6.0851e-05
48 *362:24 *445:24 5.43441e-05
49 *362:24 *445:32 9.24893e-05
50 *364:10 *445:32 0.000311923
51 *368:26 *445:24 6.05161e-06
52 *399:26 *1256:A2 2.30169e-05
53 *401:28 *1256:A2 2.524e-05
54 *404:101 *445:42 6.05161e-06
55 *404:116 *1261:A1 1.98839e-05
56 *404:116 *445:42 0.000296606
57 *405:10 *445:24 1.59373e-05
58 *405:10 *445:42 0.000128357
59 *405:12 *445:42 0.000219773
60 *408:83 *445:68 0.000150899
61 *427:61 *1261:A1 6.12335e-05
62 *427:61 *445:42 0.000301075
63 *442:28 *445:24 9.77264e-06
*RES
1 *1486:X *445:24 34.4964 
2 *445:24 *445:32 12.875 
3 *445:32 *445:42 23.75 
4 *445:42 *445:68 49.625 
5 *445:68 *1256:A2 15.6795 
6 *445:42 *1410:A 9.3 
7 *445:32 *1261:A1 10.6571 
8 *445:24 *1269:A1 13.8 
*END

*D_NET *446 0.0259826
*CONN
*I *1255:A2 I *D sky130_fd_sc_hd__mux4_1
*I *1262:A1 I *D sky130_fd_sc_hd__mux4_1
*I *1270:A1 I *D sky130_fd_sc_hd__mux4_1
*I *1409:A I *D sky130_fd_sc_hd__clkbuf_1
*I *1487:X O *D sky130_fd_sc_hd__dlymetal6s2s_1
*CAP
1 *1255:A2 0.000569598
2 *1262:A1 0
3 *1270:A1 3.95848e-05
4 *1409:A 0
5 *1487:X 0.000364597
6 *446:62 0.00100914
7 *446:46 0.00207324
8 *446:30 0.00105646
9 *446:28 0.000685472
10 *446:24 0.00142237
11 *446:14 0.00170303
12 *1255:A2 *461:78 0.000183582
13 *446:14 *466:24 0.000464471
14 *446:24 *450:16 8.43535e-06
15 *446:24 *453:24 0.000151387
16 *446:24 *453:38 0.00219705
17 *446:24 *461:28 0.000971712
18 *446:24 *463:38 0.000846587
19 *446:46 *1274:A1 8.69554e-05
20 *446:46 *1274:A3 8.47991e-05
21 *446:46 *453:60 0.00086483
22 *446:46 *465:20 0.000802965
23 *446:46 *465:57 7.17259e-05
24 *446:62 *1270:A2 0.000383166
25 N4BEG[12] *446:24 0.000211763
26 N4BEG[14] *446:24 0.00018208
27 *1248:B *446:28 3.14163e-05
28 *1248:B *446:30 1.39726e-05
29 *1249:A *446:62 0
30 *1251:A1 *446:46 5.14767e-05
31 *1255:S1 *1255:A2 2.79421e-05
32 *1270:A0 *1270:A1 0.000181796
33 *1379:A *446:24 3.10885e-05
34 *1430:A *1255:A2 1.41295e-05
35 *1472:A *446:14 5.33005e-05
36 *1487:A *446:14 5.33005e-05
37 *1556:A *446:30 1.98839e-05
38 *1578:A *1255:A2 4.58194e-05
39 *1578:A *446:24 6.72456e-05
40 *1588:A *446:24 0.000258999
41 *1592:A *446:46 9.3166e-05
42 *159:19 *446:14 0.000307657
43 *245:24 *1255:A2 0.00014124
44 *263:30 *1270:A1 0.000181796
45 *283:12 *1255:A2 0.00037295
46 *283:12 *446:28 0.000208928
47 *283:12 *446:30 5.33005e-05
48 *283:12 *446:46 8.65688e-05
49 *339:16 *1255:A2 0.000140383
50 *339:16 *446:24 0
51 *346:18 *446:62 0
52 *348:12 *1255:A2 0.0006658
53 *352:36 *446:46 9.02925e-05
54 *353:26 *446:62 0.000277297
55 *357:12 *446:62 0.00181215
56 *358:20 *446:46 0.00013331
57 *360:28 *446:24 0.000159446
58 *368:26 *446:14 0.000297596
59 *373:20 *446:46 3.32605e-05
60 *373:20 *446:62 0.000229777
61 *383:20 *446:62 0.000279019
62 *406:12 *446:24 0.000938376
63 *407:12 *446:24 0.000511668
64 *408:24 *446:24 2.45288e-05
65 *412:18 *446:62 0.000779443
66 *413:26 *1255:A2 1.00442e-05
67 *422:18 *446:28 2.59355e-05
68 *428:22 *446:30 5.52302e-05
69 *429:22 *446:14 0.000179125
70 *443:10 *446:62 0.000608949
*RES
1 *1487:X *446:14 27.7464 
2 *446:14 *446:24 47.5714 
3 *446:24 *446:28 6.67857 
4 *446:28 *446:30 0.946429 
5 *446:30 *446:46 16.1613 
6 *446:46 *446:62 42.875 
7 *446:62 *1409:A 9.3 
8 *446:46 *1270:A1 15.5679 
9 *446:30 *1262:A1 9.3 
10 *446:28 *1255:A2 41.233 
*END

*D_NET *447 0.0237049
*CONN
*I *1263:A2 I *D sky130_fd_sc_hd__mux4_1
*I *1408:A I *D sky130_fd_sc_hd__buf_1
*I *1271:A2 I *D sky130_fd_sc_hd__mux4_1
*I *1254:A2 I *D sky130_fd_sc_hd__mux4_1
*I *1488:X O *D sky130_fd_sc_hd__buf_1
*CAP
1 *1263:A2 0.000648761
2 *1408:A 0.000802947
3 *1271:A2 0.000899266
4 *1254:A2 0.000141731
5 *1488:X 0.000662285
6 *447:57 0.00269471
7 *447:47 0.00299366
8 *447:10 0.00215641
9 *1254:A2 *1252:A2 0.000142893
10 *1263:A2 *452:32 0.000414441
11 *1263:A2 *462:50 8.30915e-05
12 *1271:A2 *474:22 1.72798e-05
13 *1408:A *1617:A 0.00133678
14 *1408:A *480:20 0.000170055
15 *447:10 *460:34 0.000377165
16 *447:47 *1252:A2 0.000164319
17 *447:47 *1414:A 0.000451266
18 *447:47 *474:22 0.000104105
19 *447:57 *1261:A3 0.000381068
20 *447:57 *477:26 0.000696881
21 *447:57 *478:32 0.00164237
22 *1259:A0 *1408:A 0.000393521
23 *1267:S0 *1408:A 9.25014e-06
24 *1269:A0 *1263:A2 0.000403147
25 *1298:D *447:47 0.000308087
26 *1301:GATE *1263:A2 1.41885e-05
27 *1302:D *1254:A2 1.94879e-05
28 *1302:D *447:10 3.8284e-05
29 *1306:D *447:47 1.92789e-05
30 *1306:GATE *447:47 7.08562e-05
31 *1307:D *1263:A2 0.000258175
32 *1307:D *447:47 0.000124622
33 *1329:A *1263:A2 5.52302e-05
34 *1388:A *1271:A2 0.000125731
35 *1398:A *1263:A2 0.000301438
36 *1403:A *447:10 1.84018e-05
37 *1532:A *1408:A 0
38 *1540:A *1271:A2 7.6644e-05
39 *200:19 *1263:A2 0.000166012
40 *228:24 *1263:A2 1.74909e-05
41 *228:24 *447:47 0.000210961
42 *239:26 *1254:A2 7.24874e-05
43 *262:28 *447:10 5.65673e-05
44 *265:18 *447:10 0.00109457
45 *276:24 *1271:A2 1.00442e-05
46 *306:20 *1254:A2 2.0653e-05
47 *306:20 *447:47 0.000101772
48 *307:16 *1254:A2 0.000139856
49 *307:16 *447:47 0.000556732
50 *313:12 *1271:A2 0.000428915
51 *315:14 *1271:A2 0.000306075
52 *315:14 *1408:A 0.000209747
53 *316:18 *1271:A2 0
54 *330:18 *1271:A2 1.14548e-05
55 *331:18 *1271:A2 2.49484e-05
56 *351:16 *447:47 0.000164432
57 *356:14 *1408:A 7.53309e-05
58 *359:22 *447:47 3.45371e-05
59 *362:24 *1263:A2 1.63453e-05
60 *368:26 *447:10 4.2313e-06
61 *378:38 *447:10 2.97537e-05
62 *404:55 *1254:A2 9.22935e-06
63 *404:55 *447:10 0.000117693
64 *436:60 *447:10 0
65 *442:90 *1408:A 0.000426684
66 *445:42 *447:47 0.000180501
*RES
1 *1488:X *447:10 34.2107 
2 *447:10 *1254:A2 22.2732 
3 *447:10 *447:47 31.9196 
4 *447:47 *447:57 10.3826 
5 *447:57 *1271:A2 38.4205 
6 *447:57 *1408:A 43.6482 
7 *447:47 *1263:A2 28.425 
*END

*D_NET *448 0.0192724
*CONN
*I *1264:A2 I *D sky130_fd_sc_hd__mux4_1
*I *1407:A I *D sky130_fd_sc_hd__clkbuf_1
*I *1253:A2 I *D sky130_fd_sc_hd__mux4_1
*I *1272:A2 I *D sky130_fd_sc_hd__mux4_1
*I *1489:X O *D sky130_fd_sc_hd__buf_1
*CAP
1 *1264:A2 0
2 *1407:A 0.00063363
3 *1253:A2 0.000340331
4 *1272:A2 0
5 *1489:X 0.0016754
6 *448:76 0.000443489
7 *448:70 0.00163392
8 *448:52 0.00151692
9 *448:34 0.00229518
10 *1407:A *1277:D 2.04825e-05
11 *448:34 *454:96 0.000137561
12 *448:34 *458:26 0.000814812
13 *448:34 *470:22 9.02925e-05
14 *448:34 *480:20 0.000207231
15 *448:34 *485:34 2.83129e-05
16 *448:52 *1264:A3 1.345e-05
17 *448:70 *456:82 4.6025e-06
18 *448:76 *456:82 1.94135e-05
19 *1253:S0 *1253:A2 0.00030417
20 *1257:A1 *448:52 4.6025e-06
21 *1257:S1 *448:70 0.000234401
22 *1264:S1 *1253:A2 0.00012116
23 *1272:S0 *1253:A2 8.6229e-06
24 *1272:S1 *448:70 0
25 *1347:A *448:34 0.000135583
26 *1380:A *1253:A2 0
27 *1474:A *448:34 1.90936e-05
28 *1476:A *448:34 4.37992e-05
29 *1477:A *448:34 4.21517e-05
30 *1488:A *448:34 3.94895e-05
31 *1585:A *448:70 0.000108708
32 *1593:A *448:52 1.78064e-05
33 *231:22 *448:52 7.3101e-05
34 *231:22 *448:70 8.01839e-05
35 *241:20 *1253:A2 3.81798e-05
36 *255:26 *1407:A 0.000533369
37 *263:20 *1253:A2 8.43826e-05
38 *263:20 *448:76 0.000129779
39 *283:12 *448:70 5.33005e-05
40 *340:38 *448:34 0.000266191
41 *340:38 *448:52 0.000104999
42 *355:14 *1407:A 1.69961e-05
43 *358:20 *448:70 0.000253008
44 *368:26 *448:34 8.40933e-05
45 *369:41 *448:34 0.000168318
46 *376:28 *448:52 0.00016499
47 *382:32 *448:52 2.06112e-05
48 *384:14 *1253:A2 5.67612e-05
49 *384:14 *448:70 0.000624209
50 *384:14 *448:76 7.31692e-05
51 *387:32 *1407:A 0.000225982
52 *400:22 *1407:A 0.000780308
53 *400:53 *1407:A 0.000208349
54 *402:65 *448:70 0.000147962
55 *402:65 *448:76 4.43299e-05
56 *406:26 *448:34 2.74787e-05
57 *407:16 *448:70 0.000142121
58 *407:48 *448:70 6.60156e-05
59 *412:43 *1407:A 1.90936e-05
60 *416:34 *448:70 5.48396e-05
61 *418:22 *1407:A 0.00019616
62 *422:18 *448:52 7.36565e-05
63 *422:18 *448:70 0.000124715
64 *426:26 *448:34 0.000127643
65 *432:26 *1407:A 6.00347e-05
66 *433:34 *448:34 0.000201965
67 *433:34 *448:52 0.000224439
68 *434:24 *448:34 0.00153873
69 *436:34 *448:34 9.59532e-06
70 *442:28 *448:34 0.000308602
71 *443:16 *1407:A 0.000896677
72 *445:24 *448:34 1.34548e-05
*RES
1 *1489:X *448:34 48.1779 
2 *448:34 *448:52 18.9795 
3 *448:52 *448:70 24.433 
4 *448:70 *448:76 7.46429 
5 *448:76 *1272:A2 9.3 
6 *448:76 *1253:A2 24.7777 
7 *448:70 *1407:A 31.2072 
8 *448:52 *1264:A2 9.3 
*END

*D_NET *449 0.0121284
*CONN
*I *1265:A2 I *D sky130_fd_sc_hd__mux4_1
*I *1406:A I *D sky130_fd_sc_hd__buf_1
*I *1252:A2 I *D sky130_fd_sc_hd__mux4_1
*I *1273:A2 I *D sky130_fd_sc_hd__mux4_1
*I *1490:X O *D sky130_fd_sc_hd__clkbuf_1
*CAP
1 *1265:A2 0.000504655
2 *1406:A 0.000166217
3 *1252:A2 0.000757868
4 *1273:A2 0.00040871
5 *1490:X 0
6 *449:14 0.00129769
7 *449:12 0.0011541
8 *449:4 0.00136143
9 *1252:A2 *1252:A3 2.79421e-05
10 *1252:A2 *472:32 6.0038e-05
11 *1265:A2 *451:16 3.35685e-06
12 *1265:A2 *468:20 0.000428493
13 *1273:A2 *1420:A 0.00012356
14 *1273:A2 *467:38 0
15 *449:12 *1308:D 0.000124201
16 *449:12 *468:20 0.00030243
17 *449:14 *467:38 0
18 *1252:A1 *1252:A2 0.000121621
19 *1254:A0 *449:12 5.78968e-05
20 *1254:A0 *449:14 9.71259e-06
21 *1254:A1 *449:12 0
22 *1254:A2 *1252:A2 0.000142893
23 *1254:S0 *1406:A 0.000304587
24 *1265:A0 *1265:A2 8.10244e-05
25 *1269:S0 *1265:A2 0.000163335
26 *1286:D *1252:A2 5.49489e-05
27 *1435:A *1265:A2 0.00051015
28 *1489:A *449:12 8.6229e-06
29 *1490:A *449:12 1.8783e-05
30 *1509:A *1265:A2 8.44271e-06
31 *67:79 *449:12 3.10819e-05
32 *233:24 *1273:A2 1.73191e-05
33 *234:20 *1252:A2 0.00074611
34 *234:20 *1273:A2 3.06466e-05
35 *234:20 *449:12 0.000460938
36 *234:20 *449:14 0.000176614
37 *239:26 *1406:A 0.000133001
38 *261:30 *1265:A2 0.000234967
39 *265:18 *449:12 2.70725e-06
40 *268:20 *1252:A2 5.66157e-05
41 *276:24 *1273:A2 0.000170515
42 *276:64 *449:12 0.000210623
43 *292:84 *449:12 1.41805e-05
44 *297:26 *449:12 2.32456e-05
45 *306:20 *1252:A2 2.14658e-05
46 *307:16 *1252:A2 0.000537035
47 *365:22 *1265:A2 9.94199e-05
48 *366:22 *1265:A2 3.47641e-06
49 *367:12 *449:12 1.90181e-05
50 *379:24 *1273:A2 0.000117094
51 *429:22 *1265:A2 0
52 *444:34 *1252:A2 6.29324e-05
53 *445:24 *1265:A2 8.97632e-06
54 *445:68 *1273:A2 0.000583362
55 *447:47 *1252:A2 0.000164319
*RES
1 *1490:X *449:4 9.3 
2 *449:4 *449:12 20.5714 
3 *449:12 *449:14 2.55357 
4 *449:14 *1273:A2 24.0768 
5 *449:14 *1252:A2 40.1973 
6 *449:12 *1406:A 17.7643 
7 *449:4 *1265:A2 30.5768 
*END

*D_NET *450 0.0254177
*CONN
*I *1274:A2 I *D sky130_fd_sc_hd__mux4_1
*I *1251:A2 I *D sky130_fd_sc_hd__mux4_1
*I *1266:A2 I *D sky130_fd_sc_hd__mux4_1
*I *1405:A I *D sky130_fd_sc_hd__clkbuf_1
*I *1492:X O *D sky130_fd_sc_hd__dlymetal6s2s_1
*CAP
1 *1274:A2 9.02879e-06
2 *1251:A2 0.000143493
3 *1266:A2 0.000433183
4 *1405:A 0.000602089
5 *1492:X 0.000159359
6 *450:34 0.0015522
7 *450:28 0.000868307
8 *450:26 0.00108364
9 *450:16 0.00202016
10 *450:12 0.00131279
11 *1251:A2 *461:78 5.32956e-05
12 *1251:A2 *466:52 5.05659e-05
13 *1251:A2 *466:66 1.35503e-05
14 *1266:A2 *1266:A3 0.000353897
15 *1266:A2 *1417:A 0
16 *1266:A2 *458:40 4.46186e-06
17 *1405:A *1413:A 0.00130026
18 *1405:A *454:14 0.000195959
19 *450:16 *461:28 0.00042194
20 *450:16 *481:24 0.00109978
21 *450:16 *481:26 0.000344872
22 *450:26 *1262:A2 4.58859e-05
23 *450:26 *1274:A3 9.25014e-06
24 *450:28 *1262:A2 0.000152943
25 *450:28 *1274:A3 2.09826e-05
26 *450:28 *461:78 0.000161693
27 *450:34 *454:14 0.000312215
28 N4BEG[15] *450:26 0.00057877
29 NN4BEG[0] *450:26 0.000415233
30 NN4BEG[14] *450:16 0.000520922
31 *1262:S0 *450:26 0.000813888
32 *1262:S1 *450:26 2.92155e-05
33 *1266:S1 *1266:A2 0.000397565
34 *1270:A0 *1274:A2 1.14548e-05
35 *1274:S1 *450:28 0.000105065
36 *1292:GATE *1251:A2 1.07381e-05
37 *1403:A *450:12 0.000269978
38 *1490:A *450:12 0.00026846
39 *1510:A *1405:A 1.77009e-05
40 *1576:A *450:26 7.48404e-06
41 *1576:A *450:28 1.14166e-05
42 *1578:A *450:34 1.74352e-05
43 *1592:A *450:26 0.000110577
44 *1622:A *450:16 0.0009696
45 *67:79 *450:12 5.33005e-05
46 *245:24 *1251:A2 3.34832e-05
47 *255:26 *1251:A2 3.34687e-05
48 *336:20 *1274:A2 2.3541e-05
49 *340:38 *450:26 0.000187602
50 *347:38 *450:26 0.00116607
51 *372:16 *1405:A 0.00117217
52 *372:16 *450:34 0.000687775
53 *377:28 *1251:A2 6.38844e-06
54 *387:32 *1251:A2 9.87935e-06
55 *387:32 *450:28 5.99499e-05
56 *387:32 *450:34 9.30603e-06
57 *406:12 *450:16 0.00211043
58 *410:14 *1251:A2 2.65979e-05
59 *411:18 *450:34 0.00148464
60 *413:14 *1266:A2 1.4024e-05
61 *416:22 *1266:A2 1.66856e-05
62 *428:18 *450:16 0.00072938
63 *429:22 *450:12 5.49489e-05
64 *437:28 *450:26 6.94527e-05
65 *442:28 *450:16 0.000178847
66 *446:24 *450:16 8.43535e-06
*RES
1 *1492:X *450:12 22.6036 
2 *450:12 *450:16 43.2321 
3 *450:16 *450:26 20.2229 
4 *450:26 *450:28 4.98214 
5 *450:28 *450:34 21.5893 
6 *450:34 *1405:A 36.5679 
7 *450:34 *1266:A2 28.1661 
8 *450:28 *1251:A2 17.2152 
9 *450:26 *1274:A2 14.0366 
*END

*D_NET *451 0.0168298
*CONN
*I *1259:A2 I *D sky130_fd_sc_hd__mux4_1
*I *1267:A2 I *D sky130_fd_sc_hd__mux4_1
*I *1428:A I *D sky130_fd_sc_hd__clkbuf_1
*I *1258:A3 I *D sky130_fd_sc_hd__mux4_2
*I *1493:X O *D sky130_fd_sc_hd__buf_1
*CAP
1 *1259:A2 0.000891251
2 *1267:A2 7.19643e-05
3 *1428:A 0.000323455
4 *1258:A3 0.00077569
5 *1493:X 0.00016869
6 *451:64 0.00243126
7 *451:16 0.00163526
8 *451:10 0.00217286
9 *1258:A3 *1273:A3 1.67662e-05
10 *1258:A3 *1414:A 0.000131936
11 *1258:A3 *477:26 0.000159165
12 *1259:A2 *1259:A3 6.2116e-05
13 *1259:A2 *1612:A 0.00068858
14 *1267:A2 *467:65 3.4792e-05
15 *451:10 *460:76 0.00025516
16 *451:16 *460:76 0.000127761
17 *451:64 *452:22 0.000121612
18 *451:64 *453:18 0.000115921
19 *451:64 *456:32 0.000105339
20 *451:64 *458:26 5.49544e-05
21 FrameStrobe_O[0] *451:64 0.000181454
22 FrameStrobe_O[10] *451:64 5.71472e-05
23 FrameStrobe_O[12] *1259:A2 1.40306e-05
24 FrameStrobe_O[14] *1259:A2 2.32495e-05
25 FrameStrobe_O[14] *451:64 5.67737e-05
26 FrameStrobe_O[4] *451:64 0.000274392
27 FrameStrobe_O[6] *451:64 5.82676e-05
28 FrameStrobe_O[8] *451:64 0.000304267
29 *1258:A1 *1258:A3 2.70725e-06
30 *1258:A1 *451:16 0
31 *1258:S1 *1258:A3 0.000382138
32 *1259:S1 *1259:A2 3.47641e-06
33 *1265:A2 *451:16 3.35685e-06
34 *1265:S1 *1258:A3 9.22976e-06
35 *1265:S1 *451:16 0.00044723
36 *1271:S1 *1267:A2 0.000121165
37 *1302:D *1258:A3 0.000330083
38 *1306:GATE *1258:A3 0.000159939
39 *1392:A *1259:A2 6.98553e-06
40 *1392:A *1267:A2 1.59935e-05
41 *1396:A *1259:A2 1.40749e-05
42 *1499:A *451:64 0.000428566
43 *1508:A *451:64 0.000137437
44 *1531:A *1259:A2 2.30116e-06
45 *1532:A *1259:A2 4.05483e-05
46 *1535:A *451:64 5.49544e-05
47 *1536:A *451:64 0.000142157
48 *1540:A *451:64 5.52302e-05
49 *233:24 *1428:A 0.000265554
50 *258:18 *1258:A3 0.000143415
51 *261:30 *1258:A3 0
52 *261:30 *1428:A 6.45794e-05
53 *261:30 *451:16 0.000524193
54 *261:30 *451:64 0.000263108
55 *269:22 *1258:A3 6.14155e-05
56 *269:22 *451:16 5.8403e-05
57 *270:24 *1267:A2 9.54798e-06
58 *292:84 *1428:A 0.000599519
59 *311:14 *451:64 9.41642e-05
60 *312:14 *1267:A2 5.6946e-05
61 *328:22 *451:64 9.21933e-05
62 *359:22 *1258:A3 0
63 *366:22 *451:10 6.34166e-05
64 *366:22 *451:16 9.54798e-06
65 *404:92 *1258:A3 0.000116395
66 *404:92 *451:16 2.35994e-05
67 *404:101 *1428:A 2.79421e-05
68 *405:10 *451:16 2.76617e-05
69 *405:12 *1258:A3 0.000127061
70 *414:26 *1258:A3 4.72418e-05
71 *427:61 *1428:A 0.000469356
72 *442:57 *1258:A3 6.14836e-06
73 *445:24 *451:64 6.68971e-06
*RES
1 *1493:X *451:10 16.6036 
2 *451:10 *451:16 12.125 
3 *451:16 *1258:A3 34.1536 
4 *451:16 *1428:A 22.9786 
5 *451:10 *451:64 31.8214 
6 *451:64 *1267:A2 20.2732 
7 *451:64 *1259:A2 30.4652 
*END

*D_NET *452 0.0184679
*CONN
*I *1269:A3 I *D sky130_fd_sc_hd__mux4_1
*I *1261:A3 I *D sky130_fd_sc_hd__mux4_1
*I *1418:A I *D sky130_fd_sc_hd__clkbuf_1
*I *1494:X O *D sky130_fd_sc_hd__buf_1
*CAP
1 *1269:A3 0
2 *1261:A3 0.000113246
3 *1418:A 0.00265122
4 *1494:X 0.000661102
5 *452:32 0.00316051
6 *452:22 0.00105715
7 *1261:A3 *1261:A2 9.54798e-06
8 *1261:A3 *477:26 5.58004e-06
9 *1261:A3 *478:32 0.00043179
10 *1418:A *476:41 0.000277907
11 *1418:A *477:26 0.000362296
12 *1418:A *478:32 0.000655846
13 *452:22 *1269:A2 2.3541e-05
14 *452:22 *456:32 0.000185196
15 *452:22 *458:26 2.43739e-05
16 *452:22 *467:65 0.000190454
17 *452:32 *467:65 7.84126e-05
18 FrameStrobe_O[2] *452:22 1.90936e-05
19 FrameStrobe_O[4] *452:22 0.000184713
20 FrameStrobe_O[6] *452:22 1.3807e-05
21 *1259:S1 *452:22 0.000225808
22 *1261:S1 *1261:A3 3.43988e-06
23 *1263:A2 *452:32 0.000414441
24 *1263:S0 *1418:A 0.000117158
25 *1268:A0 *1418:A 0.000219711
26 *1269:S0 *452:32 5.54256e-05
27 *1280:D *1418:A 6.05161e-06
28 *1284:D *1418:A 1.08359e-05
29 *1301:D *1418:A 0.000192245
30 *1304:GATE *1418:A 0.000127565
31 *1306:D *1418:A 0.000724071
32 *1320:D *1418:A 0.000986654
33 *1336:A *1418:A 5.39182e-05
34 *1355:A *1418:A 6.84474e-05
35 *1395:A *1418:A 0.000129413
36 *1400:A *452:32 1.65046e-05
37 *1494:A *452:22 2.59355e-05
38 *197:21 *452:22 0.000169951
39 *200:19 *452:32 4.75345e-05
40 *228:24 *452:22 0.000143833
41 *228:24 *452:32 0.000531565
42 *263:20 *1418:A 7.44262e-05
43 *266:20 *1261:A3 2.11419e-05
44 *269:22 *1418:A 0.000106897
45 *297:48 *1418:A 0.000240308
46 *298:26 *1418:A 0.000428632
47 *327:16 *452:22 1.32429e-05
48 *346:18 *1418:A 3.06623e-05
49 *347:58 *1418:A 1.12323e-05
50 *347:64 *1418:A 9.25014e-06
51 *371:28 *1418:A 9.08241e-05
52 *375:16 *1418:A 5.10001e-05
53 *378:38 *1418:A 0.00146123
54 *400:53 *1418:A 0.000389726
55 *400:57 *1418:A 0.000285584
56 *400:117 *1418:A 4.18895e-05
57 *410:14 *1418:A 1.12406e-05
58 *425:45 *452:22 5.32112e-05
59 *432:40 *1418:A 0.000169648
60 *439:16 *1418:A 9.88049e-05
61 *447:57 *1261:A3 0.000381068
62 *451:64 *452:22 0.000121612
*RES
1 *1494:X *452:22 41.0857 
2 *452:22 *452:32 17.7761 
3 *452:32 *1418:A 45.8804 
4 *452:32 *1261:A3 18.1824 
5 *452:22 *1269:A3 9.3 
*END

*D_NET *453 0.0324653
*CONN
*I *1262:A3 I *D sky130_fd_sc_hd__mux4_1
*I *1270:A3 I *D sky130_fd_sc_hd__mux4_1
*I *1417:A I *D sky130_fd_sc_hd__buf_1
*I *1495:X O *D sky130_fd_sc_hd__buf_1
*CAP
1 *1262:A3 0.000112861
2 *1270:A3 0
3 *1417:A 0.00100069
4 *1495:X 0.000813765
5 *453:60 0.00215142
6 *453:42 0.00143064
7 *453:38 0.00161033
8 *453:24 0.00225451
9 *453:18 0.00162498
10 *1417:A *1270:A2 0.00021329
11 *1417:A *454:14 2.04825e-05
12 *1417:A *466:66 0.000451463
13 *453:18 *456:32 0.000368438
14 *453:18 *462:14 0.00016347
15 *453:18 *467:65 5.65955e-05
16 *453:24 *463:38 0.00180142
17 *453:24 *479:30 0.000259664
18 FrameStrobe_O[6] *453:18 3.19834e-05
19 N4BEG[0] *453:38 0
20 N4BEG[13] *453:38 0.000206204
21 N4BEG[1] *453:38 3.54716e-05
22 N4BEG[3] *453:38 0.00048599
23 N4BEG[5] *453:38 0.000219711
24 N4BEG[8] *453:38 1.90936e-05
25 *1248:B *1262:A3 1.21258e-05
26 *1249:A *453:60 0.00072977
27 *1249:B *1262:A3 6.68086e-05
28 *1266:A2 *1417:A 0
29 *1266:S1 *1417:A 0
30 *1273:A0 *453:18 5.25862e-06
31 *1381:A *1417:A 0.000449539
32 *1389:A *1417:A 0.000150904
33 *1399:A *453:18 0.000193878
34 *1399:A *453:24 0.000897155
35 *1499:A *453:18 0.000123959
36 *1507:A *453:18 0.0004094
37 *1508:A *453:18 0.000610734
38 *1522:A *453:18 8.46829e-05
39 *1556:A *1262:A3 0.00013238
40 *1592:A *453:38 0.00048985
41 *67:79 *453:24 0.00105723
42 *159:19 *453:24 1.40034e-05
43 *197:21 *453:18 3.09595e-05
44 *248:18 *453:42 6.71874e-05
45 *248:18 *453:60 6.30931e-05
46 *261:40 *453:18 1.77525e-05
47 *273:12 *1417:A 0
48 *310:50 *453:18 5.52238e-05
49 *322:60 *453:24 0.00106479
50 *334:16 *453:38 9.18765e-06
51 *334:16 *453:42 0.000214046
52 *334:16 *453:60 6.30931e-05
53 *340:38 *453:60 9.46127e-05
54 *345:16 *1417:A 0.00046674
55 *345:16 *453:60 0.000271662
56 *347:38 *453:60 0.00101073
57 *352:36 *453:60 2.63501e-05
58 *358:20 *453:60 0.000995444
59 *365:22 *453:38 0.000293079
60 *369:16 *453:38 0.000470081
61 *391:20 *453:38 0.000732211
62 *391:38 *453:24 0.000480309
63 *391:38 *453:38 0.000234124
64 *407:12 *453:38 0.000336462
65 *411:12 *1417:A 0.000167172
66 *411:12 *453:60 0.000130423
67 *425:45 *453:18 0.000689888
68 *441:22 *453:38 2.80481e-05
69 *441:22 *453:42 5.40783e-05
70 *445:24 *453:18 0.000309266
71 *446:24 *453:24 0.000151387
72 *446:24 *453:38 0.00219705
73 *446:46 *453:60 0.00086483
74 *451:64 *453:18 0.000115921
*RES
1 *1495:X *453:18 45.8536 
2 *453:18 *453:24 35.8571 
3 *453:24 *453:38 49.5787 
4 *453:38 *453:42 3.54464 
5 *453:42 *453:60 21.8436 
6 *453:60 *1417:A 35.5143 
7 *453:60 *1270:A3 13.8 
8 *453:42 *1262:A3 16.3893 
*END

*D_NET *454 0.0318356
*CONN
*I *1308:D I *D sky130_fd_sc_hd__dlxtp_1
*I *1340:A I *D sky130_fd_sc_hd__buf_1
*I *1276:D I *D sky130_fd_sc_hd__dlxtp_1
*I *1502:X O *D sky130_fd_sc_hd__dlymetal6s2s_1
*CAP
1 *1308:D 0.00100963
2 *1340:A 0
3 *1276:D 0.000415038
4 *1502:X 0.00183855
5 *454:96 0.0026768
6 *454:45 0.00344312
7 *454:14 0.00402954
8 *454:14 *1413:A 0.00130026
9 *454:14 *458:40 0.000552874
10 *454:14 *465:20 0.00130751
11 *454:14 *476:14 0.00250724
12 *454:45 *459:30 0.000117095
13 *454:45 *468:45 0.000412975
14 *454:45 *476:14 0.00157179
15 *454:45 *476:41 0.000191969
16 *454:45 *484:40 5.49489e-05
17 *454:96 *466:24 5.74499e-06
18 *454:96 *481:24 9.65182e-05
19 *454:96 *484:40 9.58181e-05
20 *454:96 *485:34 4.8817e-05
21 *454:96 *486:28 8.69554e-05
22 *1250:A2 *1276:D 3.52872e-05
23 *1255:S0 *1276:D 0.000115338
24 *1258:S1 *1308:D 0.00017224
25 *1266:A0 *1276:D 0.000111123
26 *1405:A *454:14 0.000195959
27 *1417:A *454:14 2.04825e-05
28 *1430:A *1276:D 0.000118698
29 *1467:A *454:96 1.72894e-05
30 *1470:A *454:96 0.000349708
31 *1476:A *454:45 1.81886e-05
32 *1477:A *454:45 1.64031e-05
33 *1484:A *454:96 9.41642e-05
34 *1488:A *454:96 6.35864e-05
35 *1489:A *454:96 0.000224802
36 *234:20 *1308:D 8.40933e-05
37 *247:43 *454:14 0.00020546
38 *265:18 *1308:D 1.41885e-05
39 *282:24 *1308:D 0.000433123
40 *292:84 *1308:D 8.6229e-06
41 *294:32 *454:96 0.000510563
42 *297:26 *1308:D 8.23185e-05
43 *297:48 *1308:D 0.000782229
44 *303:51 *454:45 8.93789e-05
45 *303:51 *454:96 6.87866e-05
46 *303:80 *1308:D 0.000155764
47 *304:18 *1308:D 9.38921e-05
48 *305:34 *454:96 0.000472275
49 *310:30 *454:45 7.20729e-05
50 *325:30 *1276:D 2.11419e-05
51 *336:57 *454:45 0.000256772
52 *338:30 *454:14 0.000208621
53 *338:30 *454:45 0.0003603
54 *345:16 *454:14 1.90936e-05
55 *347:58 *454:45 0.000600574
56 *360:28 *1276:D 6.70327e-05
57 *370:8 *454:14 0.000108594
58 *372:16 *454:14 0.000438775
59 *387:32 *454:14 9.34324e-05
60 *400:76 *454:45 2.9988e-05
61 *406:26 *454:96 0.000158278
62 *407:48 *454:45 0.000158279
63 *411:30 *454:14 0.000150054
64 *417:24 *454:14 0
65 *425:14 *454:96 6.91438e-06
66 *426:26 *454:96 0.000322115
67 *427:20 *454:96 9.71197e-05
68 *427:61 *1308:D 0.000307992
69 *429:22 *454:96 0.000560221
70 *433:34 *1276:D 0.000345118
71 *433:34 *454:45 0.000215967
72 *434:24 *454:96 3.66623e-05
73 *439:16 *454:96 2.61076e-05
74 *442:28 *454:96 6.44241e-05
75 *443:34 *1276:D 0.00021877
76 *448:34 *454:96 0.000137561
77 *449:12 *1308:D 0.000124201
78 *450:34 *454:14 0.000312215
*RES
1 *1502:X *454:14 44.0893 
2 *454:14 *1276:D 27.5046 
3 *454:14 *454:45 23.0448 
4 *454:45 *1340:A 9.3 
5 *454:45 *454:96 47.8918 
6 *454:96 *1308:D 38.2368 
*END

*D_NET *455 0.0169543
*CONN
*I *1263:A3 I *D sky130_fd_sc_hd__mux4_1
*I *1416:A I *D sky130_fd_sc_hd__clkbuf_1
*I *1271:A3 I *D sky130_fd_sc_hd__mux4_1
*I *1496:X O *D sky130_fd_sc_hd__buf_1
*CAP
1 *1263:A3 8.8427e-05
2 *1416:A 0.00111842
3 *1271:A3 0.0011524
4 *1496:X 0.000426462
5 *455:65 0.00229805
6 *455:18 0.00267006
7 *1263:A3 *462:50 4.36835e-05
8 *1271:A3 *473:22 0.000474127
9 *1416:A *1263:A1 4.81346e-05
10 *1416:A *462:50 6.54498e-05
11 *1416:A *468:20 6.34036e-05
12 *1416:A *468:22 2.83129e-05
13 *1416:A *484:40 0.000199303
14 *1416:A *486:28 0.000143078
15 *455:65 *1616:A 0.00149295
16 *455:65 *478:32 5.9843e-05
17 *455:65 *484:40 0.000436991
18 *1256:A1 *1416:A 0.00011266
19 *1259:S1 *455:18 0.000221219
20 *1269:A0 *1263:A3 0.000136887
21 *1269:A0 *1416:A 0.000624737
22 *1301:D *455:65 0.00079384
23 *1307:GATE *1271:A3 0
24 *1326:A *1416:A 2.97398e-05
25 *1353:A *1416:A 8.28647e-05
26 *1378:A *1416:A 0.000308006
27 *1388:A *1271:A3 0.00044728
28 *1394:A *1271:A3 7.54868e-05
29 *1534:A *1271:A3 0.000155816
30 *1534:A *455:18 0.00016745
31 *71:29 *1271:A3 3.92116e-05
32 *200:19 *455:18 0.000121419
33 *238:18 *1271:A3 0.000118537
34 *261:30 *455:65 6.9419e-05
35 *262:28 *1271:A3 5.37741e-06
36 *269:22 *455:65 0.000190168
37 *276:24 *1271:A3 3.30587e-05
38 *276:64 *1416:A 1.54277e-05
39 *282:24 *455:65 8.37661e-05
40 *295:30 *1416:A 2.11068e-05
41 *296:26 *1416:A 0.000178425
42 *296:26 *455:65 0.000436302
43 *297:26 *1416:A 0.000688128
44 *299:26 *1416:A 7.31843e-05
45 *301:34 *455:18 0.000138776
46 *303:80 *1416:A 1.26641e-05
47 *322:42 *1416:A 7.69414e-05
48 *327:16 *455:18 0
49 *328:22 *1271:A3 0
50 *330:18 *1271:A3 4.82865e-05
51 *336:112 *1416:A 0.000131139
52 *405:76 *1271:A3 0
53 *420:14 *1416:A 6.13772e-05
54 *423:32 *1416:A 9.41642e-05
55 *442:30 *455:65 0.000352377
*RES
1 *1496:X *455:18 21.8268 
2 *455:18 *1271:A3 42.1839 
3 *455:18 *455:65 23.3131 
4 *455:65 *1416:A 47.4613 
5 *455:65 *1263:A3 11.6214 
*END

*D_NET *456 0.0307027
*CONN
*I *1264:A3 I *D sky130_fd_sc_hd__mux4_1
*I *1272:A3 I *D sky130_fd_sc_hd__mux4_1
*I *1415:A I *D sky130_fd_sc_hd__clkbuf_1
*I *1497:X O *D sky130_fd_sc_hd__buf_1
*CAP
1 *1264:A3 0.00017436
2 *1272:A3 5.2949e-05
3 *1415:A 6.08246e-05
4 *1497:X 0.00108853
5 *456:82 0.00143896
6 *456:66 0.00227384
7 *456:54 0.0020226
8 *456:44 0.00191631
9 *456:32 0.00199935
10 *456:32 *458:26 5.68713e-05
11 *456:32 *463:18 2.95642e-05
12 *456:32 *466:24 1.90936e-05
13 *456:32 *467:65 5.0198e-05
14 *456:44 *459:24 0.00160262
15 *456:44 *463:18 5.33005e-05
16 *456:44 *463:38 0.00067504
17 FrameStrobe_O[2] *456:32 0.000128784
18 FrameStrobe_O[6] *456:32 8.44271e-06
19 NN4BEG[15] *456:44 5.28738e-05
20 NN4BEG[5] *456:54 0
21 NN4BEG[7] *456:54 2.56694e-05
22 NN4BEG[8] *456:54 0.000162986
23 *1250:B1 *456:82 0.00174625
24 *1250:B2 *456:82 0.000228558
25 *1259:S1 *456:32 0.000394042
26 *1264:S1 *1272:A3 2.11419e-05
27 *1267:A0 *456:32 0.00161201
28 *1272:S1 *456:82 1.01912e-05
29 *1300:D *456:66 0.0010146
30 *1300:GATE *456:54 4.24752e-05
31 *1300:GATE *456:66 6.25005e-05
32 *1317:D *456:66 0.000939707
33 *1332:A *456:66 0.000113877
34 *1380:A *1272:A3 1.01912e-05
35 *1380:A *456:82 6.33418e-05
36 *1398:A *456:32 5.62475e-05
37 *1431:A *456:82 3.66734e-05
38 *1433:A *456:44 3.43988e-06
39 *1493:A *456:32 0.000117913
40 *1499:A *456:32 5.52302e-05
41 *1534:A *456:32 6.87736e-05
42 *1585:A *456:82 0
43 *1592:A *456:54 2.02469e-05
44 *1602:A *456:82 0.000414918
45 *1622:A *456:32 0.00173993
46 *78:5 *456:82 4.96152e-05
47 *197:21 *456:32 6.2411e-05
48 *198:21 *456:32 0.000182149
49 *263:20 *456:82 3.69697e-05
50 *327:16 *456:32 5.85291e-05
51 *340:38 *456:66 6.2018e-05
52 *347:38 *456:54 9.71259e-06
53 *364:28 *456:82 0.000416436
54 *365:22 *456:32 0.000109316
55 *377:28 *456:44 1.39158e-05
56 *382:32 *1264:A3 0.000135028
57 *385:24 *1264:A3 0.000121555
58 *385:24 *456:54 5.65801e-06
59 *386:30 *456:66 7.96277e-05
60 *387:32 *1415:A 0.000265166
61 *396:16 *456:82 0.000355183
62 *399:26 *456:82 0.000169615
63 *400:53 *1272:A3 0.000114909
64 *400:53 *456:82 0.000143828
65 *402:65 *456:82 1.09315e-05
66 *409:20 *456:82 4.19624e-06
67 *422:18 *1264:A3 3.42301e-05
68 *423:18 *456:44 0.00100283
69 *423:18 *456:54 0.000593145
70 *424:26 *456:54 9.12363e-05
71 *424:26 *456:66 6.35864e-05
72 *429:22 *456:32 6.52495e-05
73 *430:20 *456:44 0.000102618
74 *432:26 *1272:A3 0.000120911
75 *432:26 *456:82 4.69809e-05
76 *433:34 *456:66 0.000174311
77 *434:24 *456:32 9.23226e-05
78 *437:28 *456:54 3.43622e-05
79 *440:12 *456:44 0.00216478
80 *441:22 *456:44 1.51489e-05
81 *441:22 *456:54 6.72135e-05
82 *443:16 *1415:A 0.000265166
83 *448:52 *1264:A3 1.345e-05
84 *448:70 *456:82 4.6025e-06
85 *448:76 *456:82 1.94135e-05
86 *451:64 *456:32 0.000105339
87 *452:22 *456:32 0.000185196
88 *453:18 *456:32 0.000368438
*RES
1 *1497:X *456:32 47.6383 
2 *456:32 *456:44 43.2321 
3 *456:44 *456:54 18.8929 
4 *456:54 *456:66 14.1235 
5 *456:66 *456:82 47.8961 
6 *456:82 *1415:A 11.8893 
7 *456:66 *1272:A3 17.714 
8 *456:54 *1264:A3 25.8 
*END

*D_NET *457 0.0101627
*CONN
*I *1265:A3 I *D sky130_fd_sc_hd__mux4_1
*I *1414:A I *D sky130_fd_sc_hd__buf_1
*I *1273:A3 I *D sky130_fd_sc_hd__mux4_1
*I *1498:X O *D sky130_fd_sc_hd__buf_1
*CAP
1 *1265:A3 0.000174613
2 *1414:A 0.000339188
3 *1273:A3 2.48822e-05
4 *1498:X 0.000541528
5 *457:26 0.00117561
6 *457:14 0.00152768
7 *1265:A3 *478:32 0.000238758
8 *457:14 *486:28 0.00137953
9 *457:26 *1616:A 4.51089e-05
10 *457:26 *486:28 0.000129245
11 UserCLKo *457:14 9.66977e-05
12 *1258:A0 *457:26 7.08895e-05
13 *1258:A2 *457:26 0.000547797
14 *1258:A3 *1273:A3 1.67662e-05
15 *1258:A3 *1414:A 0.000131936
16 *1263:S0 *457:26 0.000399025
17 *1263:S1 *1265:A3 6.47471e-05
18 *1265:S1 *1414:A 9.78828e-05
19 *257:20 *1273:A3 1.08413e-05
20 *262:28 *457:26 9.98011e-05
21 *266:20 *457:26 9.22109e-05
22 *269:22 *1414:A 0.000279298
23 *301:34 *457:14 0.00136781
24 *301:34 *457:26 2.63501e-05
25 *306:20 *1414:A 0.000219289
26 *327:16 *457:14 4.22135e-06
27 *354:18 *457:14 9.54798e-06
28 *405:10 *1265:A3 7.56306e-05
29 *442:30 *457:26 0.000524542
30 *447:47 *1414:A 0.000451266
*RES
1 *1498:X *457:14 20.7143 
2 *457:14 *457:26 13.003 
3 *457:26 *1273:A3 14.3804 
4 *457:26 *1414:A 22.9875 
5 *457:14 *1265:A3 21.0582 
*END

*D_NET *458 0.0303522
*CONN
*I *1274:A3 I *D sky130_fd_sc_hd__mux4_1
*I *1413:A I *D sky130_fd_sc_hd__clkbuf_1
*I *1266:A3 I *D sky130_fd_sc_hd__mux4_1
*I *1499:X O *D sky130_fd_sc_hd__dlymetal6s2s_1
*CAP
1 *1274:A3 9.99428e-05
2 *1413:A 0.00022086
3 *1266:A3 0.000370347
4 *1499:X 0.00485395
5 *458:40 0.00214487
6 *458:26 0.00650755
7 *1274:A3 *1262:A2 1.01912e-05
8 *1274:A3 *465:20 0.000177643
9 *458:26 *459:24 0.000669153
10 *458:26 *466:24 0.000571578
11 *458:26 *466:42 4.53109e-06
12 *458:26 *470:22 0.000167241
13 *458:26 *475:36 0.000163744
14 *458:40 *465:20 0.000131182
15 FrameStrobe_O[3] *458:26 2.58976e-05
16 FrameStrobe_O[5] *458:26 9.33009e-05
17 FrameStrobe_O[6] *458:26 0
18 N4BEG[4] *458:26 3.44162e-05
19 *1266:A2 *1266:A3 0.000353897
20 *1266:A2 *458:40 4.46186e-06
21 *1385:A *1266:A3 0.000322532
22 *1385:A *458:40 6.38351e-05
23 *1405:A *1413:A 0.00130026
24 *1566:A *458:26 0.000133323
25 *1592:A *1274:A3 6.14836e-06
26 *1592:A *458:26 0.000571269
27 *1592:A *458:40 0.000135907
28 *247:43 *458:40 0.000140341
29 *298:26 *458:26 0.000160526
30 *303:14 *458:40 0.000854793
31 *322:60 *458:26 0.000118986
32 *327:16 *458:26 0.000122933
33 *335:14 *458:26 9.32365e-05
34 *338:30 *458:40 0.000644636
35 *343:28 *458:26 0.000251796
36 *359:22 *458:26 0.000194846
37 *359:22 *458:40 8.11401e-05
38 *363:20 *458:26 0.000282389
39 *366:22 *458:26 0.00269692
40 *369:41 *458:26 4.59712e-05
41 *372:16 *1266:A3 5.41794e-05
42 *372:16 *458:40 4.49293e-05
43 *377:28 *458:26 0.000529571
44 *386:30 *458:26 0.000403818
45 *387:32 *458:40 8.94491e-05
46 *411:12 *458:40 0
47 *434:24 *458:26 2.41871e-05
48 *436:34 *458:26 0.000589642
49 *437:28 *458:26 6.41086e-06
50 *438:32 *458:26 0.000864305
51 *446:46 *1274:A3 8.47991e-05
52 *448:34 *458:26 0.000814812
53 *450:26 *1274:A3 9.25014e-06
54 *450:28 *1274:A3 2.09826e-05
55 *451:64 *458:26 5.49544e-05
56 *452:22 *458:26 2.43739e-05
57 *454:14 *1413:A 0.00130026
58 *454:14 *458:40 0.000552874
59 *456:32 *458:26 5.68713e-05
*RES
1 *1499:X *458:26 46.6824 
2 *458:26 *458:40 13.4722 
3 *458:40 *1266:A3 23.3357 
4 *458:40 *1413:A 26.2464 
5 *458:26 *1274:A3 21.196 
*END

*D_NET *459 0.0254766
*CONN
*I *1268:A2 I *D sky130_fd_sc_hd__mux4_1
*I *1257:A3 I *D sky130_fd_sc_hd__mux4_1
*I *1427:A I *D sky130_fd_sc_hd__clkbuf_1
*I *1260:A2 I *D sky130_fd_sc_hd__mux4_1
*I *1500:X O *D sky130_fd_sc_hd__buf_1
*CAP
1 *1268:A2 0.000287027
2 *1257:A3 0
3 *1427:A 0.000668911
4 *1260:A2 0.000184686
5 *1500:X 0.00156985
6 *459:83 0.00150883
7 *459:55 0.00182572
8 *459:30 0.00118826
9 *459:24 0.00187464
10 *1260:A2 *1260:A3 4.2855e-05
11 *1260:A2 *465:57 0.000178017
12 *1268:A2 *1268:A3 3.14048e-05
13 *1268:A2 *1422:A 0.000257102
14 *1427:A *461:78 0.000259542
15 *459:24 *463:18 0.000259542
16 *459:55 *1422:A 0.00017778
17 *459:55 *465:57 0.0002453
18 *1251:A1 *1427:A 5.33005e-05
19 *1253:A1 *459:83 8.51213e-05
20 *1257:A2 *1427:A 2.49963e-05
21 *1260:S0 *1260:A2 2.3541e-05
22 *1264:S1 *459:83 0.000222125
23 *1268:S0 *1268:A2 0.000174341
24 *1272:S0 *459:83 0.000198823
25 *1285:D *459:55 0.000285962
26 *1291:D *1427:A 7.95355e-05
27 *1328:A *459:83 0.000842786
28 *1331:A *459:83 0.000842786
29 *1332:A *459:83 0.000486513
30 *1355:A *1427:A 0.000802274
31 *1355:A *459:83 0.000212141
32 *1356:A *1268:A2 0.000195882
33 *1470:A *459:24 4.15592e-05
34 *1471:A *459:24 4.00349e-05
35 *1488:A *459:24 0.00034188
36 *1500:A *459:24 7.55747e-05
37 *1501:A *459:24 7.55747e-05
38 *1578:A *1427:A 0.000106018
39 *241:20 *459:83 8.55586e-05
40 *245:24 *1427:A 3.97677e-05
41 *248:18 *1427:A 8.91661e-05
42 *257:20 *1268:A2 7.48984e-05
43 *274:32 *459:83 0.000171451
44 *300:10 *1268:A2 6.87975e-06
45 *310:30 *459:30 0.000593291
46 *333:22 *459:24 0.000218907
47 *336:57 *1260:A2 0.000171169
48 *336:57 *459:55 0.000269761
49 *347:58 *459:30 9.9455e-05
50 *347:58 *459:55 0.00107678
51 *355:14 *1427:A 0.000158977
52 *366:22 *459:24 0.000234336
53 *377:28 *459:24 6.14836e-06
54 *378:38 *459:24 0.000176282
55 *378:38 *459:30 9.35951e-05
56 *378:38 *459:55 0.000509699
57 *403:10 *1260:A2 1.99904e-05
58 *403:26 *1260:A2 2.30116e-06
59 *411:18 *1427:A 0.000371866
60 *415:22 *1268:A2 0.000139357
61 *415:22 *459:55 4.08842e-05
62 *424:26 *1427:A 0.000107614
63 *424:26 *459:83 6.41206e-05
64 *424:32 *1427:A 0.000354944
65 *426:26 *1260:A2 1.14548e-05
66 *430:20 *459:24 0.000464893
67 *432:26 *459:83 0.000371389
68 *435:18 *1260:A2 0.000127162
69 *436:34 *459:24 0.000846859
70 *439:16 *459:83 0.000171451
71 *444:64 *459:55 8.94556e-05
72 *444:64 *459:83 5.76026e-05
73 *454:45 *459:30 0.000117095
74 *456:44 *459:24 0.00160262
75 *458:26 *459:24 0.000669153
*RES
1 *1500:X *459:24 49.0156 
2 *459:24 *459:30 8.1454 
3 *459:30 *1260:A2 19.5405 
4 *459:30 *459:55 9.98937 
5 *459:55 *459:83 42.6501 
6 *459:83 *1427:A 36.55 
7 *459:83 *1257:A3 9.3 
8 *459:55 *1268:A2 21.8635 
*END

*D_NET *460 0.0172884
*CONN
*I *1269:A2 I *D sky130_fd_sc_hd__mux4_1
*I *1261:A2 I *D sky130_fd_sc_hd__mux4_1
*I *1426:A I *D sky130_fd_sc_hd__clkbuf_1
*I *1256:A3 I *D sky130_fd_sc_hd__mux4_1
*I *1501:X O *D sky130_fd_sc_hd__buf_1
*CAP
1 *1269:A2 9.02879e-06
2 *1261:A2 0.000490489
3 *1426:A 2.51778e-05
4 *1256:A3 0.000348893
5 *1501:X 0
6 *460:76 0.00138596
7 *460:34 0.00225288
8 *460:4 0.00276525
9 *1256:A3 *464:42 0.000588909
10 *1261:A2 *484:40 3.14048e-05
11 *1269:A2 *467:65 1.14548e-05
12 *460:34 *1616:A 6.74971e-05
13 *460:34 *478:32 2.62977e-05
14 *460:34 *480:20 0.000107157
15 *460:34 *486:28 0.000698032
16 *460:76 *478:32 0.000251455
17 *460:76 *480:20 0.00113244
18 *460:76 *485:34 9.97152e-05
19 UserCLKo *1261:A2 0.000308699
20 UserCLKo *460:76 0.000102405
21 *1254:A0 *460:34 0.00036371
22 *1256:A1 *460:34 2.69989e-05
23 *1256:A2 *1256:A3 6.7848e-05
24 *1256:S1 *1256:A3 0.000104976
25 *1256:S1 *460:34 0.000125648
26 *1261:A3 *1261:A2 9.54798e-06
27 *1261:S1 *1261:A2 4.46186e-06
28 *1267:S0 *1261:A2 6.43226e-05
29 *1285:D *1256:A3 2.02193e-05
30 *1286:D *460:34 0.000515838
31 *1289:D *1256:A3 0.00010537
32 *1289:D *460:34 8.19176e-05
33 *1315:D *1261:A2 2.3541e-05
34 *1353:A *460:34 0.000566747
35 *1386:A *1261:A2 8.03354e-06
36 *1401:A *460:76 0.00017827
37 *1403:A *460:34 0.000198599
38 *1488:A *460:34 0.000140029
39 *1489:A *460:34 0.000178425
40 *1500:A *460:76 2.14658e-05
41 *1501:A *460:76 0.000224583
42 *1504:A *460:76 6.05161e-06
43 *185:23 *1261:A2 8.6229e-06
44 *185:23 *460:76 6.057e-07
45 *266:20 *1261:A2 0.000430864
46 *266:20 *460:76 4.46186e-06
47 *274:32 *1256:A3 0.000722826
48 *294:32 *460:34 0.000198803
49 *296:26 *460:76 0.000304318
50 *305:34 *460:34 4.65519e-05
51 *308:26 *460:34 6.28203e-05
52 *336:112 *460:34 0.000200466
53 *366:22 *460:76 8.44271e-06
54 *368:26 *460:34 5.77933e-05
55 *399:26 *1256:A3 0.000108779
56 *401:12 *1426:A 9.58126e-05
57 *405:10 *460:76 1.26641e-05
58 *405:55 *1261:A2 1.3425e-05
59 *408:83 *1426:A 9.58126e-05
60 *420:14 *460:34 5.05056e-05
61 *429:22 *460:34 0.000181517
62 *429:22 *460:76 5.52238e-05
63 *436:42 *460:34 0.000104754
64 *447:10 *460:34 0.000377165
65 *451:10 *460:76 0.00025516
66 *451:16 *460:76 0.000127761
67 *452:22 *1269:A2 2.3541e-05
*RES
1 *1501:X *460:4 9.3 
2 *460:4 *460:34 48.3526 
3 *460:34 *1256:A3 24.1951 
4 *460:34 *1426:A 14.7464 
5 *460:4 *460:76 22.3294 
6 *460:76 *1261:A2 33.0187 
7 *460:76 *1269:A2 14.0366 
*END

*D_NET *461 0.0295049
*CONN
*I *1262:A2 I *D sky130_fd_sc_hd__mux4_1
*I *1270:A2 I *D sky130_fd_sc_hd__mux4_1
*I *1255:A3 I *D sky130_fd_sc_hd__mux4_1
*I *1425:A I *D sky130_fd_sc_hd__clkbuf_1
*I *1503:X O *D sky130_fd_sc_hd__dlymetal6s2s_1
*CAP
1 *1262:A2 0.000370597
2 *1270:A2 0.000736869
3 *1255:A3 0
4 *1425:A 1.15165e-05
5 *1503:X 0.000150904
6 *461:78 0.00194106
7 *461:53 0.00245017
8 *461:30 0.00162809
9 *461:28 0.00244692
10 *461:10 0.00259782
11 *1270:A2 *476:14 0.000135028
12 *461:28 *463:38 0.000924431
13 *461:28 *475:36 0.000927134
14 *461:53 *1268:A3 0.0003482
15 *461:53 *1277:D 0.00126109
16 *461:78 *1277:D 0.000116395
17 *1249:B *1262:A2 1.03449e-05
18 *1251:A2 *461:78 5.32956e-05
19 *1255:A2 *461:78 0.000183582
20 *1274:A3 *1262:A2 1.01912e-05
21 *1274:S0 *1262:A2 9.65449e-05
22 *1274:S0 *461:78 5.65801e-06
23 *1284:D *461:53 0.00014285
24 *1285:D *461:28 0.00177452
25 *1314:GATE *461:78 0.000175892
26 *1339:A *1425:A 2.21972e-05
27 *1339:A *461:53 0.000122487
28 *1343:A *461:28 0.000144726
29 *1399:A *461:28 8.25996e-05
30 *1401:A *461:10 0.000344813
31 *1402:A *461:10 0.000344813
32 *1417:A *1270:A2 0.00021329
33 *1427:A *461:78 0.000259542
34 *1430:A *461:53 0.000409835
35 *1430:A *461:78 0.000208418
36 *1431:A *461:28 5.093e-05
37 *1433:A *461:28 4.73891e-05
38 *1477:A *461:28 0
39 *1481:A *461:28 4.41457e-05
40 *1509:A *461:28 0.000345257
41 *1556:A *1262:A2 1.65787e-05
42 *1578:A *461:78 5.94433e-06
43 *1622:A *461:28 0.0009696
44 *247:43 *1262:A2 9.5592e-05
45 *247:43 *461:78 8.40344e-05
46 *255:26 *1270:A2 0.000135028
47 *257:20 *461:53 8.75096e-05
48 *264:20 *461:53 9.77247e-05
49 *274:32 *461:28 8.73539e-05
50 *274:32 *461:53 1.15359e-05
51 *283:12 *461:78 0.000116395
52 *292:6 *1270:A2 0.0015233
53 *292:16 *1262:A2 5.41797e-06
54 *294:34 *461:28 0.000887042
55 *298:26 *461:28 0.000161919
56 *302:24 *461:28 0
57 *303:14 *1270:A2 2.3541e-05
58 *335:14 *1262:A2 3.96541e-05
59 *348:12 *461:53 0.000149946
60 *348:12 *461:78 6.57499e-06
61 *349:22 *461:28 4.73891e-05
62 *377:28 *461:78 9.72415e-05
63 *378:38 *461:28 3.09758e-05
64 *397:10 *461:53 0
65 *399:26 *461:28 0.000324086
66 *409:45 *461:53 6.43884e-05
67 *411:12 *1270:A2 0.000216462
68 *411:18 *461:78 0.000344232
69 *412:60 *461:53 2.22403e-05
70 *418:22 *461:28 0.000197981
71 *424:32 *461:78 0.000257619
72 *436:34 *461:28 9.8813e-05
73 *442:28 *461:28 2.18985e-05
74 *446:24 *461:28 0.000971712
75 *446:62 *1270:A2 0.000383166
76 *450:16 *461:28 0.00042194
77 *450:26 *1262:A2 4.58859e-05
78 *450:28 *1262:A2 0.000152943
79 *450:28 *461:78 0.000161693
*RES
1 *1503:X *461:10 22.9786 
2 *461:10 *461:28 49.3188 
3 *461:28 *461:30 3.41 
4 *461:30 *1425:A 14.0768 
5 *461:30 *461:53 37.1875 
6 *461:53 *1255:A3 13.8 
7 *461:53 *461:78 33.8214 
8 *461:78 *1270:A2 40.8045 
9 *461:78 *1262:A2 20.4875 
*END

*D_NET *462 0.0129956
*CONN
*I *1254:A3 I *D sky130_fd_sc_hd__mux4_1
*I *1263:A1 I *D sky130_fd_sc_hd__mux4_1
*I *1271:A1 I *D sky130_fd_sc_hd__mux4_1
*I *1424:A I *D sky130_fd_sc_hd__clkbuf_1
*I *1504:X O *D sky130_fd_sc_hd__clkbuf_1
*CAP
1 *1254:A3 0.000871062
2 *1263:A1 0.000122427
3 *1271:A1 0.00147891
4 *1424:A 0.000170437
5 *1504:X 0.000573651
6 *462:50 0.00158638
7 *462:18 0.00169558
8 *462:14 0.00121278
9 *1254:A3 *474:18 0.000600721
10 *1271:A1 *464:26 0.000113005
11 *1271:A1 *464:42 1.578e-05
12 *462:14 *467:38 0.000221137
13 *462:14 *478:32 3.43855e-05
14 *462:18 *467:38 7.14469e-05
15 *491:DIODE *1271:A1 1.58163e-05
16 *1254:S0 *1254:A3 0.000597147
17 *1258:A1 *1254:A3 0.000609507
18 *1263:A2 *462:50 8.30915e-05
19 *1263:A3 *462:50 4.36835e-05
20 *1263:S0 *1271:A1 0.00010887
21 *1265:S0 *1271:A1 1.74352e-05
22 *1269:A0 *462:50 4.6638e-06
23 *1273:A0 *1271:A1 0.000148342
24 *1273:A0 *462:14 0.00032612
25 *1273:A0 *462:18 7.14469e-05
26 *1329:A *1271:A1 9.53983e-05
27 *1361:A *1271:A1 5.65955e-05
28 *1402:A *462:14 9.20464e-06
29 *1416:A *1263:A1 4.81346e-05
30 *1416:A *462:50 6.54498e-05
31 *1429:A *1271:A1 3.10885e-05
32 *1507:A *462:14 0.000105471
33 *223:16 *1271:A1 0
34 *239:26 *1254:A3 3.25659e-05
35 *261:40 *462:14 9.39125e-05
36 *284:16 *1271:A1 0.000180517
37 *297:48 *1271:A1 0.000164481
38 *297:48 *1424:A 0.000218158
39 *304:18 *1271:A1 0.000117693
40 *327:16 *1271:A1 5.52302e-05
41 *364:10 *1271:A1 0.000331943
42 *389:12 *1271:A1 0.000329464
43 *404:55 *1254:A3 7.20217e-06
44 *438:32 *1271:A1 9.58181e-05
45 *453:18 *462:14 0.00016347
*RES
1 *1504:X *462:14 24.4607 
2 *462:14 *462:18 5.53571 
3 *462:18 *1424:A 11.8 
4 *462:18 *1271:A1 46.4429 
5 *462:14 *462:50 11.1964 
6 *462:50 *1263:A1 10.9786 
7 *462:50 *1254:A3 34.5857 
*END

*D_NET *463 0.0265759
*CONN
*I *1264:A1 I *D sky130_fd_sc_hd__mux4_1
*I *1272:A1 I *D sky130_fd_sc_hd__mux4_1
*I *1423:A I *D sky130_fd_sc_hd__clkbuf_1
*I *1253:A3 I *D sky130_fd_sc_hd__mux4_1
*I *1505:X O *D sky130_fd_sc_hd__dlymetal6s2s_1
*CAP
1 *1264:A1 0
2 *1272:A1 5.7106e-06
3 *1423:A 0.00136657
4 *1253:A3 0.000240245
5 *1505:X 0.00108715
6 *463:58 0.00176054
7 *463:56 0.00138544
8 *463:40 0.00148267
9 *463:38 0.00129098
10 *463:18 0.00212146
11 *1423:A *1277:D 0.000109039
12 *463:18 *481:26 0.000117375
13 *463:56 *465:57 0.000132304
14 Co *463:40 0.000564369
15 Co *463:56 0.000107449
16 FrameStrobe_O[2] *463:18 0.0001419
17 FrameStrobe_O[3] *463:18 0.0001419
18 *1253:A0 *1253:A3 0.00010975
19 *1253:A0 *1272:A1 2.06178e-05
20 *1253:A0 *463:58 0.000231221
21 *1253:S0 *1253:A3 7.87978e-05
22 *1253:S0 *463:58 0
23 *1272:A0 *1272:A1 6.52971e-06
24 *1272:A0 *463:58 1.97743e-05
25 *1277:GATE *1253:A3 0.000186514
26 *1277:GATE *463:58 5.38776e-05
27 *1398:A *463:18 0.00012263
28 *1399:A *463:38 0.000180496
29 *1430:A *1423:A 0.000761316
30 *1431:A *1423:A 0.00058305
31 *1465:A *463:40 0.000388525
32 *1481:A *463:38 0.000121306
33 *1482:A *463:38 0.000149797
34 *1493:A *463:18 7.43179e-05
35 *241:20 *1253:A3 9.06387e-05
36 *246:26 *463:56 8.49829e-05
37 *247:43 *1423:A 0
38 *263:30 *1423:A 0.00117079
39 *264:20 *1423:A 0.000490074
40 *322:60 *463:18 0.000675122
41 *336:57 *463:56 5.52634e-05
42 *376:28 *463:56 0.0010865
43 *392:16 *1423:A 6.30931e-05
44 *403:10 *463:40 2.83284e-06
45 *403:10 *463:56 6.19639e-06
46 *409:20 *1423:A 0.000879456
47 *416:22 *1423:A 0.000187848
48 *418:22 *1423:A 0.000103739
49 *418:22 *463:56 3.00664e-05
50 *423:18 *463:38 0.000175529
51 *425:45 *463:18 0.000107648
52 *430:20 *463:40 9.56446e-06
53 *430:28 *463:40 0.000122887
54 *440:12 *463:18 0.000382351
55 *440:12 *463:38 8.6229e-06
56 *441:22 *463:38 0.00101972
57 *444:64 *463:56 8.94491e-05
58 *446:24 *463:38 0.000846587
59 *453:24 *463:38 0.00180142
60 *456:32 *463:18 2.95642e-05
61 *456:44 *463:18 5.33005e-05
62 *456:44 *463:38 0.00067504
63 *459:24 *463:18 0.000259542
64 *461:28 *463:38 0.000924431
*RES
1 *1505:X *463:18 49.0679 
2 *463:18 *463:38 48.3214 
3 *463:38 *463:40 7.71429 
4 *463:40 *463:56 17.9041 
5 *463:56 *463:58 3.16071 
6 *463:58 *1253:A3 19.4518 
7 *463:58 *1423:A 38.7174 
8 *463:56 *1272:A1 14.0768 
9 *463:40 *1264:A1 13.8 
*END

*D_NET *464 0.0193578
*CONN
*I *1265:A1 I *D sky130_fd_sc_hd__mux4_1
*I *1273:A1 I *D sky130_fd_sc_hd__mux4_1
*I *1422:A I *D sky130_fd_sc_hd__clkbuf_1
*I *1252:A3 I *D sky130_fd_sc_hd__mux4_1
*I *1506:X O *D sky130_fd_sc_hd__buf_1
*CAP
1 *1265:A1 3.48375e-05
2 *1273:A1 0
3 *1422:A 0.00103817
4 *1252:A3 4.59241e-05
5 *1506:X 0.000314117
6 *464:42 0.00260078
7 *464:26 0.00234995
8 *464:10 0.00118222
9 *1265:A1 *467:38 4.87854e-05
10 *1422:A *1268:A3 0
11 *464:10 *467:10 0.000100478
12 *1252:A2 *1252:A3 2.79421e-05
13 *1252:S0 *464:42 8.6229e-06
14 *1253:A1 *1422:A 0.000370575
15 *1256:A3 *464:42 0.000588909
16 *1265:S0 *464:26 0.000309266
17 *1268:A2 *1422:A 0.000257102
18 *1269:A0 *464:10 8.6229e-06
19 *1269:A0 *464:26 0.000118573
20 *1269:S0 *1265:A1 4.87854e-05
21 *1271:A1 *464:26 0.000113005
22 *1271:A1 *464:42 1.578e-05
23 *1285:D *464:42 0.000476863
24 *1293:D *464:42 0.000871073
25 *1315:D *464:26 0.000721341
26 *1355:A *1422:A 0.000136676
27 *1357:A *1422:A 1.3807e-05
28 *1365:A *464:42 0.00117933
29 *1400:A *464:10 9.62495e-05
30 *1400:A *464:26 5.29812e-05
31 *1429:A *464:42 3.09726e-05
32 *1507:A *464:10 7.48091e-05
33 *67:38 *1422:A 0.000137983
34 *223:16 *464:42 3.67123e-05
35 *228:24 *464:26 0.000898034
36 *241:20 *1422:A 0.00012465
37 *246:26 *1422:A 0.000181146
38 *257:20 *464:42 4.26759e-05
39 *274:32 *464:42 0.000473486
40 *276:24 *464:42 7.69776e-06
41 *314:36 *464:42 0.00107916
42 *347:58 *1422:A 9.34324e-05
43 *351:16 *464:26 4.94195e-05
44 *352:36 *1422:A 2.00659e-05
45 *358:40 *1422:A 0.000106412
46 *362:24 *464:10 3.90622e-05
47 *376:28 *1422:A 0.00135026
48 *399:26 *464:42 0.000165039
49 *409:45 *1422:A 8.64637e-05
50 *415:22 *1422:A 5.09427e-05
51 *444:34 *1252:A3 4.58194e-05
52 *444:64 *1422:A 0.000408906
53 *445:24 *464:10 0.000123133
54 *445:32 *464:10 2.37429e-05
55 *445:32 *464:26 0.000340652
56 *445:68 *464:42 5.85347e-05
57 *459:55 *1422:A 0.00017778
*RES
1 *1506:X *464:10 19.5321 
2 *464:10 *464:26 26.0714 
3 *464:26 *464:42 23.1929 
4 *464:42 *1252:A3 14.7464 
5 *464:42 *1422:A 41.6064 
6 *464:26 *1273:A1 9.3 
7 *464:10 *1265:A1 14.7464 
*END

*D_NET *465 0.0241294
*CONN
*I *1341:A I *D sky130_fd_sc_hd__buf_1
*I *1309:D I *D sky130_fd_sc_hd__dlxtp_1
*I *1277:D I *D sky130_fd_sc_hd__dlxtp_1
*I *1510:X O *D sky130_fd_sc_hd__buf_1
*CAP
1 *1341:A 0.000115432
2 *1309:D 8.412e-05
3 *1277:D 0.00123261
4 *1510:X 0.00197096
5 *465:57 0.0023195
6 *465:20 0.00532351
7 *1309:D *484:40 1.90936e-05
8 *1341:A *484:40 0.000154078
9 *465:20 *1274:A1 3.77315e-05
10 *465:57 *1260:A3 0.000213696
11 *465:57 *468:22 0.000361476
12 *465:57 *475:36 0.000188617
13 *465:57 *477:26 9.05749e-06
14 *1249:B *465:20 0.000131884
15 *1251:A1 *1277:D 0.000479074
16 *1251:A1 *465:57 9.10896e-05
17 *1260:A2 *465:57 0.000178017
18 *1270:S1 *465:20 0
19 *1274:A3 *465:20 0.000177643
20 *1276:GATE *1277:D 3.18676e-05
21 *1277:GATE *1277:D 9.99853e-05
22 *1314:D *1277:D 0.00030866
23 *1314:D *465:57 9.78828e-05
24 *1385:A *465:20 0.000287856
25 *1407:A *1277:D 2.04825e-05
26 *1423:A *1277:D 0.000109039
27 *1592:A *465:20 4.07127e-05
28 *247:43 *1277:D 0
29 *248:18 *1277:D 4.09375e-05
30 *263:20 *1277:D 0.000116046
31 *263:30 *1277:D 0.000157399
32 *283:12 *1277:D 3.69255e-05
33 *292:16 *465:20 0.000494818
34 *292:16 *465:57 0.000260629
35 *303:14 *465:20 0.000487234
36 *303:80 *1341:A 6.30931e-05
37 *336:57 *465:57 0.000231773
38 *358:20 *465:20 0.000204732
39 *358:20 *465:57 0.000147264
40 *370:8 *465:20 0.00130558
41 *382:32 *1309:D 0.000180079
42 *391:38 *1309:D 4.85049e-06
43 *392:16 *1277:D 0.000104145
44 *400:12 *1277:D 4.45517e-05
45 *400:22 *1277:D 0.00010148
46 *406:26 *1309:D 2.06112e-05
47 *406:26 *1341:A 5.09595e-05
48 *407:48 *465:57 0.000433657
49 *409:45 *1277:D 0.000487513
50 *411:30 *1277:D 2.08808e-05
51 *412:16 *465:20 0.000325197
52 *412:43 *1277:D 0.000146294
53 *433:34 *465:57 0.000510235
54 *446:46 *465:20 0.000802965
55 *446:46 *465:57 7.17259e-05
56 *454:14 *465:20 0.00130751
57 *458:40 *465:20 0.000131182
58 *459:55 *465:57 0.0002453
59 *461:53 *1277:D 0.00126109
60 *461:78 *1277:D 0.000116395
61 *463:56 *465:57 0.000132304
*RES
1 *1510:X *465:20 41.8612 
2 *465:20 *1277:D 45.5232 
3 *465:20 *465:57 13.5048 
4 *465:57 *1309:D 15.8446 
5 *465:57 *1341:A 16.5589 
*END

*D_NET *466 0.0278319
*CONN
*I *1274:A1 I *D sky130_fd_sc_hd__mux4_1
*I *1251:A3 I *D sky130_fd_sc_hd__mux4_1
*I *1421:A I *D sky130_fd_sc_hd__buf_1
*I *1266:A1 I *D sky130_fd_sc_hd__mux4_1
*I *1507:X O *D sky130_fd_sc_hd__dlymetal6s2s_1
*CAP
1 *1274:A1 8.04165e-05
2 *1251:A3 0
3 *1421:A 0.000164764
4 *1266:A1 0
5 *1507:X 0.0016824
6 *466:66 0.0016489
7 *466:52 0.00217133
8 *466:42 0.00195596
9 *466:30 0.00293269
10 *466:24 0.00342675
11 N4BEG[8] *466:42 0.000182855
12 N4BEG[9] *466:42 0.000179209
13 *1250:B1 *466:66 0.00113202
14 *1251:A2 *466:52 5.05659e-05
15 *1251:A2 *466:66 1.35503e-05
16 *1274:S0 *466:52 2.92155e-05
17 *1274:S0 *466:66 0.000235062
18 *1381:A *466:66 0.000210633
19 *1393:A *1421:A 1.51251e-05
20 *1393:A *466:66 4.1331e-06
21 *1398:A *466:24 2.04825e-05
22 *1400:A *466:24 2.45832e-05
23 *1417:A *466:66 0.000451463
24 *1470:A *466:24 1.58163e-05
25 *1473:A *466:30 0.000608391
26 *1478:A *466:30 0.000104523
27 *1484:A *466:30 4.88638e-05
28 *1494:A *466:24 0.000271228
29 *1505:A *466:24 9.71197e-05
30 *1507:A *466:24 0.0001399
31 *1559:A *466:66 0
32 *1569:A *466:42 2.35126e-05
33 *67:79 *466:24 0.00051292
34 *159:19 *466:30 0.000414301
35 *247:43 *466:66 0
36 *248:18 *1274:A1 4.46618e-05
37 *255:26 *466:66 0
38 *322:42 *466:30 9.0145e-05
39 *333:24 *466:30 9.71278e-05
40 *334:16 *1274:A1 4.28249e-05
41 *337:12 *466:66 4.8977e-05
42 *349:22 *466:42 4.8817e-05
43 *350:18 *1421:A 0.000149911
44 *354:26 *466:30 0.000224444
45 *359:22 *466:42 0.000514381
46 *359:22 *466:52 0.000546644
47 *361:14 *466:30 0.000355341
48 *362:24 *466:24 1.14483e-05
49 *367:14 *466:30 0.00189757
50 *377:28 *466:42 0
51 *377:28 *466:52 0.000480404
52 *383:16 *466:66 8.86512e-05
53 *394:10 *466:66 0
54 *399:18 *1421:A 0.000135028
55 *409:20 *466:66 0.000937597
56 *410:14 *466:52 0.000481648
57 *410:14 *466:66 5.91129e-05
58 *416:22 *466:66 6.17008e-05
59 *417:24 *1421:A 0.000214977
60 *417:24 *466:66 3.34366e-05
61 *419:12 *466:66 0
62 *429:22 *466:24 0.000101954
63 *438:32 *466:24 0.0011263
64 *446:14 *466:24 0.000464471
65 *446:46 *1274:A1 8.69554e-05
66 *454:96 *466:24 5.74499e-06
67 *456:32 *466:24 1.90936e-05
68 *458:26 *466:24 0.000571578
69 *458:26 *466:42 4.53109e-06
70 *465:20 *1274:A1 3.77315e-05
*RES
1 *1507:X *466:24 48.8972 
2 *466:24 *466:30 48.5714 
3 *466:30 *466:42 16.3021 
4 *466:42 *466:52 9.72649 
5 *466:52 *466:66 44.6607 
6 *466:66 *1266:A1 13.8 
7 *466:66 *1421:A 18.0143 
8 *466:52 *1251:A3 13.8 
9 *466:42 *1274:A1 21.3555 
*END

*D_NET *467 0.01485
*CONN
*I *1259:A3 I *D sky130_fd_sc_hd__mux4_1
*I *1267:A3 I *D sky130_fd_sc_hd__mux4_1
*I *1420:A I *D sky130_fd_sc_hd__clkbuf_1
*I *1508:X O *D sky130_fd_sc_hd__buf_1
*CAP
1 *1259:A3 0.000537062
2 *1267:A3 0
3 *1420:A 0.000375605
4 *1508:X 5.15554e-05
5 *467:65 0.00191544
6 *467:38 0.00216783
7 *467:10 0.00322215
8 *1259:A3 *480:20 0.000643281
9 *1259:A3 *485:34 0.000280788
10 *467:38 *478:32 1.11775e-05
11 FrameStrobe_O[2] *467:65 5.49489e-05
12 *1254:A1 *467:38 0.000135789
13 *1259:A2 *1259:A3 6.2116e-05
14 *1259:S1 *1259:A3 0.000102483
15 *1259:S1 *467:65 0.000214519
16 *1263:S1 *467:38 9.58181e-05
17 *1265:A0 *467:38 9.6714e-05
18 *1265:A0 *467:65 0
19 *1265:A1 *467:38 4.87854e-05
20 *1265:S0 *467:38 0.000697334
21 *1267:A0 *1259:A3 1.87955e-05
22 *1267:A2 *467:65 3.4792e-05
23 *1269:A2 *467:65 1.14548e-05
24 *1269:S0 *467:38 0.000130329
25 *1269:S0 *467:65 8.27238e-06
26 *1273:A0 *467:38 0.000123943
27 *1273:A2 *1420:A 0.00012356
28 *1273:A2 *467:38 0
29 *1289:GATE *1420:A 9.83388e-05
30 *1290:D *1420:A 0.000185118
31 *1297:D *467:38 1.58163e-05
32 *1306:D *467:38 0.000146858
33 *1329:A *467:38 0.000177167
34 *1392:A *1259:A3 9.62115e-05
35 *1392:A *467:65 9.28019e-05
36 *1400:A *467:10 9.80415e-05
37 *1531:A *1259:A3 0.000132938
38 *1534:A *467:65 5.49489e-05
39 *197:21 *467:65 5.33005e-05
40 *198:21 *467:65 0.000391277
41 *199:19 *467:65 2.14658e-05
42 *238:18 *467:38 9.60939e-05
43 *269:22 *467:38 0.000157329
44 *276:64 *467:38 0.000257313
45 *315:14 *1259:A3 0
46 *371:28 *467:38 2.28114e-05
47 *401:12 *1420:A 0.000147642
48 *404:77 *467:38 6.28241e-05
49 *404:92 *467:38 2.22618e-05
50 *408:83 *1420:A 0.000292516
51 *442:90 *1259:A3 0.000258284
52 *445:68 *1420:A 3.53502e-05
53 *449:14 *467:38 0
54 *452:22 *467:65 0.000190454
55 *452:32 *467:65 7.84126e-05
56 *453:18 *467:65 5.65955e-05
57 *456:32 *467:65 5.0198e-05
58 *462:14 *467:38 0.000221137
59 *462:18 *467:38 7.14469e-05
60 *464:10 *467:10 0.000100478
*RES
1 *1508:X *467:10 19.6393 
2 *467:10 *467:38 49.8929 
3 *467:38 *1420:A 18.1929 
4 *467:10 *467:65 21.7143 
5 *467:65 *1267:A3 9.3 
6 *467:65 *1259:A3 32.8902 
*END

*D_NET *468 0.0165761
*CONN
*I *1419:A I *D sky130_fd_sc_hd__clkbuf_1
*I *1268:A3 I *D sky130_fd_sc_hd__mux4_1
*I *1260:A3 I *D sky130_fd_sc_hd__mux4_1
*I *1509:X O *D sky130_fd_sc_hd__buf_1
*CAP
1 *1419:A 0.000169457
2 *1268:A3 0.00108146
3 *1260:A3 0.000177747
4 *1509:X 0.000991268
5 *468:45 0.00171491
6 *468:22 0.00141878
7 *468:20 0.00176831
8 *1268:A3 *472:32 5.42764e-05
9 *468:22 *475:36 3.83766e-05
10 *468:22 *477:26 0.000479686
11 *468:22 *484:40 8.5027e-05
12 *468:45 *1278:D 0.000263533
13 *1253:A1 *1268:A3 0
14 *1257:A0 *1419:A 4.02038e-05
15 *1260:A2 *1260:A3 4.2855e-05
16 *1265:A2 *468:20 0.000428493
17 *1268:A0 *1268:A3 1.74352e-05
18 *1268:A2 *1268:A3 3.14048e-05
19 *1269:A0 *468:20 0.000207484
20 *1325:A *468:22 9.23226e-05
21 *1326:A *468:22 0.000199455
22 *1345:A *468:22 0.000613758
23 *1348:A *468:20 5.33005e-05
24 *1353:A *468:20 0.000135028
25 *1355:A *1419:A 0.000472486
26 *1356:A *1268:A3 5.42764e-05
27 *1357:A *1268:A3 0.000148298
28 *1357:A *1419:A 7.86682e-05
29 *1403:A *468:20 0.000228545
30 *1416:A *468:20 6.34036e-05
31 *1416:A *468:22 2.83129e-05
32 *1422:A *1268:A3 0
33 *1489:A *468:20 7.31843e-05
34 *1490:A *468:20 7.47122e-05
35 *257:20 *1268:A3 1.96342e-05
36 *264:20 *1268:A3 9.11048e-06
37 *265:18 *468:20 7.31339e-05
38 *295:30 *468:20 1.37494e-05
39 *296:26 *468:20 5.73804e-05
40 *297:26 *468:20 0.000824041
41 *310:30 *468:45 0.000315016
42 *322:30 *468:22 8.23941e-05
43 *336:112 *468:20 0.000181066
44 *338:30 *1260:A3 4.51187e-05
45 *338:30 *468:22 1.75792e-05
46 *346:18 *468:45 0.000170989
47 *347:58 *468:45 0.000150277
48 *358:40 *1419:A 0.000344835
49 *358:40 *468:45 0.000150061
50 *358:55 *468:45 5.00194e-05
51 *374:20 *468:20 0.000174059
52 *403:26 *1260:A3 1.94024e-05
53 *407:48 *1260:A3 1.69339e-06
54 *407:48 *1268:A3 0.000373242
55 *407:48 *1419:A 4.22135e-06
56 *409:45 *1268:A3 0
57 *415:22 *1268:A3 8.07254e-05
58 *427:20 *468:20 8.23597e-06
59 *435:18 *1419:A 7.58103e-05
60 *436:60 *468:20 0.000271904
61 *444:42 *1268:A3 9.48205e-05
62 *445:24 *468:20 2.39176e-06
63 *449:12 *468:20 0.00030243
64 *454:45 *468:45 0.000412975
65 *461:53 *1268:A3 0.0003482
66 *465:57 *1260:A3 0.000213696
67 *465:57 *468:22 0.000361476
*RES
1 *1509:X *468:20 48.7546 
2 *468:20 *468:22 2.1009 
3 *468:22 *1260:A3 18.1617 
4 *468:22 *468:45 12.0677 
5 *468:45 *1268:A3 39.7911 
6 *468:45 *1419:A 19.6304 
*END

*D_NET *469 0.00240316
*CONN
*I *1603:A I *D sky130_fd_sc_hd__buf_2
*I *1250:X O *D sky130_fd_sc_hd__a22o_1
*CAP
1 *1603:A 0.00020515
2 *1250:X 0.00020515
3 *344:30 *1603:A 0.000175761
4 *396:16 *1603:A 0.000963718
5 *412:60 *1603:A 0
6 *415:14 *1603:A 0.000844933
7 *443:34 *1603:A 8.44271e-06
*RES
1 *1250:X *1603:A 37.475 
*END

*D_NET *470 0.0198331
*CONN
*I *1604:A I *D sky130_fd_sc_hd__buf_2
*I *1325:X O *D sky130_fd_sc_hd__buf_1
*CAP
1 *1604:A 0
2 *1325:X 0.00352337
3 *470:28 0.00149954
4 *470:22 0.00502292
5 *470:22 *480:20 9.80649e-05
6 FrameStrobe_O[12] *470:22 0.000603049
7 FrameStrobe_O[15] *470:28 3.89407e-05
8 FrameStrobe_O[4] *470:22 0.000375405
9 *1259:S0 *470:28 0.000750143
10 *1347:A *470:22 2.06178e-05
11 *1373:A *470:28 9.56968e-05
12 *1374:A *470:28 0
13 *1519:A *470:28 0.00079608
14 *1530:A *470:28 0.000660057
15 *1531:A *470:28 0.000202664
16 *1575:A *470:22 0.000401167
17 *1620:A *470:28 0
18 *1622:A *470:22 0
19 *67:38 *470:22 5.6372e-05
20 *294:32 *470:22 8.77926e-05
21 *300:22 *470:28 0.000153323
22 *349:22 *470:22 0.00418469
23 *363:20 *470:22 0.000171569
24 *365:22 *470:22 0.000680113
25 *427:20 *470:22 2.22043e-05
26 *438:32 *470:22 0
27 *442:28 *470:22 0.000131756
28 *448:34 *470:22 9.02925e-05
29 *458:26 *470:22 0.000167241
*RES
1 *1325:X *470:22 38.4328 
2 *470:22 *470:28 41.4375 
3 *470:28 *1604:A 9.3 
*END

*D_NET *471 0.0169142
*CONN
*I *1605:A I *D sky130_fd_sc_hd__buf_2
*I *1335:X O *D sky130_fd_sc_hd__buf_1
*CAP
1 *1605:A 0
2 *1335:X 0.00407948
3 *471:26 0.00407948
4 *1252:A0 *471:26 0.000256773
5 *1252:A1 *471:26 0.000129523
6 *1332:A *471:26 1.90936e-05
7 *1334:A *471:26 3.18454e-05
8 *1518:A *471:26 1.26701e-05
9 *1520:A *471:26 2.07809e-05
10 *67:38 *471:26 2.83129e-05
11 *257:20 *471:26 8.82096e-05
12 *262:28 *471:26 0.000158107
13 *266:20 *471:26 0.00159223
14 *308:26 *471:26 0.00589531
15 *346:18 *471:26 9.54798e-06
16 *376:28 *471:26 4.69822e-05
17 *404:10 *471:26 0.000108103
18 *404:55 *471:26 0.000111543
19 *415:22 *471:26 0.000196313
20 *438:32 *471:26 1.09611e-05
21 *444:34 *471:26 3.89689e-05
*RES
1 *1335:X *471:26 41.3602 
2 *471:26 *1605:A 9.3 
*END

*D_NET *472 0.0212347
*CONN
*I *1606:A I *D sky130_fd_sc_hd__buf_2
*I *487:DIODE I *D sky130_fd_sc_hd__diode_2
*I *1336:X O *D sky130_fd_sc_hd__buf_1
*CAP
1 *1606:A 2.61003e-05
2 *487:DIODE 0.0016639
3 *1336:X 0.00214271
4 *472:32 0.00378052
5 *487:DIODE *474:22 0.000110906
6 *487:DIODE *482:32 0.00118321
7 *1606:A *474:22 2.89114e-05
8 *472:32 *482:32 0.0030427
9 FrameData_O[10] *487:DIODE 5.33005e-05
10 FrameData_O[1] *487:DIODE 3.88551e-05
11 FrameData_O[3] *487:DIODE 0.000140317
12 *491:DIODE *472:32 0.00019419
13 *1252:A2 *472:32 6.0038e-05
14 *1252:S1 *472:32 0.000194994
15 *1256:A2 *472:32 0.00012465
16 *1256:S1 *472:32 0.000132809
17 *1268:A3 *472:32 5.42764e-05
18 *1285:D *472:32 0.000327456
19 *1293:D *472:32 0.000700838
20 *1303:GATE *472:32 5.33005e-05
21 *1325:A *472:32 5.11566e-05
22 *1336:A *472:32 0.000152415
23 *1345:A *472:32 7.47868e-05
24 *1356:A *472:32 0.000185704
25 *1374:A *487:DIODE 0
26 *1375:A *487:DIODE 0.000341641
27 *1519:A *487:DIODE 0.00146243
28 *84:13 *472:32 0.000196128
29 *268:20 *472:32 0.000490531
30 *299:44 *487:DIODE 2.58997e-05
31 *302:24 *487:DIODE 0.000110327
32 *305:34 *487:DIODE 0.00014305
33 *305:34 *472:32 0.00259685
34 *309:32 *472:32 0.000172737
35 *344:14 *472:32 0.000160191
36 *379:24 *472:32 1.67804e-05
37 *386:30 *472:32 0.000974036
38 *399:26 *472:32 2.60831e-05
*RES
1 *1336:X *472:32 49.7189 
2 *472:32 *487:DIODE 34.7752 
3 *487:DIODE *1606:A 19.1357 
*END

*D_NET *473 0.0124262
*CONN
*I *1607:A I *D sky130_fd_sc_hd__buf_2
*I *1337:X O *D sky130_fd_sc_hd__buf_1
*CAP
1 *1607:A 0
2 *1337:X 0.00170396
3 *473:22 0.00166526
4 *473:14 0.00336922
5 *473:22 *1609:A 1.38167e-05
6 *473:22 *477:26 0.00017921
7 FrameData_O[14] *473:22 2.26866e-05
8 *1261:S1 *473:22 0.000222859
9 *1271:A3 *473:22 0.000474127
10 *1316:GATE *473:22 0.000431186
11 *1329:A *473:14 0.000143823
12 *1337:A *473:14 0.000191089
13 *1375:A *473:22 0.000624791
14 *1396:A *473:22 0.000691792
15 *1398:A *473:14 0.000109035
16 *1531:A *473:22 5.71472e-05
17 *227:14 *473:22 0.000320437
18 *238:18 *473:14 2.88018e-06
19 *238:18 *473:22 4.12893e-05
20 *276:64 *473:14 0.000395426
21 *282:24 *473:14 6.50032e-05
22 *304:28 *473:22 6.46769e-05
23 *333:22 *473:14 0.000188519
24 *371:28 *473:14 7.43174e-05
25 *404:77 *473:14 1.54142e-05
26 *404:92 *473:14 0.000219289
27 *404:143 *473:14 0.000115618
28 *405:36 *473:14 0.000929171
29 *405:49 *473:14 9.41642e-05
*RES
1 *1337:X *473:14 44.425 
2 *473:14 *473:22 42.6786 
3 *473:22 *1607:A 9.3 
*END

*D_NET *474 0.0137809
*CONN
*I *1608:A I *D sky130_fd_sc_hd__buf_2
*I *1338:X O *D sky130_fd_sc_hd__buf_1
*CAP
1 *1608:A 4.24076e-05
2 *1338:X 0.000740087
3 *474:22 0.00378572
4 *474:18 0.00448339
5 *487:DIODE *474:22 0.000110906
6 *1254:A3 *474:18 0.000600721
7 *1254:S0 *474:18 0.000306921
8 *1258:A1 *474:18 4.21525e-05
9 *1271:A2 *474:22 1.72798e-05
10 *1305:D *474:18 0.000308562
11 *1306:D *474:22 2.59355e-05
12 *1306:GATE *474:22 9.0145e-05
13 *1337:A *474:18 0.000859417
14 *1338:A *474:18 2.06178e-05
15 *1369:A *474:22 4.7812e-05
16 *1374:A *474:22 0.000245832
17 *1398:A *474:18 4.96884e-05
18 *1606:A *474:22 2.89114e-05
19 *71:29 *474:22 0.000163449
20 *77:19 *1608:A 0.000125724
21 *269:22 *474:18 0.000139765
22 *304:28 *1608:A 0.000125724
23 *306:30 *474:18 5.31113e-05
24 *308:26 *474:22 0.000182899
25 *313:12 *474:22 1.65169e-05
26 *328:22 *474:22 0.000699018
27 *414:26 *474:18 0
28 *429:22 *474:18 0.000295431
29 *445:42 *474:22 6.86693e-05
30 *447:47 *474:22 0.000104105
*RES
1 *1338:X *474:18 46.0321 
2 *474:18 *474:22 49.8036 
3 *474:22 *1608:A 15.4429 
*END

*D_NET *475 0.0240928
*CONN
*I *1609:A I *D sky130_fd_sc_hd__buf_2
*I *1339:X O *D sky130_fd_sc_hd__buf_1
*CAP
1 *1609:A 0.000572328
2 *1339:X 0.00540395
3 *475:36 0.00597628
4 *1609:A *477:26 0.000889395
5 *1609:A *478:32 0.000812248
6 *475:36 *477:26 0.000132509
7 *475:36 *483:36 1.73302e-05
8 *1343:A *475:36 0.000119923
9 *1400:A *475:36 0.000799569
10 *1490:A *475:36 0.000194791
11 *1569:A *475:36 8.94556e-05
12 *231:22 *475:36 2.84026e-05
13 *298:26 *475:36 0.00601298
14 *304:28 *1609:A 0
15 *336:57 *475:36 1.44144e-05
16 *349:22 *475:36 0.00159165
17 *356:14 *475:36 4.09573e-05
18 *439:16 *475:36 6.49721e-05
19 *458:26 *475:36 0.000163744
20 *461:28 *475:36 0.000927134
21 *465:57 *475:36 0.000188617
22 *468:22 *475:36 3.83766e-05
23 *473:22 *1609:A 1.38167e-05
*RES
1 *1339:X *475:36 49.77 
2 *475:36 *1609:A 21.2344 
*END

*D_NET *476 0.0214448
*CONN
*I *1342:A I *D sky130_fd_sc_hd__buf_1
*I *1310:D I *D sky130_fd_sc_hd__dlxtp_1
*I *1278:D I *D sky130_fd_sc_hd__dlxtp_1
*I *1511:X O *D sky130_fd_sc_hd__buf_1
*CAP
1 *1342:A 0.000266906
2 *1310:D 2.0119e-05
3 *1278:D 0.00107737
4 *1511:X 0.0037527
5 *476:41 0.000652972
6 *476:14 0.00519601
7 *1342:A *483:36 1.33343e-05
8 *1260:S0 *1342:A 0.000327116
9 *1260:S0 *476:41 1.90936e-05
10 *1270:A2 *476:14 0.000135028
11 *1285:D *1278:D 0
12 *1288:D *1342:A 1.33343e-05
13 *1328:A *1342:A 0.000146336
14 *1358:A *1310:D 5.49489e-05
15 *1418:A *476:41 0.000277907
16 *1431:A *1278:D 2.01997e-05
17 *264:20 *1278:D 5.41143e-05
18 *273:12 *476:14 0.000152515
19 *292:6 *476:14 0.00102339
20 *298:26 *476:41 7.81329e-05
21 *345:16 *476:14 0.000154421
22 *346:18 *476:14 0.000108
23 *347:58 *1278:D 9.35951e-05
24 *360:28 *476:14 0.000999694
25 *377:28 *476:14 0.000907719
26 *378:38 *476:41 0.000214436
27 *380:45 *476:41 3.30053e-05
28 *393:16 *1278:D 1.92905e-05
29 *399:26 *1278:D 2.98193e-05
30 *400:76 *476:41 2.60616e-05
31 *401:28 *1278:D 0.000141729
32 *403:54 *1310:D 1.58163e-05
33 *406:26 *1342:A 3.16801e-05
34 *406:39 *1342:A 0.000173707
35 *409:45 *1342:A 0.00037333
36 *409:45 *476:41 2.06178e-05
37 *410:14 *476:14 0.000174223
38 *410:14 *476:41 4.58669e-05
39 *415:22 *1278:D 6.57603e-05
40 *417:24 *476:14 0
41 *454:14 *476:14 0.00250724
42 *454:45 *476:14 0.00157179
43 *454:45 *476:41 0.000191969
44 *468:45 *1278:D 0.000263533
*RES
1 *1511:X *476:14 45.5941 
2 *476:14 *1278:D 28.3187 
3 *476:14 *476:41 4.77875 
4 *476:41 *1310:D 14.3357 
5 *476:41 *1342:A 21.4964 
*END

*D_NET *477 0.0200416
*CONN
*I *1610:A I *D sky130_fd_sc_hd__buf_2
*I *493:DIODE I *D sky130_fd_sc_hd__diode_2
*I *1340:X O *D sky130_fd_sc_hd__buf_1
*CAP
1 *1610:A 6.71219e-05
2 *493:DIODE 0
3 *1340:X 0.00433835
4 *477:26 0.00440547
5 *477:26 *478:32 2.54979e-05
6 *477:26 *484:40 0.000305335
7 FrameData_O[14] *477:26 3.87074e-05
8 *1258:A3 *477:26 0.000159165
9 *1261:A3 *477:26 5.58004e-06
10 *1263:S0 *477:26 0.000609355
11 *1302:D *477:26 4.67222e-05
12 *1306:D *477:26 0.000177644
13 *1320:D *477:26 0.000992793
14 *1325:A *477:26 0.000151632
15 *1327:A *477:26 0.000245112
16 *1375:A *477:26 0.00012864
17 *1418:A *477:26 0.000362296
18 *1609:A *477:26 0.000889395
19 *67:38 *477:26 0.000650228
20 *270:24 *477:26 1.63116e-05
21 *302:24 *477:26 0.000359848
22 *304:28 *477:26 1.94945e-05
23 *308:26 *477:26 0
24 *346:18 *477:26 0.000303084
25 *371:28 *477:26 0.00019013
26 *432:40 *477:26 0.00144647
27 *433:34 *477:26 3.87263e-06
28 *439:16 *477:26 0.000243056
29 *442:57 *477:26 0.00236298
30 *447:57 *477:26 0.000696881
31 *465:57 *477:26 9.05749e-06
32 *468:22 *477:26 0.000479686
33 *473:22 *477:26 0.00017921
34 *475:36 *477:26 0.000132509
*RES
1 *1340:X *477:26 49.3786 
2 *477:26 *493:DIODE 9.3 
3 *477:26 *1610:A 10.2464 
*END

*D_NET *478 0.0188656
*CONN
*I *1611:A I *D sky130_fd_sc_hd__buf_2
*I *1341:X O *D sky130_fd_sc_hd__buf_1
*CAP
1 *1611:A 2.3036e-05
2 *1341:X 0.00408563
3 *478:32 0.00410867
4 *1611:A *1612:A 4.51632e-05
5 *478:32 *1616:A 0.000678425
6 *478:32 *480:20 0.000315054
7 *478:32 *483:36 0.000150546
8 *478:32 *484:40 0.00033222
9 *1252:A0 *478:32 4.65519e-05
10 *1258:S1 *478:32 0.000107382
11 *1261:A3 *478:32 0.00043179
12 *1263:S1 *478:32 2.52782e-05
13 *1265:A3 *478:32 0.000238758
14 *1265:S0 *478:32 0.000471494
15 *1309:GATE *478:32 4.56393e-05
16 *1325:A *478:32 1.34836e-05
17 *1327:A *478:32 0.000135028
18 *1338:A *478:32 9.23226e-05
19 *1418:A *478:32 0.000655846
20 *1609:A *478:32 0.000812248
21 *269:22 *478:32 0.0011809
22 *296:26 *478:32 0.00140019
23 *301:34 *478:32 9.67517e-05
24 *303:80 *478:32 7.31414e-05
25 *305:34 *478:32 0.000732862
26 *391:38 *478:32 7.01639e-05
27 *405:10 *478:32 2.76577e-05
28 *423:18 *478:32 4.1718e-05
29 *433:34 *478:32 0.000376597
30 *447:57 *478:32 0.00164237
31 *455:65 *478:32 5.9843e-05
32 *460:34 *478:32 2.62977e-05
33 *460:76 *478:32 0.000251455
34 *462:14 *478:32 3.43855e-05
35 *467:38 *478:32 1.11775e-05
36 *477:26 *478:32 2.54979e-05
*RES
1 *1341:X *478:32 48.1122 
2 *478:32 *1611:A 17.7904 
*END

*D_NET *479 0.0208824
*CONN
*I *1612:A I *D sky130_fd_sc_hd__buf_2
*I *1342:X O *D sky130_fd_sc_hd__buf_1
*CAP
1 *1612:A 0.00112401
2 *1342:X 0.00073324
3 *479:36 0.00263878
4 *479:30 0.00205709
5 *479:26 0.00127556
6 *1612:A *1614:A 0.000182407
7 *1612:A *1616:A 0.0001573
8 *1612:A *486:28 0.000331816
9 *479:26 *480:20 9.54798e-06
10 *479:26 *484:40 0.000226371
11 FrameData_O[16] *1612:A 5.17614e-05
12 FrameData_O[18] *1612:A 2.22043e-05
13 FrameData_O[23] *1612:A 0.000117421
14 FrameStrobe_O[12] *479:36 0
15 FrameStrobe_O[15] *479:36 0
16 FrameStrobe_O[19] *479:36 0.000461423
17 *1259:A2 *1612:A 0.00068858
18 *1267:A0 *479:36 5.82094e-05
19 *1327:A *479:26 9.23451e-05
20 *1343:A *479:26 0.000146266
21 *1404:A *479:30 0.000474832
22 *1466:A *479:26 0.000418876
23 *1467:A *479:30 0.0001399
24 *1468:A *479:26 4.07675e-05
25 *1472:A *479:30 0.000478619
26 *1485:A *479:30 7.95355e-05
27 *1514:A *479:36 6.09762e-05
28 *1611:A *1612:A 4.51632e-05
29 *1620:A *1612:A 0.00048572
30 *1624:A *1612:A 0
31 *1625:A *1612:A 5.33005e-05
32 *67:79 *479:26 4.15592e-05
33 *67:79 *479:30 0.00105765
34 *77:19 *1612:A 0
35 *159:19 *479:30 0.000120993
36 *198:21 *479:36 2.61099e-05
37 *199:19 *479:36 0.0014348
38 *293:14 *479:30 0.000104431
39 *293:14 *479:36 0.00337066
40 *294:34 *479:36 0
41 *304:28 *1612:A 8.12049e-05
42 *315:14 *479:36 0
43 *316:18 *1612:A 0.000139907
44 *322:60 *479:30 0.000260152
45 *322:60 *479:36 0.000396535
46 *336:112 *479:26 0.000126158
47 *374:20 *479:26 0.000185124
48 *391:38 *479:26 0.000104833
49 *406:26 *479:26 1.76955e-05
50 *406:39 *479:26 0.000186765
51 *423:18 *479:26 0.000288858
52 *425:14 *479:26 2.72337e-05
53 *453:24 *479:30 0.000259664
*RES
1 *1342:X *479:26 44.6214 
2 *479:26 *479:30 18.5179 
3 *479:30 *479:36 47.0179 
4 *479:36 *1612:A 49.0143 
*END

*D_NET *480 0.0179509
*CONN
*I *1613:A I *D sky130_fd_sc_hd__buf_2
*I *1343:X O *D sky130_fd_sc_hd__buf_1
*CAP
1 *1613:A 0
2 *1343:X 0.00371864
3 *480:20 0.00371864
4 *480:20 *485:34 0.00333369
5 FrameStrobe_O[17] *480:20 5.58754e-05
6 FrameStrobe_O[2] *480:20 0.00013639
7 *1259:A3 *480:20 0.000643281
8 *1267:A0 *480:20 0.00112139
9 *1330:A *480:20 4.70487e-05
10 *1338:A *480:20 8.94491e-05
11 *1408:A *480:20 0.000170055
12 *1622:A *480:20 0.000159261
13 *1624:A *480:20 0.000407569
14 *77:19 *480:20 0.000269378
15 *296:26 *480:20 0.000212547
16 *303:80 *480:20 0.000775421
17 *304:28 *480:20 0.000118321
18 *305:34 *480:20 0.000213314
19 *329:28 *480:20 0.000265987
20 *340:38 *480:20 0.000160557
21 *343:28 *480:20 8.94491e-05
22 *356:14 *480:20 7.5052e-05
23 *391:38 *480:20 6.46173e-05
24 *423:18 *480:20 2.45634e-05
25 *433:34 *480:20 0.000210879
26 *448:34 *480:20 0.000207231
27 *460:34 *480:20 0.000107157
28 *460:76 *480:20 0.00113244
29 *470:22 *480:20 9.80649e-05
30 *478:32 *480:20 0.000315054
31 *479:26 *480:20 9.54798e-06
*RES
1 *1343:X *480:20 46.6938 
2 *480:20 *1613:A 9.3 
*END

*D_NET *481 0.0183532
*CONN
*I *1614:A I *D sky130_fd_sc_hd__buf_2
*I *1344:X O *D sky130_fd_sc_hd__buf_1
*CAP
1 *1614:A 0.000870427
2 *1344:X 0.000708818
3 *481:26 0.00296643
4 *481:24 0.00280482
5 *1614:A *486:28 7.6612e-06
6 FrameData_O[19] *1614:A 1.31516e-05
7 FrameData_O[20] *1614:A 0
8 FrameData_O[21] *1614:A 4.86429e-05
9 FrameData_O[22] *1614:A 8.50795e-06
10 FrameData_O[23] *1614:A 0.00011294
11 FrameData_O[25] *1614:A 1.34792e-05
12 FrameData_O[27] *1614:A 0.00016065
13 FrameData_O[28] *1614:A 0
14 FrameData_O[29] *1614:A 0
15 FrameStrobe_O[10] *481:26 0.0001243
16 FrameStrobe_O[15] *481:26 7.3475e-05
17 *495:DIODE *1614:A 0.000151972
18 *1477:A *481:24 0.000244136
19 *1612:A *1614:A 0.000182407
20 *77:19 *1614:A 3.34295e-05
21 *261:40 *481:26 0.00235145
22 *294:34 *1614:A 3.28963e-05
23 *294:34 *481:26 0.000669849
24 *322:60 *481:26 6.13757e-06
25 *336:112 *481:24 0.00013833
26 *378:38 *481:24 0.000181147
27 *406:26 *481:24 3.83673e-05
28 *425:14 *481:24 5.36e-05
29 *425:14 *481:26 0.00117561
30 *425:45 *481:26 0.00133485
31 *426:26 *481:24 0.000140933
32 *428:18 *481:24 0.000971712
33 *438:32 *481:24 2.95076e-06
34 *439:16 *481:24 9.54301e-05
35 *442:28 *481:26 0.00097618
36 *450:16 *481:24 0.00109978
37 *450:16 *481:26 0.000344872
38 *454:96 *481:24 9.65182e-05
39 *463:18 *481:26 0.000117375
*RES
1 *1344:X *481:24 46.6571 
2 *481:24 *481:26 57.4196 
3 *481:26 *1614:A 35.9875 
*END

*D_NET *482 0.0177847
*CONN
*I *1615:A I *D sky130_fd_sc_hd__buf_2
*I *494:DIODE I *D sky130_fd_sc_hd__diode_2
*I *1326:X O *D sky130_fd_sc_hd__buf_1
*CAP
1 *1615:A 2.52229e-05
2 *494:DIODE 2.52229e-05
3 *1326:X 0.00346781
4 *482:32 0.00346781
5 *482:32 *483:36 0.000244616
6 *482:32 *486:28 3.32346e-05
7 *487:DIODE *482:32 0.00118321
8 *1254:A0 *482:32 0.000274301
9 *1330:A *482:32 0.000544738
10 *1348:A *482:32 0
11 *1374:A *482:32 1.01912e-05
12 *1515:A *1615:A 5.52238e-05
13 *1519:A *482:32 0.000722194
14 *295:30 *482:32 5.33005e-05
15 *301:34 *482:32 0.0005491
16 *305:34 *482:32 0.00248011
17 *314:36 *482:32 0.000105136
18 *347:64 *482:32 0.000160191
19 *351:16 *482:32 7.00189e-05
20 *364:12 *482:32 0.000274338
21 *379:24 *482:32 0.000221194
22 *408:83 *482:32 1.15246e-05
23 *420:30 *482:32 5.11388e-05
24 *427:20 *482:32 0.000107813
25 *444:34 *482:32 0.000604349
26 *472:32 *482:32 0.0030427
*RES
1 *1326:X *482:32 47.3691 
2 *482:32 *494:DIODE 9.3 
3 *494:DIODE *1615:A 19.1357 
*END

*D_NET *483 0.0210545
*CONN
*I *1616:A I *D sky130_fd_sc_hd__buf_2
*I *1345:X O *D sky130_fd_sc_hd__buf_1
*CAP
1 *1616:A 0.00322555
2 *1345:X 0.00193026
3 *483:36 0.00515581
4 *1616:A *486:28 0.00106362
5 *483:36 *486:28 8.69554e-05
6 *1252:A0 *483:36 0.000193671
7 *1254:A0 *1616:A 8.96293e-05
8 *1260:S0 *483:36 0.000283369
9 *1263:S0 *1616:A 0.000135743
10 *1288:D *483:36 0.000176532
11 *1288:GATE *483:36 9.54798e-06
12 *1301:D *1616:A 1.82205e-05
13 *1325:A *483:36 2.98245e-05
14 *1326:A *483:36 0.000214712
15 *1328:A *483:36 6.25005e-05
16 *1330:A *483:36 0.000514037
17 *1339:A *483:36 0.000116971
18 *1342:A *483:36 1.33343e-05
19 *1612:A *1616:A 0.0001573
20 *1624:A *1616:A 0
21 *67:38 *483:36 0
22 *282:24 *1616:A 0.000279536
23 *292:43 *483:36 9.23226e-05
24 *292:84 *483:36 8.92267e-05
25 *294:32 *1616:A 0.000396987
26 *301:34 *1616:A 0.00314234
27 *301:34 *483:36 3.99657e-05
28 *302:24 *483:36 2.35126e-05
29 *304:28 *1616:A 0.000111454
30 *322:30 *483:36 0.000493573
31 *374:20 *483:36 9.35794e-06
32 *380:45 *483:36 6.33545e-05
33 *420:30 *483:36 2.05803e-05
34 *439:16 *483:36 2.50022e-05
35 *444:34 *483:36 9.32498e-05
36 *455:65 *1616:A 0.00149295
37 *457:26 *1616:A 4.51089e-05
38 *460:34 *1616:A 6.74971e-05
39 *475:36 *483:36 1.73302e-05
40 *478:32 *1616:A 0.000678425
41 *478:32 *483:36 0.000150546
42 *482:32 *483:36 0.000244616
*RES
1 *1345:X *483:36 44.4318 
2 *483:36 *1616:A 29.3364 
*END

*D_NET *484 0.0180014
*CONN
*I *1617:A I *D sky130_fd_sc_hd__buf_2
*I *1346:X O *D sky130_fd_sc_hd__buf_1
*CAP
1 *1617:A 0.00154469
2 *1346:X 0.00264649
3 *484:40 0.00419118
4 *484:40 *486:28 0.00087219
5 FrameData_O[20] *1617:A 0.00010946
6 UserCLKo *1617:A 8.08521e-05
7 UserCLKo *484:40 1.67149e-05
8 *1252:A0 *484:40 4.86178e-05
9 *1256:A1 *484:40 0.000416745
10 *1259:A0 *1617:A 1.54142e-05
11 *1261:A2 *484:40 3.14048e-05
12 *1267:S0 *1617:A 0.00143832
13 *1301:D *484:40 3.14048e-05
14 *1309:D *484:40 1.90936e-05
15 *1325:A *484:40 8.94491e-05
16 *1327:A *484:40 3.97677e-05
17 *1341:A *484:40 0.000154078
18 *1343:A *484:40 5.91272e-05
19 *1346:A *484:40 6.69614e-05
20 *1397:A *1617:A 0.000305618
21 *1398:A *484:40 0.00106198
22 *1408:A *1617:A 0.00133678
23 *1416:A *484:40 0.000199303
24 *200:19 *484:40 2.06112e-05
25 *228:24 *484:40 0.00020546
26 *296:26 *484:40 0.000938497
27 *303:51 *484:40 1.64621e-05
28 *303:80 *484:40 9.41642e-05
29 *336:112 *484:40 0.000289041
30 *354:18 *484:40 1.90936e-05
31 *406:26 *484:40 4.43927e-05
32 *433:34 *484:40 6.1357e-05
33 *454:45 *484:40 5.49489e-05
34 *454:96 *484:40 9.58181e-05
35 *455:65 *484:40 0.000436991
36 *468:22 *484:40 8.5027e-05
37 *477:26 *484:40 0.000305335
38 *478:32 *484:40 0.00033222
39 *479:26 *484:40 0.000226371
*RES
1 *1346:X *484:40 43.9061 
2 *484:40 *1617:A 43.2821 
*END

*D_NET *485 0.016944
*CONN
*I *1618:A I *D sky130_fd_sc_hd__buf_2
*I *1347:X O *D sky130_fd_sc_hd__buf_1
*CAP
1 *1618:A 0.000437164
2 *1347:X 0.0028158
3 *485:34 0.00325297
4 FrameData_O[28] *1618:A 2.55587e-05
5 FrameStrobe_O[2] *485:34 0.000255115
6 UserCLKo *485:34 1.84099e-05
7 *1259:A3 *485:34 0.000280788
8 *1267:A0 *485:34 0.00143266
9 *1392:A *1618:A 0.000346472
10 *1396:A *1618:A 0.000193637
11 *1474:A *485:34 4.04359e-05
12 *1532:A *485:34 4.43299e-05
13 *1624:A *1618:A 0.000226867
14 *159:19 *485:34 6.31068e-05
15 *185:23 *485:34 8.3907e-05
16 *296:26 *485:34 0.00276527
17 *310:50 *485:34 4.00349e-05
18 *356:14 *1618:A 5.52238e-05
19 *368:26 *485:34 0.00011997
20 *431:10 *485:34 0.000117956
21 *433:34 *485:34 1.74352e-05
22 *434:24 *485:34 0.000606135
23 *436:34 *485:34 7.61903e-05
24 *442:90 *485:34 0.000118028
25 *448:34 *485:34 2.83129e-05
26 *454:96 *485:34 4.8817e-05
27 *460:76 *485:34 9.97152e-05
28 *480:20 *485:34 0.00333369
*RES
1 *1347:X *485:34 45.5959 
2 *485:34 *1618:A 23.425 
*END

*D_NET *486 0.0162093
*CONN
*I *1619:A I *D sky130_fd_sc_hd__buf_2
*I *1348:X O *D sky130_fd_sc_hd__buf_1
*CAP
1 *1619:A 0
2 *1348:X 0.00393151
3 *486:28 0.00393151
4 *1254:A0 *486:28 4.47514e-05
5 *1256:A1 *486:28 3.23958e-05
6 *1259:S1 *486:28 0.000296256
7 *1263:S0 *486:28 6.82287e-05
8 *1326:A *486:28 6.42122e-06
9 *1348:A *486:28 1.90936e-05
10 *1398:A *486:28 0.00106512
11 *1416:A *486:28 0.000143078
12 *1612:A *486:28 0.000331816
13 *1614:A *486:28 7.6612e-06
14 *1616:A *486:28 0.00106362
15 *1624:A *486:28 0
16 *282:24 *486:28 0.0001337
17 *294:32 *486:28 4.51786e-05
18 *296:26 *486:28 0.000445788
19 *301:34 *486:28 0.000618017
20 *354:18 *486:28 0.000519822
21 *444:34 *486:28 0.00021924
22 *454:96 *486:28 8.69554e-05
23 *457:14 *486:28 0.00137953
24 *457:26 *486:28 0.000129245
25 *460:34 *486:28 0.000698032
26 *482:32 *486:28 3.32346e-05
27 *483:36 *486:28 8.69554e-05
28 *484:40 *486:28 0.00087219
*RES
1 *1348:X *486:28 43.1233 
2 *486:28 *1619:A 9.3 
*END
